<?xml version="1.0"?> 
<VTKFile type="UnstructuredGrid"> 
   <UnstructuredGrid> 
      <Piece NumberOfPoints="6000"  NumberOfCells="1500">  
          <Points>  
             <DataArray type="Float64" NumberOfComponents="3" format="ascii">   
-500.0   0.0   0.0
-450.0   0.0   0.0
-500.0   30.0   0.0
-500.0   0.0   16.666666666666668
-450.0   0.0   0.0
-450.0   30.0   0.0
-500.0   30.0   0.0
-450.0   30.0   16.666666666666668
-500.0   0.0   16.666666666666668
-500.0   30.0   16.666666666666668
-450.0   30.0   16.666666666666668
-500.0   30.0   0.0
-500.0   0.0   16.666666666666668
-450.0   30.0   16.666666666666668
-450.0   0.0   16.666666666666668
-450.0   0.0   0.0
-500.0   0.0   16.666666666666668
-450.0   30.0   16.666666666666668
-450.0   0.0   0.0
-500.0   30.0   0.0
-500.0   0.0   16.666666666666668
-450.0   0.0   16.666666666666668
-500.0   30.0   16.666666666666668
-500.0   0.0   33.333333333333336
-450.0   0.0   16.666666666666668
-450.0   30.0   16.666666666666668
-500.0   30.0   16.666666666666668
-450.0   30.0   33.333333333333336
-500.0   0.0   33.333333333333336
-500.0   30.0   33.333333333333336
-450.0   30.0   33.333333333333336
-500.0   30.0   16.666666666666668
-500.0   0.0   33.333333333333336
-450.0   30.0   33.333333333333336
-450.0   0.0   33.333333333333336
-450.0   0.0   16.666666666666668
-500.0   0.0   33.333333333333336
-450.0   30.0   33.333333333333336
-450.0   0.0   16.666666666666668
-500.0   30.0   16.666666666666668
-500.0   0.0   33.333333333333336
-450.0   0.0   33.333333333333336
-500.0   30.0   33.333333333333336
-500.0   0.0   50.0
-450.0   0.0   33.333333333333336
-450.0   30.0   33.333333333333336
-500.0   30.0   33.333333333333336
-450.0   30.0   50.0
-500.0   0.0   50.0
-500.0   30.0   50.0
-450.0   30.0   50.0
-500.0   30.0   33.333333333333336
-500.0   0.0   50.0
-450.0   30.0   50.0
-450.0   0.0   50.0
-450.0   0.0   33.333333333333336
-500.0   0.0   50.0
-450.0   30.0   50.0
-450.0   0.0   33.333333333333336
-500.0   30.0   33.333333333333336
-500.0   30.0   0.0
-450.0   30.0   0.0
-500.0   60.0   0.0
-500.0   30.0   16.666666666666668
-450.0   30.0   0.0
-450.0   60.0   0.0
-500.0   60.0   0.0
-450.0   60.0   16.666666666666668
-500.0   30.0   16.666666666666668
-500.0   60.0   16.666666666666668
-450.0   60.0   16.666666666666668
-500.0   60.0   0.0
-500.0   30.0   16.666666666666668
-450.0   60.0   16.666666666666668
-450.0   30.0   16.666666666666668
-450.0   30.0   0.0
-500.0   30.0   16.666666666666668
-450.0   60.0   16.666666666666668
-450.0   30.0   0.0
-500.0   60.0   0.0
-500.0   30.0   16.666666666666668
-450.0   30.0   16.666666666666668
-500.0   60.0   16.666666666666668
-500.0   30.0   33.333333333333336
-450.0   30.0   16.666666666666668
-450.0   60.0   16.666666666666668
-500.0   60.0   16.666666666666668
-450.0   60.0   33.333333333333336
-500.0   30.0   33.333333333333336
-500.0   60.0   33.333333333333336
-450.0   60.0   33.333333333333336
-500.0   60.0   16.666666666666668
-500.0   30.0   33.333333333333336
-450.0   60.0   33.333333333333336
-450.0   30.0   33.333333333333336
-450.0   30.0   16.666666666666668
-500.0   30.0   33.333333333333336
-450.0   60.0   33.333333333333336
-450.0   30.0   16.666666666666668
-500.0   60.0   16.666666666666668
-500.0   30.0   33.333333333333336
-450.0   30.0   33.333333333333336
-500.0   60.0   33.333333333333336
-500.0   30.0   50.0
-450.0   30.0   33.333333333333336
-450.0   60.0   33.333333333333336
-500.0   60.0   33.333333333333336
-450.0   60.0   50.0
-500.0   30.0   50.0
-500.0   60.0   50.0
-450.0   60.0   50.0
-500.0   60.0   33.333333333333336
-500.0   30.0   50.0
-450.0   60.0   50.0
-450.0   30.0   50.0
-450.0   30.0   33.333333333333336
-500.0   30.0   50.0
-450.0   60.0   50.0
-450.0   30.0   33.333333333333336
-500.0   60.0   33.333333333333336
-500.0   60.0   0.0
-450.0   60.0   0.0
-500.0   90.0   0.0
-500.0   60.0   16.666666666666668
-450.0   60.0   0.0
-450.0   90.0   0.0
-500.0   90.0   0.0
-450.0   90.0   16.666666666666668
-500.0   60.0   16.666666666666668
-500.0   90.0   16.666666666666668
-450.0   90.0   16.666666666666668
-500.0   90.0   0.0
-500.0   60.0   16.666666666666668
-450.0   90.0   16.666666666666668
-450.0   60.0   16.666666666666668
-450.0   60.0   0.0
-500.0   60.0   16.666666666666668
-450.0   90.0   16.666666666666668
-450.0   60.0   0.0
-500.0   90.0   0.0
-500.0   60.0   16.666666666666668
-450.0   60.0   16.666666666666668
-500.0   90.0   16.666666666666668
-500.0   60.0   33.333333333333336
-450.0   60.0   16.666666666666668
-450.0   90.0   16.666666666666668
-500.0   90.0   16.666666666666668
-450.0   90.0   33.333333333333336
-500.0   60.0   33.333333333333336
-500.0   90.0   33.333333333333336
-450.0   90.0   33.333333333333336
-500.0   90.0   16.666666666666668
-500.0   60.0   33.333333333333336
-450.0   90.0   33.333333333333336
-450.0   60.0   33.333333333333336
-450.0   60.0   16.666666666666668
-500.0   60.0   33.333333333333336
-450.0   90.0   33.333333333333336
-450.0   60.0   16.666666666666668
-500.0   90.0   16.666666666666668
-500.0   60.0   33.333333333333336
-450.0   60.0   33.333333333333336
-500.0   90.0   33.333333333333336
-500.0   60.0   50.0
-450.0   60.0   33.333333333333336
-450.0   90.0   33.333333333333336
-500.0   90.0   33.333333333333336
-450.0   90.0   50.0
-500.0   60.0   50.0
-500.0   90.0   50.0
-450.0   90.0   50.0
-500.0   90.0   33.333333333333336
-500.0   60.0   50.0
-450.0   90.0   50.0
-450.0   60.0   50.0
-450.0   60.0   33.333333333333336
-500.0   60.0   50.0
-450.0   90.0   50.0
-450.0   60.0   33.333333333333336
-500.0   90.0   33.333333333333336
-500.0   90.0   0.0
-450.0   90.0   0.0
-500.0   120.0   0.0
-500.0   90.0   16.666666666666668
-450.0   90.0   0.0
-450.0   120.0   0.0
-500.0   120.0   0.0
-450.0   120.0   16.666666666666668
-500.0   90.0   16.666666666666668
-500.0   120.0   16.666666666666668
-450.0   120.0   16.666666666666668
-500.0   120.0   0.0
-500.0   90.0   16.666666666666668
-450.0   120.0   16.666666666666668
-450.0   90.0   16.666666666666668
-450.0   90.0   0.0
-500.0   90.0   16.666666666666668
-450.0   120.0   16.666666666666668
-450.0   90.0   0.0
-500.0   120.0   0.0
-500.0   90.0   16.666666666666668
-450.0   90.0   16.666666666666668
-500.0   120.0   16.666666666666668
-500.0   90.0   33.333333333333336
-450.0   90.0   16.666666666666668
-450.0   120.0   16.666666666666668
-500.0   120.0   16.666666666666668
-450.0   120.0   33.333333333333336
-500.0   90.0   33.333333333333336
-500.0   120.0   33.333333333333336
-450.0   120.0   33.333333333333336
-500.0   120.0   16.666666666666668
-500.0   90.0   33.333333333333336
-450.0   120.0   33.333333333333336
-450.0   90.0   33.333333333333336
-450.0   90.0   16.666666666666668
-500.0   90.0   33.333333333333336
-450.0   120.0   33.333333333333336
-450.0   90.0   16.666666666666668
-500.0   120.0   16.666666666666668
-500.0   90.0   33.333333333333336
-450.0   90.0   33.333333333333336
-500.0   120.0   33.333333333333336
-500.0   90.0   50.0
-450.0   90.0   33.333333333333336
-450.0   120.0   33.333333333333336
-500.0   120.0   33.333333333333336
-450.0   120.0   50.0
-500.0   90.0   50.0
-500.0   120.0   50.0
-450.0   120.0   50.0
-500.0   120.0   33.333333333333336
-500.0   90.0   50.0
-450.0   120.0   50.0
-450.0   90.0   50.0
-450.0   90.0   33.333333333333336
-500.0   90.0   50.0
-450.0   120.0   50.0
-450.0   90.0   33.333333333333336
-500.0   120.0   33.333333333333336
-500.0   120.0   0.0
-450.0   120.0   0.0
-500.0   150.0   0.0
-500.0   120.0   16.666666666666668
-450.0   120.0   0.0
-450.0   150.0   0.0
-500.0   150.0   0.0
-450.0   150.0   16.666666666666668
-500.0   120.0   16.666666666666668
-500.0   150.0   16.666666666666668
-450.0   150.0   16.666666666666668
-500.0   150.0   0.0
-500.0   120.0   16.666666666666668
-450.0   150.0   16.666666666666668
-450.0   120.0   16.666666666666668
-450.0   120.0   0.0
-500.0   120.0   16.666666666666668
-450.0   150.0   16.666666666666668
-450.0   120.0   0.0
-500.0   150.0   0.0
-500.0   120.0   16.666666666666668
-450.0   120.0   16.666666666666668
-500.0   150.0   16.666666666666668
-500.0   120.0   33.333333333333336
-450.0   120.0   16.666666666666668
-450.0   150.0   16.666666666666668
-500.0   150.0   16.666666666666668
-450.0   150.0   33.333333333333336
-500.0   120.0   33.333333333333336
-500.0   150.0   33.333333333333336
-450.0   150.0   33.333333333333336
-500.0   150.0   16.666666666666668
-500.0   120.0   33.333333333333336
-450.0   150.0   33.333333333333336
-450.0   120.0   33.333333333333336
-450.0   120.0   16.666666666666668
-500.0   120.0   33.333333333333336
-450.0   150.0   33.333333333333336
-450.0   120.0   16.666666666666668
-500.0   150.0   16.666666666666668
-500.0   120.0   33.333333333333336
-450.0   120.0   33.333333333333336
-500.0   150.0   33.333333333333336
-500.0   120.0   50.0
-450.0   120.0   33.333333333333336
-450.0   150.0   33.333333333333336
-500.0   150.0   33.333333333333336
-450.0   150.0   50.0
-500.0   120.0   50.0
-500.0   150.0   50.0
-450.0   150.0   50.0
-500.0   150.0   33.333333333333336
-500.0   120.0   50.0
-450.0   150.0   50.0
-450.0   120.0   50.0
-450.0   120.0   33.333333333333336
-500.0   120.0   50.0
-450.0   150.0   50.0
-450.0   120.0   33.333333333333336
-500.0   150.0   33.333333333333336
-450.0   0.0   0.0
-400.0   0.0   0.0
-450.0   30.0   0.0
-450.0   0.0   16.666666666666668
-400.0   0.0   0.0
-400.0   30.0   0.0
-450.0   30.0   0.0
-400.0   30.0   16.666666666666668
-450.0   0.0   16.666666666666668
-450.0   30.0   16.666666666666668
-400.0   30.0   16.666666666666668
-450.0   30.0   0.0
-450.0   0.0   16.666666666666668
-400.0   30.0   16.666666666666668
-400.0   0.0   16.666666666666668
-400.0   0.0   0.0
-450.0   0.0   16.666666666666668
-400.0   30.0   16.666666666666668
-400.0   0.0   0.0
-450.0   30.0   0.0
-450.0   0.0   16.666666666666668
-400.0   0.0   16.666666666666668
-450.0   30.0   16.666666666666668
-450.0   0.0   33.333333333333336
-400.0   0.0   16.666666666666668
-400.0   30.0   16.666666666666668
-450.0   30.0   16.666666666666668
-400.0   30.0   33.333333333333336
-450.0   0.0   33.333333333333336
-450.0   30.0   33.333333333333336
-400.0   30.0   33.333333333333336
-450.0   30.0   16.666666666666668
-450.0   0.0   33.333333333333336
-400.0   30.0   33.333333333333336
-400.0   0.0   33.333333333333336
-400.0   0.0   16.666666666666668
-450.0   0.0   33.333333333333336
-400.0   30.0   33.333333333333336
-400.0   0.0   16.666666666666668
-450.0   30.0   16.666666666666668
-450.0   0.0   33.333333333333336
-400.0   0.0   33.333333333333336
-450.0   30.0   33.333333333333336
-450.0   0.0   50.0
-400.0   0.0   33.333333333333336
-400.0   30.0   33.333333333333336
-450.0   30.0   33.333333333333336
-400.0   30.0   50.0
-450.0   0.0   50.0
-450.0   30.0   50.0
-400.0   30.0   50.0
-450.0   30.0   33.333333333333336
-450.0   0.0   50.0
-400.0   30.0   50.0
-400.0   0.0   50.0
-400.0   0.0   33.333333333333336
-450.0   0.0   50.0
-400.0   30.0   50.0
-400.0   0.0   33.333333333333336
-450.0   30.0   33.333333333333336
-450.0   30.0   0.0
-400.0   30.0   0.0
-450.0   60.0   0.0
-450.0   30.0   16.666666666666668
-400.0   30.0   0.0
-400.0   60.0   0.0
-450.0   60.0   0.0
-400.0   60.0   16.666666666666668
-450.0   30.0   16.666666666666668
-450.0   60.0   16.666666666666668
-400.0   60.0   16.666666666666668
-450.0   60.0   0.0
-450.0   30.0   16.666666666666668
-400.0   60.0   16.666666666666668
-400.0   30.0   16.666666666666668
-400.0   30.0   0.0
-450.0   30.0   16.666666666666668
-400.0   60.0   16.666666666666668
-400.0   30.0   0.0
-450.0   60.0   0.0
-450.0   30.0   16.666666666666668
-400.0   30.0   16.666666666666668
-450.0   60.0   16.666666666666668
-450.0   30.0   33.333333333333336
-400.0   30.0   16.666666666666668
-400.0   60.0   16.666666666666668
-450.0   60.0   16.666666666666668
-400.0   60.0   33.333333333333336
-450.0   30.0   33.333333333333336
-450.0   60.0   33.333333333333336
-400.0   60.0   33.333333333333336
-450.0   60.0   16.666666666666668
-450.0   30.0   33.333333333333336
-400.0   60.0   33.333333333333336
-400.0   30.0   33.333333333333336
-400.0   30.0   16.666666666666668
-450.0   30.0   33.333333333333336
-400.0   60.0   33.333333333333336
-400.0   30.0   16.666666666666668
-450.0   60.0   16.666666666666668
-450.0   30.0   33.333333333333336
-400.0   30.0   33.333333333333336
-450.0   60.0   33.333333333333336
-450.0   30.0   50.0
-400.0   30.0   33.333333333333336
-400.0   60.0   33.333333333333336
-450.0   60.0   33.333333333333336
-400.0   60.0   50.0
-450.0   30.0   50.0
-450.0   60.0   50.0
-400.0   60.0   50.0
-450.0   60.0   33.333333333333336
-450.0   30.0   50.0
-400.0   60.0   50.0
-400.0   30.0   50.0
-400.0   30.0   33.333333333333336
-450.0   30.0   50.0
-400.0   60.0   50.0
-400.0   30.0   33.333333333333336
-450.0   60.0   33.333333333333336
-450.0   60.0   0.0
-400.0   60.0   0.0
-450.0   90.0   0.0
-450.0   60.0   16.666666666666668
-400.0   60.0   0.0
-400.0   90.0   0.0
-450.0   90.0   0.0
-400.0   90.0   16.666666666666668
-450.0   60.0   16.666666666666668
-450.0   90.0   16.666666666666668
-400.0   90.0   16.666666666666668
-450.0   90.0   0.0
-450.0   60.0   16.666666666666668
-400.0   90.0   16.666666666666668
-400.0   60.0   16.666666666666668
-400.0   60.0   0.0
-450.0   60.0   16.666666666666668
-400.0   90.0   16.666666666666668
-400.0   60.0   0.0
-450.0   90.0   0.0
-450.0   60.0   16.666666666666668
-400.0   60.0   16.666666666666668
-450.0   90.0   16.666666666666668
-450.0   60.0   33.333333333333336
-400.0   60.0   16.666666666666668
-400.0   90.0   16.666666666666668
-450.0   90.0   16.666666666666668
-400.0   90.0   33.333333333333336
-450.0   60.0   33.333333333333336
-450.0   90.0   33.333333333333336
-400.0   90.0   33.333333333333336
-450.0   90.0   16.666666666666668
-450.0   60.0   33.333333333333336
-400.0   90.0   33.333333333333336
-400.0   60.0   33.333333333333336
-400.0   60.0   16.666666666666668
-450.0   60.0   33.333333333333336
-400.0   90.0   33.333333333333336
-400.0   60.0   16.666666666666668
-450.0   90.0   16.666666666666668
-450.0   60.0   33.333333333333336
-400.0   60.0   33.333333333333336
-450.0   90.0   33.333333333333336
-450.0   60.0   50.0
-400.0   60.0   33.333333333333336
-400.0   90.0   33.333333333333336
-450.0   90.0   33.333333333333336
-400.0   90.0   50.0
-450.0   60.0   50.0
-450.0   90.0   50.0
-400.0   90.0   50.0
-450.0   90.0   33.333333333333336
-450.0   60.0   50.0
-400.0   90.0   50.0
-400.0   60.0   50.0
-400.0   60.0   33.333333333333336
-450.0   60.0   50.0
-400.0   90.0   50.0
-400.0   60.0   33.333333333333336
-450.0   90.0   33.333333333333336
-450.0   90.0   0.0
-400.0   90.0   0.0
-450.0   120.0   0.0
-450.0   90.0   16.666666666666668
-400.0   90.0   0.0
-400.0   120.0   0.0
-450.0   120.0   0.0
-400.0   120.0   16.666666666666668
-450.0   90.0   16.666666666666668
-450.0   120.0   16.666666666666668
-400.0   120.0   16.666666666666668
-450.0   120.0   0.0
-450.0   90.0   16.666666666666668
-400.0   120.0   16.666666666666668
-400.0   90.0   16.666666666666668
-400.0   90.0   0.0
-450.0   90.0   16.666666666666668
-400.0   120.0   16.666666666666668
-400.0   90.0   0.0
-450.0   120.0   0.0
-450.0   90.0   16.666666666666668
-400.0   90.0   16.666666666666668
-450.0   120.0   16.666666666666668
-450.0   90.0   33.333333333333336
-400.0   90.0   16.666666666666668
-400.0   120.0   16.666666666666668
-450.0   120.0   16.666666666666668
-400.0   120.0   33.333333333333336
-450.0   90.0   33.333333333333336
-450.0   120.0   33.333333333333336
-400.0   120.0   33.333333333333336
-450.0   120.0   16.666666666666668
-450.0   90.0   33.333333333333336
-400.0   120.0   33.333333333333336
-400.0   90.0   33.333333333333336
-400.0   90.0   16.666666666666668
-450.0   90.0   33.333333333333336
-400.0   120.0   33.333333333333336
-400.0   90.0   16.666666666666668
-450.0   120.0   16.666666666666668
-450.0   90.0   33.333333333333336
-400.0   90.0   33.333333333333336
-450.0   120.0   33.333333333333336
-450.0   90.0   50.0
-400.0   90.0   33.333333333333336
-400.0   120.0   33.333333333333336
-450.0   120.0   33.333333333333336
-400.0   120.0   50.0
-450.0   90.0   50.0
-450.0   120.0   50.0
-400.0   120.0   50.0
-450.0   120.0   33.333333333333336
-450.0   90.0   50.0
-400.0   120.0   50.0
-400.0   90.0   50.0
-400.0   90.0   33.333333333333336
-450.0   90.0   50.0
-400.0   120.0   50.0
-400.0   90.0   33.333333333333336
-450.0   120.0   33.333333333333336
-450.0   120.0   0.0
-400.0   120.0   0.0
-450.0   150.0   0.0
-450.0   120.0   16.666666666666668
-400.0   120.0   0.0
-400.0   150.0   0.0
-450.0   150.0   0.0
-400.0   150.0   16.666666666666668
-450.0   120.0   16.666666666666668
-450.0   150.0   16.666666666666668
-400.0   150.0   16.666666666666668
-450.0   150.0   0.0
-450.0   120.0   16.666666666666668
-400.0   150.0   16.666666666666668
-400.0   120.0   16.666666666666668
-400.0   120.0   0.0
-450.0   120.0   16.666666666666668
-400.0   150.0   16.666666666666668
-400.0   120.0   0.0
-450.0   150.0   0.0
-450.0   120.0   16.666666666666668
-400.0   120.0   16.666666666666668
-450.0   150.0   16.666666666666668
-450.0   120.0   33.333333333333336
-400.0   120.0   16.666666666666668
-400.0   150.0   16.666666666666668
-450.0   150.0   16.666666666666668
-400.0   150.0   33.333333333333336
-450.0   120.0   33.333333333333336
-450.0   150.0   33.333333333333336
-400.0   150.0   33.333333333333336
-450.0   150.0   16.666666666666668
-450.0   120.0   33.333333333333336
-400.0   150.0   33.333333333333336
-400.0   120.0   33.333333333333336
-400.0   120.0   16.666666666666668
-450.0   120.0   33.333333333333336
-400.0   150.0   33.333333333333336
-400.0   120.0   16.666666666666668
-450.0   150.0   16.666666666666668
-450.0   120.0   33.333333333333336
-400.0   120.0   33.333333333333336
-450.0   150.0   33.333333333333336
-450.0   120.0   50.0
-400.0   120.0   33.333333333333336
-400.0   150.0   33.333333333333336
-450.0   150.0   33.333333333333336
-400.0   150.0   50.0
-450.0   120.0   50.0
-450.0   150.0   50.0
-400.0   150.0   50.0
-450.0   150.0   33.333333333333336
-450.0   120.0   50.0
-400.0   150.0   50.0
-400.0   120.0   50.0
-400.0   120.0   33.333333333333336
-450.0   120.0   50.0
-400.0   150.0   50.0
-400.0   120.0   33.333333333333336
-450.0   150.0   33.333333333333336
-400.0   0.0   0.0
-350.0   0.0   0.0
-400.0   30.0   0.0
-400.0   0.0   16.666666666666668
-350.0   0.0   0.0
-350.0   30.0   0.0
-400.0   30.0   0.0
-350.0   30.0   16.666666666666668
-400.0   0.0   16.666666666666668
-400.0   30.0   16.666666666666668
-350.0   30.0   16.666666666666668
-400.0   30.0   0.0
-400.0   0.0   16.666666666666668
-350.0   30.0   16.666666666666668
-350.0   0.0   16.666666666666668
-350.0   0.0   0.0
-400.0   0.0   16.666666666666668
-350.0   30.0   16.666666666666668
-350.0   0.0   0.0
-400.0   30.0   0.0
-400.0   0.0   16.666666666666668
-350.0   0.0   16.666666666666668
-400.0   30.0   16.666666666666668
-400.0   0.0   33.333333333333336
-350.0   0.0   16.666666666666668
-350.0   30.0   16.666666666666668
-400.0   30.0   16.666666666666668
-350.0   30.0   33.333333333333336
-400.0   0.0   33.333333333333336
-400.0   30.0   33.333333333333336
-350.0   30.0   33.333333333333336
-400.0   30.0   16.666666666666668
-400.0   0.0   33.333333333333336
-350.0   30.0   33.333333333333336
-350.0   0.0   33.333333333333336
-350.0   0.0   16.666666666666668
-400.0   0.0   33.333333333333336
-350.0   30.0   33.333333333333336
-350.0   0.0   16.666666666666668
-400.0   30.0   16.666666666666668
-400.0   0.0   33.333333333333336
-350.0   0.0   33.333333333333336
-400.0   30.0   33.333333333333336
-400.0   0.0   50.0
-350.0   0.0   33.333333333333336
-350.0   30.0   33.333333333333336
-400.0   30.0   33.333333333333336
-350.0   30.0   50.0
-400.0   0.0   50.0
-400.0   30.0   50.0
-350.0   30.0   50.0
-400.0   30.0   33.333333333333336
-400.0   0.0   50.0
-350.0   30.0   50.0
-350.0   0.0   50.0
-350.0   0.0   33.333333333333336
-400.0   0.0   50.0
-350.0   30.0   50.0
-350.0   0.0   33.333333333333336
-400.0   30.0   33.333333333333336
-400.0   30.0   0.0
-350.0   30.0   0.0
-400.0   60.0   0.0
-400.0   30.0   16.666666666666668
-350.0   30.0   0.0
-350.0   60.0   0.0
-400.0   60.0   0.0
-350.0   60.0   16.666666666666668
-400.0   30.0   16.666666666666668
-400.0   60.0   16.666666666666668
-350.0   60.0   16.666666666666668
-400.0   60.0   0.0
-400.0   30.0   16.666666666666668
-350.0   60.0   16.666666666666668
-350.0   30.0   16.666666666666668
-350.0   30.0   0.0
-400.0   30.0   16.666666666666668
-350.0   60.0   16.666666666666668
-350.0   30.0   0.0
-400.0   60.0   0.0
-400.0   30.0   16.666666666666668
-350.0   30.0   16.666666666666668
-400.0   60.0   16.666666666666668
-400.0   30.0   33.333333333333336
-350.0   30.0   16.666666666666668
-350.0   60.0   16.666666666666668
-400.0   60.0   16.666666666666668
-350.0   60.0   33.333333333333336
-400.0   30.0   33.333333333333336
-400.0   60.0   33.333333333333336
-350.0   60.0   33.333333333333336
-400.0   60.0   16.666666666666668
-400.0   30.0   33.333333333333336
-350.0   60.0   33.333333333333336
-350.0   30.0   33.333333333333336
-350.0   30.0   16.666666666666668
-400.0   30.0   33.333333333333336
-350.0   60.0   33.333333333333336
-350.0   30.0   16.666666666666668
-400.0   60.0   16.666666666666668
-400.0   30.0   33.333333333333336
-350.0   30.0   33.333333333333336
-400.0   60.0   33.333333333333336
-400.0   30.0   50.0
-350.0   30.0   33.333333333333336
-350.0   60.0   33.333333333333336
-400.0   60.0   33.333333333333336
-350.0   60.0   50.0
-400.0   30.0   50.0
-400.0   60.0   50.0
-350.0   60.0   50.0
-400.0   60.0   33.333333333333336
-400.0   30.0   50.0
-350.0   60.0   50.0
-350.0   30.0   50.0
-350.0   30.0   33.333333333333336
-400.0   30.0   50.0
-350.0   60.0   50.0
-350.0   30.0   33.333333333333336
-400.0   60.0   33.333333333333336
-400.0   60.0   0.0
-350.0   60.0   0.0
-400.0   90.0   0.0
-400.0   60.0   16.666666666666668
-350.0   60.0   0.0
-350.0   90.0   0.0
-400.0   90.0   0.0
-350.0   90.0   16.666666666666668
-400.0   60.0   16.666666666666668
-400.0   90.0   16.666666666666668
-350.0   90.0   16.666666666666668
-400.0   90.0   0.0
-400.0   60.0   16.666666666666668
-350.0   90.0   16.666666666666668
-350.0   60.0   16.666666666666668
-350.0   60.0   0.0
-400.0   60.0   16.666666666666668
-350.0   90.0   16.666666666666668
-350.0   60.0   0.0
-400.0   90.0   0.0
-400.0   60.0   16.666666666666668
-350.0   60.0   16.666666666666668
-400.0   90.0   16.666666666666668
-400.0   60.0   33.333333333333336
-350.0   60.0   16.666666666666668
-350.0   90.0   16.666666666666668
-400.0   90.0   16.666666666666668
-350.0   90.0   33.333333333333336
-400.0   60.0   33.333333333333336
-400.0   90.0   33.333333333333336
-350.0   90.0   33.333333333333336
-400.0   90.0   16.666666666666668
-400.0   60.0   33.333333333333336
-350.0   90.0   33.333333333333336
-350.0   60.0   33.333333333333336
-350.0   60.0   16.666666666666668
-400.0   60.0   33.333333333333336
-350.0   90.0   33.333333333333336
-350.0   60.0   16.666666666666668
-400.0   90.0   16.666666666666668
-400.0   60.0   33.333333333333336
-350.0   60.0   33.333333333333336
-400.0   90.0   33.333333333333336
-400.0   60.0   50.0
-350.0   60.0   33.333333333333336
-350.0   90.0   33.333333333333336
-400.0   90.0   33.333333333333336
-350.0   90.0   50.0
-400.0   60.0   50.0
-400.0   90.0   50.0
-350.0   90.0   50.0
-400.0   90.0   33.333333333333336
-400.0   60.0   50.0
-350.0   90.0   50.0
-350.0   60.0   50.0
-350.0   60.0   33.333333333333336
-400.0   60.0   50.0
-350.0   90.0   50.0
-350.0   60.0   33.333333333333336
-400.0   90.0   33.333333333333336
-400.0   90.0   0.0
-350.0   90.0   0.0
-400.0   120.0   0.0
-400.0   90.0   16.666666666666668
-350.0   90.0   0.0
-350.0   120.0   0.0
-400.0   120.0   0.0
-350.0   120.0   16.666666666666668
-400.0   90.0   16.666666666666668
-400.0   120.0   16.666666666666668
-350.0   120.0   16.666666666666668
-400.0   120.0   0.0
-400.0   90.0   16.666666666666668
-350.0   120.0   16.666666666666668
-350.0   90.0   16.666666666666668
-350.0   90.0   0.0
-400.0   90.0   16.666666666666668
-350.0   120.0   16.666666666666668
-350.0   90.0   0.0
-400.0   120.0   0.0
-400.0   90.0   16.666666666666668
-350.0   90.0   16.666666666666668
-400.0   120.0   16.666666666666668
-400.0   90.0   33.333333333333336
-350.0   90.0   16.666666666666668
-350.0   120.0   16.666666666666668
-400.0   120.0   16.666666666666668
-350.0   120.0   33.333333333333336
-400.0   90.0   33.333333333333336
-400.0   120.0   33.333333333333336
-350.0   120.0   33.333333333333336
-400.0   120.0   16.666666666666668
-400.0   90.0   33.333333333333336
-350.0   120.0   33.333333333333336
-350.0   90.0   33.333333333333336
-350.0   90.0   16.666666666666668
-400.0   90.0   33.333333333333336
-350.0   120.0   33.333333333333336
-350.0   90.0   16.666666666666668
-400.0   120.0   16.666666666666668
-400.0   90.0   33.333333333333336
-350.0   90.0   33.333333333333336
-400.0   120.0   33.333333333333336
-400.0   90.0   50.0
-350.0   90.0   33.333333333333336
-350.0   120.0   33.333333333333336
-400.0   120.0   33.333333333333336
-350.0   120.0   50.0
-400.0   90.0   50.0
-400.0   120.0   50.0
-350.0   120.0   50.0
-400.0   120.0   33.333333333333336
-400.0   90.0   50.0
-350.0   120.0   50.0
-350.0   90.0   50.0
-350.0   90.0   33.333333333333336
-400.0   90.0   50.0
-350.0   120.0   50.0
-350.0   90.0   33.333333333333336
-400.0   120.0   33.333333333333336
-400.0   120.0   0.0
-350.0   120.0   0.0
-400.0   150.0   0.0
-400.0   120.0   16.666666666666668
-350.0   120.0   0.0
-350.0   150.0   0.0
-400.0   150.0   0.0
-350.0   150.0   16.666666666666668
-400.0   120.0   16.666666666666668
-400.0   150.0   16.666666666666668
-350.0   150.0   16.666666666666668
-400.0   150.0   0.0
-400.0   120.0   16.666666666666668
-350.0   150.0   16.666666666666668
-350.0   120.0   16.666666666666668
-350.0   120.0   0.0
-400.0   120.0   16.666666666666668
-350.0   150.0   16.666666666666668
-350.0   120.0   0.0
-400.0   150.0   0.0
-400.0   120.0   16.666666666666668
-350.0   120.0   16.666666666666668
-400.0   150.0   16.666666666666668
-400.0   120.0   33.333333333333336
-350.0   120.0   16.666666666666668
-350.0   150.0   16.666666666666668
-400.0   150.0   16.666666666666668
-350.0   150.0   33.333333333333336
-400.0   120.0   33.333333333333336
-400.0   150.0   33.333333333333336
-350.0   150.0   33.333333333333336
-400.0   150.0   16.666666666666668
-400.0   120.0   33.333333333333336
-350.0   150.0   33.333333333333336
-350.0   120.0   33.333333333333336
-350.0   120.0   16.666666666666668
-400.0   120.0   33.333333333333336
-350.0   150.0   33.333333333333336
-350.0   120.0   16.666666666666668
-400.0   150.0   16.666666666666668
-400.0   120.0   33.333333333333336
-350.0   120.0   33.333333333333336
-400.0   150.0   33.333333333333336
-400.0   120.0   50.0
-350.0   120.0   33.333333333333336
-350.0   150.0   33.333333333333336
-400.0   150.0   33.333333333333336
-350.0   150.0   50.0
-400.0   120.0   50.0
-400.0   150.0   50.0
-350.0   150.0   50.0
-400.0   150.0   33.333333333333336
-400.0   120.0   50.0
-350.0   150.0   50.0
-350.0   120.0   50.0
-350.0   120.0   33.333333333333336
-400.0   120.0   50.0
-350.0   150.0   50.0
-350.0   120.0   33.333333333333336
-400.0   150.0   33.333333333333336
-350.0   0.0   0.0
-300.0   0.0   0.0
-350.0   30.0   0.0
-350.0   0.0   16.666666666666668
-300.0   0.0   0.0
-300.0   30.0   0.0
-350.0   30.0   0.0
-300.0   30.0   16.666666666666668
-350.0   0.0   16.666666666666668
-350.0   30.0   16.666666666666668
-300.0   30.0   16.666666666666668
-350.0   30.0   0.0
-350.0   0.0   16.666666666666668
-300.0   30.0   16.666666666666668
-300.0   0.0   16.666666666666668
-300.0   0.0   0.0
-350.0   0.0   16.666666666666668
-300.0   30.0   16.666666666666668
-300.0   0.0   0.0
-350.0   30.0   0.0
-350.0   0.0   16.666666666666668
-300.0   0.0   16.666666666666668
-350.0   30.0   16.666666666666668
-350.0   0.0   33.333333333333336
-300.0   0.0   16.666666666666668
-300.0   30.0   16.666666666666668
-350.0   30.0   16.666666666666668
-300.0   30.0   33.333333333333336
-350.0   0.0   33.333333333333336
-350.0   30.0   33.333333333333336
-300.0   30.0   33.333333333333336
-350.0   30.0   16.666666666666668
-350.0   0.0   33.333333333333336
-300.0   30.0   33.333333333333336
-300.0   0.0   33.333333333333336
-300.0   0.0   16.666666666666668
-350.0   0.0   33.333333333333336
-300.0   30.0   33.333333333333336
-300.0   0.0   16.666666666666668
-350.0   30.0   16.666666666666668
-350.0   0.0   33.333333333333336
-300.0   0.0   33.333333333333336
-350.0   30.0   33.333333333333336
-350.0   0.0   50.0
-300.0   0.0   33.333333333333336
-300.0   30.0   33.333333333333336
-350.0   30.0   33.333333333333336
-300.0   30.0   50.0
-350.0   0.0   50.0
-350.0   30.0   50.0
-300.0   30.0   50.0
-350.0   30.0   33.333333333333336
-350.0   0.0   50.0
-300.0   30.0   50.0
-300.0   0.0   50.0
-300.0   0.0   33.333333333333336
-350.0   0.0   50.0
-300.0   30.0   50.0
-300.0   0.0   33.333333333333336
-350.0   30.0   33.333333333333336
-350.0   30.0   0.0
-300.0   30.0   0.0
-350.0   60.0   0.0
-350.0   30.0   16.666666666666668
-300.0   30.0   0.0
-300.0   60.0   0.0
-350.0   60.0   0.0
-300.0   60.0   16.666666666666668
-350.0   30.0   16.666666666666668
-350.0   60.0   16.666666666666668
-300.0   60.0   16.666666666666668
-350.0   60.0   0.0
-350.0   30.0   16.666666666666668
-300.0   60.0   16.666666666666668
-300.0   30.0   16.666666666666668
-300.0   30.0   0.0
-350.0   30.0   16.666666666666668
-300.0   60.0   16.666666666666668
-300.0   30.0   0.0
-350.0   60.0   0.0
-350.0   30.0   16.666666666666668
-300.0   30.0   16.666666666666668
-350.0   60.0   16.666666666666668
-350.0   30.0   33.333333333333336
-300.0   30.0   16.666666666666668
-300.0   60.0   16.666666666666668
-350.0   60.0   16.666666666666668
-300.0   60.0   33.333333333333336
-350.0   30.0   33.333333333333336
-350.0   60.0   33.333333333333336
-300.0   60.0   33.333333333333336
-350.0   60.0   16.666666666666668
-350.0   30.0   33.333333333333336
-300.0   60.0   33.333333333333336
-300.0   30.0   33.333333333333336
-300.0   30.0   16.666666666666668
-350.0   30.0   33.333333333333336
-300.0   60.0   33.333333333333336
-300.0   30.0   16.666666666666668
-350.0   60.0   16.666666666666668
-350.0   30.0   33.333333333333336
-300.0   30.0   33.333333333333336
-350.0   60.0   33.333333333333336
-350.0   30.0   50.0
-300.0   30.0   33.333333333333336
-300.0   60.0   33.333333333333336
-350.0   60.0   33.333333333333336
-300.0   60.0   50.0
-350.0   30.0   50.0
-350.0   60.0   50.0
-300.0   60.0   50.0
-350.0   60.0   33.333333333333336
-350.0   30.0   50.0
-300.0   60.0   50.0
-300.0   30.0   50.0
-300.0   30.0   33.333333333333336
-350.0   30.0   50.0
-300.0   60.0   50.0
-300.0   30.0   33.333333333333336
-350.0   60.0   33.333333333333336
-350.0   60.0   0.0
-300.0   60.0   0.0
-350.0   90.0   0.0
-350.0   60.0   16.666666666666668
-300.0   60.0   0.0
-300.0   90.0   0.0
-350.0   90.0   0.0
-300.0   90.0   16.666666666666668
-350.0   60.0   16.666666666666668
-350.0   90.0   16.666666666666668
-300.0   90.0   16.666666666666668
-350.0   90.0   0.0
-350.0   60.0   16.666666666666668
-300.0   90.0   16.666666666666668
-300.0   60.0   16.666666666666668
-300.0   60.0   0.0
-350.0   60.0   16.666666666666668
-300.0   90.0   16.666666666666668
-300.0   60.0   0.0
-350.0   90.0   0.0
-350.0   60.0   16.666666666666668
-300.0   60.0   16.666666666666668
-350.0   90.0   16.666666666666668
-350.0   60.0   33.333333333333336
-300.0   60.0   16.666666666666668
-300.0   90.0   16.666666666666668
-350.0   90.0   16.666666666666668
-300.0   90.0   33.333333333333336
-350.0   60.0   33.333333333333336
-350.0   90.0   33.333333333333336
-300.0   90.0   33.333333333333336
-350.0   90.0   16.666666666666668
-350.0   60.0   33.333333333333336
-300.0   90.0   33.333333333333336
-300.0   60.0   33.333333333333336
-300.0   60.0   16.666666666666668
-350.0   60.0   33.333333333333336
-300.0   90.0   33.333333333333336
-300.0   60.0   16.666666666666668
-350.0   90.0   16.666666666666668
-350.0   60.0   33.333333333333336
-300.0   60.0   33.333333333333336
-350.0   90.0   33.333333333333336
-350.0   60.0   50.0
-300.0   60.0   33.333333333333336
-300.0   90.0   33.333333333333336
-350.0   90.0   33.333333333333336
-300.0   90.0   50.0
-350.0   60.0   50.0
-350.0   90.0   50.0
-300.0   90.0   50.0
-350.0   90.0   33.333333333333336
-350.0   60.0   50.0
-300.0   90.0   50.0
-300.0   60.0   50.0
-300.0   60.0   33.333333333333336
-350.0   60.0   50.0
-300.0   90.0   50.0
-300.0   60.0   33.333333333333336
-350.0   90.0   33.333333333333336
-350.0   90.0   0.0
-300.0   90.0   0.0
-350.0   120.0   0.0
-350.0   90.0   16.666666666666668
-300.0   90.0   0.0
-300.0   120.0   0.0
-350.0   120.0   0.0
-300.0   120.0   16.666666666666668
-350.0   90.0   16.666666666666668
-350.0   120.0   16.666666666666668
-300.0   120.0   16.666666666666668
-350.0   120.0   0.0
-350.0   90.0   16.666666666666668
-300.0   120.0   16.666666666666668
-300.0   90.0   16.666666666666668
-300.0   90.0   0.0
-350.0   90.0   16.666666666666668
-300.0   120.0   16.666666666666668
-300.0   90.0   0.0
-350.0   120.0   0.0
-350.0   90.0   16.666666666666668
-300.0   90.0   16.666666666666668
-350.0   120.0   16.666666666666668
-350.0   90.0   33.333333333333336
-300.0   90.0   16.666666666666668
-300.0   120.0   16.666666666666668
-350.0   120.0   16.666666666666668
-300.0   120.0   33.333333333333336
-350.0   90.0   33.333333333333336
-350.0   120.0   33.333333333333336
-300.0   120.0   33.333333333333336
-350.0   120.0   16.666666666666668
-350.0   90.0   33.333333333333336
-300.0   120.0   33.333333333333336
-300.0   90.0   33.333333333333336
-300.0   90.0   16.666666666666668
-350.0   90.0   33.333333333333336
-300.0   120.0   33.333333333333336
-300.0   90.0   16.666666666666668
-350.0   120.0   16.666666666666668
-350.0   90.0   33.333333333333336
-300.0   90.0   33.333333333333336
-350.0   120.0   33.333333333333336
-350.0   90.0   50.0
-300.0   90.0   33.333333333333336
-300.0   120.0   33.333333333333336
-350.0   120.0   33.333333333333336
-300.0   120.0   50.0
-350.0   90.0   50.0
-350.0   120.0   50.0
-300.0   120.0   50.0
-350.0   120.0   33.333333333333336
-350.0   90.0   50.0
-300.0   120.0   50.0
-300.0   90.0   50.0
-300.0   90.0   33.333333333333336
-350.0   90.0   50.0
-300.0   120.0   50.0
-300.0   90.0   33.333333333333336
-350.0   120.0   33.333333333333336
-350.0   120.0   0.0
-300.0   120.0   0.0
-350.0   150.0   0.0
-350.0   120.0   16.666666666666668
-300.0   120.0   0.0
-300.0   150.0   0.0
-350.0   150.0   0.0
-300.0   150.0   16.666666666666668
-350.0   120.0   16.666666666666668
-350.0   150.0   16.666666666666668
-300.0   150.0   16.666666666666668
-350.0   150.0   0.0
-350.0   120.0   16.666666666666668
-300.0   150.0   16.666666666666668
-300.0   120.0   16.666666666666668
-300.0   120.0   0.0
-350.0   120.0   16.666666666666668
-300.0   150.0   16.666666666666668
-300.0   120.0   0.0
-350.0   150.0   0.0
-350.0   120.0   16.666666666666668
-300.0   120.0   16.666666666666668
-350.0   150.0   16.666666666666668
-350.0   120.0   33.333333333333336
-300.0   120.0   16.666666666666668
-300.0   150.0   16.666666666666668
-350.0   150.0   16.666666666666668
-300.0   150.0   33.333333333333336
-350.0   120.0   33.333333333333336
-350.0   150.0   33.333333333333336
-300.0   150.0   33.333333333333336
-350.0   150.0   16.666666666666668
-350.0   120.0   33.333333333333336
-300.0   150.0   33.333333333333336
-300.0   120.0   33.333333333333336
-300.0   120.0   16.666666666666668
-350.0   120.0   33.333333333333336
-300.0   150.0   33.333333333333336
-300.0   120.0   16.666666666666668
-350.0   150.0   16.666666666666668
-350.0   120.0   33.333333333333336
-300.0   120.0   33.333333333333336
-350.0   150.0   33.333333333333336
-350.0   120.0   50.0
-300.0   120.0   33.333333333333336
-300.0   150.0   33.333333333333336
-350.0   150.0   33.333333333333336
-300.0   150.0   50.0
-350.0   120.0   50.0
-350.0   150.0   50.0
-300.0   150.0   50.0
-350.0   150.0   33.333333333333336
-350.0   120.0   50.0
-300.0   150.0   50.0
-300.0   120.0   50.0
-300.0   120.0   33.333333333333336
-350.0   120.0   50.0
-300.0   150.0   50.0
-300.0   120.0   33.333333333333336
-350.0   150.0   33.333333333333336
-300.0   0.0   0.0
-250.0   0.0   0.0
-300.0   30.0   0.0
-300.0   0.0   16.666666666666668
-250.0   0.0   0.0
-250.0   30.0   0.0
-300.0   30.0   0.0
-250.0   30.0   16.666666666666668
-300.0   0.0   16.666666666666668
-300.0   30.0   16.666666666666668
-250.0   30.0   16.666666666666668
-300.0   30.0   0.0
-300.0   0.0   16.666666666666668
-250.0   30.0   16.666666666666668
-250.0   0.0   16.666666666666668
-250.0   0.0   0.0
-300.0   0.0   16.666666666666668
-250.0   30.0   16.666666666666668
-250.0   0.0   0.0
-300.0   30.0   0.0
-300.0   0.0   16.666666666666668
-250.0   0.0   16.666666666666668
-300.0   30.0   16.666666666666668
-300.0   0.0   33.333333333333336
-250.0   0.0   16.666666666666668
-250.0   30.0   16.666666666666668
-300.0   30.0   16.666666666666668
-250.0   30.0   33.333333333333336
-300.0   0.0   33.333333333333336
-300.0   30.0   33.333333333333336
-250.0   30.0   33.333333333333336
-300.0   30.0   16.666666666666668
-300.0   0.0   33.333333333333336
-250.0   30.0   33.333333333333336
-250.0   0.0   33.333333333333336
-250.0   0.0   16.666666666666668
-300.0   0.0   33.333333333333336
-250.0   30.0   33.333333333333336
-250.0   0.0   16.666666666666668
-300.0   30.0   16.666666666666668
-300.0   0.0   33.333333333333336
-250.0   0.0   33.333333333333336
-300.0   30.0   33.333333333333336
-300.0   0.0   50.0
-250.0   0.0   33.333333333333336
-250.0   30.0   33.333333333333336
-300.0   30.0   33.333333333333336
-250.0   30.0   50.0
-300.0   0.0   50.0
-300.0   30.0   50.0
-250.0   30.0   50.0
-300.0   30.0   33.333333333333336
-300.0   0.0   50.0
-250.0   30.0   50.0
-250.0   0.0   50.0
-250.0   0.0   33.333333333333336
-300.0   0.0   50.0
-250.0   30.0   50.0
-250.0   0.0   33.333333333333336
-300.0   30.0   33.333333333333336
-300.0   30.0   0.0
-250.0   30.0   0.0
-300.0   60.0   0.0
-300.0   30.0   16.666666666666668
-250.0   30.0   0.0
-250.0   60.0   0.0
-300.0   60.0   0.0
-250.0   60.0   16.666666666666668
-300.0   30.0   16.666666666666668
-300.0   60.0   16.666666666666668
-250.0   60.0   16.666666666666668
-300.0   60.0   0.0
-300.0   30.0   16.666666666666668
-250.0   60.0   16.666666666666668
-250.0   30.0   16.666666666666668
-250.0   30.0   0.0
-300.0   30.0   16.666666666666668
-250.0   60.0   16.666666666666668
-250.0   30.0   0.0
-300.0   60.0   0.0
-300.0   30.0   16.666666666666668
-250.0   30.0   16.666666666666668
-300.0   60.0   16.666666666666668
-300.0   30.0   33.333333333333336
-250.0   30.0   16.666666666666668
-250.0   60.0   16.666666666666668
-300.0   60.0   16.666666666666668
-250.0   60.0   33.333333333333336
-300.0   30.0   33.333333333333336
-300.0   60.0   33.333333333333336
-250.0   60.0   33.333333333333336
-300.0   60.0   16.666666666666668
-300.0   30.0   33.333333333333336
-250.0   60.0   33.333333333333336
-250.0   30.0   33.333333333333336
-250.0   30.0   16.666666666666668
-300.0   30.0   33.333333333333336
-250.0   60.0   33.333333333333336
-250.0   30.0   16.666666666666668
-300.0   60.0   16.666666666666668
-300.0   30.0   33.333333333333336
-250.0   30.0   33.333333333333336
-300.0   60.0   33.333333333333336
-300.0   30.0   50.0
-250.0   30.0   33.333333333333336
-250.0   60.0   33.333333333333336
-300.0   60.0   33.333333333333336
-250.0   60.0   50.0
-300.0   30.0   50.0
-300.0   60.0   50.0
-250.0   60.0   50.0
-300.0   60.0   33.333333333333336
-300.0   30.0   50.0
-250.0   60.0   50.0
-250.0   30.0   50.0
-250.0   30.0   33.333333333333336
-300.0   30.0   50.0
-250.0   60.0   50.0
-250.0   30.0   33.333333333333336
-300.0   60.0   33.333333333333336
-300.0   60.0   0.0
-250.0   60.0   0.0
-300.0   90.0   0.0
-300.0   60.0   16.666666666666668
-250.0   60.0   0.0
-250.0   90.0   0.0
-300.0   90.0   0.0
-250.0   90.0   16.666666666666668
-300.0   60.0   16.666666666666668
-300.0   90.0   16.666666666666668
-250.0   90.0   16.666666666666668
-300.0   90.0   0.0
-300.0   60.0   16.666666666666668
-250.0   90.0   16.666666666666668
-250.0   60.0   16.666666666666668
-250.0   60.0   0.0
-300.0   60.0   16.666666666666668
-250.0   90.0   16.666666666666668
-250.0   60.0   0.0
-300.0   90.0   0.0
-300.0   60.0   16.666666666666668
-250.0   60.0   16.666666666666668
-300.0   90.0   16.666666666666668
-300.0   60.0   33.333333333333336
-250.0   60.0   16.666666666666668
-250.0   90.0   16.666666666666668
-300.0   90.0   16.666666666666668
-250.0   90.0   33.333333333333336
-300.0   60.0   33.333333333333336
-300.0   90.0   33.333333333333336
-250.0   90.0   33.333333333333336
-300.0   90.0   16.666666666666668
-300.0   60.0   33.333333333333336
-250.0   90.0   33.333333333333336
-250.0   60.0   33.333333333333336
-250.0   60.0   16.666666666666668
-300.0   60.0   33.333333333333336
-250.0   90.0   33.333333333333336
-250.0   60.0   16.666666666666668
-300.0   90.0   16.666666666666668
-300.0   60.0   33.333333333333336
-250.0   60.0   33.333333333333336
-300.0   90.0   33.333333333333336
-300.0   60.0   50.0
-250.0   60.0   33.333333333333336
-250.0   90.0   33.333333333333336
-300.0   90.0   33.333333333333336
-250.0   90.0   50.0
-300.0   60.0   50.0
-300.0   90.0   50.0
-250.0   90.0   50.0
-300.0   90.0   33.333333333333336
-300.0   60.0   50.0
-250.0   90.0   50.0
-250.0   60.0   50.0
-250.0   60.0   33.333333333333336
-300.0   60.0   50.0
-250.0   90.0   50.0
-250.0   60.0   33.333333333333336
-300.0   90.0   33.333333333333336
-300.0   90.0   0.0
-250.0   90.0   0.0
-300.0   120.0   0.0
-300.0   90.0   16.666666666666668
-250.0   90.0   0.0
-250.0   120.0   0.0
-300.0   120.0   0.0
-250.0   120.0   16.666666666666668
-300.0   90.0   16.666666666666668
-300.0   120.0   16.666666666666668
-250.0   120.0   16.666666666666668
-300.0   120.0   0.0
-300.0   90.0   16.666666666666668
-250.0   120.0   16.666666666666668
-250.0   90.0   16.666666666666668
-250.0   90.0   0.0
-300.0   90.0   16.666666666666668
-250.0   120.0   16.666666666666668
-250.0   90.0   0.0
-300.0   120.0   0.0
-300.0   90.0   16.666666666666668
-250.0   90.0   16.666666666666668
-300.0   120.0   16.666666666666668
-300.0   90.0   33.333333333333336
-250.0   90.0   16.666666666666668
-250.0   120.0   16.666666666666668
-300.0   120.0   16.666666666666668
-250.0   120.0   33.333333333333336
-300.0   90.0   33.333333333333336
-300.0   120.0   33.333333333333336
-250.0   120.0   33.333333333333336
-300.0   120.0   16.666666666666668
-300.0   90.0   33.333333333333336
-250.0   120.0   33.333333333333336
-250.0   90.0   33.333333333333336
-250.0   90.0   16.666666666666668
-300.0   90.0   33.333333333333336
-250.0   120.0   33.333333333333336
-250.0   90.0   16.666666666666668
-300.0   120.0   16.666666666666668
-300.0   90.0   33.333333333333336
-250.0   90.0   33.333333333333336
-300.0   120.0   33.333333333333336
-300.0   90.0   50.0
-250.0   90.0   33.333333333333336
-250.0   120.0   33.333333333333336
-300.0   120.0   33.333333333333336
-250.0   120.0   50.0
-300.0   90.0   50.0
-300.0   120.0   50.0
-250.0   120.0   50.0
-300.0   120.0   33.333333333333336
-300.0   90.0   50.0
-250.0   120.0   50.0
-250.0   90.0   50.0
-250.0   90.0   33.333333333333336
-300.0   90.0   50.0
-250.0   120.0   50.0
-250.0   90.0   33.333333333333336
-300.0   120.0   33.333333333333336
-300.0   120.0   0.0
-250.0   120.0   0.0
-300.0   150.0   0.0
-300.0   120.0   16.666666666666668
-250.0   120.0   0.0
-250.0   150.0   0.0
-300.0   150.0   0.0
-250.0   150.0   16.666666666666668
-300.0   120.0   16.666666666666668
-300.0   150.0   16.666666666666668
-250.0   150.0   16.666666666666668
-300.0   150.0   0.0
-300.0   120.0   16.666666666666668
-250.0   150.0   16.666666666666668
-250.0   120.0   16.666666666666668
-250.0   120.0   0.0
-300.0   120.0   16.666666666666668
-250.0   150.0   16.666666666666668
-250.0   120.0   0.0
-300.0   150.0   0.0
-300.0   120.0   16.666666666666668
-250.0   120.0   16.666666666666668
-300.0   150.0   16.666666666666668
-300.0   120.0   33.333333333333336
-250.0   120.0   16.666666666666668
-250.0   150.0   16.666666666666668
-300.0   150.0   16.666666666666668
-250.0   150.0   33.333333333333336
-300.0   120.0   33.333333333333336
-300.0   150.0   33.333333333333336
-250.0   150.0   33.333333333333336
-300.0   150.0   16.666666666666668
-300.0   120.0   33.333333333333336
-250.0   150.0   33.333333333333336
-250.0   120.0   33.333333333333336
-250.0   120.0   16.666666666666668
-300.0   120.0   33.333333333333336
-250.0   150.0   33.333333333333336
-250.0   120.0   16.666666666666668
-300.0   150.0   16.666666666666668
-300.0   120.0   33.333333333333336
-250.0   120.0   33.333333333333336
-300.0   150.0   33.333333333333336
-300.0   120.0   50.0
-250.0   120.0   33.333333333333336
-250.0   150.0   33.333333333333336
-300.0   150.0   33.333333333333336
-250.0   150.0   50.0
-300.0   120.0   50.0
-300.0   150.0   50.0
-250.0   150.0   50.0
-300.0   150.0   33.333333333333336
-300.0   120.0   50.0
-250.0   150.0   50.0
-250.0   120.0   50.0
-250.0   120.0   33.333333333333336
-300.0   120.0   50.0
-250.0   150.0   50.0
-250.0   120.0   33.333333333333336
-300.0   150.0   33.333333333333336
-250.0   0.0   0.0
-200.0   0.0   0.0
-250.0   30.0   0.0
-250.0   0.0   16.666666666666668
-200.0   0.0   0.0
-200.0   30.0   0.0
-250.0   30.0   0.0
-200.0   30.0   16.666666666666668
-250.0   0.0   16.666666666666668
-250.0   30.0   16.666666666666668
-200.0   30.0   16.666666666666668
-250.0   30.0   0.0
-250.0   0.0   16.666666666666668
-200.0   30.0   16.666666666666668
-200.0   0.0   16.666666666666668
-200.0   0.0   0.0
-250.0   0.0   16.666666666666668
-200.0   30.0   16.666666666666668
-200.0   0.0   0.0
-250.0   30.0   0.0
-250.0   0.0   16.666666666666668
-200.0   0.0   16.666666666666668
-250.0   30.0   16.666666666666668
-250.0   0.0   33.333333333333336
-200.0   0.0   16.666666666666668
-200.0   30.0   16.666666666666668
-250.0   30.0   16.666666666666668
-200.0   30.0   33.333333333333336
-250.0   0.0   33.333333333333336
-250.0   30.0   33.333333333333336
-200.0   30.0   33.333333333333336
-250.0   30.0   16.666666666666668
-250.0   0.0   33.333333333333336
-200.0   30.0   33.333333333333336
-200.0   0.0   33.333333333333336
-200.0   0.0   16.666666666666668
-250.0   0.0   33.333333333333336
-200.0   30.0   33.333333333333336
-200.0   0.0   16.666666666666668
-250.0   30.0   16.666666666666668
-250.0   0.0   33.333333333333336
-200.0   0.0   33.333333333333336
-250.0   30.0   33.333333333333336
-250.0   0.0   50.0
-200.0   0.0   33.333333333333336
-200.0   30.0   33.333333333333336
-250.0   30.0   33.333333333333336
-200.0   30.0   50.0
-250.0   0.0   50.0
-250.0   30.0   50.0
-200.0   30.0   50.0
-250.0   30.0   33.333333333333336
-250.0   0.0   50.0
-200.0   30.0   50.0
-200.0   0.0   50.0
-200.0   0.0   33.333333333333336
-250.0   0.0   50.0
-200.0   30.0   50.0
-200.0   0.0   33.333333333333336
-250.0   30.0   33.333333333333336
-250.0   30.0   0.0
-200.0   30.0   0.0
-250.0   60.0   0.0
-250.0   30.0   16.666666666666668
-200.0   30.0   0.0
-200.0   60.0   0.0
-250.0   60.0   0.0
-200.0   60.0   16.666666666666668
-250.0   30.0   16.666666666666668
-250.0   60.0   16.666666666666668
-200.0   60.0   16.666666666666668
-250.0   60.0   0.0
-250.0   30.0   16.666666666666668
-200.0   60.0   16.666666666666668
-200.0   30.0   16.666666666666668
-200.0   30.0   0.0
-250.0   30.0   16.666666666666668
-200.0   60.0   16.666666666666668
-200.0   30.0   0.0
-250.0   60.0   0.0
-250.0   30.0   16.666666666666668
-200.0   30.0   16.666666666666668
-250.0   60.0   16.666666666666668
-250.0   30.0   33.333333333333336
-200.0   30.0   16.666666666666668
-200.0   60.0   16.666666666666668
-250.0   60.0   16.666666666666668
-200.0   60.0   33.333333333333336
-250.0   30.0   33.333333333333336
-250.0   60.0   33.333333333333336
-200.0   60.0   33.333333333333336
-250.0   60.0   16.666666666666668
-250.0   30.0   33.333333333333336
-200.0   60.0   33.333333333333336
-200.0   30.0   33.333333333333336
-200.0   30.0   16.666666666666668
-250.0   30.0   33.333333333333336
-200.0   60.0   33.333333333333336
-200.0   30.0   16.666666666666668
-250.0   60.0   16.666666666666668
-250.0   30.0   33.333333333333336
-200.0   30.0   33.333333333333336
-250.0   60.0   33.333333333333336
-250.0   30.0   50.0
-200.0   30.0   33.333333333333336
-200.0   60.0   33.333333333333336
-250.0   60.0   33.333333333333336
-200.0   60.0   50.0
-250.0   30.0   50.0
-250.0   60.0   50.0
-200.0   60.0   50.0
-250.0   60.0   33.333333333333336
-250.0   30.0   50.0
-200.0   60.0   50.0
-200.0   30.0   50.0
-200.0   30.0   33.333333333333336
-250.0   30.0   50.0
-200.0   60.0   50.0
-200.0   30.0   33.333333333333336
-250.0   60.0   33.333333333333336
-250.0   60.0   0.0
-200.0   60.0   0.0
-250.0   90.0   0.0
-250.0   60.0   16.666666666666668
-200.0   60.0   0.0
-200.0   90.0   0.0
-250.0   90.0   0.0
-200.0   90.0   16.666666666666668
-250.0   60.0   16.666666666666668
-250.0   90.0   16.666666666666668
-200.0   90.0   16.666666666666668
-250.0   90.0   0.0
-250.0   60.0   16.666666666666668
-200.0   90.0   16.666666666666668
-200.0   60.0   16.666666666666668
-200.0   60.0   0.0
-250.0   60.0   16.666666666666668
-200.0   90.0   16.666666666666668
-200.0   60.0   0.0
-250.0   90.0   0.0
-250.0   60.0   16.666666666666668
-200.0   60.0   16.666666666666668
-250.0   90.0   16.666666666666668
-250.0   60.0   33.333333333333336
-200.0   60.0   16.666666666666668
-200.0   90.0   16.666666666666668
-250.0   90.0   16.666666666666668
-200.0   90.0   33.333333333333336
-250.0   60.0   33.333333333333336
-250.0   90.0   33.333333333333336
-200.0   90.0   33.333333333333336
-250.0   90.0   16.666666666666668
-250.0   60.0   33.333333333333336
-200.0   90.0   33.333333333333336
-200.0   60.0   33.333333333333336
-200.0   60.0   16.666666666666668
-250.0   60.0   33.333333333333336
-200.0   90.0   33.333333333333336
-200.0   60.0   16.666666666666668
-250.0   90.0   16.666666666666668
-250.0   60.0   33.333333333333336
-200.0   60.0   33.333333333333336
-250.0   90.0   33.333333333333336
-250.0   60.0   50.0
-200.0   60.0   33.333333333333336
-200.0   90.0   33.333333333333336
-250.0   90.0   33.333333333333336
-200.0   90.0   50.0
-250.0   60.0   50.0
-250.0   90.0   50.0
-200.0   90.0   50.0
-250.0   90.0   33.333333333333336
-250.0   60.0   50.0
-200.0   90.0   50.0
-200.0   60.0   50.0
-200.0   60.0   33.333333333333336
-250.0   60.0   50.0
-200.0   90.0   50.0
-200.0   60.0   33.333333333333336
-250.0   90.0   33.333333333333336
-250.0   90.0   0.0
-200.0   90.0   0.0
-250.0   120.0   0.0
-250.0   90.0   16.666666666666668
-200.0   90.0   0.0
-200.0   120.0   0.0
-250.0   120.0   0.0
-200.0   120.0   16.666666666666668
-250.0   90.0   16.666666666666668
-250.0   120.0   16.666666666666668
-200.0   120.0   16.666666666666668
-250.0   120.0   0.0
-250.0   90.0   16.666666666666668
-200.0   120.0   16.666666666666668
-200.0   90.0   16.666666666666668
-200.0   90.0   0.0
-250.0   90.0   16.666666666666668
-200.0   120.0   16.666666666666668
-200.0   90.0   0.0
-250.0   120.0   0.0
-250.0   90.0   16.666666666666668
-200.0   90.0   16.666666666666668
-250.0   120.0   16.666666666666668
-250.0   90.0   33.333333333333336
-200.0   90.0   16.666666666666668
-200.0   120.0   16.666666666666668
-250.0   120.0   16.666666666666668
-200.0   120.0   33.333333333333336
-250.0   90.0   33.333333333333336
-250.0   120.0   33.333333333333336
-200.0   120.0   33.333333333333336
-250.0   120.0   16.666666666666668
-250.0   90.0   33.333333333333336
-200.0   120.0   33.333333333333336
-200.0   90.0   33.333333333333336
-200.0   90.0   16.666666666666668
-250.0   90.0   33.333333333333336
-200.0   120.0   33.333333333333336
-200.0   90.0   16.666666666666668
-250.0   120.0   16.666666666666668
-250.0   90.0   33.333333333333336
-200.0   90.0   33.333333333333336
-250.0   120.0   33.333333333333336
-250.0   90.0   50.0
-200.0   90.0   33.333333333333336
-200.0   120.0   33.333333333333336
-250.0   120.0   33.333333333333336
-200.0   120.0   50.0
-250.0   90.0   50.0
-250.0   120.0   50.0
-200.0   120.0   50.0
-250.0   120.0   33.333333333333336
-250.0   90.0   50.0
-200.0   120.0   50.0
-200.0   90.0   50.0
-200.0   90.0   33.333333333333336
-250.0   90.0   50.0
-200.0   120.0   50.0
-200.0   90.0   33.333333333333336
-250.0   120.0   33.333333333333336
-250.0   120.0   0.0
-200.0   120.0   0.0
-250.0   150.0   0.0
-250.0   120.0   16.666666666666668
-200.0   120.0   0.0
-200.0   150.0   0.0
-250.0   150.0   0.0
-200.0   150.0   16.666666666666668
-250.0   120.0   16.666666666666668
-250.0   150.0   16.666666666666668
-200.0   150.0   16.666666666666668
-250.0   150.0   0.0
-250.0   120.0   16.666666666666668
-200.0   150.0   16.666666666666668
-200.0   120.0   16.666666666666668
-200.0   120.0   0.0
-250.0   120.0   16.666666666666668
-200.0   150.0   16.666666666666668
-200.0   120.0   0.0
-250.0   150.0   0.0
-250.0   120.0   16.666666666666668
-200.0   120.0   16.666666666666668
-250.0   150.0   16.666666666666668
-250.0   120.0   33.333333333333336
-200.0   120.0   16.666666666666668
-200.0   150.0   16.666666666666668
-250.0   150.0   16.666666666666668
-200.0   150.0   33.333333333333336
-250.0   120.0   33.333333333333336
-250.0   150.0   33.333333333333336
-200.0   150.0   33.333333333333336
-250.0   150.0   16.666666666666668
-250.0   120.0   33.333333333333336
-200.0   150.0   33.333333333333336
-200.0   120.0   33.333333333333336
-200.0   120.0   16.666666666666668
-250.0   120.0   33.333333333333336
-200.0   150.0   33.333333333333336
-200.0   120.0   16.666666666666668
-250.0   150.0   16.666666666666668
-250.0   120.0   33.333333333333336
-200.0   120.0   33.333333333333336
-250.0   150.0   33.333333333333336
-250.0   120.0   50.0
-200.0   120.0   33.333333333333336
-200.0   150.0   33.333333333333336
-250.0   150.0   33.333333333333336
-200.0   150.0   50.0
-250.0   120.0   50.0
-250.0   150.0   50.0
-200.0   150.0   50.0
-250.0   150.0   33.333333333333336
-250.0   120.0   50.0
-200.0   150.0   50.0
-200.0   120.0   50.0
-200.0   120.0   33.333333333333336
-250.0   120.0   50.0
-200.0   150.0   50.0
-200.0   120.0   33.333333333333336
-250.0   150.0   33.333333333333336
-200.0   0.0   0.0
-150.0   0.0   0.0
-200.0   30.0   0.0
-200.0   0.0   16.666666666666668
-150.0   0.0   0.0
-150.0   30.0   0.0
-200.0   30.0   0.0
-150.0   30.0   16.666666666666668
-200.0   0.0   16.666666666666668
-200.0   30.0   16.666666666666668
-150.0   30.0   16.666666666666668
-200.0   30.0   0.0
-200.0   0.0   16.666666666666668
-150.0   30.0   16.666666666666668
-150.0   0.0   16.666666666666668
-150.0   0.0   0.0
-200.0   0.0   16.666666666666668
-150.0   30.0   16.666666666666668
-150.0   0.0   0.0
-200.0   30.0   0.0
-200.0   0.0   16.666666666666668
-150.0   0.0   16.666666666666668
-200.0   30.0   16.666666666666668
-200.0   0.0   33.333333333333336
-150.0   0.0   16.666666666666668
-150.0   30.0   16.666666666666668
-200.0   30.0   16.666666666666668
-150.0   30.0   33.333333333333336
-200.0   0.0   33.333333333333336
-200.0   30.0   33.333333333333336
-150.0   30.0   33.333333333333336
-200.0   30.0   16.666666666666668
-200.0   0.0   33.333333333333336
-150.0   30.0   33.333333333333336
-150.0   0.0   33.333333333333336
-150.0   0.0   16.666666666666668
-200.0   0.0   33.333333333333336
-150.0   30.0   33.333333333333336
-150.0   0.0   16.666666666666668
-200.0   30.0   16.666666666666668
-200.0   0.0   33.333333333333336
-150.0   0.0   33.333333333333336
-200.0   30.0   33.333333333333336
-200.0   0.0   50.0
-150.0   0.0   33.333333333333336
-150.0   30.0   33.333333333333336
-200.0   30.0   33.333333333333336
-150.0   30.0   50.0
-200.0   0.0   50.0
-200.0   30.0   50.0
-150.0   30.0   50.0
-200.0   30.0   33.333333333333336
-200.0   0.0   50.0
-150.0   30.0   50.0
-150.0   0.0   50.0
-150.0   0.0   33.333333333333336
-200.0   0.0   50.0
-150.0   30.0   50.0
-150.0   0.0   33.333333333333336
-200.0   30.0   33.333333333333336
-200.0   30.0   0.0
-150.0   30.0   0.0
-200.0   60.0   0.0
-200.0   30.0   16.666666666666668
-150.0   30.0   0.0
-150.0   60.0   0.0
-200.0   60.0   0.0
-150.0   60.0   16.666666666666668
-200.0   30.0   16.666666666666668
-200.0   60.0   16.666666666666668
-150.0   60.0   16.666666666666668
-200.0   60.0   0.0
-200.0   30.0   16.666666666666668
-150.0   60.0   16.666666666666668
-150.0   30.0   16.666666666666668
-150.0   30.0   0.0
-200.0   30.0   16.666666666666668
-150.0   60.0   16.666666666666668
-150.0   30.0   0.0
-200.0   60.0   0.0
-200.0   30.0   16.666666666666668
-150.0   30.0   16.666666666666668
-200.0   60.0   16.666666666666668
-200.0   30.0   33.333333333333336
-150.0   30.0   16.666666666666668
-150.0   60.0   16.666666666666668
-200.0   60.0   16.666666666666668
-150.0   60.0   33.333333333333336
-200.0   30.0   33.333333333333336
-200.0   60.0   33.333333333333336
-150.0   60.0   33.333333333333336
-200.0   60.0   16.666666666666668
-200.0   30.0   33.333333333333336
-150.0   60.0   33.333333333333336
-150.0   30.0   33.333333333333336
-150.0   30.0   16.666666666666668
-200.0   30.0   33.333333333333336
-150.0   60.0   33.333333333333336
-150.0   30.0   16.666666666666668
-200.0   60.0   16.666666666666668
-200.0   30.0   33.333333333333336
-150.0   30.0   33.333333333333336
-200.0   60.0   33.333333333333336
-200.0   30.0   50.0
-150.0   30.0   33.333333333333336
-150.0   60.0   33.333333333333336
-200.0   60.0   33.333333333333336
-150.0   60.0   50.0
-200.0   30.0   50.0
-200.0   60.0   50.0
-150.0   60.0   50.0
-200.0   60.0   33.333333333333336
-200.0   30.0   50.0
-150.0   60.0   50.0
-150.0   30.0   50.0
-150.0   30.0   33.333333333333336
-200.0   30.0   50.0
-150.0   60.0   50.0
-150.0   30.0   33.333333333333336
-200.0   60.0   33.333333333333336
-200.0   60.0   0.0
-150.0   60.0   0.0
-200.0   90.0   0.0
-200.0   60.0   16.666666666666668
-150.0   60.0   0.0
-150.0   90.0   0.0
-200.0   90.0   0.0
-150.0   90.0   16.666666666666668
-200.0   60.0   16.666666666666668
-200.0   90.0   16.666666666666668
-150.0   90.0   16.666666666666668
-200.0   90.0   0.0
-200.0   60.0   16.666666666666668
-150.0   90.0   16.666666666666668
-150.0   60.0   16.666666666666668
-150.0   60.0   0.0
-200.0   60.0   16.666666666666668
-150.0   90.0   16.666666666666668
-150.0   60.0   0.0
-200.0   90.0   0.0
-200.0   60.0   16.666666666666668
-150.0   60.0   16.666666666666668
-200.0   90.0   16.666666666666668
-200.0   60.0   33.333333333333336
-150.0   60.0   16.666666666666668
-150.0   90.0   16.666666666666668
-200.0   90.0   16.666666666666668
-150.0   90.0   33.333333333333336
-200.0   60.0   33.333333333333336
-200.0   90.0   33.333333333333336
-150.0   90.0   33.333333333333336
-200.0   90.0   16.666666666666668
-200.0   60.0   33.333333333333336
-150.0   90.0   33.333333333333336
-150.0   60.0   33.333333333333336
-150.0   60.0   16.666666666666668
-200.0   60.0   33.333333333333336
-150.0   90.0   33.333333333333336
-150.0   60.0   16.666666666666668
-200.0   90.0   16.666666666666668
-200.0   60.0   33.333333333333336
-150.0   60.0   33.333333333333336
-200.0   90.0   33.333333333333336
-200.0   60.0   50.0
-150.0   60.0   33.333333333333336
-150.0   90.0   33.333333333333336
-200.0   90.0   33.333333333333336
-150.0   90.0   50.0
-200.0   60.0   50.0
-200.0   90.0   50.0
-150.0   90.0   50.0
-200.0   90.0   33.333333333333336
-200.0   60.0   50.0
-150.0   90.0   50.0
-150.0   60.0   50.0
-150.0   60.0   33.333333333333336
-200.0   60.0   50.0
-150.0   90.0   50.0
-150.0   60.0   33.333333333333336
-200.0   90.0   33.333333333333336
-200.0   90.0   0.0
-150.0   90.0   0.0
-200.0   120.0   0.0
-200.0   90.0   16.666666666666668
-150.0   90.0   0.0
-150.0   120.0   0.0
-200.0   120.0   0.0
-150.0   120.0   16.666666666666668
-200.0   90.0   16.666666666666668
-200.0   120.0   16.666666666666668
-150.0   120.0   16.666666666666668
-200.0   120.0   0.0
-200.0   90.0   16.666666666666668
-150.0   120.0   16.666666666666668
-150.0   90.0   16.666666666666668
-150.0   90.0   0.0
-200.0   90.0   16.666666666666668
-150.0   120.0   16.666666666666668
-150.0   90.0   0.0
-200.0   120.0   0.0
-200.0   90.0   16.666666666666668
-150.0   90.0   16.666666666666668
-200.0   120.0   16.666666666666668
-200.0   90.0   33.333333333333336
-150.0   90.0   16.666666666666668
-150.0   120.0   16.666666666666668
-200.0   120.0   16.666666666666668
-150.0   120.0   33.333333333333336
-200.0   90.0   33.333333333333336
-200.0   120.0   33.333333333333336
-150.0   120.0   33.333333333333336
-200.0   120.0   16.666666666666668
-200.0   90.0   33.333333333333336
-150.0   120.0   33.333333333333336
-150.0   90.0   33.333333333333336
-150.0   90.0   16.666666666666668
-200.0   90.0   33.333333333333336
-150.0   120.0   33.333333333333336
-150.0   90.0   16.666666666666668
-200.0   120.0   16.666666666666668
-200.0   90.0   33.333333333333336
-150.0   90.0   33.333333333333336
-200.0   120.0   33.333333333333336
-200.0   90.0   50.0
-150.0   90.0   33.333333333333336
-150.0   120.0   33.333333333333336
-200.0   120.0   33.333333333333336
-150.0   120.0   50.0
-200.0   90.0   50.0
-200.0   120.0   50.0
-150.0   120.0   50.0
-200.0   120.0   33.333333333333336
-200.0   90.0   50.0
-150.0   120.0   50.0
-150.0   90.0   50.0
-150.0   90.0   33.333333333333336
-200.0   90.0   50.0
-150.0   120.0   50.0
-150.0   90.0   33.333333333333336
-200.0   120.0   33.333333333333336
-200.0   120.0   0.0
-150.0   120.0   0.0
-200.0   150.0   0.0
-200.0   120.0   16.666666666666668
-150.0   120.0   0.0
-150.0   150.0   0.0
-200.0   150.0   0.0
-150.0   150.0   16.666666666666668
-200.0   120.0   16.666666666666668
-200.0   150.0   16.666666666666668
-150.0   150.0   16.666666666666668
-200.0   150.0   0.0
-200.0   120.0   16.666666666666668
-150.0   150.0   16.666666666666668
-150.0   120.0   16.666666666666668
-150.0   120.0   0.0
-200.0   120.0   16.666666666666668
-150.0   150.0   16.666666666666668
-150.0   120.0   0.0
-200.0   150.0   0.0
-200.0   120.0   16.666666666666668
-150.0   120.0   16.666666666666668
-200.0   150.0   16.666666666666668
-200.0   120.0   33.333333333333336
-150.0   120.0   16.666666666666668
-150.0   150.0   16.666666666666668
-200.0   150.0   16.666666666666668
-150.0   150.0   33.333333333333336
-200.0   120.0   33.333333333333336
-200.0   150.0   33.333333333333336
-150.0   150.0   33.333333333333336
-200.0   150.0   16.666666666666668
-200.0   120.0   33.333333333333336
-150.0   150.0   33.333333333333336
-150.0   120.0   33.333333333333336
-150.0   120.0   16.666666666666668
-200.0   120.0   33.333333333333336
-150.0   150.0   33.333333333333336
-150.0   120.0   16.666666666666668
-200.0   150.0   16.666666666666668
-200.0   120.0   33.333333333333336
-150.0   120.0   33.333333333333336
-200.0   150.0   33.333333333333336
-200.0   120.0   50.0
-150.0   120.0   33.333333333333336
-150.0   150.0   33.333333333333336
-200.0   150.0   33.333333333333336
-150.0   150.0   50.0
-200.0   120.0   50.0
-200.0   150.0   50.0
-150.0   150.0   50.0
-200.0   150.0   33.333333333333336
-200.0   120.0   50.0
-150.0   150.0   50.0
-150.0   120.0   50.0
-150.0   120.0   33.333333333333336
-200.0   120.0   50.0
-150.0   150.0   50.0
-150.0   120.0   33.333333333333336
-200.0   150.0   33.333333333333336
-150.0   0.0   0.0
-100.0   0.0   0.0
-150.0   30.0   0.0
-150.0   0.0   16.666666666666668
-100.0   0.0   0.0
-100.0   30.0   0.0
-150.0   30.0   0.0
-100.0   30.0   16.666666666666668
-150.0   0.0   16.666666666666668
-150.0   30.0   16.666666666666668
-100.0   30.0   16.666666666666668
-150.0   30.0   0.0
-150.0   0.0   16.666666666666668
-100.0   30.0   16.666666666666668
-100.0   0.0   16.666666666666668
-100.0   0.0   0.0
-150.0   0.0   16.666666666666668
-100.0   30.0   16.666666666666668
-100.0   0.0   0.0
-150.0   30.0   0.0
-150.0   0.0   16.666666666666668
-100.0   0.0   16.666666666666668
-150.0   30.0   16.666666666666668
-150.0   0.0   33.333333333333336
-100.0   0.0   16.666666666666668
-100.0   30.0   16.666666666666668
-150.0   30.0   16.666666666666668
-100.0   30.0   33.333333333333336
-150.0   0.0   33.333333333333336
-150.0   30.0   33.333333333333336
-100.0   30.0   33.333333333333336
-150.0   30.0   16.666666666666668
-150.0   0.0   33.333333333333336
-100.0   30.0   33.333333333333336
-100.0   0.0   33.333333333333336
-100.0   0.0   16.666666666666668
-150.0   0.0   33.333333333333336
-100.0   30.0   33.333333333333336
-100.0   0.0   16.666666666666668
-150.0   30.0   16.666666666666668
-150.0   0.0   33.333333333333336
-100.0   0.0   33.333333333333336
-150.0   30.0   33.333333333333336
-150.0   0.0   50.0
-100.0   0.0   33.333333333333336
-100.0   30.0   33.333333333333336
-150.0   30.0   33.333333333333336
-100.0   30.0   50.0
-150.0   0.0   50.0
-150.0   30.0   50.0
-100.0   30.0   50.0
-150.0   30.0   33.333333333333336
-150.0   0.0   50.0
-100.0   30.0   50.0
-100.0   0.0   50.0
-100.0   0.0   33.333333333333336
-150.0   0.0   50.0
-100.0   30.0   50.0
-100.0   0.0   33.333333333333336
-150.0   30.0   33.333333333333336
-150.0   30.0   0.0
-100.0   30.0   0.0
-150.0   60.0   0.0
-150.0   30.0   16.666666666666668
-100.0   30.0   0.0
-100.0   60.0   0.0
-150.0   60.0   0.0
-100.0   60.0   16.666666666666668
-150.0   30.0   16.666666666666668
-150.0   60.0   16.666666666666668
-100.0   60.0   16.666666666666668
-150.0   60.0   0.0
-150.0   30.0   16.666666666666668
-100.0   60.0   16.666666666666668
-100.0   30.0   16.666666666666668
-100.0   30.0   0.0
-150.0   30.0   16.666666666666668
-100.0   60.0   16.666666666666668
-100.0   30.0   0.0
-150.0   60.0   0.0
-150.0   30.0   16.666666666666668
-100.0   30.0   16.666666666666668
-150.0   60.0   16.666666666666668
-150.0   30.0   33.333333333333336
-100.0   30.0   16.666666666666668
-100.0   60.0   16.666666666666668
-150.0   60.0   16.666666666666668
-100.0   60.0   33.333333333333336
-150.0   30.0   33.333333333333336
-150.0   60.0   33.333333333333336
-100.0   60.0   33.333333333333336
-150.0   60.0   16.666666666666668
-150.0   30.0   33.333333333333336
-100.0   60.0   33.333333333333336
-100.0   30.0   33.333333333333336
-100.0   30.0   16.666666666666668
-150.0   30.0   33.333333333333336
-100.0   60.0   33.333333333333336
-100.0   30.0   16.666666666666668
-150.0   60.0   16.666666666666668
-150.0   30.0   33.333333333333336
-100.0   30.0   33.333333333333336
-150.0   60.0   33.333333333333336
-150.0   30.0   50.0
-100.0   30.0   33.333333333333336
-100.0   60.0   33.333333333333336
-150.0   60.0   33.333333333333336
-100.0   60.0   50.0
-150.0   30.0   50.0
-150.0   60.0   50.0
-100.0   60.0   50.0
-150.0   60.0   33.333333333333336
-150.0   30.0   50.0
-100.0   60.0   50.0
-100.0   30.0   50.0
-100.0   30.0   33.333333333333336
-150.0   30.0   50.0
-100.0   60.0   50.0
-100.0   30.0   33.333333333333336
-150.0   60.0   33.333333333333336
-150.0   60.0   0.0
-100.0   60.0   0.0
-150.0   90.0   0.0
-150.0   60.0   16.666666666666668
-100.0   60.0   0.0
-100.0   90.0   0.0
-150.0   90.0   0.0
-100.0   90.0   16.666666666666668
-150.0   60.0   16.666666666666668
-150.0   90.0   16.666666666666668
-100.0   90.0   16.666666666666668
-150.0   90.0   0.0
-150.0   60.0   16.666666666666668
-100.0   90.0   16.666666666666668
-100.0   60.0   16.666666666666668
-100.0   60.0   0.0
-150.0   60.0   16.666666666666668
-100.0   90.0   16.666666666666668
-100.0   60.0   0.0
-150.0   90.0   0.0
-150.0   60.0   16.666666666666668
-100.0   60.0   16.666666666666668
-150.0   90.0   16.666666666666668
-150.0   60.0   33.333333333333336
-100.0   60.0   16.666666666666668
-100.0   90.0   16.666666666666668
-150.0   90.0   16.666666666666668
-100.0   90.0   33.333333333333336
-150.0   60.0   33.333333333333336
-150.0   90.0   33.333333333333336
-100.0   90.0   33.333333333333336
-150.0   90.0   16.666666666666668
-150.0   60.0   33.333333333333336
-100.0   90.0   33.333333333333336
-100.0   60.0   33.333333333333336
-100.0   60.0   16.666666666666668
-150.0   60.0   33.333333333333336
-100.0   90.0   33.333333333333336
-100.0   60.0   16.666666666666668
-150.0   90.0   16.666666666666668
-150.0   60.0   33.333333333333336
-100.0   60.0   33.333333333333336
-150.0   90.0   33.333333333333336
-150.0   60.0   50.0
-100.0   60.0   33.333333333333336
-100.0   90.0   33.333333333333336
-150.0   90.0   33.333333333333336
-100.0   90.0   50.0
-150.0   60.0   50.0
-150.0   90.0   50.0
-100.0   90.0   50.0
-150.0   90.0   33.333333333333336
-150.0   60.0   50.0
-100.0   90.0   50.0
-100.0   60.0   50.0
-100.0   60.0   33.333333333333336
-150.0   60.0   50.0
-100.0   90.0   50.0
-100.0   60.0   33.333333333333336
-150.0   90.0   33.333333333333336
-150.0   90.0   0.0
-100.0   90.0   0.0
-150.0   120.0   0.0
-150.0   90.0   16.666666666666668
-100.0   90.0   0.0
-100.0   120.0   0.0
-150.0   120.0   0.0
-100.0   120.0   16.666666666666668
-150.0   90.0   16.666666666666668
-150.0   120.0   16.666666666666668
-100.0   120.0   16.666666666666668
-150.0   120.0   0.0
-150.0   90.0   16.666666666666668
-100.0   120.0   16.666666666666668
-100.0   90.0   16.666666666666668
-100.0   90.0   0.0
-150.0   90.0   16.666666666666668
-100.0   120.0   16.666666666666668
-100.0   90.0   0.0
-150.0   120.0   0.0
-150.0   90.0   16.666666666666668
-100.0   90.0   16.666666666666668
-150.0   120.0   16.666666666666668
-150.0   90.0   33.333333333333336
-100.0   90.0   16.666666666666668
-100.0   120.0   16.666666666666668
-150.0   120.0   16.666666666666668
-100.0   120.0   33.333333333333336
-150.0   90.0   33.333333333333336
-150.0   120.0   33.333333333333336
-100.0   120.0   33.333333333333336
-150.0   120.0   16.666666666666668
-150.0   90.0   33.333333333333336
-100.0   120.0   33.333333333333336
-100.0   90.0   33.333333333333336
-100.0   90.0   16.666666666666668
-150.0   90.0   33.333333333333336
-100.0   120.0   33.333333333333336
-100.0   90.0   16.666666666666668
-150.0   120.0   16.666666666666668
-150.0   90.0   33.333333333333336
-100.0   90.0   33.333333333333336
-150.0   120.0   33.333333333333336
-150.0   90.0   50.0
-100.0   90.0   33.333333333333336
-100.0   120.0   33.333333333333336
-150.0   120.0   33.333333333333336
-100.0   120.0   50.0
-150.0   90.0   50.0
-150.0   120.0   50.0
-100.0   120.0   50.0
-150.0   120.0   33.333333333333336
-150.0   90.0   50.0
-100.0   120.0   50.0
-100.0   90.0   50.0
-100.0   90.0   33.333333333333336
-150.0   90.0   50.0
-100.0   120.0   50.0
-100.0   90.0   33.333333333333336
-150.0   120.0   33.333333333333336
-150.0   120.0   0.0
-100.0   120.0   0.0
-150.0   150.0   0.0
-150.0   120.0   16.666666666666668
-100.0   120.0   0.0
-100.0   150.0   0.0
-150.0   150.0   0.0
-100.0   150.0   16.666666666666668
-150.0   120.0   16.666666666666668
-150.0   150.0   16.666666666666668
-100.0   150.0   16.666666666666668
-150.0   150.0   0.0
-150.0   120.0   16.666666666666668
-100.0   150.0   16.666666666666668
-100.0   120.0   16.666666666666668
-100.0   120.0   0.0
-150.0   120.0   16.666666666666668
-100.0   150.0   16.666666666666668
-100.0   120.0   0.0
-150.0   150.0   0.0
-150.0   120.0   16.666666666666668
-100.0   120.0   16.666666666666668
-150.0   150.0   16.666666666666668
-150.0   120.0   33.333333333333336
-100.0   120.0   16.666666666666668
-100.0   150.0   16.666666666666668
-150.0   150.0   16.666666666666668
-100.0   150.0   33.333333333333336
-150.0   120.0   33.333333333333336
-150.0   150.0   33.333333333333336
-100.0   150.0   33.333333333333336
-150.0   150.0   16.666666666666668
-150.0   120.0   33.333333333333336
-100.0   150.0   33.333333333333336
-100.0   120.0   33.333333333333336
-100.0   120.0   16.666666666666668
-150.0   120.0   33.333333333333336
-100.0   150.0   33.333333333333336
-100.0   120.0   16.666666666666668
-150.0   150.0   16.666666666666668
-150.0   120.0   33.333333333333336
-100.0   120.0   33.333333333333336
-150.0   150.0   33.333333333333336
-150.0   120.0   50.0
-100.0   120.0   33.333333333333336
-100.0   150.0   33.333333333333336
-150.0   150.0   33.333333333333336
-100.0   150.0   50.0
-150.0   120.0   50.0
-150.0   150.0   50.0
-100.0   150.0   50.0
-150.0   150.0   33.333333333333336
-150.0   120.0   50.0
-100.0   150.0   50.0
-100.0   120.0   50.0
-100.0   120.0   33.333333333333336
-150.0   120.0   50.0
-100.0   150.0   50.0
-100.0   120.0   33.333333333333336
-150.0   150.0   33.333333333333336
-100.0   0.0   0.0
-50.0   0.0   0.0
-100.0   30.0   0.0
-100.0   0.0   16.666666666666668
-50.0   0.0   0.0
-50.0   30.0   0.0
-100.0   30.0   0.0
-50.0   30.0   16.666666666666668
-100.0   0.0   16.666666666666668
-100.0   30.0   16.666666666666668
-50.0   30.0   16.666666666666668
-100.0   30.0   0.0
-100.0   0.0   16.666666666666668
-50.0   30.0   16.666666666666668
-50.0   0.0   16.666666666666668
-50.0   0.0   0.0
-100.0   0.0   16.666666666666668
-50.0   30.0   16.666666666666668
-50.0   0.0   0.0
-100.0   30.0   0.0
-100.0   0.0   16.666666666666668
-50.0   0.0   16.666666666666668
-100.0   30.0   16.666666666666668
-100.0   0.0   33.333333333333336
-50.0   0.0   16.666666666666668
-50.0   30.0   16.666666666666668
-100.0   30.0   16.666666666666668
-50.0   30.0   33.333333333333336
-100.0   0.0   33.333333333333336
-100.0   30.0   33.333333333333336
-50.0   30.0   33.333333333333336
-100.0   30.0   16.666666666666668
-100.0   0.0   33.333333333333336
-50.0   30.0   33.333333333333336
-50.0   0.0   33.333333333333336
-50.0   0.0   16.666666666666668
-100.0   0.0   33.333333333333336
-50.0   30.0   33.333333333333336
-50.0   0.0   16.666666666666668
-100.0   30.0   16.666666666666668
-100.0   0.0   33.333333333333336
-50.0   0.0   33.333333333333336
-100.0   30.0   33.333333333333336
-100.0   0.0   50.0
-50.0   0.0   33.333333333333336
-50.0   30.0   33.333333333333336
-100.0   30.0   33.333333333333336
-50.0   30.0   50.0
-100.0   0.0   50.0
-100.0   30.0   50.0
-50.0   30.0   50.0
-100.0   30.0   33.333333333333336
-100.0   0.0   50.0
-50.0   30.0   50.0
-50.0   0.0   50.0
-50.0   0.0   33.333333333333336
-100.0   0.0   50.0
-50.0   30.0   50.0
-50.0   0.0   33.333333333333336
-100.0   30.0   33.333333333333336
-100.0   30.0   0.0
-50.0   30.0   0.0
-100.0   60.0   0.0
-100.0   30.0   16.666666666666668
-50.0   30.0   0.0
-50.0   60.0   0.0
-100.0   60.0   0.0
-50.0   60.0   16.666666666666668
-100.0   30.0   16.666666666666668
-100.0   60.0   16.666666666666668
-50.0   60.0   16.666666666666668
-100.0   60.0   0.0
-100.0   30.0   16.666666666666668
-50.0   60.0   16.666666666666668
-50.0   30.0   16.666666666666668
-50.0   30.0   0.0
-100.0   30.0   16.666666666666668
-50.0   60.0   16.666666666666668
-50.0   30.0   0.0
-100.0   60.0   0.0
-100.0   30.0   16.666666666666668
-50.0   30.0   16.666666666666668
-100.0   60.0   16.666666666666668
-100.0   30.0   33.333333333333336
-50.0   30.0   16.666666666666668
-50.0   60.0   16.666666666666668
-100.0   60.0   16.666666666666668
-50.0   60.0   33.333333333333336
-100.0   30.0   33.333333333333336
-100.0   60.0   33.333333333333336
-50.0   60.0   33.333333333333336
-100.0   60.0   16.666666666666668
-100.0   30.0   33.333333333333336
-50.0   60.0   33.333333333333336
-50.0   30.0   33.333333333333336
-50.0   30.0   16.666666666666668
-100.0   30.0   33.333333333333336
-50.0   60.0   33.333333333333336
-50.0   30.0   16.666666666666668
-100.0   60.0   16.666666666666668
-100.0   30.0   33.333333333333336
-50.0   30.0   33.333333333333336
-100.0   60.0   33.333333333333336
-100.0   30.0   50.0
-50.0   30.0   33.333333333333336
-50.0   60.0   33.333333333333336
-100.0   60.0   33.333333333333336
-50.0   60.0   50.0
-100.0   30.0   50.0
-100.0   60.0   50.0
-50.0   60.0   50.0
-100.0   60.0   33.333333333333336
-100.0   30.0   50.0
-50.0   60.0   50.0
-50.0   30.0   50.0
-50.0   30.0   33.333333333333336
-100.0   30.0   50.0
-50.0   60.0   50.0
-50.0   30.0   33.333333333333336
-100.0   60.0   33.333333333333336
-100.0   60.0   0.0
-50.0   60.0   0.0
-100.0   90.0   0.0
-100.0   60.0   16.666666666666668
-50.0   60.0   0.0
-50.0   90.0   0.0
-100.0   90.0   0.0
-50.0   90.0   16.666666666666668
-100.0   60.0   16.666666666666668
-100.0   90.0   16.666666666666668
-50.0   90.0   16.666666666666668
-100.0   90.0   0.0
-100.0   60.0   16.666666666666668
-50.0   90.0   16.666666666666668
-50.0   60.0   16.666666666666668
-50.0   60.0   0.0
-100.0   60.0   16.666666666666668
-50.0   90.0   16.666666666666668
-50.0   60.0   0.0
-100.0   90.0   0.0
-100.0   60.0   16.666666666666668
-50.0   60.0   16.666666666666668
-100.0   90.0   16.666666666666668
-100.0   60.0   33.333333333333336
-50.0   60.0   16.666666666666668
-50.0   90.0   16.666666666666668
-100.0   90.0   16.666666666666668
-50.0   90.0   33.333333333333336
-100.0   60.0   33.333333333333336
-100.0   90.0   33.333333333333336
-50.0   90.0   33.333333333333336
-100.0   90.0   16.666666666666668
-100.0   60.0   33.333333333333336
-50.0   90.0   33.333333333333336
-50.0   60.0   33.333333333333336
-50.0   60.0   16.666666666666668
-100.0   60.0   33.333333333333336
-50.0   90.0   33.333333333333336
-50.0   60.0   16.666666666666668
-100.0   90.0   16.666666666666668
-100.0   60.0   33.333333333333336
-50.0   60.0   33.333333333333336
-100.0   90.0   33.333333333333336
-100.0   60.0   50.0
-50.0   60.0   33.333333333333336
-50.0   90.0   33.333333333333336
-100.0   90.0   33.333333333333336
-50.0   90.0   50.0
-100.0   60.0   50.0
-100.0   90.0   50.0
-50.0   90.0   50.0
-100.0   90.0   33.333333333333336
-100.0   60.0   50.0
-50.0   90.0   50.0
-50.0   60.0   50.0
-50.0   60.0   33.333333333333336
-100.0   60.0   50.0
-50.0   90.0   50.0
-50.0   60.0   33.333333333333336
-100.0   90.0   33.333333333333336
-100.0   90.0   0.0
-50.0   90.0   0.0
-100.0   120.0   0.0
-100.0   90.0   16.666666666666668
-50.0   90.0   0.0
-50.0   120.0   0.0
-100.0   120.0   0.0
-50.0   120.0   16.666666666666668
-100.0   90.0   16.666666666666668
-100.0   120.0   16.666666666666668
-50.0   120.0   16.666666666666668
-100.0   120.0   0.0
-100.0   90.0   16.666666666666668
-50.0   120.0   16.666666666666668
-50.0   90.0   16.666666666666668
-50.0   90.0   0.0
-100.0   90.0   16.666666666666668
-50.0   120.0   16.666666666666668
-50.0   90.0   0.0
-100.0   120.0   0.0
-100.0   90.0   16.666666666666668
-50.0   90.0   16.666666666666668
-100.0   120.0   16.666666666666668
-100.0   90.0   33.333333333333336
-50.0   90.0   16.666666666666668
-50.0   120.0   16.666666666666668
-100.0   120.0   16.666666666666668
-50.0   120.0   33.333333333333336
-100.0   90.0   33.333333333333336
-100.0   120.0   33.333333333333336
-50.0   120.0   33.333333333333336
-100.0   120.0   16.666666666666668
-100.0   90.0   33.333333333333336
-50.0   120.0   33.333333333333336
-50.0   90.0   33.333333333333336
-50.0   90.0   16.666666666666668
-100.0   90.0   33.333333333333336
-50.0   120.0   33.333333333333336
-50.0   90.0   16.666666666666668
-100.0   120.0   16.666666666666668
-100.0   90.0   33.333333333333336
-50.0   90.0   33.333333333333336
-100.0   120.0   33.333333333333336
-100.0   90.0   50.0
-50.0   90.0   33.333333333333336
-50.0   120.0   33.333333333333336
-100.0   120.0   33.333333333333336
-50.0   120.0   50.0
-100.0   90.0   50.0
-100.0   120.0   50.0
-50.0   120.0   50.0
-100.0   120.0   33.333333333333336
-100.0   90.0   50.0
-50.0   120.0   50.0
-50.0   90.0   50.0
-50.0   90.0   33.333333333333336
-100.0   90.0   50.0
-50.0   120.0   50.0
-50.0   90.0   33.333333333333336
-100.0   120.0   33.333333333333336
-100.0   120.0   0.0
-50.0   120.0   0.0
-100.0   150.0   0.0
-100.0   120.0   16.666666666666668
-50.0   120.0   0.0
-50.0   150.0   0.0
-100.0   150.0   0.0
-50.0   150.0   16.666666666666668
-100.0   120.0   16.666666666666668
-100.0   150.0   16.666666666666668
-50.0   150.0   16.666666666666668
-100.0   150.0   0.0
-100.0   120.0   16.666666666666668
-50.0   150.0   16.666666666666668
-50.0   120.0   16.666666666666668
-50.0   120.0   0.0
-100.0   120.0   16.666666666666668
-50.0   150.0   16.666666666666668
-50.0   120.0   0.0
-100.0   150.0   0.0
-100.0   120.0   16.666666666666668
-50.0   120.0   16.666666666666668
-100.0   150.0   16.666666666666668
-100.0   120.0   33.333333333333336
-50.0   120.0   16.666666666666668
-50.0   150.0   16.666666666666668
-100.0   150.0   16.666666666666668
-50.0   150.0   33.333333333333336
-100.0   120.0   33.333333333333336
-100.0   150.0   33.333333333333336
-50.0   150.0   33.333333333333336
-100.0   150.0   16.666666666666668
-100.0   120.0   33.333333333333336
-50.0   150.0   33.333333333333336
-50.0   120.0   33.333333333333336
-50.0   120.0   16.666666666666668
-100.0   120.0   33.333333333333336
-50.0   150.0   33.333333333333336
-50.0   120.0   16.666666666666668
-100.0   150.0   16.666666666666668
-100.0   120.0   33.333333333333336
-50.0   120.0   33.333333333333336
-100.0   150.0   33.333333333333336
-100.0   120.0   50.0
-50.0   120.0   33.333333333333336
-50.0   150.0   33.333333333333336
-100.0   150.0   33.333333333333336
-50.0   150.0   50.0
-100.0   120.0   50.0
-100.0   150.0   50.0
-50.0   150.0   50.0
-100.0   150.0   33.333333333333336
-100.0   120.0   50.0
-50.0   150.0   50.0
-50.0   120.0   50.0
-50.0   120.0   33.333333333333336
-100.0   120.0   50.0
-50.0   150.0   50.0
-50.0   120.0   33.333333333333336
-100.0   150.0   33.333333333333336
-50.0   0.0   0.0
0.0   0.0   0.0
-50.0   30.0   0.0
-50.0   0.0   16.666666666666668
0.0   0.0   0.0
0.0   30.0   0.0
-50.0   30.0   0.0
0.0   30.0   16.666666666666668
-50.0   0.0   16.666666666666668
-50.0   30.0   16.666666666666668
0.0   30.0   16.666666666666668
-50.0   30.0   0.0
-50.0   0.0   16.666666666666668
0.0   30.0   16.666666666666668
0.0   0.0   16.666666666666668
0.0   0.0   0.0
-50.0   0.0   16.666666666666668
0.0   30.0   16.666666666666668
0.0   0.0   0.0
-50.0   30.0   0.0
-50.0   0.0   16.666666666666668
0.0   0.0   16.666666666666668
-50.0   30.0   16.666666666666668
-50.0   0.0   33.333333333333336
0.0   0.0   16.666666666666668
0.0   30.0   16.666666666666668
-50.0   30.0   16.666666666666668
0.0   30.0   33.333333333333336
-50.0   0.0   33.333333333333336
-50.0   30.0   33.333333333333336
0.0   30.0   33.333333333333336
-50.0   30.0   16.666666666666668
-50.0   0.0   33.333333333333336
0.0   30.0   33.333333333333336
0.0   0.0   33.333333333333336
0.0   0.0   16.666666666666668
-50.0   0.0   33.333333333333336
0.0   30.0   33.333333333333336
0.0   0.0   16.666666666666668
-50.0   30.0   16.666666666666668
-50.0   0.0   33.333333333333336
0.0   0.0   33.333333333333336
-50.0   30.0   33.333333333333336
-50.0   0.0   50.0
0.0   0.0   33.333333333333336
0.0   30.0   33.333333333333336
-50.0   30.0   33.333333333333336
0.0   30.0   50.0
-50.0   0.0   50.0
-50.0   30.0   50.0
0.0   30.0   50.0
-50.0   30.0   33.333333333333336
-50.0   0.0   50.0
0.0   30.0   50.0
0.0   0.0   50.0
0.0   0.0   33.333333333333336
-50.0   0.0   50.0
0.0   30.0   50.0
0.0   0.0   33.333333333333336
-50.0   30.0   33.333333333333336
-50.0   30.0   0.0
0.0   30.0   0.0
-50.0   60.0   0.0
-50.0   30.0   16.666666666666668
0.0   30.0   0.0
0.0   60.0   0.0
-50.0   60.0   0.0
0.0   60.0   16.666666666666668
-50.0   30.0   16.666666666666668
-50.0   60.0   16.666666666666668
0.0   60.0   16.666666666666668
-50.0   60.0   0.0
-50.0   30.0   16.666666666666668
0.0   60.0   16.666666666666668
0.0   30.0   16.666666666666668
0.0   30.0   0.0
-50.0   30.0   16.666666666666668
0.0   60.0   16.666666666666668
0.0   30.0   0.0
-50.0   60.0   0.0
-50.0   30.0   16.666666666666668
0.0   30.0   16.666666666666668
-50.0   60.0   16.666666666666668
-50.0   30.0   33.333333333333336
0.0   30.0   16.666666666666668
0.0   60.0   16.666666666666668
-50.0   60.0   16.666666666666668
0.0   60.0   33.333333333333336
-50.0   30.0   33.333333333333336
-50.0   60.0   33.333333333333336
0.0   60.0   33.333333333333336
-50.0   60.0   16.666666666666668
-50.0   30.0   33.333333333333336
0.0   60.0   33.333333333333336
0.0   30.0   33.333333333333336
0.0   30.0   16.666666666666668
-50.0   30.0   33.333333333333336
0.0   60.0   33.333333333333336
0.0   30.0   16.666666666666668
-50.0   60.0   16.666666666666668
-50.0   30.0   33.333333333333336
0.0   30.0   33.333333333333336
-50.0   60.0   33.333333333333336
-50.0   30.0   50.0
0.0   30.0   33.333333333333336
0.0   60.0   33.333333333333336
-50.0   60.0   33.333333333333336
0.0   60.0   50.0
-50.0   30.0   50.0
-50.0   60.0   50.0
0.0   60.0   50.0
-50.0   60.0   33.333333333333336
-50.0   30.0   50.0
0.0   60.0   50.0
0.0   30.0   50.0
0.0   30.0   33.333333333333336
-50.0   30.0   50.0
0.0   60.0   50.0
0.0   30.0   33.333333333333336
-50.0   60.0   33.333333333333336
-50.0   60.0   0.0
0.0   60.0   0.0
-50.0   90.0   0.0
-50.0   60.0   16.666666666666668
0.0   60.0   0.0
0.0   90.0   0.0
-50.0   90.0   0.0
0.0   90.0   16.666666666666668
-50.0   60.0   16.666666666666668
-50.0   90.0   16.666666666666668
0.0   90.0   16.666666666666668
-50.0   90.0   0.0
-50.0   60.0   16.666666666666668
0.0   90.0   16.666666666666668
0.0   60.0   16.666666666666668
0.0   60.0   0.0
-50.0   60.0   16.666666666666668
0.0   90.0   16.666666666666668
0.0   60.0   0.0
-50.0   90.0   0.0
-50.0   60.0   16.666666666666668
0.0   60.0   16.666666666666668
-50.0   90.0   16.666666666666668
-50.0   60.0   33.333333333333336
0.0   60.0   16.666666666666668
0.0   90.0   16.666666666666668
-50.0   90.0   16.666666666666668
0.0   90.0   33.333333333333336
-50.0   60.0   33.333333333333336
-50.0   90.0   33.333333333333336
0.0   90.0   33.333333333333336
-50.0   90.0   16.666666666666668
-50.0   60.0   33.333333333333336
0.0   90.0   33.333333333333336
0.0   60.0   33.333333333333336
0.0   60.0   16.666666666666668
-50.0   60.0   33.333333333333336
0.0   90.0   33.333333333333336
0.0   60.0   16.666666666666668
-50.0   90.0   16.666666666666668
-50.0   60.0   33.333333333333336
0.0   60.0   33.333333333333336
-50.0   90.0   33.333333333333336
-50.0   60.0   50.0
0.0   60.0   33.333333333333336
0.0   90.0   33.333333333333336
-50.0   90.0   33.333333333333336
0.0   90.0   50.0
-50.0   60.0   50.0
-50.0   90.0   50.0
0.0   90.0   50.0
-50.0   90.0   33.333333333333336
-50.0   60.0   50.0
0.0   90.0   50.0
0.0   60.0   50.0
0.0   60.0   33.333333333333336
-50.0   60.0   50.0
0.0   90.0   50.0
0.0   60.0   33.333333333333336
-50.0   90.0   33.333333333333336
-50.0   90.0   0.0
0.0   90.0   0.0
-50.0   120.0   0.0
-50.0   90.0   16.666666666666668
0.0   90.0   0.0
0.0   120.0   0.0
-50.0   120.0   0.0
0.0   120.0   16.666666666666668
-50.0   90.0   16.666666666666668
-50.0   120.0   16.666666666666668
0.0   120.0   16.666666666666668
-50.0   120.0   0.0
-50.0   90.0   16.666666666666668
0.0   120.0   16.666666666666668
0.0   90.0   16.666666666666668
0.0   90.0   0.0
-50.0   90.0   16.666666666666668
0.0   120.0   16.666666666666668
0.0   90.0   0.0
-50.0   120.0   0.0
-50.0   90.0   16.666666666666668
0.0   90.0   16.666666666666668
-50.0   120.0   16.666666666666668
-50.0   90.0   33.333333333333336
0.0   90.0   16.666666666666668
0.0   120.0   16.666666666666668
-50.0   120.0   16.666666666666668
0.0   120.0   33.333333333333336
-50.0   90.0   33.333333333333336
-50.0   120.0   33.333333333333336
0.0   120.0   33.333333333333336
-50.0   120.0   16.666666666666668
-50.0   90.0   33.333333333333336
0.0   120.0   33.333333333333336
0.0   90.0   33.333333333333336
0.0   90.0   16.666666666666668
-50.0   90.0   33.333333333333336
0.0   120.0   33.333333333333336
0.0   90.0   16.666666666666668
-50.0   120.0   16.666666666666668
-50.0   90.0   33.333333333333336
0.0   90.0   33.333333333333336
-50.0   120.0   33.333333333333336
-50.0   90.0   50.0
0.0   90.0   33.333333333333336
0.0   120.0   33.333333333333336
-50.0   120.0   33.333333333333336
0.0   120.0   50.0
-50.0   90.0   50.0
-50.0   120.0   50.0
0.0   120.0   50.0
-50.0   120.0   33.333333333333336
-50.0   90.0   50.0
0.0   120.0   50.0
0.0   90.0   50.0
0.0   90.0   33.333333333333336
-50.0   90.0   50.0
0.0   120.0   50.0
0.0   90.0   33.333333333333336
-50.0   120.0   33.333333333333336
-50.0   120.0   0.0
0.0   120.0   0.0
-50.0   150.0   0.0
-50.0   120.0   16.666666666666668
0.0   120.0   0.0
0.0   150.0   0.0
-50.0   150.0   0.0
0.0   150.0   16.666666666666668
-50.0   120.0   16.666666666666668
-50.0   150.0   16.666666666666668
0.0   150.0   16.666666666666668
-50.0   150.0   0.0
-50.0   120.0   16.666666666666668
0.0   150.0   16.666666666666668
0.0   120.0   16.666666666666668
0.0   120.0   0.0
-50.0   120.0   16.666666666666668
0.0   150.0   16.666666666666668
0.0   120.0   0.0
-50.0   150.0   0.0
-50.0   120.0   16.666666666666668
0.0   120.0   16.666666666666668
-50.0   150.0   16.666666666666668
-50.0   120.0   33.333333333333336
0.0   120.0   16.666666666666668
0.0   150.0   16.666666666666668
-50.0   150.0   16.666666666666668
0.0   150.0   33.333333333333336
-50.0   120.0   33.333333333333336
-50.0   150.0   33.333333333333336
0.0   150.0   33.333333333333336
-50.0   150.0   16.666666666666668
-50.0   120.0   33.333333333333336
0.0   150.0   33.333333333333336
0.0   120.0   33.333333333333336
0.0   120.0   16.666666666666668
-50.0   120.0   33.333333333333336
0.0   150.0   33.333333333333336
0.0   120.0   16.666666666666668
-50.0   150.0   16.666666666666668
-50.0   120.0   33.333333333333336
0.0   120.0   33.333333333333336
-50.0   150.0   33.333333333333336
-50.0   120.0   50.0
0.0   120.0   33.333333333333336
0.0   150.0   33.333333333333336
-50.0   150.0   33.333333333333336
0.0   150.0   50.0
-50.0   120.0   50.0
-50.0   150.0   50.0
0.0   150.0   50.0
-50.0   150.0   33.333333333333336
-50.0   120.0   50.0
0.0   150.0   50.0
0.0   120.0   50.0
0.0   120.0   33.333333333333336
-50.0   120.0   50.0
0.0   150.0   50.0
0.0   120.0   33.333333333333336
-50.0   150.0   33.333333333333336
0.0   0.0   0.0
50.0   0.0   0.0
0.0   30.0   0.0
0.0   0.0   16.666666666666668
50.0   0.0   0.0
50.0   30.0   0.0
0.0   30.0   0.0
50.0   30.0   16.666666666666668
0.0   0.0   16.666666666666668
0.0   30.0   16.666666666666668
50.0   30.0   16.666666666666668
0.0   30.0   0.0
0.0   0.0   16.666666666666668
50.0   30.0   16.666666666666668
50.0   0.0   16.666666666666668
50.0   0.0   0.0
0.0   0.0   16.666666666666668
50.0   30.0   16.666666666666668
50.0   0.0   0.0
0.0   30.0   0.0
0.0   0.0   16.666666666666668
50.0   0.0   16.666666666666668
0.0   30.0   16.666666666666668
0.0   0.0   33.333333333333336
50.0   0.0   16.666666666666668
50.0   30.0   16.666666666666668
0.0   30.0   16.666666666666668
50.0   30.0   33.333333333333336
0.0   0.0   33.333333333333336
0.0   30.0   33.333333333333336
50.0   30.0   33.333333333333336
0.0   30.0   16.666666666666668
0.0   0.0   33.333333333333336
50.0   30.0   33.333333333333336
50.0   0.0   33.333333333333336
50.0   0.0   16.666666666666668
0.0   0.0   33.333333333333336
50.0   30.0   33.333333333333336
50.0   0.0   16.666666666666668
0.0   30.0   16.666666666666668
0.0   0.0   33.333333333333336
50.0   0.0   33.333333333333336
0.0   30.0   33.333333333333336
0.0   0.0   50.0
50.0   0.0   33.333333333333336
50.0   30.0   33.333333333333336
0.0   30.0   33.333333333333336
50.0   30.0   50.0
0.0   0.0   50.0
0.0   30.0   50.0
50.0   30.0   50.0
0.0   30.0   33.333333333333336
0.0   0.0   50.0
50.0   30.0   50.0
50.0   0.0   50.0
50.0   0.0   33.333333333333336
0.0   0.0   50.0
50.0   30.0   50.0
50.0   0.0   33.333333333333336
0.0   30.0   33.333333333333336
0.0   30.0   0.0
50.0   30.0   0.0
0.0   60.0   0.0
0.0   30.0   16.666666666666668
50.0   30.0   0.0
50.0   60.0   0.0
0.0   60.0   0.0
50.0   60.0   16.666666666666668
0.0   30.0   16.666666666666668
0.0   60.0   16.666666666666668
50.0   60.0   16.666666666666668
0.0   60.0   0.0
0.0   30.0   16.666666666666668
50.0   60.0   16.666666666666668
50.0   30.0   16.666666666666668
50.0   30.0   0.0
0.0   30.0   16.666666666666668
50.0   60.0   16.666666666666668
50.0   30.0   0.0
0.0   60.0   0.0
0.0   30.0   16.666666666666668
50.0   30.0   16.666666666666668
0.0   60.0   16.666666666666668
0.0   30.0   33.333333333333336
50.0   30.0   16.666666666666668
50.0   60.0   16.666666666666668
0.0   60.0   16.666666666666668
50.0   60.0   33.333333333333336
0.0   30.0   33.333333333333336
0.0   60.0   33.333333333333336
50.0   60.0   33.333333333333336
0.0   60.0   16.666666666666668
0.0   30.0   33.333333333333336
50.0   60.0   33.333333333333336
50.0   30.0   33.333333333333336
50.0   30.0   16.666666666666668
0.0   30.0   33.333333333333336
50.0   60.0   33.333333333333336
50.0   30.0   16.666666666666668
0.0   60.0   16.666666666666668
0.0   30.0   33.333333333333336
50.0   30.0   33.333333333333336
0.0   60.0   33.333333333333336
0.0   30.0   50.0
50.0   30.0   33.333333333333336
50.0   60.0   33.333333333333336
0.0   60.0   33.333333333333336
50.0   60.0   50.0
0.0   30.0   50.0
0.0   60.0   50.0
50.0   60.0   50.0
0.0   60.0   33.333333333333336
0.0   30.0   50.0
50.0   60.0   50.0
50.0   30.0   50.0
50.0   30.0   33.333333333333336
0.0   30.0   50.0
50.0   60.0   50.0
50.0   30.0   33.333333333333336
0.0   60.0   33.333333333333336
0.0   60.0   0.0
50.0   60.0   0.0
0.0   90.0   0.0
0.0   60.0   16.666666666666668
50.0   60.0   0.0
50.0   90.0   0.0
0.0   90.0   0.0
50.0   90.0   16.666666666666668
0.0   60.0   16.666666666666668
0.0   90.0   16.666666666666668
50.0   90.0   16.666666666666668
0.0   90.0   0.0
0.0   60.0   16.666666666666668
50.0   90.0   16.666666666666668
50.0   60.0   16.666666666666668
50.0   60.0   0.0
0.0   60.0   16.666666666666668
50.0   90.0   16.666666666666668
50.0   60.0   0.0
0.0   90.0   0.0
0.0   60.0   16.666666666666668
50.0   60.0   16.666666666666668
0.0   90.0   16.666666666666668
0.0   60.0   33.333333333333336
50.0   60.0   16.666666666666668
50.0   90.0   16.666666666666668
0.0   90.0   16.666666666666668
50.0   90.0   33.333333333333336
0.0   60.0   33.333333333333336
0.0   90.0   33.333333333333336
50.0   90.0   33.333333333333336
0.0   90.0   16.666666666666668
0.0   60.0   33.333333333333336
50.0   90.0   33.333333333333336
50.0   60.0   33.333333333333336
50.0   60.0   16.666666666666668
0.0   60.0   33.333333333333336
50.0   90.0   33.333333333333336
50.0   60.0   16.666666666666668
0.0   90.0   16.666666666666668
0.0   60.0   33.333333333333336
50.0   60.0   33.333333333333336
0.0   90.0   33.333333333333336
0.0   60.0   50.0
50.0   60.0   33.333333333333336
50.0   90.0   33.333333333333336
0.0   90.0   33.333333333333336
50.0   90.0   50.0
0.0   60.0   50.0
0.0   90.0   50.0
50.0   90.0   50.0
0.0   90.0   33.333333333333336
0.0   60.0   50.0
50.0   90.0   50.0
50.0   60.0   50.0
50.0   60.0   33.333333333333336
0.0   60.0   50.0
50.0   90.0   50.0
50.0   60.0   33.333333333333336
0.0   90.0   33.333333333333336
0.0   90.0   0.0
50.0   90.0   0.0
0.0   120.0   0.0
0.0   90.0   16.666666666666668
50.0   90.0   0.0
50.0   120.0   0.0
0.0   120.0   0.0
50.0   120.0   16.666666666666668
0.0   90.0   16.666666666666668
0.0   120.0   16.666666666666668
50.0   120.0   16.666666666666668
0.0   120.0   0.0
0.0   90.0   16.666666666666668
50.0   120.0   16.666666666666668
50.0   90.0   16.666666666666668
50.0   90.0   0.0
0.0   90.0   16.666666666666668
50.0   120.0   16.666666666666668
50.0   90.0   0.0
0.0   120.0   0.0
0.0   90.0   16.666666666666668
50.0   90.0   16.666666666666668
0.0   120.0   16.666666666666668
0.0   90.0   33.333333333333336
50.0   90.0   16.666666666666668
50.0   120.0   16.666666666666668
0.0   120.0   16.666666666666668
50.0   120.0   33.333333333333336
0.0   90.0   33.333333333333336
0.0   120.0   33.333333333333336
50.0   120.0   33.333333333333336
0.0   120.0   16.666666666666668
0.0   90.0   33.333333333333336
50.0   120.0   33.333333333333336
50.0   90.0   33.333333333333336
50.0   90.0   16.666666666666668
0.0   90.0   33.333333333333336
50.0   120.0   33.333333333333336
50.0   90.0   16.666666666666668
0.0   120.0   16.666666666666668
0.0   90.0   33.333333333333336
50.0   90.0   33.333333333333336
0.0   120.0   33.333333333333336
0.0   90.0   50.0
50.0   90.0   33.333333333333336
50.0   120.0   33.333333333333336
0.0   120.0   33.333333333333336
50.0   120.0   50.0
0.0   90.0   50.0
0.0   120.0   50.0
50.0   120.0   50.0
0.0   120.0   33.333333333333336
0.0   90.0   50.0
50.0   120.0   50.0
50.0   90.0   50.0
50.0   90.0   33.333333333333336
0.0   90.0   50.0
50.0   120.0   50.0
50.0   90.0   33.333333333333336
0.0   120.0   33.333333333333336
0.0   120.0   0.0
50.0   120.0   0.0
0.0   150.0   0.0
0.0   120.0   16.666666666666668
50.0   120.0   0.0
50.0   150.0   0.0
0.0   150.0   0.0
50.0   150.0   16.666666666666668
0.0   120.0   16.666666666666668
0.0   150.0   16.666666666666668
50.0   150.0   16.666666666666668
0.0   150.0   0.0
0.0   120.0   16.666666666666668
50.0   150.0   16.666666666666668
50.0   120.0   16.666666666666668
50.0   120.0   0.0
0.0   120.0   16.666666666666668
50.0   150.0   16.666666666666668
50.0   120.0   0.0
0.0   150.0   0.0
0.0   120.0   16.666666666666668
50.0   120.0   16.666666666666668
0.0   150.0   16.666666666666668
0.0   120.0   33.333333333333336
50.0   120.0   16.666666666666668
50.0   150.0   16.666666666666668
0.0   150.0   16.666666666666668
50.0   150.0   33.333333333333336
0.0   120.0   33.333333333333336
0.0   150.0   33.333333333333336
50.0   150.0   33.333333333333336
0.0   150.0   16.666666666666668
0.0   120.0   33.333333333333336
50.0   150.0   33.333333333333336
50.0   120.0   33.333333333333336
50.0   120.0   16.666666666666668
0.0   120.0   33.333333333333336
50.0   150.0   33.333333333333336
50.0   120.0   16.666666666666668
0.0   150.0   16.666666666666668
0.0   120.0   33.333333333333336
50.0   120.0   33.333333333333336
0.0   150.0   33.333333333333336
0.0   120.0   50.0
50.0   120.0   33.333333333333336
50.0   150.0   33.333333333333336
0.0   150.0   33.333333333333336
50.0   150.0   50.0
0.0   120.0   50.0
0.0   150.0   50.0
50.0   150.0   50.0
0.0   150.0   33.333333333333336
0.0   120.0   50.0
50.0   150.0   50.0
50.0   120.0   50.0
50.0   120.0   33.333333333333336
0.0   120.0   50.0
50.0   150.0   50.0
50.0   120.0   33.333333333333336
0.0   150.0   33.333333333333336
50.0   0.0   0.0
100.0   0.0   0.0
50.0   30.0   0.0
50.0   0.0   16.666666666666668
100.0   0.0   0.0
100.0   30.0   0.0
50.0   30.0   0.0
100.0   30.0   16.666666666666668
50.0   0.0   16.666666666666668
50.0   30.0   16.666666666666668
100.0   30.0   16.666666666666668
50.0   30.0   0.0
50.0   0.0   16.666666666666668
100.0   30.0   16.666666666666668
100.0   0.0   16.666666666666668
100.0   0.0   0.0
50.0   0.0   16.666666666666668
100.0   30.0   16.666666666666668
100.0   0.0   0.0
50.0   30.0   0.0
50.0   0.0   16.666666666666668
100.0   0.0   16.666666666666668
50.0   30.0   16.666666666666668
50.0   0.0   33.333333333333336
100.0   0.0   16.666666666666668
100.0   30.0   16.666666666666668
50.0   30.0   16.666666666666668
100.0   30.0   33.333333333333336
50.0   0.0   33.333333333333336
50.0   30.0   33.333333333333336
100.0   30.0   33.333333333333336
50.0   30.0   16.666666666666668
50.0   0.0   33.333333333333336
100.0   30.0   33.333333333333336
100.0   0.0   33.333333333333336
100.0   0.0   16.666666666666668
50.0   0.0   33.333333333333336
100.0   30.0   33.333333333333336
100.0   0.0   16.666666666666668
50.0   30.0   16.666666666666668
50.0   0.0   33.333333333333336
100.0   0.0   33.333333333333336
50.0   30.0   33.333333333333336
50.0   0.0   50.0
100.0   0.0   33.333333333333336
100.0   30.0   33.333333333333336
50.0   30.0   33.333333333333336
100.0   30.0   50.0
50.0   0.0   50.0
50.0   30.0   50.0
100.0   30.0   50.0
50.0   30.0   33.333333333333336
50.0   0.0   50.0
100.0   30.0   50.0
100.0   0.0   50.0
100.0   0.0   33.333333333333336
50.0   0.0   50.0
100.0   30.0   50.0
100.0   0.0   33.333333333333336
50.0   30.0   33.333333333333336
50.0   30.0   0.0
100.0   30.0   0.0
50.0   60.0   0.0
50.0   30.0   16.666666666666668
100.0   30.0   0.0
100.0   60.0   0.0
50.0   60.0   0.0
100.0   60.0   16.666666666666668
50.0   30.0   16.666666666666668
50.0   60.0   16.666666666666668
100.0   60.0   16.666666666666668
50.0   60.0   0.0
50.0   30.0   16.666666666666668
100.0   60.0   16.666666666666668
100.0   30.0   16.666666666666668
100.0   30.0   0.0
50.0   30.0   16.666666666666668
100.0   60.0   16.666666666666668
100.0   30.0   0.0
50.0   60.0   0.0
50.0   30.0   16.666666666666668
100.0   30.0   16.666666666666668
50.0   60.0   16.666666666666668
50.0   30.0   33.333333333333336
100.0   30.0   16.666666666666668
100.0   60.0   16.666666666666668
50.0   60.0   16.666666666666668
100.0   60.0   33.333333333333336
50.0   30.0   33.333333333333336
50.0   60.0   33.333333333333336
100.0   60.0   33.333333333333336
50.0   60.0   16.666666666666668
50.0   30.0   33.333333333333336
100.0   60.0   33.333333333333336
100.0   30.0   33.333333333333336
100.0   30.0   16.666666666666668
50.0   30.0   33.333333333333336
100.0   60.0   33.333333333333336
100.0   30.0   16.666666666666668
50.0   60.0   16.666666666666668
50.0   30.0   33.333333333333336
100.0   30.0   33.333333333333336
50.0   60.0   33.333333333333336
50.0   30.0   50.0
100.0   30.0   33.333333333333336
100.0   60.0   33.333333333333336
50.0   60.0   33.333333333333336
100.0   60.0   50.0
50.0   30.0   50.0
50.0   60.0   50.0
100.0   60.0   50.0
50.0   60.0   33.333333333333336
50.0   30.0   50.0
100.0   60.0   50.0
100.0   30.0   50.0
100.0   30.0   33.333333333333336
50.0   30.0   50.0
100.0   60.0   50.0
100.0   30.0   33.333333333333336
50.0   60.0   33.333333333333336
50.0   60.0   0.0
100.0   60.0   0.0
50.0   90.0   0.0
50.0   60.0   16.666666666666668
100.0   60.0   0.0
100.0   90.0   0.0
50.0   90.0   0.0
100.0   90.0   16.666666666666668
50.0   60.0   16.666666666666668
50.0   90.0   16.666666666666668
100.0   90.0   16.666666666666668
50.0   90.0   0.0
50.0   60.0   16.666666666666668
100.0   90.0   16.666666666666668
100.0   60.0   16.666666666666668
100.0   60.0   0.0
50.0   60.0   16.666666666666668
100.0   90.0   16.666666666666668
100.0   60.0   0.0
50.0   90.0   0.0
50.0   60.0   16.666666666666668
100.0   60.0   16.666666666666668
50.0   90.0   16.666666666666668
50.0   60.0   33.333333333333336
100.0   60.0   16.666666666666668
100.0   90.0   16.666666666666668
50.0   90.0   16.666666666666668
100.0   90.0   33.333333333333336
50.0   60.0   33.333333333333336
50.0   90.0   33.333333333333336
100.0   90.0   33.333333333333336
50.0   90.0   16.666666666666668
50.0   60.0   33.333333333333336
100.0   90.0   33.333333333333336
100.0   60.0   33.333333333333336
100.0   60.0   16.666666666666668
50.0   60.0   33.333333333333336
100.0   90.0   33.333333333333336
100.0   60.0   16.666666666666668
50.0   90.0   16.666666666666668
50.0   60.0   33.333333333333336
100.0   60.0   33.333333333333336
50.0   90.0   33.333333333333336
50.0   60.0   50.0
100.0   60.0   33.333333333333336
100.0   90.0   33.333333333333336
50.0   90.0   33.333333333333336
100.0   90.0   50.0
50.0   60.0   50.0
50.0   90.0   50.0
100.0   90.0   50.0
50.0   90.0   33.333333333333336
50.0   60.0   50.0
100.0   90.0   50.0
100.0   60.0   50.0
100.0   60.0   33.333333333333336
50.0   60.0   50.0
100.0   90.0   50.0
100.0   60.0   33.333333333333336
50.0   90.0   33.333333333333336
50.0   90.0   0.0
100.0   90.0   0.0
50.0   120.0   0.0
50.0   90.0   16.666666666666668
100.0   90.0   0.0
100.0   120.0   0.0
50.0   120.0   0.0
100.0   120.0   16.666666666666668
50.0   90.0   16.666666666666668
50.0   120.0   16.666666666666668
100.0   120.0   16.666666666666668
50.0   120.0   0.0
50.0   90.0   16.666666666666668
100.0   120.0   16.666666666666668
100.0   90.0   16.666666666666668
100.0   90.0   0.0
50.0   90.0   16.666666666666668
100.0   120.0   16.666666666666668
100.0   90.0   0.0
50.0   120.0   0.0
50.0   90.0   16.666666666666668
100.0   90.0   16.666666666666668
50.0   120.0   16.666666666666668
50.0   90.0   33.333333333333336
100.0   90.0   16.666666666666668
100.0   120.0   16.666666666666668
50.0   120.0   16.666666666666668
100.0   120.0   33.333333333333336
50.0   90.0   33.333333333333336
50.0   120.0   33.333333333333336
100.0   120.0   33.333333333333336
50.0   120.0   16.666666666666668
50.0   90.0   33.333333333333336
100.0   120.0   33.333333333333336
100.0   90.0   33.333333333333336
100.0   90.0   16.666666666666668
50.0   90.0   33.333333333333336
100.0   120.0   33.333333333333336
100.0   90.0   16.666666666666668
50.0   120.0   16.666666666666668
50.0   90.0   33.333333333333336
100.0   90.0   33.333333333333336
50.0   120.0   33.333333333333336
50.0   90.0   50.0
100.0   90.0   33.333333333333336
100.0   120.0   33.333333333333336
50.0   120.0   33.333333333333336
100.0   120.0   50.0
50.0   90.0   50.0
50.0   120.0   50.0
100.0   120.0   50.0
50.0   120.0   33.333333333333336
50.0   90.0   50.0
100.0   120.0   50.0
100.0   90.0   50.0
100.0   90.0   33.333333333333336
50.0   90.0   50.0
100.0   120.0   50.0
100.0   90.0   33.333333333333336
50.0   120.0   33.333333333333336
50.0   120.0   0.0
100.0   120.0   0.0
50.0   150.0   0.0
50.0   120.0   16.666666666666668
100.0   120.0   0.0
100.0   150.0   0.0
50.0   150.0   0.0
100.0   150.0   16.666666666666668
50.0   120.0   16.666666666666668
50.0   150.0   16.666666666666668
100.0   150.0   16.666666666666668
50.0   150.0   0.0
50.0   120.0   16.666666666666668
100.0   150.0   16.666666666666668
100.0   120.0   16.666666666666668
100.0   120.0   0.0
50.0   120.0   16.666666666666668
100.0   150.0   16.666666666666668
100.0   120.0   0.0
50.0   150.0   0.0
50.0   120.0   16.666666666666668
100.0   120.0   16.666666666666668
50.0   150.0   16.666666666666668
50.0   120.0   33.333333333333336
100.0   120.0   16.666666666666668
100.0   150.0   16.666666666666668
50.0   150.0   16.666666666666668
100.0   150.0   33.333333333333336
50.0   120.0   33.333333333333336
50.0   150.0   33.333333333333336
100.0   150.0   33.333333333333336
50.0   150.0   16.666666666666668
50.0   120.0   33.333333333333336
100.0   150.0   33.333333333333336
100.0   120.0   33.333333333333336
100.0   120.0   16.666666666666668
50.0   120.0   33.333333333333336
100.0   150.0   33.333333333333336
100.0   120.0   16.666666666666668
50.0   150.0   16.666666666666668
50.0   120.0   33.333333333333336
100.0   120.0   33.333333333333336
50.0   150.0   33.333333333333336
50.0   120.0   50.0
100.0   120.0   33.333333333333336
100.0   150.0   33.333333333333336
50.0   150.0   33.333333333333336
100.0   150.0   50.0
50.0   120.0   50.0
50.0   150.0   50.0
100.0   150.0   50.0
50.0   150.0   33.333333333333336
50.0   120.0   50.0
100.0   150.0   50.0
100.0   120.0   50.0
100.0   120.0   33.333333333333336
50.0   120.0   50.0
100.0   150.0   50.0
100.0   120.0   33.333333333333336
50.0   150.0   33.333333333333336
100.0   0.0   0.0
150.0   0.0   0.0
100.0   30.0   0.0
100.0   0.0   16.666666666666668
150.0   0.0   0.0
150.0   30.0   0.0
100.0   30.0   0.0
150.0   30.0   16.666666666666668
100.0   0.0   16.666666666666668
100.0   30.0   16.666666666666668
150.0   30.0   16.666666666666668
100.0   30.0   0.0
100.0   0.0   16.666666666666668
150.0   30.0   16.666666666666668
150.0   0.0   16.666666666666668
150.0   0.0   0.0
100.0   0.0   16.666666666666668
150.0   30.0   16.666666666666668
150.0   0.0   0.0
100.0   30.0   0.0
100.0   0.0   16.666666666666668
150.0   0.0   16.666666666666668
100.0   30.0   16.666666666666668
100.0   0.0   33.333333333333336
150.0   0.0   16.666666666666668
150.0   30.0   16.666666666666668
100.0   30.0   16.666666666666668
150.0   30.0   33.333333333333336
100.0   0.0   33.333333333333336
100.0   30.0   33.333333333333336
150.0   30.0   33.333333333333336
100.0   30.0   16.666666666666668
100.0   0.0   33.333333333333336
150.0   30.0   33.333333333333336
150.0   0.0   33.333333333333336
150.0   0.0   16.666666666666668
100.0   0.0   33.333333333333336
150.0   30.0   33.333333333333336
150.0   0.0   16.666666666666668
100.0   30.0   16.666666666666668
100.0   0.0   33.333333333333336
150.0   0.0   33.333333333333336
100.0   30.0   33.333333333333336
100.0   0.0   50.0
150.0   0.0   33.333333333333336
150.0   30.0   33.333333333333336
100.0   30.0   33.333333333333336
150.0   30.0   50.0
100.0   0.0   50.0
100.0   30.0   50.0
150.0   30.0   50.0
100.0   30.0   33.333333333333336
100.0   0.0   50.0
150.0   30.0   50.0
150.0   0.0   50.0
150.0   0.0   33.333333333333336
100.0   0.0   50.0
150.0   30.0   50.0
150.0   0.0   33.333333333333336
100.0   30.0   33.333333333333336
100.0   30.0   0.0
150.0   30.0   0.0
100.0   60.0   0.0
100.0   30.0   16.666666666666668
150.0   30.0   0.0
150.0   60.0   0.0
100.0   60.0   0.0
150.0   60.0   16.666666666666668
100.0   30.0   16.666666666666668
100.0   60.0   16.666666666666668
150.0   60.0   16.666666666666668
100.0   60.0   0.0
100.0   30.0   16.666666666666668
150.0   60.0   16.666666666666668
150.0   30.0   16.666666666666668
150.0   30.0   0.0
100.0   30.0   16.666666666666668
150.0   60.0   16.666666666666668
150.0   30.0   0.0
100.0   60.0   0.0
100.0   30.0   16.666666666666668
150.0   30.0   16.666666666666668
100.0   60.0   16.666666666666668
100.0   30.0   33.333333333333336
150.0   30.0   16.666666666666668
150.0   60.0   16.666666666666668
100.0   60.0   16.666666666666668
150.0   60.0   33.333333333333336
100.0   30.0   33.333333333333336
100.0   60.0   33.333333333333336
150.0   60.0   33.333333333333336
100.0   60.0   16.666666666666668
100.0   30.0   33.333333333333336
150.0   60.0   33.333333333333336
150.0   30.0   33.333333333333336
150.0   30.0   16.666666666666668
100.0   30.0   33.333333333333336
150.0   60.0   33.333333333333336
150.0   30.0   16.666666666666668
100.0   60.0   16.666666666666668
100.0   30.0   33.333333333333336
150.0   30.0   33.333333333333336
100.0   60.0   33.333333333333336
100.0   30.0   50.0
150.0   30.0   33.333333333333336
150.0   60.0   33.333333333333336
100.0   60.0   33.333333333333336
150.0   60.0   50.0
100.0   30.0   50.0
100.0   60.0   50.0
150.0   60.0   50.0
100.0   60.0   33.333333333333336
100.0   30.0   50.0
150.0   60.0   50.0
150.0   30.0   50.0
150.0   30.0   33.333333333333336
100.0   30.0   50.0
150.0   60.0   50.0
150.0   30.0   33.333333333333336
100.0   60.0   33.333333333333336
100.0   60.0   0.0
150.0   60.0   0.0
100.0   90.0   0.0
100.0   60.0   16.666666666666668
150.0   60.0   0.0
150.0   90.0   0.0
100.0   90.0   0.0
150.0   90.0   16.666666666666668
100.0   60.0   16.666666666666668
100.0   90.0   16.666666666666668
150.0   90.0   16.666666666666668
100.0   90.0   0.0
100.0   60.0   16.666666666666668
150.0   90.0   16.666666666666668
150.0   60.0   16.666666666666668
150.0   60.0   0.0
100.0   60.0   16.666666666666668
150.0   90.0   16.666666666666668
150.0   60.0   0.0
100.0   90.0   0.0
100.0   60.0   16.666666666666668
150.0   60.0   16.666666666666668
100.0   90.0   16.666666666666668
100.0   60.0   33.333333333333336
150.0   60.0   16.666666666666668
150.0   90.0   16.666666666666668
100.0   90.0   16.666666666666668
150.0   90.0   33.333333333333336
100.0   60.0   33.333333333333336
100.0   90.0   33.333333333333336
150.0   90.0   33.333333333333336
100.0   90.0   16.666666666666668
100.0   60.0   33.333333333333336
150.0   90.0   33.333333333333336
150.0   60.0   33.333333333333336
150.0   60.0   16.666666666666668
100.0   60.0   33.333333333333336
150.0   90.0   33.333333333333336
150.0   60.0   16.666666666666668
100.0   90.0   16.666666666666668
100.0   60.0   33.333333333333336
150.0   60.0   33.333333333333336
100.0   90.0   33.333333333333336
100.0   60.0   50.0
150.0   60.0   33.333333333333336
150.0   90.0   33.333333333333336
100.0   90.0   33.333333333333336
150.0   90.0   50.0
100.0   60.0   50.0
100.0   90.0   50.0
150.0   90.0   50.0
100.0   90.0   33.333333333333336
100.0   60.0   50.0
150.0   90.0   50.0
150.0   60.0   50.0
150.0   60.0   33.333333333333336
100.0   60.0   50.0
150.0   90.0   50.0
150.0   60.0   33.333333333333336
100.0   90.0   33.333333333333336
100.0   90.0   0.0
150.0   90.0   0.0
100.0   120.0   0.0
100.0   90.0   16.666666666666668
150.0   90.0   0.0
150.0   120.0   0.0
100.0   120.0   0.0
150.0   120.0   16.666666666666668
100.0   90.0   16.666666666666668
100.0   120.0   16.666666666666668
150.0   120.0   16.666666666666668
100.0   120.0   0.0
100.0   90.0   16.666666666666668
150.0   120.0   16.666666666666668
150.0   90.0   16.666666666666668
150.0   90.0   0.0
100.0   90.0   16.666666666666668
150.0   120.0   16.666666666666668
150.0   90.0   0.0
100.0   120.0   0.0
100.0   90.0   16.666666666666668
150.0   90.0   16.666666666666668
100.0   120.0   16.666666666666668
100.0   90.0   33.333333333333336
150.0   90.0   16.666666666666668
150.0   120.0   16.666666666666668
100.0   120.0   16.666666666666668
150.0   120.0   33.333333333333336
100.0   90.0   33.333333333333336
100.0   120.0   33.333333333333336
150.0   120.0   33.333333333333336
100.0   120.0   16.666666666666668
100.0   90.0   33.333333333333336
150.0   120.0   33.333333333333336
150.0   90.0   33.333333333333336
150.0   90.0   16.666666666666668
100.0   90.0   33.333333333333336
150.0   120.0   33.333333333333336
150.0   90.0   16.666666666666668
100.0   120.0   16.666666666666668
100.0   90.0   33.333333333333336
150.0   90.0   33.333333333333336
100.0   120.0   33.333333333333336
100.0   90.0   50.0
150.0   90.0   33.333333333333336
150.0   120.0   33.333333333333336
100.0   120.0   33.333333333333336
150.0   120.0   50.0
100.0   90.0   50.0
100.0   120.0   50.0
150.0   120.0   50.0
100.0   120.0   33.333333333333336
100.0   90.0   50.0
150.0   120.0   50.0
150.0   90.0   50.0
150.0   90.0   33.333333333333336
100.0   90.0   50.0
150.0   120.0   50.0
150.0   90.0   33.333333333333336
100.0   120.0   33.333333333333336
100.0   120.0   0.0
150.0   120.0   0.0
100.0   150.0   0.0
100.0   120.0   16.666666666666668
150.0   120.0   0.0
150.0   150.0   0.0
100.0   150.0   0.0
150.0   150.0   16.666666666666668
100.0   120.0   16.666666666666668
100.0   150.0   16.666666666666668
150.0   150.0   16.666666666666668
100.0   150.0   0.0
100.0   120.0   16.666666666666668
150.0   150.0   16.666666666666668
150.0   120.0   16.666666666666668
150.0   120.0   0.0
100.0   120.0   16.666666666666668
150.0   150.0   16.666666666666668
150.0   120.0   0.0
100.0   150.0   0.0
100.0   120.0   16.666666666666668
150.0   120.0   16.666666666666668
100.0   150.0   16.666666666666668
100.0   120.0   33.333333333333336
150.0   120.0   16.666666666666668
150.0   150.0   16.666666666666668
100.0   150.0   16.666666666666668
150.0   150.0   33.333333333333336
100.0   120.0   33.333333333333336
100.0   150.0   33.333333333333336
150.0   150.0   33.333333333333336
100.0   150.0   16.666666666666668
100.0   120.0   33.333333333333336
150.0   150.0   33.333333333333336
150.0   120.0   33.333333333333336
150.0   120.0   16.666666666666668
100.0   120.0   33.333333333333336
150.0   150.0   33.333333333333336
150.0   120.0   16.666666666666668
100.0   150.0   16.666666666666668
100.0   120.0   33.333333333333336
150.0   120.0   33.333333333333336
100.0   150.0   33.333333333333336
100.0   120.0   50.0
150.0   120.0   33.333333333333336
150.0   150.0   33.333333333333336
100.0   150.0   33.333333333333336
150.0   150.0   50.0
100.0   120.0   50.0
100.0   150.0   50.0
150.0   150.0   50.0
100.0   150.0   33.333333333333336
100.0   120.0   50.0
150.0   150.0   50.0
150.0   120.0   50.0
150.0   120.0   33.333333333333336
100.0   120.0   50.0
150.0   150.0   50.0
150.0   120.0   33.333333333333336
100.0   150.0   33.333333333333336
150.0   0.0   0.0
200.0   0.0   0.0
150.0   30.0   0.0
150.0   0.0   16.666666666666668
200.0   0.0   0.0
200.0   30.0   0.0
150.0   30.0   0.0
200.0   30.0   16.666666666666668
150.0   0.0   16.666666666666668
150.0   30.0   16.666666666666668
200.0   30.0   16.666666666666668
150.0   30.0   0.0
150.0   0.0   16.666666666666668
200.0   30.0   16.666666666666668
200.0   0.0   16.666666666666668
200.0   0.0   0.0
150.0   0.0   16.666666666666668
200.0   30.0   16.666666666666668
200.0   0.0   0.0
150.0   30.0   0.0
150.0   0.0   16.666666666666668
200.0   0.0   16.666666666666668
150.0   30.0   16.666666666666668
150.0   0.0   33.333333333333336
200.0   0.0   16.666666666666668
200.0   30.0   16.666666666666668
150.0   30.0   16.666666666666668
200.0   30.0   33.333333333333336
150.0   0.0   33.333333333333336
150.0   30.0   33.333333333333336
200.0   30.0   33.333333333333336
150.0   30.0   16.666666666666668
150.0   0.0   33.333333333333336
200.0   30.0   33.333333333333336
200.0   0.0   33.333333333333336
200.0   0.0   16.666666666666668
150.0   0.0   33.333333333333336
200.0   30.0   33.333333333333336
200.0   0.0   16.666666666666668
150.0   30.0   16.666666666666668
150.0   0.0   33.333333333333336
200.0   0.0   33.333333333333336
150.0   30.0   33.333333333333336
150.0   0.0   50.0
200.0   0.0   33.333333333333336
200.0   30.0   33.333333333333336
150.0   30.0   33.333333333333336
200.0   30.0   50.0
150.0   0.0   50.0
150.0   30.0   50.0
200.0   30.0   50.0
150.0   30.0   33.333333333333336
150.0   0.0   50.0
200.0   30.0   50.0
200.0   0.0   50.0
200.0   0.0   33.333333333333336
150.0   0.0   50.0
200.0   30.0   50.0
200.0   0.0   33.333333333333336
150.0   30.0   33.333333333333336
150.0   30.0   0.0
200.0   30.0   0.0
150.0   60.0   0.0
150.0   30.0   16.666666666666668
200.0   30.0   0.0
200.0   60.0   0.0
150.0   60.0   0.0
200.0   60.0   16.666666666666668
150.0   30.0   16.666666666666668
150.0   60.0   16.666666666666668
200.0   60.0   16.666666666666668
150.0   60.0   0.0
150.0   30.0   16.666666666666668
200.0   60.0   16.666666666666668
200.0   30.0   16.666666666666668
200.0   30.0   0.0
150.0   30.0   16.666666666666668
200.0   60.0   16.666666666666668
200.0   30.0   0.0
150.0   60.0   0.0
150.0   30.0   16.666666666666668
200.0   30.0   16.666666666666668
150.0   60.0   16.666666666666668
150.0   30.0   33.333333333333336
200.0   30.0   16.666666666666668
200.0   60.0   16.666666666666668
150.0   60.0   16.666666666666668
200.0   60.0   33.333333333333336
150.0   30.0   33.333333333333336
150.0   60.0   33.333333333333336
200.0   60.0   33.333333333333336
150.0   60.0   16.666666666666668
150.0   30.0   33.333333333333336
200.0   60.0   33.333333333333336
200.0   30.0   33.333333333333336
200.0   30.0   16.666666666666668
150.0   30.0   33.333333333333336
200.0   60.0   33.333333333333336
200.0   30.0   16.666666666666668
150.0   60.0   16.666666666666668
150.0   30.0   33.333333333333336
200.0   30.0   33.333333333333336
150.0   60.0   33.333333333333336
150.0   30.0   50.0
200.0   30.0   33.333333333333336
200.0   60.0   33.333333333333336
150.0   60.0   33.333333333333336
200.0   60.0   50.0
150.0   30.0   50.0
150.0   60.0   50.0
200.0   60.0   50.0
150.0   60.0   33.333333333333336
150.0   30.0   50.0
200.0   60.0   50.0
200.0   30.0   50.0
200.0   30.0   33.333333333333336
150.0   30.0   50.0
200.0   60.0   50.0
200.0   30.0   33.333333333333336
150.0   60.0   33.333333333333336
150.0   60.0   0.0
200.0   60.0   0.0
150.0   90.0   0.0
150.0   60.0   16.666666666666668
200.0   60.0   0.0
200.0   90.0   0.0
150.0   90.0   0.0
200.0   90.0   16.666666666666668
150.0   60.0   16.666666666666668
150.0   90.0   16.666666666666668
200.0   90.0   16.666666666666668
150.0   90.0   0.0
150.0   60.0   16.666666666666668
200.0   90.0   16.666666666666668
200.0   60.0   16.666666666666668
200.0   60.0   0.0
150.0   60.0   16.666666666666668
200.0   90.0   16.666666666666668
200.0   60.0   0.0
150.0   90.0   0.0
150.0   60.0   16.666666666666668
200.0   60.0   16.666666666666668
150.0   90.0   16.666666666666668
150.0   60.0   33.333333333333336
200.0   60.0   16.666666666666668
200.0   90.0   16.666666666666668
150.0   90.0   16.666666666666668
200.0   90.0   33.333333333333336
150.0   60.0   33.333333333333336
150.0   90.0   33.333333333333336
200.0   90.0   33.333333333333336
150.0   90.0   16.666666666666668
150.0   60.0   33.333333333333336
200.0   90.0   33.333333333333336
200.0   60.0   33.333333333333336
200.0   60.0   16.666666666666668
150.0   60.0   33.333333333333336
200.0   90.0   33.333333333333336
200.0   60.0   16.666666666666668
150.0   90.0   16.666666666666668
150.0   60.0   33.333333333333336
200.0   60.0   33.333333333333336
150.0   90.0   33.333333333333336
150.0   60.0   50.0
200.0   60.0   33.333333333333336
200.0   90.0   33.333333333333336
150.0   90.0   33.333333333333336
200.0   90.0   50.0
150.0   60.0   50.0
150.0   90.0   50.0
200.0   90.0   50.0
150.0   90.0   33.333333333333336
150.0   60.0   50.0
200.0   90.0   50.0
200.0   60.0   50.0
200.0   60.0   33.333333333333336
150.0   60.0   50.0
200.0   90.0   50.0
200.0   60.0   33.333333333333336
150.0   90.0   33.333333333333336
150.0   90.0   0.0
200.0   90.0   0.0
150.0   120.0   0.0
150.0   90.0   16.666666666666668
200.0   90.0   0.0
200.0   120.0   0.0
150.0   120.0   0.0
200.0   120.0   16.666666666666668
150.0   90.0   16.666666666666668
150.0   120.0   16.666666666666668
200.0   120.0   16.666666666666668
150.0   120.0   0.0
150.0   90.0   16.666666666666668
200.0   120.0   16.666666666666668
200.0   90.0   16.666666666666668
200.0   90.0   0.0
150.0   90.0   16.666666666666668
200.0   120.0   16.666666666666668
200.0   90.0   0.0
150.0   120.0   0.0
150.0   90.0   16.666666666666668
200.0   90.0   16.666666666666668
150.0   120.0   16.666666666666668
150.0   90.0   33.333333333333336
200.0   90.0   16.666666666666668
200.0   120.0   16.666666666666668
150.0   120.0   16.666666666666668
200.0   120.0   33.333333333333336
150.0   90.0   33.333333333333336
150.0   120.0   33.333333333333336
200.0   120.0   33.333333333333336
150.0   120.0   16.666666666666668
150.0   90.0   33.333333333333336
200.0   120.0   33.333333333333336
200.0   90.0   33.333333333333336
200.0   90.0   16.666666666666668
150.0   90.0   33.333333333333336
200.0   120.0   33.333333333333336
200.0   90.0   16.666666666666668
150.0   120.0   16.666666666666668
150.0   90.0   33.333333333333336
200.0   90.0   33.333333333333336
150.0   120.0   33.333333333333336
150.0   90.0   50.0
200.0   90.0   33.333333333333336
200.0   120.0   33.333333333333336
150.0   120.0   33.333333333333336
200.0   120.0   50.0
150.0   90.0   50.0
150.0   120.0   50.0
200.0   120.0   50.0
150.0   120.0   33.333333333333336
150.0   90.0   50.0
200.0   120.0   50.0
200.0   90.0   50.0
200.0   90.0   33.333333333333336
150.0   90.0   50.0
200.0   120.0   50.0
200.0   90.0   33.333333333333336
150.0   120.0   33.333333333333336
150.0   120.0   0.0
200.0   120.0   0.0
150.0   150.0   0.0
150.0   120.0   16.666666666666668
200.0   120.0   0.0
200.0   150.0   0.0
150.0   150.0   0.0
200.0   150.0   16.666666666666668
150.0   120.0   16.666666666666668
150.0   150.0   16.666666666666668
200.0   150.0   16.666666666666668
150.0   150.0   0.0
150.0   120.0   16.666666666666668
200.0   150.0   16.666666666666668
200.0   120.0   16.666666666666668
200.0   120.0   0.0
150.0   120.0   16.666666666666668
200.0   150.0   16.666666666666668
200.0   120.0   0.0
150.0   150.0   0.0
150.0   120.0   16.666666666666668
200.0   120.0   16.666666666666668
150.0   150.0   16.666666666666668
150.0   120.0   33.333333333333336
200.0   120.0   16.666666666666668
200.0   150.0   16.666666666666668
150.0   150.0   16.666666666666668
200.0   150.0   33.333333333333336
150.0   120.0   33.333333333333336
150.0   150.0   33.333333333333336
200.0   150.0   33.333333333333336
150.0   150.0   16.666666666666668
150.0   120.0   33.333333333333336
200.0   150.0   33.333333333333336
200.0   120.0   33.333333333333336
200.0   120.0   16.666666666666668
150.0   120.0   33.333333333333336
200.0   150.0   33.333333333333336
200.0   120.0   16.666666666666668
150.0   150.0   16.666666666666668
150.0   120.0   33.333333333333336
200.0   120.0   33.333333333333336
150.0   150.0   33.333333333333336
150.0   120.0   50.0
200.0   120.0   33.333333333333336
200.0   150.0   33.333333333333336
150.0   150.0   33.333333333333336
200.0   150.0   50.0
150.0   120.0   50.0
150.0   150.0   50.0
200.0   150.0   50.0
150.0   150.0   33.333333333333336
150.0   120.0   50.0
200.0   150.0   50.0
200.0   120.0   50.0
200.0   120.0   33.333333333333336
150.0   120.0   50.0
200.0   150.0   50.0
200.0   120.0   33.333333333333336
150.0   150.0   33.333333333333336
200.0   0.0   0.0
250.0   0.0   0.0
200.0   30.0   0.0
200.0   0.0   16.666666666666668
250.0   0.0   0.0
250.0   30.0   0.0
200.0   30.0   0.0
250.0   30.0   16.666666666666668
200.0   0.0   16.666666666666668
200.0   30.0   16.666666666666668
250.0   30.0   16.666666666666668
200.0   30.0   0.0
200.0   0.0   16.666666666666668
250.0   30.0   16.666666666666668
250.0   0.0   16.666666666666668
250.0   0.0   0.0
200.0   0.0   16.666666666666668
250.0   30.0   16.666666666666668
250.0   0.0   0.0
200.0   30.0   0.0
200.0   0.0   16.666666666666668
250.0   0.0   16.666666666666668
200.0   30.0   16.666666666666668
200.0   0.0   33.333333333333336
250.0   0.0   16.666666666666668
250.0   30.0   16.666666666666668
200.0   30.0   16.666666666666668
250.0   30.0   33.333333333333336
200.0   0.0   33.333333333333336
200.0   30.0   33.333333333333336
250.0   30.0   33.333333333333336
200.0   30.0   16.666666666666668
200.0   0.0   33.333333333333336
250.0   30.0   33.333333333333336
250.0   0.0   33.333333333333336
250.0   0.0   16.666666666666668
200.0   0.0   33.333333333333336
250.0   30.0   33.333333333333336
250.0   0.0   16.666666666666668
200.0   30.0   16.666666666666668
200.0   0.0   33.333333333333336
250.0   0.0   33.333333333333336
200.0   30.0   33.333333333333336
200.0   0.0   50.0
250.0   0.0   33.333333333333336
250.0   30.0   33.333333333333336
200.0   30.0   33.333333333333336
250.0   30.0   50.0
200.0   0.0   50.0
200.0   30.0   50.0
250.0   30.0   50.0
200.0   30.0   33.333333333333336
200.0   0.0   50.0
250.0   30.0   50.0
250.0   0.0   50.0
250.0   0.0   33.333333333333336
200.0   0.0   50.0
250.0   30.0   50.0
250.0   0.0   33.333333333333336
200.0   30.0   33.333333333333336
200.0   30.0   0.0
250.0   30.0   0.0
200.0   60.0   0.0
200.0   30.0   16.666666666666668
250.0   30.0   0.0
250.0   60.0   0.0
200.0   60.0   0.0
250.0   60.0   16.666666666666668
200.0   30.0   16.666666666666668
200.0   60.0   16.666666666666668
250.0   60.0   16.666666666666668
200.0   60.0   0.0
200.0   30.0   16.666666666666668
250.0   60.0   16.666666666666668
250.0   30.0   16.666666666666668
250.0   30.0   0.0
200.0   30.0   16.666666666666668
250.0   60.0   16.666666666666668
250.0   30.0   0.0
200.0   60.0   0.0
200.0   30.0   16.666666666666668
250.0   30.0   16.666666666666668
200.0   60.0   16.666666666666668
200.0   30.0   33.333333333333336
250.0   30.0   16.666666666666668
250.0   60.0   16.666666666666668
200.0   60.0   16.666666666666668
250.0   60.0   33.333333333333336
200.0   30.0   33.333333333333336
200.0   60.0   33.333333333333336
250.0   60.0   33.333333333333336
200.0   60.0   16.666666666666668
200.0   30.0   33.333333333333336
250.0   60.0   33.333333333333336
250.0   30.0   33.333333333333336
250.0   30.0   16.666666666666668
200.0   30.0   33.333333333333336
250.0   60.0   33.333333333333336
250.0   30.0   16.666666666666668
200.0   60.0   16.666666666666668
200.0   30.0   33.333333333333336
250.0   30.0   33.333333333333336
200.0   60.0   33.333333333333336
200.0   30.0   50.0
250.0   30.0   33.333333333333336
250.0   60.0   33.333333333333336
200.0   60.0   33.333333333333336
250.0   60.0   50.0
200.0   30.0   50.0
200.0   60.0   50.0
250.0   60.0   50.0
200.0   60.0   33.333333333333336
200.0   30.0   50.0
250.0   60.0   50.0
250.0   30.0   50.0
250.0   30.0   33.333333333333336
200.0   30.0   50.0
250.0   60.0   50.0
250.0   30.0   33.333333333333336
200.0   60.0   33.333333333333336
200.0   60.0   0.0
250.0   60.0   0.0
200.0   90.0   0.0
200.0   60.0   16.666666666666668
250.0   60.0   0.0
250.0   90.0   0.0
200.0   90.0   0.0
250.0   90.0   16.666666666666668
200.0   60.0   16.666666666666668
200.0   90.0   16.666666666666668
250.0   90.0   16.666666666666668
200.0   90.0   0.0
200.0   60.0   16.666666666666668
250.0   90.0   16.666666666666668
250.0   60.0   16.666666666666668
250.0   60.0   0.0
200.0   60.0   16.666666666666668
250.0   90.0   16.666666666666668
250.0   60.0   0.0
200.0   90.0   0.0
200.0   60.0   16.666666666666668
250.0   60.0   16.666666666666668
200.0   90.0   16.666666666666668
200.0   60.0   33.333333333333336
250.0   60.0   16.666666666666668
250.0   90.0   16.666666666666668
200.0   90.0   16.666666666666668
250.0   90.0   33.333333333333336
200.0   60.0   33.333333333333336
200.0   90.0   33.333333333333336
250.0   90.0   33.333333333333336
200.0   90.0   16.666666666666668
200.0   60.0   33.333333333333336
250.0   90.0   33.333333333333336
250.0   60.0   33.333333333333336
250.0   60.0   16.666666666666668
200.0   60.0   33.333333333333336
250.0   90.0   33.333333333333336
250.0   60.0   16.666666666666668
200.0   90.0   16.666666666666668
200.0   60.0   33.333333333333336
250.0   60.0   33.333333333333336
200.0   90.0   33.333333333333336
200.0   60.0   50.0
250.0   60.0   33.333333333333336
250.0   90.0   33.333333333333336
200.0   90.0   33.333333333333336
250.0   90.0   50.0
200.0   60.0   50.0
200.0   90.0   50.0
250.0   90.0   50.0
200.0   90.0   33.333333333333336
200.0   60.0   50.0
250.0   90.0   50.0
250.0   60.0   50.0
250.0   60.0   33.333333333333336
200.0   60.0   50.0
250.0   90.0   50.0
250.0   60.0   33.333333333333336
200.0   90.0   33.333333333333336
200.0   90.0   0.0
250.0   90.0   0.0
200.0   120.0   0.0
200.0   90.0   16.666666666666668
250.0   90.0   0.0
250.0   120.0   0.0
200.0   120.0   0.0
250.0   120.0   16.666666666666668
200.0   90.0   16.666666666666668
200.0   120.0   16.666666666666668
250.0   120.0   16.666666666666668
200.0   120.0   0.0
200.0   90.0   16.666666666666668
250.0   120.0   16.666666666666668
250.0   90.0   16.666666666666668
250.0   90.0   0.0
200.0   90.0   16.666666666666668
250.0   120.0   16.666666666666668
250.0   90.0   0.0
200.0   120.0   0.0
200.0   90.0   16.666666666666668
250.0   90.0   16.666666666666668
200.0   120.0   16.666666666666668
200.0   90.0   33.333333333333336
250.0   90.0   16.666666666666668
250.0   120.0   16.666666666666668
200.0   120.0   16.666666666666668
250.0   120.0   33.333333333333336
200.0   90.0   33.333333333333336
200.0   120.0   33.333333333333336
250.0   120.0   33.333333333333336
200.0   120.0   16.666666666666668
200.0   90.0   33.333333333333336
250.0   120.0   33.333333333333336
250.0   90.0   33.333333333333336
250.0   90.0   16.666666666666668
200.0   90.0   33.333333333333336
250.0   120.0   33.333333333333336
250.0   90.0   16.666666666666668
200.0   120.0   16.666666666666668
200.0   90.0   33.333333333333336
250.0   90.0   33.333333333333336
200.0   120.0   33.333333333333336
200.0   90.0   50.0
250.0   90.0   33.333333333333336
250.0   120.0   33.333333333333336
200.0   120.0   33.333333333333336
250.0   120.0   50.0
200.0   90.0   50.0
200.0   120.0   50.0
250.0   120.0   50.0
200.0   120.0   33.333333333333336
200.0   90.0   50.0
250.0   120.0   50.0
250.0   90.0   50.0
250.0   90.0   33.333333333333336
200.0   90.0   50.0
250.0   120.0   50.0
250.0   90.0   33.333333333333336
200.0   120.0   33.333333333333336
200.0   120.0   0.0
250.0   120.0   0.0
200.0   150.0   0.0
200.0   120.0   16.666666666666668
250.0   120.0   0.0
250.0   150.0   0.0
200.0   150.0   0.0
250.0   150.0   16.666666666666668
200.0   120.0   16.666666666666668
200.0   150.0   16.666666666666668
250.0   150.0   16.666666666666668
200.0   150.0   0.0
200.0   120.0   16.666666666666668
250.0   150.0   16.666666666666668
250.0   120.0   16.666666666666668
250.0   120.0   0.0
200.0   120.0   16.666666666666668
250.0   150.0   16.666666666666668
250.0   120.0   0.0
200.0   150.0   0.0
200.0   120.0   16.666666666666668
250.0   120.0   16.666666666666668
200.0   150.0   16.666666666666668
200.0   120.0   33.333333333333336
250.0   120.0   16.666666666666668
250.0   150.0   16.666666666666668
200.0   150.0   16.666666666666668
250.0   150.0   33.333333333333336
200.0   120.0   33.333333333333336
200.0   150.0   33.333333333333336
250.0   150.0   33.333333333333336
200.0   150.0   16.666666666666668
200.0   120.0   33.333333333333336
250.0   150.0   33.333333333333336
250.0   120.0   33.333333333333336
250.0   120.0   16.666666666666668
200.0   120.0   33.333333333333336
250.0   150.0   33.333333333333336
250.0   120.0   16.666666666666668
200.0   150.0   16.666666666666668
200.0   120.0   33.333333333333336
250.0   120.0   33.333333333333336
200.0   150.0   33.333333333333336
200.0   120.0   50.0
250.0   120.0   33.333333333333336
250.0   150.0   33.333333333333336
200.0   150.0   33.333333333333336
250.0   150.0   50.0
200.0   120.0   50.0
200.0   150.0   50.0
250.0   150.0   50.0
200.0   150.0   33.333333333333336
200.0   120.0   50.0
250.0   150.0   50.0
250.0   120.0   50.0
250.0   120.0   33.333333333333336
200.0   120.0   50.0
250.0   150.0   50.0
250.0   120.0   33.333333333333336
200.0   150.0   33.333333333333336
250.0   0.0   0.0
300.0   0.0   0.0
250.0   30.0   0.0
250.0   0.0   16.666666666666668
300.0   0.0   0.0
300.0   30.0   0.0
250.0   30.0   0.0
300.0   30.0   16.666666666666668
250.0   0.0   16.666666666666668
250.0   30.0   16.666666666666668
300.0   30.0   16.666666666666668
250.0   30.0   0.0
250.0   0.0   16.666666666666668
300.0   30.0   16.666666666666668
300.0   0.0   16.666666666666668
300.0   0.0   0.0
250.0   0.0   16.666666666666668
300.0   30.0   16.666666666666668
300.0   0.0   0.0
250.0   30.0   0.0
250.0   0.0   16.666666666666668
300.0   0.0   16.666666666666668
250.0   30.0   16.666666666666668
250.0   0.0   33.333333333333336
300.0   0.0   16.666666666666668
300.0   30.0   16.666666666666668
250.0   30.0   16.666666666666668
300.0   30.0   33.333333333333336
250.0   0.0   33.333333333333336
250.0   30.0   33.333333333333336
300.0   30.0   33.333333333333336
250.0   30.0   16.666666666666668
250.0   0.0   33.333333333333336
300.0   30.0   33.333333333333336
300.0   0.0   33.333333333333336
300.0   0.0   16.666666666666668
250.0   0.0   33.333333333333336
300.0   30.0   33.333333333333336
300.0   0.0   16.666666666666668
250.0   30.0   16.666666666666668
250.0   0.0   33.333333333333336
300.0   0.0   33.333333333333336
250.0   30.0   33.333333333333336
250.0   0.0   50.0
300.0   0.0   33.333333333333336
300.0   30.0   33.333333333333336
250.0   30.0   33.333333333333336
300.0   30.0   50.0
250.0   0.0   50.0
250.0   30.0   50.0
300.0   30.0   50.0
250.0   30.0   33.333333333333336
250.0   0.0   50.0
300.0   30.0   50.0
300.0   0.0   50.0
300.0   0.0   33.333333333333336
250.0   0.0   50.0
300.0   30.0   50.0
300.0   0.0   33.333333333333336
250.0   30.0   33.333333333333336
250.0   30.0   0.0
300.0   30.0   0.0
250.0   60.0   0.0
250.0   30.0   16.666666666666668
300.0   30.0   0.0
300.0   60.0   0.0
250.0   60.0   0.0
300.0   60.0   16.666666666666668
250.0   30.0   16.666666666666668
250.0   60.0   16.666666666666668
300.0   60.0   16.666666666666668
250.0   60.0   0.0
250.0   30.0   16.666666666666668
300.0   60.0   16.666666666666668
300.0   30.0   16.666666666666668
300.0   30.0   0.0
250.0   30.0   16.666666666666668
300.0   60.0   16.666666666666668
300.0   30.0   0.0
250.0   60.0   0.0
250.0   30.0   16.666666666666668
300.0   30.0   16.666666666666668
250.0   60.0   16.666666666666668
250.0   30.0   33.333333333333336
300.0   30.0   16.666666666666668
300.0   60.0   16.666666666666668
250.0   60.0   16.666666666666668
300.0   60.0   33.333333333333336
250.0   30.0   33.333333333333336
250.0   60.0   33.333333333333336
300.0   60.0   33.333333333333336
250.0   60.0   16.666666666666668
250.0   30.0   33.333333333333336
300.0   60.0   33.333333333333336
300.0   30.0   33.333333333333336
300.0   30.0   16.666666666666668
250.0   30.0   33.333333333333336
300.0   60.0   33.333333333333336
300.0   30.0   16.666666666666668
250.0   60.0   16.666666666666668
250.0   30.0   33.333333333333336
300.0   30.0   33.333333333333336
250.0   60.0   33.333333333333336
250.0   30.0   50.0
300.0   30.0   33.333333333333336
300.0   60.0   33.333333333333336
250.0   60.0   33.333333333333336
300.0   60.0   50.0
250.0   30.0   50.0
250.0   60.0   50.0
300.0   60.0   50.0
250.0   60.0   33.333333333333336
250.0   30.0   50.0
300.0   60.0   50.0
300.0   30.0   50.0
300.0   30.0   33.333333333333336
250.0   30.0   50.0
300.0   60.0   50.0
300.0   30.0   33.333333333333336
250.0   60.0   33.333333333333336
250.0   60.0   0.0
300.0   60.0   0.0
250.0   90.0   0.0
250.0   60.0   16.666666666666668
300.0   60.0   0.0
300.0   90.0   0.0
250.0   90.0   0.0
300.0   90.0   16.666666666666668
250.0   60.0   16.666666666666668
250.0   90.0   16.666666666666668
300.0   90.0   16.666666666666668
250.0   90.0   0.0
250.0   60.0   16.666666666666668
300.0   90.0   16.666666666666668
300.0   60.0   16.666666666666668
300.0   60.0   0.0
250.0   60.0   16.666666666666668
300.0   90.0   16.666666666666668
300.0   60.0   0.0
250.0   90.0   0.0
250.0   60.0   16.666666666666668
300.0   60.0   16.666666666666668
250.0   90.0   16.666666666666668
250.0   60.0   33.333333333333336
300.0   60.0   16.666666666666668
300.0   90.0   16.666666666666668
250.0   90.0   16.666666666666668
300.0   90.0   33.333333333333336
250.0   60.0   33.333333333333336
250.0   90.0   33.333333333333336
300.0   90.0   33.333333333333336
250.0   90.0   16.666666666666668
250.0   60.0   33.333333333333336
300.0   90.0   33.333333333333336
300.0   60.0   33.333333333333336
300.0   60.0   16.666666666666668
250.0   60.0   33.333333333333336
300.0   90.0   33.333333333333336
300.0   60.0   16.666666666666668
250.0   90.0   16.666666666666668
250.0   60.0   33.333333333333336
300.0   60.0   33.333333333333336
250.0   90.0   33.333333333333336
250.0   60.0   50.0
300.0   60.0   33.333333333333336
300.0   90.0   33.333333333333336
250.0   90.0   33.333333333333336
300.0   90.0   50.0
250.0   60.0   50.0
250.0   90.0   50.0
300.0   90.0   50.0
250.0   90.0   33.333333333333336
250.0   60.0   50.0
300.0   90.0   50.0
300.0   60.0   50.0
300.0   60.0   33.333333333333336
250.0   60.0   50.0
300.0   90.0   50.0
300.0   60.0   33.333333333333336
250.0   90.0   33.333333333333336
250.0   90.0   0.0
300.0   90.0   0.0
250.0   120.0   0.0
250.0   90.0   16.666666666666668
300.0   90.0   0.0
300.0   120.0   0.0
250.0   120.0   0.0
300.0   120.0   16.666666666666668
250.0   90.0   16.666666666666668
250.0   120.0   16.666666666666668
300.0   120.0   16.666666666666668
250.0   120.0   0.0
250.0   90.0   16.666666666666668
300.0   120.0   16.666666666666668
300.0   90.0   16.666666666666668
300.0   90.0   0.0
250.0   90.0   16.666666666666668
300.0   120.0   16.666666666666668
300.0   90.0   0.0
250.0   120.0   0.0
250.0   90.0   16.666666666666668
300.0   90.0   16.666666666666668
250.0   120.0   16.666666666666668
250.0   90.0   33.333333333333336
300.0   90.0   16.666666666666668
300.0   120.0   16.666666666666668
250.0   120.0   16.666666666666668
300.0   120.0   33.333333333333336
250.0   90.0   33.333333333333336
250.0   120.0   33.333333333333336
300.0   120.0   33.333333333333336
250.0   120.0   16.666666666666668
250.0   90.0   33.333333333333336
300.0   120.0   33.333333333333336
300.0   90.0   33.333333333333336
300.0   90.0   16.666666666666668
250.0   90.0   33.333333333333336
300.0   120.0   33.333333333333336
300.0   90.0   16.666666666666668
250.0   120.0   16.666666666666668
250.0   90.0   33.333333333333336
300.0   90.0   33.333333333333336
250.0   120.0   33.333333333333336
250.0   90.0   50.0
300.0   90.0   33.333333333333336
300.0   120.0   33.333333333333336
250.0   120.0   33.333333333333336
300.0   120.0   50.0
250.0   90.0   50.0
250.0   120.0   50.0
300.0   120.0   50.0
250.0   120.0   33.333333333333336
250.0   90.0   50.0
300.0   120.0   50.0
300.0   90.0   50.0
300.0   90.0   33.333333333333336
250.0   90.0   50.0
300.0   120.0   50.0
300.0   90.0   33.333333333333336
250.0   120.0   33.333333333333336
250.0   120.0   0.0
300.0   120.0   0.0
250.0   150.0   0.0
250.0   120.0   16.666666666666668
300.0   120.0   0.0
300.0   150.0   0.0
250.0   150.0   0.0
300.0   150.0   16.666666666666668
250.0   120.0   16.666666666666668
250.0   150.0   16.666666666666668
300.0   150.0   16.666666666666668
250.0   150.0   0.0
250.0   120.0   16.666666666666668
300.0   150.0   16.666666666666668
300.0   120.0   16.666666666666668
300.0   120.0   0.0
250.0   120.0   16.666666666666668
300.0   150.0   16.666666666666668
300.0   120.0   0.0
250.0   150.0   0.0
250.0   120.0   16.666666666666668
300.0   120.0   16.666666666666668
250.0   150.0   16.666666666666668
250.0   120.0   33.333333333333336
300.0   120.0   16.666666666666668
300.0   150.0   16.666666666666668
250.0   150.0   16.666666666666668
300.0   150.0   33.333333333333336
250.0   120.0   33.333333333333336
250.0   150.0   33.333333333333336
300.0   150.0   33.333333333333336
250.0   150.0   16.666666666666668
250.0   120.0   33.333333333333336
300.0   150.0   33.333333333333336
300.0   120.0   33.333333333333336
300.0   120.0   16.666666666666668
250.0   120.0   33.333333333333336
300.0   150.0   33.333333333333336
300.0   120.0   16.666666666666668
250.0   150.0   16.666666666666668
250.0   120.0   33.333333333333336
300.0   120.0   33.333333333333336
250.0   150.0   33.333333333333336
250.0   120.0   50.0
300.0   120.0   33.333333333333336
300.0   150.0   33.333333333333336
250.0   150.0   33.333333333333336
300.0   150.0   50.0
250.0   120.0   50.0
250.0   150.0   50.0
300.0   150.0   50.0
250.0   150.0   33.333333333333336
250.0   120.0   50.0
300.0   150.0   50.0
300.0   120.0   50.0
300.0   120.0   33.333333333333336
250.0   120.0   50.0
300.0   150.0   50.0
300.0   120.0   33.333333333333336
250.0   150.0   33.333333333333336
300.0   0.0   0.0
350.0   0.0   0.0
300.0   30.0   0.0
300.0   0.0   16.666666666666668
350.0   0.0   0.0
350.0   30.0   0.0
300.0   30.0   0.0
350.0   30.0   16.666666666666668
300.0   0.0   16.666666666666668
300.0   30.0   16.666666666666668
350.0   30.0   16.666666666666668
300.0   30.0   0.0
300.0   0.0   16.666666666666668
350.0   30.0   16.666666666666668
350.0   0.0   16.666666666666668
350.0   0.0   0.0
300.0   0.0   16.666666666666668
350.0   30.0   16.666666666666668
350.0   0.0   0.0
300.0   30.0   0.0
300.0   0.0   16.666666666666668
350.0   0.0   16.666666666666668
300.0   30.0   16.666666666666668
300.0   0.0   33.333333333333336
350.0   0.0   16.666666666666668
350.0   30.0   16.666666666666668
300.0   30.0   16.666666666666668
350.0   30.0   33.333333333333336
300.0   0.0   33.333333333333336
300.0   30.0   33.333333333333336
350.0   30.0   33.333333333333336
300.0   30.0   16.666666666666668
300.0   0.0   33.333333333333336
350.0   30.0   33.333333333333336
350.0   0.0   33.333333333333336
350.0   0.0   16.666666666666668
300.0   0.0   33.333333333333336
350.0   30.0   33.333333333333336
350.0   0.0   16.666666666666668
300.0   30.0   16.666666666666668
300.0   0.0   33.333333333333336
350.0   0.0   33.333333333333336
300.0   30.0   33.333333333333336
300.0   0.0   50.0
350.0   0.0   33.333333333333336
350.0   30.0   33.333333333333336
300.0   30.0   33.333333333333336
350.0   30.0   50.0
300.0   0.0   50.0
300.0   30.0   50.0
350.0   30.0   50.0
300.0   30.0   33.333333333333336
300.0   0.0   50.0
350.0   30.0   50.0
350.0   0.0   50.0
350.0   0.0   33.333333333333336
300.0   0.0   50.0
350.0   30.0   50.0
350.0   0.0   33.333333333333336
300.0   30.0   33.333333333333336
300.0   30.0   0.0
350.0   30.0   0.0
300.0   60.0   0.0
300.0   30.0   16.666666666666668
350.0   30.0   0.0
350.0   60.0   0.0
300.0   60.0   0.0
350.0   60.0   16.666666666666668
300.0   30.0   16.666666666666668
300.0   60.0   16.666666666666668
350.0   60.0   16.666666666666668
300.0   60.0   0.0
300.0   30.0   16.666666666666668
350.0   60.0   16.666666666666668
350.0   30.0   16.666666666666668
350.0   30.0   0.0
300.0   30.0   16.666666666666668
350.0   60.0   16.666666666666668
350.0   30.0   0.0
300.0   60.0   0.0
300.0   30.0   16.666666666666668
350.0   30.0   16.666666666666668
300.0   60.0   16.666666666666668
300.0   30.0   33.333333333333336
350.0   30.0   16.666666666666668
350.0   60.0   16.666666666666668
300.0   60.0   16.666666666666668
350.0   60.0   33.333333333333336
300.0   30.0   33.333333333333336
300.0   60.0   33.333333333333336
350.0   60.0   33.333333333333336
300.0   60.0   16.666666666666668
300.0   30.0   33.333333333333336
350.0   60.0   33.333333333333336
350.0   30.0   33.333333333333336
350.0   30.0   16.666666666666668
300.0   30.0   33.333333333333336
350.0   60.0   33.333333333333336
350.0   30.0   16.666666666666668
300.0   60.0   16.666666666666668
300.0   30.0   33.333333333333336
350.0   30.0   33.333333333333336
300.0   60.0   33.333333333333336
300.0   30.0   50.0
350.0   30.0   33.333333333333336
350.0   60.0   33.333333333333336
300.0   60.0   33.333333333333336
350.0   60.0   50.0
300.0   30.0   50.0
300.0   60.0   50.0
350.0   60.0   50.0
300.0   60.0   33.333333333333336
300.0   30.0   50.0
350.0   60.0   50.0
350.0   30.0   50.0
350.0   30.0   33.333333333333336
300.0   30.0   50.0
350.0   60.0   50.0
350.0   30.0   33.333333333333336
300.0   60.0   33.333333333333336
300.0   60.0   0.0
350.0   60.0   0.0
300.0   90.0   0.0
300.0   60.0   16.666666666666668
350.0   60.0   0.0
350.0   90.0   0.0
300.0   90.0   0.0
350.0   90.0   16.666666666666668
300.0   60.0   16.666666666666668
300.0   90.0   16.666666666666668
350.0   90.0   16.666666666666668
300.0   90.0   0.0
300.0   60.0   16.666666666666668
350.0   90.0   16.666666666666668
350.0   60.0   16.666666666666668
350.0   60.0   0.0
300.0   60.0   16.666666666666668
350.0   90.0   16.666666666666668
350.0   60.0   0.0
300.0   90.0   0.0
300.0   60.0   16.666666666666668
350.0   60.0   16.666666666666668
300.0   90.0   16.666666666666668
300.0   60.0   33.333333333333336
350.0   60.0   16.666666666666668
350.0   90.0   16.666666666666668
300.0   90.0   16.666666666666668
350.0   90.0   33.333333333333336
300.0   60.0   33.333333333333336
300.0   90.0   33.333333333333336
350.0   90.0   33.333333333333336
300.0   90.0   16.666666666666668
300.0   60.0   33.333333333333336
350.0   90.0   33.333333333333336
350.0   60.0   33.333333333333336
350.0   60.0   16.666666666666668
300.0   60.0   33.333333333333336
350.0   90.0   33.333333333333336
350.0   60.0   16.666666666666668
300.0   90.0   16.666666666666668
300.0   60.0   33.333333333333336
350.0   60.0   33.333333333333336
300.0   90.0   33.333333333333336
300.0   60.0   50.0
350.0   60.0   33.333333333333336
350.0   90.0   33.333333333333336
300.0   90.0   33.333333333333336
350.0   90.0   50.0
300.0   60.0   50.0
300.0   90.0   50.0
350.0   90.0   50.0
300.0   90.0   33.333333333333336
300.0   60.0   50.0
350.0   90.0   50.0
350.0   60.0   50.0
350.0   60.0   33.333333333333336
300.0   60.0   50.0
350.0   90.0   50.0
350.0   60.0   33.333333333333336
300.0   90.0   33.333333333333336
300.0   90.0   0.0
350.0   90.0   0.0
300.0   120.0   0.0
300.0   90.0   16.666666666666668
350.0   90.0   0.0
350.0   120.0   0.0
300.0   120.0   0.0
350.0   120.0   16.666666666666668
300.0   90.0   16.666666666666668
300.0   120.0   16.666666666666668
350.0   120.0   16.666666666666668
300.0   120.0   0.0
300.0   90.0   16.666666666666668
350.0   120.0   16.666666666666668
350.0   90.0   16.666666666666668
350.0   90.0   0.0
300.0   90.0   16.666666666666668
350.0   120.0   16.666666666666668
350.0   90.0   0.0
300.0   120.0   0.0
300.0   90.0   16.666666666666668
350.0   90.0   16.666666666666668
300.0   120.0   16.666666666666668
300.0   90.0   33.333333333333336
350.0   90.0   16.666666666666668
350.0   120.0   16.666666666666668
300.0   120.0   16.666666666666668
350.0   120.0   33.333333333333336
300.0   90.0   33.333333333333336
300.0   120.0   33.333333333333336
350.0   120.0   33.333333333333336
300.0   120.0   16.666666666666668
300.0   90.0   33.333333333333336
350.0   120.0   33.333333333333336
350.0   90.0   33.333333333333336
350.0   90.0   16.666666666666668
300.0   90.0   33.333333333333336
350.0   120.0   33.333333333333336
350.0   90.0   16.666666666666668
300.0   120.0   16.666666666666668
300.0   90.0   33.333333333333336
350.0   90.0   33.333333333333336
300.0   120.0   33.333333333333336
300.0   90.0   50.0
350.0   90.0   33.333333333333336
350.0   120.0   33.333333333333336
300.0   120.0   33.333333333333336
350.0   120.0   50.0
300.0   90.0   50.0
300.0   120.0   50.0
350.0   120.0   50.0
300.0   120.0   33.333333333333336
300.0   90.0   50.0
350.0   120.0   50.0
350.0   90.0   50.0
350.0   90.0   33.333333333333336
300.0   90.0   50.0
350.0   120.0   50.0
350.0   90.0   33.333333333333336
300.0   120.0   33.333333333333336
300.0   120.0   0.0
350.0   120.0   0.0
300.0   150.0   0.0
300.0   120.0   16.666666666666668
350.0   120.0   0.0
350.0   150.0   0.0
300.0   150.0   0.0
350.0   150.0   16.666666666666668
300.0   120.0   16.666666666666668
300.0   150.0   16.666666666666668
350.0   150.0   16.666666666666668
300.0   150.0   0.0
300.0   120.0   16.666666666666668
350.0   150.0   16.666666666666668
350.0   120.0   16.666666666666668
350.0   120.0   0.0
300.0   120.0   16.666666666666668
350.0   150.0   16.666666666666668
350.0   120.0   0.0
300.0   150.0   0.0
300.0   120.0   16.666666666666668
350.0   120.0   16.666666666666668
300.0   150.0   16.666666666666668
300.0   120.0   33.333333333333336
350.0   120.0   16.666666666666668
350.0   150.0   16.666666666666668
300.0   150.0   16.666666666666668
350.0   150.0   33.333333333333336
300.0   120.0   33.333333333333336
300.0   150.0   33.333333333333336
350.0   150.0   33.333333333333336
300.0   150.0   16.666666666666668
300.0   120.0   33.333333333333336
350.0   150.0   33.333333333333336
350.0   120.0   33.333333333333336
350.0   120.0   16.666666666666668
300.0   120.0   33.333333333333336
350.0   150.0   33.333333333333336
350.0   120.0   16.666666666666668
300.0   150.0   16.666666666666668
300.0   120.0   33.333333333333336
350.0   120.0   33.333333333333336
300.0   150.0   33.333333333333336
300.0   120.0   50.0
350.0   120.0   33.333333333333336
350.0   150.0   33.333333333333336
300.0   150.0   33.333333333333336
350.0   150.0   50.0
300.0   120.0   50.0
300.0   150.0   50.0
350.0   150.0   50.0
300.0   150.0   33.333333333333336
300.0   120.0   50.0
350.0   150.0   50.0
350.0   120.0   50.0
350.0   120.0   33.333333333333336
300.0   120.0   50.0
350.0   150.0   50.0
350.0   120.0   33.333333333333336
300.0   150.0   33.333333333333336
350.0   0.0   0.0
400.0   0.0   0.0
350.0   30.0   0.0
350.0   0.0   16.666666666666668
400.0   0.0   0.0
400.0   30.0   0.0
350.0   30.0   0.0
400.0   30.0   16.666666666666668
350.0   0.0   16.666666666666668
350.0   30.0   16.666666666666668
400.0   30.0   16.666666666666668
350.0   30.0   0.0
350.0   0.0   16.666666666666668
400.0   30.0   16.666666666666668
400.0   0.0   16.666666666666668
400.0   0.0   0.0
350.0   0.0   16.666666666666668
400.0   30.0   16.666666666666668
400.0   0.0   0.0
350.0   30.0   0.0
350.0   0.0   16.666666666666668
400.0   0.0   16.666666666666668
350.0   30.0   16.666666666666668
350.0   0.0   33.333333333333336
400.0   0.0   16.666666666666668
400.0   30.0   16.666666666666668
350.0   30.0   16.666666666666668
400.0   30.0   33.333333333333336
350.0   0.0   33.333333333333336
350.0   30.0   33.333333333333336
400.0   30.0   33.333333333333336
350.0   30.0   16.666666666666668
350.0   0.0   33.333333333333336
400.0   30.0   33.333333333333336
400.0   0.0   33.333333333333336
400.0   0.0   16.666666666666668
350.0   0.0   33.333333333333336
400.0   30.0   33.333333333333336
400.0   0.0   16.666666666666668
350.0   30.0   16.666666666666668
350.0   0.0   33.333333333333336
400.0   0.0   33.333333333333336
350.0   30.0   33.333333333333336
350.0   0.0   50.0
400.0   0.0   33.333333333333336
400.0   30.0   33.333333333333336
350.0   30.0   33.333333333333336
400.0   30.0   50.0
350.0   0.0   50.0
350.0   30.0   50.0
400.0   30.0   50.0
350.0   30.0   33.333333333333336
350.0   0.0   50.0
400.0   30.0   50.0
400.0   0.0   50.0
400.0   0.0   33.333333333333336
350.0   0.0   50.0
400.0   30.0   50.0
400.0   0.0   33.333333333333336
350.0   30.0   33.333333333333336
350.0   30.0   0.0
400.0   30.0   0.0
350.0   60.0   0.0
350.0   30.0   16.666666666666668
400.0   30.0   0.0
400.0   60.0   0.0
350.0   60.0   0.0
400.0   60.0   16.666666666666668
350.0   30.0   16.666666666666668
350.0   60.0   16.666666666666668
400.0   60.0   16.666666666666668
350.0   60.0   0.0
350.0   30.0   16.666666666666668
400.0   60.0   16.666666666666668
400.0   30.0   16.666666666666668
400.0   30.0   0.0
350.0   30.0   16.666666666666668
400.0   60.0   16.666666666666668
400.0   30.0   0.0
350.0   60.0   0.0
350.0   30.0   16.666666666666668
400.0   30.0   16.666666666666668
350.0   60.0   16.666666666666668
350.0   30.0   33.333333333333336
400.0   30.0   16.666666666666668
400.0   60.0   16.666666666666668
350.0   60.0   16.666666666666668
400.0   60.0   33.333333333333336
350.0   30.0   33.333333333333336
350.0   60.0   33.333333333333336
400.0   60.0   33.333333333333336
350.0   60.0   16.666666666666668
350.0   30.0   33.333333333333336
400.0   60.0   33.333333333333336
400.0   30.0   33.333333333333336
400.0   30.0   16.666666666666668
350.0   30.0   33.333333333333336
400.0   60.0   33.333333333333336
400.0   30.0   16.666666666666668
350.0   60.0   16.666666666666668
350.0   30.0   33.333333333333336
400.0   30.0   33.333333333333336
350.0   60.0   33.333333333333336
350.0   30.0   50.0
400.0   30.0   33.333333333333336
400.0   60.0   33.333333333333336
350.0   60.0   33.333333333333336
400.0   60.0   50.0
350.0   30.0   50.0
350.0   60.0   50.0
400.0   60.0   50.0
350.0   60.0   33.333333333333336
350.0   30.0   50.0
400.0   60.0   50.0
400.0   30.0   50.0
400.0   30.0   33.333333333333336
350.0   30.0   50.0
400.0   60.0   50.0
400.0   30.0   33.333333333333336
350.0   60.0   33.333333333333336
350.0   60.0   0.0
400.0   60.0   0.0
350.0   90.0   0.0
350.0   60.0   16.666666666666668
400.0   60.0   0.0
400.0   90.0   0.0
350.0   90.0   0.0
400.0   90.0   16.666666666666668
350.0   60.0   16.666666666666668
350.0   90.0   16.666666666666668
400.0   90.0   16.666666666666668
350.0   90.0   0.0
350.0   60.0   16.666666666666668
400.0   90.0   16.666666666666668
400.0   60.0   16.666666666666668
400.0   60.0   0.0
350.0   60.0   16.666666666666668
400.0   90.0   16.666666666666668
400.0   60.0   0.0
350.0   90.0   0.0
350.0   60.0   16.666666666666668
400.0   60.0   16.666666666666668
350.0   90.0   16.666666666666668
350.0   60.0   33.333333333333336
400.0   60.0   16.666666666666668
400.0   90.0   16.666666666666668
350.0   90.0   16.666666666666668
400.0   90.0   33.333333333333336
350.0   60.0   33.333333333333336
350.0   90.0   33.333333333333336
400.0   90.0   33.333333333333336
350.0   90.0   16.666666666666668
350.0   60.0   33.333333333333336
400.0   90.0   33.333333333333336
400.0   60.0   33.333333333333336
400.0   60.0   16.666666666666668
350.0   60.0   33.333333333333336
400.0   90.0   33.333333333333336
400.0   60.0   16.666666666666668
350.0   90.0   16.666666666666668
350.0   60.0   33.333333333333336
400.0   60.0   33.333333333333336
350.0   90.0   33.333333333333336
350.0   60.0   50.0
400.0   60.0   33.333333333333336
400.0   90.0   33.333333333333336
350.0   90.0   33.333333333333336
400.0   90.0   50.0
350.0   60.0   50.0
350.0   90.0   50.0
400.0   90.0   50.0
350.0   90.0   33.333333333333336
350.0   60.0   50.0
400.0   90.0   50.0
400.0   60.0   50.0
400.0   60.0   33.333333333333336
350.0   60.0   50.0
400.0   90.0   50.0
400.0   60.0   33.333333333333336
350.0   90.0   33.333333333333336
350.0   90.0   0.0
400.0   90.0   0.0
350.0   120.0   0.0
350.0   90.0   16.666666666666668
400.0   90.0   0.0
400.0   120.0   0.0
350.0   120.0   0.0
400.0   120.0   16.666666666666668
350.0   90.0   16.666666666666668
350.0   120.0   16.666666666666668
400.0   120.0   16.666666666666668
350.0   120.0   0.0
350.0   90.0   16.666666666666668
400.0   120.0   16.666666666666668
400.0   90.0   16.666666666666668
400.0   90.0   0.0
350.0   90.0   16.666666666666668
400.0   120.0   16.666666666666668
400.0   90.0   0.0
350.0   120.0   0.0
350.0   90.0   16.666666666666668
400.0   90.0   16.666666666666668
350.0   120.0   16.666666666666668
350.0   90.0   33.333333333333336
400.0   90.0   16.666666666666668
400.0   120.0   16.666666666666668
350.0   120.0   16.666666666666668
400.0   120.0   33.333333333333336
350.0   90.0   33.333333333333336
350.0   120.0   33.333333333333336
400.0   120.0   33.333333333333336
350.0   120.0   16.666666666666668
350.0   90.0   33.333333333333336
400.0   120.0   33.333333333333336
400.0   90.0   33.333333333333336
400.0   90.0   16.666666666666668
350.0   90.0   33.333333333333336
400.0   120.0   33.333333333333336
400.0   90.0   16.666666666666668
350.0   120.0   16.666666666666668
350.0   90.0   33.333333333333336
400.0   90.0   33.333333333333336
350.0   120.0   33.333333333333336
350.0   90.0   50.0
400.0   90.0   33.333333333333336
400.0   120.0   33.333333333333336
350.0   120.0   33.333333333333336
400.0   120.0   50.0
350.0   90.0   50.0
350.0   120.0   50.0
400.0   120.0   50.0
350.0   120.0   33.333333333333336
350.0   90.0   50.0
400.0   120.0   50.0
400.0   90.0   50.0
400.0   90.0   33.333333333333336
350.0   90.0   50.0
400.0   120.0   50.0
400.0   90.0   33.333333333333336
350.0   120.0   33.333333333333336
350.0   120.0   0.0
400.0   120.0   0.0
350.0   150.0   0.0
350.0   120.0   16.666666666666668
400.0   120.0   0.0
400.0   150.0   0.0
350.0   150.0   0.0
400.0   150.0   16.666666666666668
350.0   120.0   16.666666666666668
350.0   150.0   16.666666666666668
400.0   150.0   16.666666666666668
350.0   150.0   0.0
350.0   120.0   16.666666666666668
400.0   150.0   16.666666666666668
400.0   120.0   16.666666666666668
400.0   120.0   0.0
350.0   120.0   16.666666666666668
400.0   150.0   16.666666666666668
400.0   120.0   0.0
350.0   150.0   0.0
350.0   120.0   16.666666666666668
400.0   120.0   16.666666666666668
350.0   150.0   16.666666666666668
350.0   120.0   33.333333333333336
400.0   120.0   16.666666666666668
400.0   150.0   16.666666666666668
350.0   150.0   16.666666666666668
400.0   150.0   33.333333333333336
350.0   120.0   33.333333333333336
350.0   150.0   33.333333333333336
400.0   150.0   33.333333333333336
350.0   150.0   16.666666666666668
350.0   120.0   33.333333333333336
400.0   150.0   33.333333333333336
400.0   120.0   33.333333333333336
400.0   120.0   16.666666666666668
350.0   120.0   33.333333333333336
400.0   150.0   33.333333333333336
400.0   120.0   16.666666666666668
350.0   150.0   16.666666666666668
350.0   120.0   33.333333333333336
400.0   120.0   33.333333333333336
350.0   150.0   33.333333333333336
350.0   120.0   50.0
400.0   120.0   33.333333333333336
400.0   150.0   33.333333333333336
350.0   150.0   33.333333333333336
400.0   150.0   50.0
350.0   120.0   50.0
350.0   150.0   50.0
400.0   150.0   50.0
350.0   150.0   33.333333333333336
350.0   120.0   50.0
400.0   150.0   50.0
400.0   120.0   50.0
400.0   120.0   33.333333333333336
350.0   120.0   50.0
400.0   150.0   50.0
400.0   120.0   33.333333333333336
350.0   150.0   33.333333333333336
400.0   0.0   0.0
450.0   0.0   0.0
400.0   30.0   0.0
400.0   0.0   16.666666666666668
450.0   0.0   0.0
450.0   30.0   0.0
400.0   30.0   0.0
450.0   30.0   16.666666666666668
400.0   0.0   16.666666666666668
400.0   30.0   16.666666666666668
450.0   30.0   16.666666666666668
400.0   30.0   0.0
400.0   0.0   16.666666666666668
450.0   30.0   16.666666666666668
450.0   0.0   16.666666666666668
450.0   0.0   0.0
400.0   0.0   16.666666666666668
450.0   30.0   16.666666666666668
450.0   0.0   0.0
400.0   30.0   0.0
400.0   0.0   16.666666666666668
450.0   0.0   16.666666666666668
400.0   30.0   16.666666666666668
400.0   0.0   33.333333333333336
450.0   0.0   16.666666666666668
450.0   30.0   16.666666666666668
400.0   30.0   16.666666666666668
450.0   30.0   33.333333333333336
400.0   0.0   33.333333333333336
400.0   30.0   33.333333333333336
450.0   30.0   33.333333333333336
400.0   30.0   16.666666666666668
400.0   0.0   33.333333333333336
450.0   30.0   33.333333333333336
450.0   0.0   33.333333333333336
450.0   0.0   16.666666666666668
400.0   0.0   33.333333333333336
450.0   30.0   33.333333333333336
450.0   0.0   16.666666666666668
400.0   30.0   16.666666666666668
400.0   0.0   33.333333333333336
450.0   0.0   33.333333333333336
400.0   30.0   33.333333333333336
400.0   0.0   50.0
450.0   0.0   33.333333333333336
450.0   30.0   33.333333333333336
400.0   30.0   33.333333333333336
450.0   30.0   50.0
400.0   0.0   50.0
400.0   30.0   50.0
450.0   30.0   50.0
400.0   30.0   33.333333333333336
400.0   0.0   50.0
450.0   30.0   50.0
450.0   0.0   50.0
450.0   0.0   33.333333333333336
400.0   0.0   50.0
450.0   30.0   50.0
450.0   0.0   33.333333333333336
400.0   30.0   33.333333333333336
400.0   30.0   0.0
450.0   30.0   0.0
400.0   60.0   0.0
400.0   30.0   16.666666666666668
450.0   30.0   0.0
450.0   60.0   0.0
400.0   60.0   0.0
450.0   60.0   16.666666666666668
400.0   30.0   16.666666666666668
400.0   60.0   16.666666666666668
450.0   60.0   16.666666666666668
400.0   60.0   0.0
400.0   30.0   16.666666666666668
450.0   60.0   16.666666666666668
450.0   30.0   16.666666666666668
450.0   30.0   0.0
400.0   30.0   16.666666666666668
450.0   60.0   16.666666666666668
450.0   30.0   0.0
400.0   60.0   0.0
400.0   30.0   16.666666666666668
450.0   30.0   16.666666666666668
400.0   60.0   16.666666666666668
400.0   30.0   33.333333333333336
450.0   30.0   16.666666666666668
450.0   60.0   16.666666666666668
400.0   60.0   16.666666666666668
450.0   60.0   33.333333333333336
400.0   30.0   33.333333333333336
400.0   60.0   33.333333333333336
450.0   60.0   33.333333333333336
400.0   60.0   16.666666666666668
400.0   30.0   33.333333333333336
450.0   60.0   33.333333333333336
450.0   30.0   33.333333333333336
450.0   30.0   16.666666666666668
400.0   30.0   33.333333333333336
450.0   60.0   33.333333333333336
450.0   30.0   16.666666666666668
400.0   60.0   16.666666666666668
400.0   30.0   33.333333333333336
450.0   30.0   33.333333333333336
400.0   60.0   33.333333333333336
400.0   30.0   50.0
450.0   30.0   33.333333333333336
450.0   60.0   33.333333333333336
400.0   60.0   33.333333333333336
450.0   60.0   50.0
400.0   30.0   50.0
400.0   60.0   50.0
450.0   60.0   50.0
400.0   60.0   33.333333333333336
400.0   30.0   50.0
450.0   60.0   50.0
450.0   30.0   50.0
450.0   30.0   33.333333333333336
400.0   30.0   50.0
450.0   60.0   50.0
450.0   30.0   33.333333333333336
400.0   60.0   33.333333333333336
400.0   60.0   0.0
450.0   60.0   0.0
400.0   90.0   0.0
400.0   60.0   16.666666666666668
450.0   60.0   0.0
450.0   90.0   0.0
400.0   90.0   0.0
450.0   90.0   16.666666666666668
400.0   60.0   16.666666666666668
400.0   90.0   16.666666666666668
450.0   90.0   16.666666666666668
400.0   90.0   0.0
400.0   60.0   16.666666666666668
450.0   90.0   16.666666666666668
450.0   60.0   16.666666666666668
450.0   60.0   0.0
400.0   60.0   16.666666666666668
450.0   90.0   16.666666666666668
450.0   60.0   0.0
400.0   90.0   0.0
400.0   60.0   16.666666666666668
450.0   60.0   16.666666666666668
400.0   90.0   16.666666666666668
400.0   60.0   33.333333333333336
450.0   60.0   16.666666666666668
450.0   90.0   16.666666666666668
400.0   90.0   16.666666666666668
450.0   90.0   33.333333333333336
400.0   60.0   33.333333333333336
400.0   90.0   33.333333333333336
450.0   90.0   33.333333333333336
400.0   90.0   16.666666666666668
400.0   60.0   33.333333333333336
450.0   90.0   33.333333333333336
450.0   60.0   33.333333333333336
450.0   60.0   16.666666666666668
400.0   60.0   33.333333333333336
450.0   90.0   33.333333333333336
450.0   60.0   16.666666666666668
400.0   90.0   16.666666666666668
400.0   60.0   33.333333333333336
450.0   60.0   33.333333333333336
400.0   90.0   33.333333333333336
400.0   60.0   50.0
450.0   60.0   33.333333333333336
450.0   90.0   33.333333333333336
400.0   90.0   33.333333333333336
450.0   90.0   50.0
400.0   60.0   50.0
400.0   90.0   50.0
450.0   90.0   50.0
400.0   90.0   33.333333333333336
400.0   60.0   50.0
450.0   90.0   50.0
450.0   60.0   50.0
450.0   60.0   33.333333333333336
400.0   60.0   50.0
450.0   90.0   50.0
450.0   60.0   33.333333333333336
400.0   90.0   33.333333333333336
400.0   90.0   0.0
450.0   90.0   0.0
400.0   120.0   0.0
400.0   90.0   16.666666666666668
450.0   90.0   0.0
450.0   120.0   0.0
400.0   120.0   0.0
450.0   120.0   16.666666666666668
400.0   90.0   16.666666666666668
400.0   120.0   16.666666666666668
450.0   120.0   16.666666666666668
400.0   120.0   0.0
400.0   90.0   16.666666666666668
450.0   120.0   16.666666666666668
450.0   90.0   16.666666666666668
450.0   90.0   0.0
400.0   90.0   16.666666666666668
450.0   120.0   16.666666666666668
450.0   90.0   0.0
400.0   120.0   0.0
400.0   90.0   16.666666666666668
450.0   90.0   16.666666666666668
400.0   120.0   16.666666666666668
400.0   90.0   33.333333333333336
450.0   90.0   16.666666666666668
450.0   120.0   16.666666666666668
400.0   120.0   16.666666666666668
450.0   120.0   33.333333333333336
400.0   90.0   33.333333333333336
400.0   120.0   33.333333333333336
450.0   120.0   33.333333333333336
400.0   120.0   16.666666666666668
400.0   90.0   33.333333333333336
450.0   120.0   33.333333333333336
450.0   90.0   33.333333333333336
450.0   90.0   16.666666666666668
400.0   90.0   33.333333333333336
450.0   120.0   33.333333333333336
450.0   90.0   16.666666666666668
400.0   120.0   16.666666666666668
400.0   90.0   33.333333333333336
450.0   90.0   33.333333333333336
400.0   120.0   33.333333333333336
400.0   90.0   50.0
450.0   90.0   33.333333333333336
450.0   120.0   33.333333333333336
400.0   120.0   33.333333333333336
450.0   120.0   50.0
400.0   90.0   50.0
400.0   120.0   50.0
450.0   120.0   50.0
400.0   120.0   33.333333333333336
400.0   90.0   50.0
450.0   120.0   50.0
450.0   90.0   50.0
450.0   90.0   33.333333333333336
400.0   90.0   50.0
450.0   120.0   50.0
450.0   90.0   33.333333333333336
400.0   120.0   33.333333333333336
400.0   120.0   0.0
450.0   120.0   0.0
400.0   150.0   0.0
400.0   120.0   16.666666666666668
450.0   120.0   0.0
450.0   150.0   0.0
400.0   150.0   0.0
450.0   150.0   16.666666666666668
400.0   120.0   16.666666666666668
400.0   150.0   16.666666666666668
450.0   150.0   16.666666666666668
400.0   150.0   0.0
400.0   120.0   16.666666666666668
450.0   150.0   16.666666666666668
450.0   120.0   16.666666666666668
450.0   120.0   0.0
400.0   120.0   16.666666666666668
450.0   150.0   16.666666666666668
450.0   120.0   0.0
400.0   150.0   0.0
400.0   120.0   16.666666666666668
450.0   120.0   16.666666666666668
400.0   150.0   16.666666666666668
400.0   120.0   33.333333333333336
450.0   120.0   16.666666666666668
450.0   150.0   16.666666666666668
400.0   150.0   16.666666666666668
450.0   150.0   33.333333333333336
400.0   120.0   33.333333333333336
400.0   150.0   33.333333333333336
450.0   150.0   33.333333333333336
400.0   150.0   16.666666666666668
400.0   120.0   33.333333333333336
450.0   150.0   33.333333333333336
450.0   120.0   33.333333333333336
450.0   120.0   16.666666666666668
400.0   120.0   33.333333333333336
450.0   150.0   33.333333333333336
450.0   120.0   16.666666666666668
400.0   150.0   16.666666666666668
400.0   120.0   33.333333333333336
450.0   120.0   33.333333333333336
400.0   150.0   33.333333333333336
400.0   120.0   50.0
450.0   120.0   33.333333333333336
450.0   150.0   33.333333333333336
400.0   150.0   33.333333333333336
450.0   150.0   50.0
400.0   120.0   50.0
400.0   150.0   50.0
450.0   150.0   50.0
400.0   150.0   33.333333333333336
400.0   120.0   50.0
450.0   150.0   50.0
450.0   120.0   50.0
450.0   120.0   33.333333333333336
400.0   120.0   50.0
450.0   150.0   50.0
450.0   120.0   33.333333333333336
400.0   150.0   33.333333333333336
450.0   0.0   0.0
500.0   0.0   0.0
450.0   30.0   0.0
450.0   0.0   16.666666666666668
500.0   0.0   0.0
500.0   30.0   0.0
450.0   30.0   0.0
500.0   30.0   16.666666666666668
450.0   0.0   16.666666666666668
450.0   30.0   16.666666666666668
500.0   30.0   16.666666666666668
450.0   30.0   0.0
450.0   0.0   16.666666666666668
500.0   30.0   16.666666666666668
500.0   0.0   16.666666666666668
500.0   0.0   0.0
450.0   0.0   16.666666666666668
500.0   30.0   16.666666666666668
500.0   0.0   0.0
450.0   30.0   0.0
450.0   0.0   16.666666666666668
500.0   0.0   16.666666666666668
450.0   30.0   16.666666666666668
450.0   0.0   33.333333333333336
500.0   0.0   16.666666666666668
500.0   30.0   16.666666666666668
450.0   30.0   16.666666666666668
500.0   30.0   33.333333333333336
450.0   0.0   33.333333333333336
450.0   30.0   33.333333333333336
500.0   30.0   33.333333333333336
450.0   30.0   16.666666666666668
450.0   0.0   33.333333333333336
500.0   30.0   33.333333333333336
500.0   0.0   33.333333333333336
500.0   0.0   16.666666666666668
450.0   0.0   33.333333333333336
500.0   30.0   33.333333333333336
500.0   0.0   16.666666666666668
450.0   30.0   16.666666666666668
450.0   0.0   33.333333333333336
500.0   0.0   33.333333333333336
450.0   30.0   33.333333333333336
450.0   0.0   50.0
500.0   0.0   33.333333333333336
500.0   30.0   33.333333333333336
450.0   30.0   33.333333333333336
500.0   30.0   50.0
450.0   0.0   50.0
450.0   30.0   50.0
500.0   30.0   50.0
450.0   30.0   33.333333333333336
450.0   0.0   50.0
500.0   30.0   50.0
500.0   0.0   50.0
500.0   0.0   33.333333333333336
450.0   0.0   50.0
500.0   30.0   50.0
500.0   0.0   33.333333333333336
450.0   30.0   33.333333333333336
450.0   30.0   0.0
500.0   30.0   0.0
450.0   60.0   0.0
450.0   30.0   16.666666666666668
500.0   30.0   0.0
500.0   60.0   0.0
450.0   60.0   0.0
500.0   60.0   16.666666666666668
450.0   30.0   16.666666666666668
450.0   60.0   16.666666666666668
500.0   60.0   16.666666666666668
450.0   60.0   0.0
450.0   30.0   16.666666666666668
500.0   60.0   16.666666666666668
500.0   30.0   16.666666666666668
500.0   30.0   0.0
450.0   30.0   16.666666666666668
500.0   60.0   16.666666666666668
500.0   30.0   0.0
450.0   60.0   0.0
450.0   30.0   16.666666666666668
500.0   30.0   16.666666666666668
450.0   60.0   16.666666666666668
450.0   30.0   33.333333333333336
500.0   30.0   16.666666666666668
500.0   60.0   16.666666666666668
450.0   60.0   16.666666666666668
500.0   60.0   33.333333333333336
450.0   30.0   33.333333333333336
450.0   60.0   33.333333333333336
500.0   60.0   33.333333333333336
450.0   60.0   16.666666666666668
450.0   30.0   33.333333333333336
500.0   60.0   33.333333333333336
500.0   30.0   33.333333333333336
500.0   30.0   16.666666666666668
450.0   30.0   33.333333333333336
500.0   60.0   33.333333333333336
500.0   30.0   16.666666666666668
450.0   60.0   16.666666666666668
450.0   30.0   33.333333333333336
500.0   30.0   33.333333333333336
450.0   60.0   33.333333333333336
450.0   30.0   50.0
500.0   30.0   33.333333333333336
500.0   60.0   33.333333333333336
450.0   60.0   33.333333333333336
500.0   60.0   50.0
450.0   30.0   50.0
450.0   60.0   50.0
500.0   60.0   50.0
450.0   60.0   33.333333333333336
450.0   30.0   50.0
500.0   60.0   50.0
500.0   30.0   50.0
500.0   30.0   33.333333333333336
450.0   30.0   50.0
500.0   60.0   50.0
500.0   30.0   33.333333333333336
450.0   60.0   33.333333333333336
450.0   60.0   0.0
500.0   60.0   0.0
450.0   90.0   0.0
450.0   60.0   16.666666666666668
500.0   60.0   0.0
500.0   90.0   0.0
450.0   90.0   0.0
500.0   90.0   16.666666666666668
450.0   60.0   16.666666666666668
450.0   90.0   16.666666666666668
500.0   90.0   16.666666666666668
450.0   90.0   0.0
450.0   60.0   16.666666666666668
500.0   90.0   16.666666666666668
500.0   60.0   16.666666666666668
500.0   60.0   0.0
450.0   60.0   16.666666666666668
500.0   90.0   16.666666666666668
500.0   60.0   0.0
450.0   90.0   0.0
450.0   60.0   16.666666666666668
500.0   60.0   16.666666666666668
450.0   90.0   16.666666666666668
450.0   60.0   33.333333333333336
500.0   60.0   16.666666666666668
500.0   90.0   16.666666666666668
450.0   90.0   16.666666666666668
500.0   90.0   33.333333333333336
450.0   60.0   33.333333333333336
450.0   90.0   33.333333333333336
500.0   90.0   33.333333333333336
450.0   90.0   16.666666666666668
450.0   60.0   33.333333333333336
500.0   90.0   33.333333333333336
500.0   60.0   33.333333333333336
500.0   60.0   16.666666666666668
450.0   60.0   33.333333333333336
500.0   90.0   33.333333333333336
500.0   60.0   16.666666666666668
450.0   90.0   16.666666666666668
450.0   60.0   33.333333333333336
500.0   60.0   33.333333333333336
450.0   90.0   33.333333333333336
450.0   60.0   50.0
500.0   60.0   33.333333333333336
500.0   90.0   33.333333333333336
450.0   90.0   33.333333333333336
500.0   90.0   50.0
450.0   60.0   50.0
450.0   90.0   50.0
500.0   90.0   50.0
450.0   90.0   33.333333333333336
450.0   60.0   50.0
500.0   90.0   50.0
500.0   60.0   50.0
500.0   60.0   33.333333333333336
450.0   60.0   50.0
500.0   90.0   50.0
500.0   60.0   33.333333333333336
450.0   90.0   33.333333333333336
450.0   90.0   0.0
500.0   90.0   0.0
450.0   120.0   0.0
450.0   90.0   16.666666666666668
500.0   90.0   0.0
500.0   120.0   0.0
450.0   120.0   0.0
500.0   120.0   16.666666666666668
450.0   90.0   16.666666666666668
450.0   120.0   16.666666666666668
500.0   120.0   16.666666666666668
450.0   120.0   0.0
450.0   90.0   16.666666666666668
500.0   120.0   16.666666666666668
500.0   90.0   16.666666666666668
500.0   90.0   0.0
450.0   90.0   16.666666666666668
500.0   120.0   16.666666666666668
500.0   90.0   0.0
450.0   120.0   0.0
450.0   90.0   16.666666666666668
500.0   90.0   16.666666666666668
450.0   120.0   16.666666666666668
450.0   90.0   33.333333333333336
500.0   90.0   16.666666666666668
500.0   120.0   16.666666666666668
450.0   120.0   16.666666666666668
500.0   120.0   33.333333333333336
450.0   90.0   33.333333333333336
450.0   120.0   33.333333333333336
500.0   120.0   33.333333333333336
450.0   120.0   16.666666666666668
450.0   90.0   33.333333333333336
500.0   120.0   33.333333333333336
500.0   90.0   33.333333333333336
500.0   90.0   16.666666666666668
450.0   90.0   33.333333333333336
500.0   120.0   33.333333333333336
500.0   90.0   16.666666666666668
450.0   120.0   16.666666666666668
450.0   90.0   33.333333333333336
500.0   90.0   33.333333333333336
450.0   120.0   33.333333333333336
450.0   90.0   50.0
500.0   90.0   33.333333333333336
500.0   120.0   33.333333333333336
450.0   120.0   33.333333333333336
500.0   120.0   50.0
450.0   90.0   50.0
450.0   120.0   50.0
500.0   120.0   50.0
450.0   120.0   33.333333333333336
450.0   90.0   50.0
500.0   120.0   50.0
500.0   90.0   50.0
500.0   90.0   33.333333333333336
450.0   90.0   50.0
500.0   120.0   50.0
500.0   90.0   33.333333333333336
450.0   120.0   33.333333333333336
450.0   120.0   0.0
500.0   120.0   0.0
450.0   150.0   0.0
450.0   120.0   16.666666666666668
500.0   120.0   0.0
500.0   150.0   0.0
450.0   150.0   0.0
500.0   150.0   16.666666666666668
450.0   120.0   16.666666666666668
450.0   150.0   16.666666666666668
500.0   150.0   16.666666666666668
450.0   150.0   0.0
450.0   120.0   16.666666666666668
500.0   150.0   16.666666666666668
500.0   120.0   16.666666666666668
500.0   120.0   0.0
450.0   120.0   16.666666666666668
500.0   150.0   16.666666666666668
500.0   120.0   0.0
450.0   150.0   0.0
450.0   120.0   16.666666666666668
500.0   120.0   16.666666666666668
450.0   150.0   16.666666666666668
450.0   120.0   33.333333333333336
500.0   120.0   16.666666666666668
500.0   150.0   16.666666666666668
450.0   150.0   16.666666666666668
500.0   150.0   33.333333333333336
450.0   120.0   33.333333333333336
450.0   150.0   33.333333333333336
500.0   150.0   33.333333333333336
450.0   150.0   16.666666666666668
450.0   120.0   33.333333333333336
500.0   150.0   33.333333333333336
500.0   120.0   33.333333333333336
500.0   120.0   16.666666666666668
450.0   120.0   33.333333333333336
500.0   150.0   33.333333333333336
500.0   120.0   16.666666666666668
450.0   150.0   16.666666666666668
450.0   120.0   33.333333333333336
500.0   120.0   33.333333333333336
450.0   150.0   33.333333333333336
450.0   120.0   50.0
500.0   120.0   33.333333333333336
500.0   150.0   33.333333333333336
450.0   150.0   33.333333333333336
500.0   150.0   50.0
450.0   120.0   50.0
450.0   150.0   50.0
500.0   150.0   50.0
450.0   150.0   33.333333333333336
450.0   120.0   50.0
500.0   150.0   50.0
500.0   120.0   50.0
500.0   120.0   33.333333333333336
450.0   120.0   50.0
500.0   150.0   50.0
500.0   120.0   33.333333333333336
450.0   150.0   33.333333333333336
             </DataArray>   
          </Points>  
          <Cells>  
             <DataArray type="Int32" Name="connectivity" format="ascii">   
0   1   2   3
4   5   6   7
8   9   10   11
12   13   14   15
16   17   18   19
20   21   22   23
24   25   26   27
28   29   30   31
32   33   34   35
36   37   38   39
40   41   42   43
44   45   46   47
48   49   50   51
52   53   54   55
56   57   58   59
60   61   62   63
64   65   66   67
68   69   70   71
72   73   74   75
76   77   78   79
80   81   82   83
84   85   86   87
88   89   90   91
92   93   94   95
96   97   98   99
100   101   102   103
104   105   106   107
108   109   110   111
112   113   114   115
116   117   118   119
120   121   122   123
124   125   126   127
128   129   130   131
132   133   134   135
136   137   138   139
140   141   142   143
144   145   146   147
148   149   150   151
152   153   154   155
156   157   158   159
160   161   162   163
164   165   166   167
168   169   170   171
172   173   174   175
176   177   178   179
180   181   182   183
184   185   186   187
188   189   190   191
192   193   194   195
196   197   198   199
200   201   202   203
204   205   206   207
208   209   210   211
212   213   214   215
216   217   218   219
220   221   222   223
224   225   226   227
228   229   230   231
232   233   234   235
236   237   238   239
240   241   242   243
244   245   246   247
248   249   250   251
252   253   254   255
256   257   258   259
260   261   262   263
264   265   266   267
268   269   270   271
272   273   274   275
276   277   278   279
280   281   282   283
284   285   286   287
288   289   290   291
292   293   294   295
296   297   298   299
300   301   302   303
304   305   306   307
308   309   310   311
312   313   314   315
316   317   318   319
320   321   322   323
324   325   326   327
328   329   330   331
332   333   334   335
336   337   338   339
340   341   342   343
344   345   346   347
348   349   350   351
352   353   354   355
356   357   358   359
360   361   362   363
364   365   366   367
368   369   370   371
372   373   374   375
376   377   378   379
380   381   382   383
384   385   386   387
388   389   390   391
392   393   394   395
396   397   398   399
400   401   402   403
404   405   406   407
408   409   410   411
412   413   414   415
416   417   418   419
420   421   422   423
424   425   426   427
428   429   430   431
432   433   434   435
436   437   438   439
440   441   442   443
444   445   446   447
448   449   450   451
452   453   454   455
456   457   458   459
460   461   462   463
464   465   466   467
468   469   470   471
472   473   474   475
476   477   478   479
480   481   482   483
484   485   486   487
488   489   490   491
492   493   494   495
496   497   498   499
500   501   502   503
504   505   506   507
508   509   510   511
512   513   514   515
516   517   518   519
520   521   522   523
524   525   526   527
528   529   530   531
532   533   534   535
536   537   538   539
540   541   542   543
544   545   546   547
548   549   550   551
552   553   554   555
556   557   558   559
560   561   562   563
564   565   566   567
568   569   570   571
572   573   574   575
576   577   578   579
580   581   582   583
584   585   586   587
588   589   590   591
592   593   594   595
596   597   598   599
600   601   602   603
604   605   606   607
608   609   610   611
612   613   614   615
616   617   618   619
620   621   622   623
624   625   626   627
628   629   630   631
632   633   634   635
636   637   638   639
640   641   642   643
644   645   646   647
648   649   650   651
652   653   654   655
656   657   658   659
660   661   662   663
664   665   666   667
668   669   670   671
672   673   674   675
676   677   678   679
680   681   682   683
684   685   686   687
688   689   690   691
692   693   694   695
696   697   698   699
700   701   702   703
704   705   706   707
708   709   710   711
712   713   714   715
716   717   718   719
720   721   722   723
724   725   726   727
728   729   730   731
732   733   734   735
736   737   738   739
740   741   742   743
744   745   746   747
748   749   750   751
752   753   754   755
756   757   758   759
760   761   762   763
764   765   766   767
768   769   770   771
772   773   774   775
776   777   778   779
780   781   782   783
784   785   786   787
788   789   790   791
792   793   794   795
796   797   798   799
800   801   802   803
804   805   806   807
808   809   810   811
812   813   814   815
816   817   818   819
820   821   822   823
824   825   826   827
828   829   830   831
832   833   834   835
836   837   838   839
840   841   842   843
844   845   846   847
848   849   850   851
852   853   854   855
856   857   858   859
860   861   862   863
864   865   866   867
868   869   870   871
872   873   874   875
876   877   878   879
880   881   882   883
884   885   886   887
888   889   890   891
892   893   894   895
896   897   898   899
900   901   902   903
904   905   906   907
908   909   910   911
912   913   914   915
916   917   918   919
920   921   922   923
924   925   926   927
928   929   930   931
932   933   934   935
936   937   938   939
940   941   942   943
944   945   946   947
948   949   950   951
952   953   954   955
956   957   958   959
960   961   962   963
964   965   966   967
968   969   970   971
972   973   974   975
976   977   978   979
980   981   982   983
984   985   986   987
988   989   990   991
992   993   994   995
996   997   998   999
1000   1001   1002   1003
1004   1005   1006   1007
1008   1009   1010   1011
1012   1013   1014   1015
1016   1017   1018   1019
1020   1021   1022   1023
1024   1025   1026   1027
1028   1029   1030   1031
1032   1033   1034   1035
1036   1037   1038   1039
1040   1041   1042   1043
1044   1045   1046   1047
1048   1049   1050   1051
1052   1053   1054   1055
1056   1057   1058   1059
1060   1061   1062   1063
1064   1065   1066   1067
1068   1069   1070   1071
1072   1073   1074   1075
1076   1077   1078   1079
1080   1081   1082   1083
1084   1085   1086   1087
1088   1089   1090   1091
1092   1093   1094   1095
1096   1097   1098   1099
1100   1101   1102   1103
1104   1105   1106   1107
1108   1109   1110   1111
1112   1113   1114   1115
1116   1117   1118   1119
1120   1121   1122   1123
1124   1125   1126   1127
1128   1129   1130   1131
1132   1133   1134   1135
1136   1137   1138   1139
1140   1141   1142   1143
1144   1145   1146   1147
1148   1149   1150   1151
1152   1153   1154   1155
1156   1157   1158   1159
1160   1161   1162   1163
1164   1165   1166   1167
1168   1169   1170   1171
1172   1173   1174   1175
1176   1177   1178   1179
1180   1181   1182   1183
1184   1185   1186   1187
1188   1189   1190   1191
1192   1193   1194   1195
1196   1197   1198   1199
1200   1201   1202   1203
1204   1205   1206   1207
1208   1209   1210   1211
1212   1213   1214   1215
1216   1217   1218   1219
1220   1221   1222   1223
1224   1225   1226   1227
1228   1229   1230   1231
1232   1233   1234   1235
1236   1237   1238   1239
1240   1241   1242   1243
1244   1245   1246   1247
1248   1249   1250   1251
1252   1253   1254   1255
1256   1257   1258   1259
1260   1261   1262   1263
1264   1265   1266   1267
1268   1269   1270   1271
1272   1273   1274   1275
1276   1277   1278   1279
1280   1281   1282   1283
1284   1285   1286   1287
1288   1289   1290   1291
1292   1293   1294   1295
1296   1297   1298   1299
1300   1301   1302   1303
1304   1305   1306   1307
1308   1309   1310   1311
1312   1313   1314   1315
1316   1317   1318   1319
1320   1321   1322   1323
1324   1325   1326   1327
1328   1329   1330   1331
1332   1333   1334   1335
1336   1337   1338   1339
1340   1341   1342   1343
1344   1345   1346   1347
1348   1349   1350   1351
1352   1353   1354   1355
1356   1357   1358   1359
1360   1361   1362   1363
1364   1365   1366   1367
1368   1369   1370   1371
1372   1373   1374   1375
1376   1377   1378   1379
1380   1381   1382   1383
1384   1385   1386   1387
1388   1389   1390   1391
1392   1393   1394   1395
1396   1397   1398   1399
1400   1401   1402   1403
1404   1405   1406   1407
1408   1409   1410   1411
1412   1413   1414   1415
1416   1417   1418   1419
1420   1421   1422   1423
1424   1425   1426   1427
1428   1429   1430   1431
1432   1433   1434   1435
1436   1437   1438   1439
1440   1441   1442   1443
1444   1445   1446   1447
1448   1449   1450   1451
1452   1453   1454   1455
1456   1457   1458   1459
1460   1461   1462   1463
1464   1465   1466   1467
1468   1469   1470   1471
1472   1473   1474   1475
1476   1477   1478   1479
1480   1481   1482   1483
1484   1485   1486   1487
1488   1489   1490   1491
1492   1493   1494   1495
1496   1497   1498   1499
1500   1501   1502   1503
1504   1505   1506   1507
1508   1509   1510   1511
1512   1513   1514   1515
1516   1517   1518   1519
1520   1521   1522   1523
1524   1525   1526   1527
1528   1529   1530   1531
1532   1533   1534   1535
1536   1537   1538   1539
1540   1541   1542   1543
1544   1545   1546   1547
1548   1549   1550   1551
1552   1553   1554   1555
1556   1557   1558   1559
1560   1561   1562   1563
1564   1565   1566   1567
1568   1569   1570   1571
1572   1573   1574   1575
1576   1577   1578   1579
1580   1581   1582   1583
1584   1585   1586   1587
1588   1589   1590   1591
1592   1593   1594   1595
1596   1597   1598   1599
1600   1601   1602   1603
1604   1605   1606   1607
1608   1609   1610   1611
1612   1613   1614   1615
1616   1617   1618   1619
1620   1621   1622   1623
1624   1625   1626   1627
1628   1629   1630   1631
1632   1633   1634   1635
1636   1637   1638   1639
1640   1641   1642   1643
1644   1645   1646   1647
1648   1649   1650   1651
1652   1653   1654   1655
1656   1657   1658   1659
1660   1661   1662   1663
1664   1665   1666   1667
1668   1669   1670   1671
1672   1673   1674   1675
1676   1677   1678   1679
1680   1681   1682   1683
1684   1685   1686   1687
1688   1689   1690   1691
1692   1693   1694   1695
1696   1697   1698   1699
1700   1701   1702   1703
1704   1705   1706   1707
1708   1709   1710   1711
1712   1713   1714   1715
1716   1717   1718   1719
1720   1721   1722   1723
1724   1725   1726   1727
1728   1729   1730   1731
1732   1733   1734   1735
1736   1737   1738   1739
1740   1741   1742   1743
1744   1745   1746   1747
1748   1749   1750   1751
1752   1753   1754   1755
1756   1757   1758   1759
1760   1761   1762   1763
1764   1765   1766   1767
1768   1769   1770   1771
1772   1773   1774   1775
1776   1777   1778   1779
1780   1781   1782   1783
1784   1785   1786   1787
1788   1789   1790   1791
1792   1793   1794   1795
1796   1797   1798   1799
1800   1801   1802   1803
1804   1805   1806   1807
1808   1809   1810   1811
1812   1813   1814   1815
1816   1817   1818   1819
1820   1821   1822   1823
1824   1825   1826   1827
1828   1829   1830   1831
1832   1833   1834   1835
1836   1837   1838   1839
1840   1841   1842   1843
1844   1845   1846   1847
1848   1849   1850   1851
1852   1853   1854   1855
1856   1857   1858   1859
1860   1861   1862   1863
1864   1865   1866   1867
1868   1869   1870   1871
1872   1873   1874   1875
1876   1877   1878   1879
1880   1881   1882   1883
1884   1885   1886   1887
1888   1889   1890   1891
1892   1893   1894   1895
1896   1897   1898   1899
1900   1901   1902   1903
1904   1905   1906   1907
1908   1909   1910   1911
1912   1913   1914   1915
1916   1917   1918   1919
1920   1921   1922   1923
1924   1925   1926   1927
1928   1929   1930   1931
1932   1933   1934   1935
1936   1937   1938   1939
1940   1941   1942   1943
1944   1945   1946   1947
1948   1949   1950   1951
1952   1953   1954   1955
1956   1957   1958   1959
1960   1961   1962   1963
1964   1965   1966   1967
1968   1969   1970   1971
1972   1973   1974   1975
1976   1977   1978   1979
1980   1981   1982   1983
1984   1985   1986   1987
1988   1989   1990   1991
1992   1993   1994   1995
1996   1997   1998   1999
2000   2001   2002   2003
2004   2005   2006   2007
2008   2009   2010   2011
2012   2013   2014   2015
2016   2017   2018   2019
2020   2021   2022   2023
2024   2025   2026   2027
2028   2029   2030   2031
2032   2033   2034   2035
2036   2037   2038   2039
2040   2041   2042   2043
2044   2045   2046   2047
2048   2049   2050   2051
2052   2053   2054   2055
2056   2057   2058   2059
2060   2061   2062   2063
2064   2065   2066   2067
2068   2069   2070   2071
2072   2073   2074   2075
2076   2077   2078   2079
2080   2081   2082   2083
2084   2085   2086   2087
2088   2089   2090   2091
2092   2093   2094   2095
2096   2097   2098   2099
2100   2101   2102   2103
2104   2105   2106   2107
2108   2109   2110   2111
2112   2113   2114   2115
2116   2117   2118   2119
2120   2121   2122   2123
2124   2125   2126   2127
2128   2129   2130   2131
2132   2133   2134   2135
2136   2137   2138   2139
2140   2141   2142   2143
2144   2145   2146   2147
2148   2149   2150   2151
2152   2153   2154   2155
2156   2157   2158   2159
2160   2161   2162   2163
2164   2165   2166   2167
2168   2169   2170   2171
2172   2173   2174   2175
2176   2177   2178   2179
2180   2181   2182   2183
2184   2185   2186   2187
2188   2189   2190   2191
2192   2193   2194   2195
2196   2197   2198   2199
2200   2201   2202   2203
2204   2205   2206   2207
2208   2209   2210   2211
2212   2213   2214   2215
2216   2217   2218   2219
2220   2221   2222   2223
2224   2225   2226   2227
2228   2229   2230   2231
2232   2233   2234   2235
2236   2237   2238   2239
2240   2241   2242   2243
2244   2245   2246   2247
2248   2249   2250   2251
2252   2253   2254   2255
2256   2257   2258   2259
2260   2261   2262   2263
2264   2265   2266   2267
2268   2269   2270   2271
2272   2273   2274   2275
2276   2277   2278   2279
2280   2281   2282   2283
2284   2285   2286   2287
2288   2289   2290   2291
2292   2293   2294   2295
2296   2297   2298   2299
2300   2301   2302   2303
2304   2305   2306   2307
2308   2309   2310   2311
2312   2313   2314   2315
2316   2317   2318   2319
2320   2321   2322   2323
2324   2325   2326   2327
2328   2329   2330   2331
2332   2333   2334   2335
2336   2337   2338   2339
2340   2341   2342   2343
2344   2345   2346   2347
2348   2349   2350   2351
2352   2353   2354   2355
2356   2357   2358   2359
2360   2361   2362   2363
2364   2365   2366   2367
2368   2369   2370   2371
2372   2373   2374   2375
2376   2377   2378   2379
2380   2381   2382   2383
2384   2385   2386   2387
2388   2389   2390   2391
2392   2393   2394   2395
2396   2397   2398   2399
2400   2401   2402   2403
2404   2405   2406   2407
2408   2409   2410   2411
2412   2413   2414   2415
2416   2417   2418   2419
2420   2421   2422   2423
2424   2425   2426   2427
2428   2429   2430   2431
2432   2433   2434   2435
2436   2437   2438   2439
2440   2441   2442   2443
2444   2445   2446   2447
2448   2449   2450   2451
2452   2453   2454   2455
2456   2457   2458   2459
2460   2461   2462   2463
2464   2465   2466   2467
2468   2469   2470   2471
2472   2473   2474   2475
2476   2477   2478   2479
2480   2481   2482   2483
2484   2485   2486   2487
2488   2489   2490   2491
2492   2493   2494   2495
2496   2497   2498   2499
2500   2501   2502   2503
2504   2505   2506   2507
2508   2509   2510   2511
2512   2513   2514   2515
2516   2517   2518   2519
2520   2521   2522   2523
2524   2525   2526   2527
2528   2529   2530   2531
2532   2533   2534   2535
2536   2537   2538   2539
2540   2541   2542   2543
2544   2545   2546   2547
2548   2549   2550   2551
2552   2553   2554   2555
2556   2557   2558   2559
2560   2561   2562   2563
2564   2565   2566   2567
2568   2569   2570   2571
2572   2573   2574   2575
2576   2577   2578   2579
2580   2581   2582   2583
2584   2585   2586   2587
2588   2589   2590   2591
2592   2593   2594   2595
2596   2597   2598   2599
2600   2601   2602   2603
2604   2605   2606   2607
2608   2609   2610   2611
2612   2613   2614   2615
2616   2617   2618   2619
2620   2621   2622   2623
2624   2625   2626   2627
2628   2629   2630   2631
2632   2633   2634   2635
2636   2637   2638   2639
2640   2641   2642   2643
2644   2645   2646   2647
2648   2649   2650   2651
2652   2653   2654   2655
2656   2657   2658   2659
2660   2661   2662   2663
2664   2665   2666   2667
2668   2669   2670   2671
2672   2673   2674   2675
2676   2677   2678   2679
2680   2681   2682   2683
2684   2685   2686   2687
2688   2689   2690   2691
2692   2693   2694   2695
2696   2697   2698   2699
2700   2701   2702   2703
2704   2705   2706   2707
2708   2709   2710   2711
2712   2713   2714   2715
2716   2717   2718   2719
2720   2721   2722   2723
2724   2725   2726   2727
2728   2729   2730   2731
2732   2733   2734   2735
2736   2737   2738   2739
2740   2741   2742   2743
2744   2745   2746   2747
2748   2749   2750   2751
2752   2753   2754   2755
2756   2757   2758   2759
2760   2761   2762   2763
2764   2765   2766   2767
2768   2769   2770   2771
2772   2773   2774   2775
2776   2777   2778   2779
2780   2781   2782   2783
2784   2785   2786   2787
2788   2789   2790   2791
2792   2793   2794   2795
2796   2797   2798   2799
2800   2801   2802   2803
2804   2805   2806   2807
2808   2809   2810   2811
2812   2813   2814   2815
2816   2817   2818   2819
2820   2821   2822   2823
2824   2825   2826   2827
2828   2829   2830   2831
2832   2833   2834   2835
2836   2837   2838   2839
2840   2841   2842   2843
2844   2845   2846   2847
2848   2849   2850   2851
2852   2853   2854   2855
2856   2857   2858   2859
2860   2861   2862   2863
2864   2865   2866   2867
2868   2869   2870   2871
2872   2873   2874   2875
2876   2877   2878   2879
2880   2881   2882   2883
2884   2885   2886   2887
2888   2889   2890   2891
2892   2893   2894   2895
2896   2897   2898   2899
2900   2901   2902   2903
2904   2905   2906   2907
2908   2909   2910   2911
2912   2913   2914   2915
2916   2917   2918   2919
2920   2921   2922   2923
2924   2925   2926   2927
2928   2929   2930   2931
2932   2933   2934   2935
2936   2937   2938   2939
2940   2941   2942   2943
2944   2945   2946   2947
2948   2949   2950   2951
2952   2953   2954   2955
2956   2957   2958   2959
2960   2961   2962   2963
2964   2965   2966   2967
2968   2969   2970   2971
2972   2973   2974   2975
2976   2977   2978   2979
2980   2981   2982   2983
2984   2985   2986   2987
2988   2989   2990   2991
2992   2993   2994   2995
2996   2997   2998   2999
3000   3001   3002   3003
3004   3005   3006   3007
3008   3009   3010   3011
3012   3013   3014   3015
3016   3017   3018   3019
3020   3021   3022   3023
3024   3025   3026   3027
3028   3029   3030   3031
3032   3033   3034   3035
3036   3037   3038   3039
3040   3041   3042   3043
3044   3045   3046   3047
3048   3049   3050   3051
3052   3053   3054   3055
3056   3057   3058   3059
3060   3061   3062   3063
3064   3065   3066   3067
3068   3069   3070   3071
3072   3073   3074   3075
3076   3077   3078   3079
3080   3081   3082   3083
3084   3085   3086   3087
3088   3089   3090   3091
3092   3093   3094   3095
3096   3097   3098   3099
3100   3101   3102   3103
3104   3105   3106   3107
3108   3109   3110   3111
3112   3113   3114   3115
3116   3117   3118   3119
3120   3121   3122   3123
3124   3125   3126   3127
3128   3129   3130   3131
3132   3133   3134   3135
3136   3137   3138   3139
3140   3141   3142   3143
3144   3145   3146   3147
3148   3149   3150   3151
3152   3153   3154   3155
3156   3157   3158   3159
3160   3161   3162   3163
3164   3165   3166   3167
3168   3169   3170   3171
3172   3173   3174   3175
3176   3177   3178   3179
3180   3181   3182   3183
3184   3185   3186   3187
3188   3189   3190   3191
3192   3193   3194   3195
3196   3197   3198   3199
3200   3201   3202   3203
3204   3205   3206   3207
3208   3209   3210   3211
3212   3213   3214   3215
3216   3217   3218   3219
3220   3221   3222   3223
3224   3225   3226   3227
3228   3229   3230   3231
3232   3233   3234   3235
3236   3237   3238   3239
3240   3241   3242   3243
3244   3245   3246   3247
3248   3249   3250   3251
3252   3253   3254   3255
3256   3257   3258   3259
3260   3261   3262   3263
3264   3265   3266   3267
3268   3269   3270   3271
3272   3273   3274   3275
3276   3277   3278   3279
3280   3281   3282   3283
3284   3285   3286   3287
3288   3289   3290   3291
3292   3293   3294   3295
3296   3297   3298   3299
3300   3301   3302   3303
3304   3305   3306   3307
3308   3309   3310   3311
3312   3313   3314   3315
3316   3317   3318   3319
3320   3321   3322   3323
3324   3325   3326   3327
3328   3329   3330   3331
3332   3333   3334   3335
3336   3337   3338   3339
3340   3341   3342   3343
3344   3345   3346   3347
3348   3349   3350   3351
3352   3353   3354   3355
3356   3357   3358   3359
3360   3361   3362   3363
3364   3365   3366   3367
3368   3369   3370   3371
3372   3373   3374   3375
3376   3377   3378   3379
3380   3381   3382   3383
3384   3385   3386   3387
3388   3389   3390   3391
3392   3393   3394   3395
3396   3397   3398   3399
3400   3401   3402   3403
3404   3405   3406   3407
3408   3409   3410   3411
3412   3413   3414   3415
3416   3417   3418   3419
3420   3421   3422   3423
3424   3425   3426   3427
3428   3429   3430   3431
3432   3433   3434   3435
3436   3437   3438   3439
3440   3441   3442   3443
3444   3445   3446   3447
3448   3449   3450   3451
3452   3453   3454   3455
3456   3457   3458   3459
3460   3461   3462   3463
3464   3465   3466   3467
3468   3469   3470   3471
3472   3473   3474   3475
3476   3477   3478   3479
3480   3481   3482   3483
3484   3485   3486   3487
3488   3489   3490   3491
3492   3493   3494   3495
3496   3497   3498   3499
3500   3501   3502   3503
3504   3505   3506   3507
3508   3509   3510   3511
3512   3513   3514   3515
3516   3517   3518   3519
3520   3521   3522   3523
3524   3525   3526   3527
3528   3529   3530   3531
3532   3533   3534   3535
3536   3537   3538   3539
3540   3541   3542   3543
3544   3545   3546   3547
3548   3549   3550   3551
3552   3553   3554   3555
3556   3557   3558   3559
3560   3561   3562   3563
3564   3565   3566   3567
3568   3569   3570   3571
3572   3573   3574   3575
3576   3577   3578   3579
3580   3581   3582   3583
3584   3585   3586   3587
3588   3589   3590   3591
3592   3593   3594   3595
3596   3597   3598   3599
3600   3601   3602   3603
3604   3605   3606   3607
3608   3609   3610   3611
3612   3613   3614   3615
3616   3617   3618   3619
3620   3621   3622   3623
3624   3625   3626   3627
3628   3629   3630   3631
3632   3633   3634   3635
3636   3637   3638   3639
3640   3641   3642   3643
3644   3645   3646   3647
3648   3649   3650   3651
3652   3653   3654   3655
3656   3657   3658   3659
3660   3661   3662   3663
3664   3665   3666   3667
3668   3669   3670   3671
3672   3673   3674   3675
3676   3677   3678   3679
3680   3681   3682   3683
3684   3685   3686   3687
3688   3689   3690   3691
3692   3693   3694   3695
3696   3697   3698   3699
3700   3701   3702   3703
3704   3705   3706   3707
3708   3709   3710   3711
3712   3713   3714   3715
3716   3717   3718   3719
3720   3721   3722   3723
3724   3725   3726   3727
3728   3729   3730   3731
3732   3733   3734   3735
3736   3737   3738   3739
3740   3741   3742   3743
3744   3745   3746   3747
3748   3749   3750   3751
3752   3753   3754   3755
3756   3757   3758   3759
3760   3761   3762   3763
3764   3765   3766   3767
3768   3769   3770   3771
3772   3773   3774   3775
3776   3777   3778   3779
3780   3781   3782   3783
3784   3785   3786   3787
3788   3789   3790   3791
3792   3793   3794   3795
3796   3797   3798   3799
3800   3801   3802   3803
3804   3805   3806   3807
3808   3809   3810   3811
3812   3813   3814   3815
3816   3817   3818   3819
3820   3821   3822   3823
3824   3825   3826   3827
3828   3829   3830   3831
3832   3833   3834   3835
3836   3837   3838   3839
3840   3841   3842   3843
3844   3845   3846   3847
3848   3849   3850   3851
3852   3853   3854   3855
3856   3857   3858   3859
3860   3861   3862   3863
3864   3865   3866   3867
3868   3869   3870   3871
3872   3873   3874   3875
3876   3877   3878   3879
3880   3881   3882   3883
3884   3885   3886   3887
3888   3889   3890   3891
3892   3893   3894   3895
3896   3897   3898   3899
3900   3901   3902   3903
3904   3905   3906   3907
3908   3909   3910   3911
3912   3913   3914   3915
3916   3917   3918   3919
3920   3921   3922   3923
3924   3925   3926   3927
3928   3929   3930   3931
3932   3933   3934   3935
3936   3937   3938   3939
3940   3941   3942   3943
3944   3945   3946   3947
3948   3949   3950   3951
3952   3953   3954   3955
3956   3957   3958   3959
3960   3961   3962   3963
3964   3965   3966   3967
3968   3969   3970   3971
3972   3973   3974   3975
3976   3977   3978   3979
3980   3981   3982   3983
3984   3985   3986   3987
3988   3989   3990   3991
3992   3993   3994   3995
3996   3997   3998   3999
4000   4001   4002   4003
4004   4005   4006   4007
4008   4009   4010   4011
4012   4013   4014   4015
4016   4017   4018   4019
4020   4021   4022   4023
4024   4025   4026   4027
4028   4029   4030   4031
4032   4033   4034   4035
4036   4037   4038   4039
4040   4041   4042   4043
4044   4045   4046   4047
4048   4049   4050   4051
4052   4053   4054   4055
4056   4057   4058   4059
4060   4061   4062   4063
4064   4065   4066   4067
4068   4069   4070   4071
4072   4073   4074   4075
4076   4077   4078   4079
4080   4081   4082   4083
4084   4085   4086   4087
4088   4089   4090   4091
4092   4093   4094   4095
4096   4097   4098   4099
4100   4101   4102   4103
4104   4105   4106   4107
4108   4109   4110   4111
4112   4113   4114   4115
4116   4117   4118   4119
4120   4121   4122   4123
4124   4125   4126   4127
4128   4129   4130   4131
4132   4133   4134   4135
4136   4137   4138   4139
4140   4141   4142   4143
4144   4145   4146   4147
4148   4149   4150   4151
4152   4153   4154   4155
4156   4157   4158   4159
4160   4161   4162   4163
4164   4165   4166   4167
4168   4169   4170   4171
4172   4173   4174   4175
4176   4177   4178   4179
4180   4181   4182   4183
4184   4185   4186   4187
4188   4189   4190   4191
4192   4193   4194   4195
4196   4197   4198   4199
4200   4201   4202   4203
4204   4205   4206   4207
4208   4209   4210   4211
4212   4213   4214   4215
4216   4217   4218   4219
4220   4221   4222   4223
4224   4225   4226   4227
4228   4229   4230   4231
4232   4233   4234   4235
4236   4237   4238   4239
4240   4241   4242   4243
4244   4245   4246   4247
4248   4249   4250   4251
4252   4253   4254   4255
4256   4257   4258   4259
4260   4261   4262   4263
4264   4265   4266   4267
4268   4269   4270   4271
4272   4273   4274   4275
4276   4277   4278   4279
4280   4281   4282   4283
4284   4285   4286   4287
4288   4289   4290   4291
4292   4293   4294   4295
4296   4297   4298   4299
4300   4301   4302   4303
4304   4305   4306   4307
4308   4309   4310   4311
4312   4313   4314   4315
4316   4317   4318   4319
4320   4321   4322   4323
4324   4325   4326   4327
4328   4329   4330   4331
4332   4333   4334   4335
4336   4337   4338   4339
4340   4341   4342   4343
4344   4345   4346   4347
4348   4349   4350   4351
4352   4353   4354   4355
4356   4357   4358   4359
4360   4361   4362   4363
4364   4365   4366   4367
4368   4369   4370   4371
4372   4373   4374   4375
4376   4377   4378   4379
4380   4381   4382   4383
4384   4385   4386   4387
4388   4389   4390   4391
4392   4393   4394   4395
4396   4397   4398   4399
4400   4401   4402   4403
4404   4405   4406   4407
4408   4409   4410   4411
4412   4413   4414   4415
4416   4417   4418   4419
4420   4421   4422   4423
4424   4425   4426   4427
4428   4429   4430   4431
4432   4433   4434   4435
4436   4437   4438   4439
4440   4441   4442   4443
4444   4445   4446   4447
4448   4449   4450   4451
4452   4453   4454   4455
4456   4457   4458   4459
4460   4461   4462   4463
4464   4465   4466   4467
4468   4469   4470   4471
4472   4473   4474   4475
4476   4477   4478   4479
4480   4481   4482   4483
4484   4485   4486   4487
4488   4489   4490   4491
4492   4493   4494   4495
4496   4497   4498   4499
4500   4501   4502   4503
4504   4505   4506   4507
4508   4509   4510   4511
4512   4513   4514   4515
4516   4517   4518   4519
4520   4521   4522   4523
4524   4525   4526   4527
4528   4529   4530   4531
4532   4533   4534   4535
4536   4537   4538   4539
4540   4541   4542   4543
4544   4545   4546   4547
4548   4549   4550   4551
4552   4553   4554   4555
4556   4557   4558   4559
4560   4561   4562   4563
4564   4565   4566   4567
4568   4569   4570   4571
4572   4573   4574   4575
4576   4577   4578   4579
4580   4581   4582   4583
4584   4585   4586   4587
4588   4589   4590   4591
4592   4593   4594   4595
4596   4597   4598   4599
4600   4601   4602   4603
4604   4605   4606   4607
4608   4609   4610   4611
4612   4613   4614   4615
4616   4617   4618   4619
4620   4621   4622   4623
4624   4625   4626   4627
4628   4629   4630   4631
4632   4633   4634   4635
4636   4637   4638   4639
4640   4641   4642   4643
4644   4645   4646   4647
4648   4649   4650   4651
4652   4653   4654   4655
4656   4657   4658   4659
4660   4661   4662   4663
4664   4665   4666   4667
4668   4669   4670   4671
4672   4673   4674   4675
4676   4677   4678   4679
4680   4681   4682   4683
4684   4685   4686   4687
4688   4689   4690   4691
4692   4693   4694   4695
4696   4697   4698   4699
4700   4701   4702   4703
4704   4705   4706   4707
4708   4709   4710   4711
4712   4713   4714   4715
4716   4717   4718   4719
4720   4721   4722   4723
4724   4725   4726   4727
4728   4729   4730   4731
4732   4733   4734   4735
4736   4737   4738   4739
4740   4741   4742   4743
4744   4745   4746   4747
4748   4749   4750   4751
4752   4753   4754   4755
4756   4757   4758   4759
4760   4761   4762   4763
4764   4765   4766   4767
4768   4769   4770   4771
4772   4773   4774   4775
4776   4777   4778   4779
4780   4781   4782   4783
4784   4785   4786   4787
4788   4789   4790   4791
4792   4793   4794   4795
4796   4797   4798   4799
4800   4801   4802   4803
4804   4805   4806   4807
4808   4809   4810   4811
4812   4813   4814   4815
4816   4817   4818   4819
4820   4821   4822   4823
4824   4825   4826   4827
4828   4829   4830   4831
4832   4833   4834   4835
4836   4837   4838   4839
4840   4841   4842   4843
4844   4845   4846   4847
4848   4849   4850   4851
4852   4853   4854   4855
4856   4857   4858   4859
4860   4861   4862   4863
4864   4865   4866   4867
4868   4869   4870   4871
4872   4873   4874   4875
4876   4877   4878   4879
4880   4881   4882   4883
4884   4885   4886   4887
4888   4889   4890   4891
4892   4893   4894   4895
4896   4897   4898   4899
4900   4901   4902   4903
4904   4905   4906   4907
4908   4909   4910   4911
4912   4913   4914   4915
4916   4917   4918   4919
4920   4921   4922   4923
4924   4925   4926   4927
4928   4929   4930   4931
4932   4933   4934   4935
4936   4937   4938   4939
4940   4941   4942   4943
4944   4945   4946   4947
4948   4949   4950   4951
4952   4953   4954   4955
4956   4957   4958   4959
4960   4961   4962   4963
4964   4965   4966   4967
4968   4969   4970   4971
4972   4973   4974   4975
4976   4977   4978   4979
4980   4981   4982   4983
4984   4985   4986   4987
4988   4989   4990   4991
4992   4993   4994   4995
4996   4997   4998   4999
5000   5001   5002   5003
5004   5005   5006   5007
5008   5009   5010   5011
5012   5013   5014   5015
5016   5017   5018   5019
5020   5021   5022   5023
5024   5025   5026   5027
5028   5029   5030   5031
5032   5033   5034   5035
5036   5037   5038   5039
5040   5041   5042   5043
5044   5045   5046   5047
5048   5049   5050   5051
5052   5053   5054   5055
5056   5057   5058   5059
5060   5061   5062   5063
5064   5065   5066   5067
5068   5069   5070   5071
5072   5073   5074   5075
5076   5077   5078   5079
5080   5081   5082   5083
5084   5085   5086   5087
5088   5089   5090   5091
5092   5093   5094   5095
5096   5097   5098   5099
5100   5101   5102   5103
5104   5105   5106   5107
5108   5109   5110   5111
5112   5113   5114   5115
5116   5117   5118   5119
5120   5121   5122   5123
5124   5125   5126   5127
5128   5129   5130   5131
5132   5133   5134   5135
5136   5137   5138   5139
5140   5141   5142   5143
5144   5145   5146   5147
5148   5149   5150   5151
5152   5153   5154   5155
5156   5157   5158   5159
5160   5161   5162   5163
5164   5165   5166   5167
5168   5169   5170   5171
5172   5173   5174   5175
5176   5177   5178   5179
5180   5181   5182   5183
5184   5185   5186   5187
5188   5189   5190   5191
5192   5193   5194   5195
5196   5197   5198   5199
5200   5201   5202   5203
5204   5205   5206   5207
5208   5209   5210   5211
5212   5213   5214   5215
5216   5217   5218   5219
5220   5221   5222   5223
5224   5225   5226   5227
5228   5229   5230   5231
5232   5233   5234   5235
5236   5237   5238   5239
5240   5241   5242   5243
5244   5245   5246   5247
5248   5249   5250   5251
5252   5253   5254   5255
5256   5257   5258   5259
5260   5261   5262   5263
5264   5265   5266   5267
5268   5269   5270   5271
5272   5273   5274   5275
5276   5277   5278   5279
5280   5281   5282   5283
5284   5285   5286   5287
5288   5289   5290   5291
5292   5293   5294   5295
5296   5297   5298   5299
5300   5301   5302   5303
5304   5305   5306   5307
5308   5309   5310   5311
5312   5313   5314   5315
5316   5317   5318   5319
5320   5321   5322   5323
5324   5325   5326   5327
5328   5329   5330   5331
5332   5333   5334   5335
5336   5337   5338   5339
5340   5341   5342   5343
5344   5345   5346   5347
5348   5349   5350   5351
5352   5353   5354   5355
5356   5357   5358   5359
5360   5361   5362   5363
5364   5365   5366   5367
5368   5369   5370   5371
5372   5373   5374   5375
5376   5377   5378   5379
5380   5381   5382   5383
5384   5385   5386   5387
5388   5389   5390   5391
5392   5393   5394   5395
5396   5397   5398   5399
5400   5401   5402   5403
5404   5405   5406   5407
5408   5409   5410   5411
5412   5413   5414   5415
5416   5417   5418   5419
5420   5421   5422   5423
5424   5425   5426   5427
5428   5429   5430   5431
5432   5433   5434   5435
5436   5437   5438   5439
5440   5441   5442   5443
5444   5445   5446   5447
5448   5449   5450   5451
5452   5453   5454   5455
5456   5457   5458   5459
5460   5461   5462   5463
5464   5465   5466   5467
5468   5469   5470   5471
5472   5473   5474   5475
5476   5477   5478   5479
5480   5481   5482   5483
5484   5485   5486   5487
5488   5489   5490   5491
5492   5493   5494   5495
5496   5497   5498   5499
5500   5501   5502   5503
5504   5505   5506   5507
5508   5509   5510   5511
5512   5513   5514   5515
5516   5517   5518   5519
5520   5521   5522   5523
5524   5525   5526   5527
5528   5529   5530   5531
5532   5533   5534   5535
5536   5537   5538   5539
5540   5541   5542   5543
5544   5545   5546   5547
5548   5549   5550   5551
5552   5553   5554   5555
5556   5557   5558   5559
5560   5561   5562   5563
5564   5565   5566   5567
5568   5569   5570   5571
5572   5573   5574   5575
5576   5577   5578   5579
5580   5581   5582   5583
5584   5585   5586   5587
5588   5589   5590   5591
5592   5593   5594   5595
5596   5597   5598   5599
5600   5601   5602   5603
5604   5605   5606   5607
5608   5609   5610   5611
5612   5613   5614   5615
5616   5617   5618   5619
5620   5621   5622   5623
5624   5625   5626   5627
5628   5629   5630   5631
5632   5633   5634   5635
5636   5637   5638   5639
5640   5641   5642   5643
5644   5645   5646   5647
5648   5649   5650   5651
5652   5653   5654   5655
5656   5657   5658   5659
5660   5661   5662   5663
5664   5665   5666   5667
5668   5669   5670   5671
5672   5673   5674   5675
5676   5677   5678   5679
5680   5681   5682   5683
5684   5685   5686   5687
5688   5689   5690   5691
5692   5693   5694   5695
5696   5697   5698   5699
5700   5701   5702   5703
5704   5705   5706   5707
5708   5709   5710   5711
5712   5713   5714   5715
5716   5717   5718   5719
5720   5721   5722   5723
5724   5725   5726   5727
5728   5729   5730   5731
5732   5733   5734   5735
5736   5737   5738   5739
5740   5741   5742   5743
5744   5745   5746   5747
5748   5749   5750   5751
5752   5753   5754   5755
5756   5757   5758   5759
5760   5761   5762   5763
5764   5765   5766   5767
5768   5769   5770   5771
5772   5773   5774   5775
5776   5777   5778   5779
5780   5781   5782   5783
5784   5785   5786   5787
5788   5789   5790   5791
5792   5793   5794   5795
5796   5797   5798   5799
5800   5801   5802   5803
5804   5805   5806   5807
5808   5809   5810   5811
5812   5813   5814   5815
5816   5817   5818   5819
5820   5821   5822   5823
5824   5825   5826   5827
5828   5829   5830   5831
5832   5833   5834   5835
5836   5837   5838   5839
5840   5841   5842   5843
5844   5845   5846   5847
5848   5849   5850   5851
5852   5853   5854   5855
5856   5857   5858   5859
5860   5861   5862   5863
5864   5865   5866   5867
5868   5869   5870   5871
5872   5873   5874   5875
5876   5877   5878   5879
5880   5881   5882   5883
5884   5885   5886   5887
5888   5889   5890   5891
5892   5893   5894   5895
5896   5897   5898   5899
5900   5901   5902   5903
5904   5905   5906   5907
5908   5909   5910   5911
5912   5913   5914   5915
5916   5917   5918   5919
5920   5921   5922   5923
5924   5925   5926   5927
5928   5929   5930   5931
5932   5933   5934   5935
5936   5937   5938   5939
5940   5941   5942   5943
5944   5945   5946   5947
5948   5949   5950   5951
5952   5953   5954   5955
5956   5957   5958   5959
5960   5961   5962   5963
5964   5965   5966   5967
5968   5969   5970   5971
5972   5973   5974   5975
5976   5977   5978   5979
5980   5981   5982   5983
5984   5985   5986   5987
5988   5989   5990   5991
5992   5993   5994   5995
5996   5997   5998   5999
              </DataArray>   
              <DataArray type="Int32" Name="offsets" format="ascii">   
4
8
12
16
20
24
28
32
36
40
44
48
52
56
60
64
68
72
76
80
84
88
92
96
100
104
108
112
116
120
124
128
132
136
140
144
148
152
156
160
164
168
172
176
180
184
188
192
196
200
204
208
212
216
220
224
228
232
236
240
244
248
252
256
260
264
268
272
276
280
284
288
292
296
300
304
308
312
316
320
324
328
332
336
340
344
348
352
356
360
364
368
372
376
380
384
388
392
396
400
404
408
412
416
420
424
428
432
436
440
444
448
452
456
460
464
468
472
476
480
484
488
492
496
500
504
508
512
516
520
524
528
532
536
540
544
548
552
556
560
564
568
572
576
580
584
588
592
596
600
604
608
612
616
620
624
628
632
636
640
644
648
652
656
660
664
668
672
676
680
684
688
692
696
700
704
708
712
716
720
724
728
732
736
740
744
748
752
756
760
764
768
772
776
780
784
788
792
796
800
804
808
812
816
820
824
828
832
836
840
844
848
852
856
860
864
868
872
876
880
884
888
892
896
900
904
908
912
916
920
924
928
932
936
940
944
948
952
956
960
964
968
972
976
980
984
988
992
996
1000
1004
1008
1012
1016
1020
1024
1028
1032
1036
1040
1044
1048
1052
1056
1060
1064
1068
1072
1076
1080
1084
1088
1092
1096
1100
1104
1108
1112
1116
1120
1124
1128
1132
1136
1140
1144
1148
1152
1156
1160
1164
1168
1172
1176
1180
1184
1188
1192
1196
1200
1204
1208
1212
1216
1220
1224
1228
1232
1236
1240
1244
1248
1252
1256
1260
1264
1268
1272
1276
1280
1284
1288
1292
1296
1300
1304
1308
1312
1316
1320
1324
1328
1332
1336
1340
1344
1348
1352
1356
1360
1364
1368
1372
1376
1380
1384
1388
1392
1396
1400
1404
1408
1412
1416
1420
1424
1428
1432
1436
1440
1444
1448
1452
1456
1460
1464
1468
1472
1476
1480
1484
1488
1492
1496
1500
1504
1508
1512
1516
1520
1524
1528
1532
1536
1540
1544
1548
1552
1556
1560
1564
1568
1572
1576
1580
1584
1588
1592
1596
1600
1604
1608
1612
1616
1620
1624
1628
1632
1636
1640
1644
1648
1652
1656
1660
1664
1668
1672
1676
1680
1684
1688
1692
1696
1700
1704
1708
1712
1716
1720
1724
1728
1732
1736
1740
1744
1748
1752
1756
1760
1764
1768
1772
1776
1780
1784
1788
1792
1796
1800
1804
1808
1812
1816
1820
1824
1828
1832
1836
1840
1844
1848
1852
1856
1860
1864
1868
1872
1876
1880
1884
1888
1892
1896
1900
1904
1908
1912
1916
1920
1924
1928
1932
1936
1940
1944
1948
1952
1956
1960
1964
1968
1972
1976
1980
1984
1988
1992
1996
2000
2004
2008
2012
2016
2020
2024
2028
2032
2036
2040
2044
2048
2052
2056
2060
2064
2068
2072
2076
2080
2084
2088
2092
2096
2100
2104
2108
2112
2116
2120
2124
2128
2132
2136
2140
2144
2148
2152
2156
2160
2164
2168
2172
2176
2180
2184
2188
2192
2196
2200
2204
2208
2212
2216
2220
2224
2228
2232
2236
2240
2244
2248
2252
2256
2260
2264
2268
2272
2276
2280
2284
2288
2292
2296
2300
2304
2308
2312
2316
2320
2324
2328
2332
2336
2340
2344
2348
2352
2356
2360
2364
2368
2372
2376
2380
2384
2388
2392
2396
2400
2404
2408
2412
2416
2420
2424
2428
2432
2436
2440
2444
2448
2452
2456
2460
2464
2468
2472
2476
2480
2484
2488
2492
2496
2500
2504
2508
2512
2516
2520
2524
2528
2532
2536
2540
2544
2548
2552
2556
2560
2564
2568
2572
2576
2580
2584
2588
2592
2596
2600
2604
2608
2612
2616
2620
2624
2628
2632
2636
2640
2644
2648
2652
2656
2660
2664
2668
2672
2676
2680
2684
2688
2692
2696
2700
2704
2708
2712
2716
2720
2724
2728
2732
2736
2740
2744
2748
2752
2756
2760
2764
2768
2772
2776
2780
2784
2788
2792
2796
2800
2804
2808
2812
2816
2820
2824
2828
2832
2836
2840
2844
2848
2852
2856
2860
2864
2868
2872
2876
2880
2884
2888
2892
2896
2900
2904
2908
2912
2916
2920
2924
2928
2932
2936
2940
2944
2948
2952
2956
2960
2964
2968
2972
2976
2980
2984
2988
2992
2996
3000
3004
3008
3012
3016
3020
3024
3028
3032
3036
3040
3044
3048
3052
3056
3060
3064
3068
3072
3076
3080
3084
3088
3092
3096
3100
3104
3108
3112
3116
3120
3124
3128
3132
3136
3140
3144
3148
3152
3156
3160
3164
3168
3172
3176
3180
3184
3188
3192
3196
3200
3204
3208
3212
3216
3220
3224
3228
3232
3236
3240
3244
3248
3252
3256
3260
3264
3268
3272
3276
3280
3284
3288
3292
3296
3300
3304
3308
3312
3316
3320
3324
3328
3332
3336
3340
3344
3348
3352
3356
3360
3364
3368
3372
3376
3380
3384
3388
3392
3396
3400
3404
3408
3412
3416
3420
3424
3428
3432
3436
3440
3444
3448
3452
3456
3460
3464
3468
3472
3476
3480
3484
3488
3492
3496
3500
3504
3508
3512
3516
3520
3524
3528
3532
3536
3540
3544
3548
3552
3556
3560
3564
3568
3572
3576
3580
3584
3588
3592
3596
3600
3604
3608
3612
3616
3620
3624
3628
3632
3636
3640
3644
3648
3652
3656
3660
3664
3668
3672
3676
3680
3684
3688
3692
3696
3700
3704
3708
3712
3716
3720
3724
3728
3732
3736
3740
3744
3748
3752
3756
3760
3764
3768
3772
3776
3780
3784
3788
3792
3796
3800
3804
3808
3812
3816
3820
3824
3828
3832
3836
3840
3844
3848
3852
3856
3860
3864
3868
3872
3876
3880
3884
3888
3892
3896
3900
3904
3908
3912
3916
3920
3924
3928
3932
3936
3940
3944
3948
3952
3956
3960
3964
3968
3972
3976
3980
3984
3988
3992
3996
4000
4004
4008
4012
4016
4020
4024
4028
4032
4036
4040
4044
4048
4052
4056
4060
4064
4068
4072
4076
4080
4084
4088
4092
4096
4100
4104
4108
4112
4116
4120
4124
4128
4132
4136
4140
4144
4148
4152
4156
4160
4164
4168
4172
4176
4180
4184
4188
4192
4196
4200
4204
4208
4212
4216
4220
4224
4228
4232
4236
4240
4244
4248
4252
4256
4260
4264
4268
4272
4276
4280
4284
4288
4292
4296
4300
4304
4308
4312
4316
4320
4324
4328
4332
4336
4340
4344
4348
4352
4356
4360
4364
4368
4372
4376
4380
4384
4388
4392
4396
4400
4404
4408
4412
4416
4420
4424
4428
4432
4436
4440
4444
4448
4452
4456
4460
4464
4468
4472
4476
4480
4484
4488
4492
4496
4500
4504
4508
4512
4516
4520
4524
4528
4532
4536
4540
4544
4548
4552
4556
4560
4564
4568
4572
4576
4580
4584
4588
4592
4596
4600
4604
4608
4612
4616
4620
4624
4628
4632
4636
4640
4644
4648
4652
4656
4660
4664
4668
4672
4676
4680
4684
4688
4692
4696
4700
4704
4708
4712
4716
4720
4724
4728
4732
4736
4740
4744
4748
4752
4756
4760
4764
4768
4772
4776
4780
4784
4788
4792
4796
4800
4804
4808
4812
4816
4820
4824
4828
4832
4836
4840
4844
4848
4852
4856
4860
4864
4868
4872
4876
4880
4884
4888
4892
4896
4900
4904
4908
4912
4916
4920
4924
4928
4932
4936
4940
4944
4948
4952
4956
4960
4964
4968
4972
4976
4980
4984
4988
4992
4996
5000
5004
5008
5012
5016
5020
5024
5028
5032
5036
5040
5044
5048
5052
5056
5060
5064
5068
5072
5076
5080
5084
5088
5092
5096
5100
5104
5108
5112
5116
5120
5124
5128
5132
5136
5140
5144
5148
5152
5156
5160
5164
5168
5172
5176
5180
5184
5188
5192
5196
5200
5204
5208
5212
5216
5220
5224
5228
5232
5236
5240
5244
5248
5252
5256
5260
5264
5268
5272
5276
5280
5284
5288
5292
5296
5300
5304
5308
5312
5316
5320
5324
5328
5332
5336
5340
5344
5348
5352
5356
5360
5364
5368
5372
5376
5380
5384
5388
5392
5396
5400
5404
5408
5412
5416
5420
5424
5428
5432
5436
5440
5444
5448
5452
5456
5460
5464
5468
5472
5476
5480
5484
5488
5492
5496
5500
5504
5508
5512
5516
5520
5524
5528
5532
5536
5540
5544
5548
5552
5556
5560
5564
5568
5572
5576
5580
5584
5588
5592
5596
5600
5604
5608
5612
5616
5620
5624
5628
5632
5636
5640
5644
5648
5652
5656
5660
5664
5668
5672
5676
5680
5684
5688
5692
5696
5700
5704
5708
5712
5716
5720
5724
5728
5732
5736
5740
5744
5748
5752
5756
5760
5764
5768
5772
5776
5780
5784
5788
5792
5796
5800
5804
5808
5812
5816
5820
5824
5828
5832
5836
5840
5844
5848
5852
5856
5860
5864
5868
5872
5876
5880
5884
5888
5892
5896
5900
5904
5908
5912
5916
5920
5924
5928
5932
5936
5940
5944
5948
5952
5956
5960
5964
5968
5972
5976
5980
5984
5988
5992
5996
6000
              </DataArray>   
              <DataArray type="UInt8" Name="types" format="ascii">   
10
10
10
10
10
10
10
10
10
10
10
10
10
10
10
10
10
10
10
10
10
10
10
10
10
10
10
10
10
10
10
10
10
10
10
10
10
10
10
10
10
10
10
10
10
10
10
10
10
10
10
10
10
10
10
10
10
10
10
10
10
10
10
10
10
10
10
10
10
10
10
10
10
10
10
10
10
10
10
10
10
10
10
10
10
10
10
10
10
10
10
10
10
10
10
10
10
10
10
10
10
10
10
10
10
10
10
10
10
10
10
10
10
10
10
10
10
10
10
10
10
10
10
10
10
10
10
10
10
10
10
10
10
10
10
10
10
10
10
10
10
10
10
10
10
10
10
10
10
10
10
10
10
10
10
10
10
10
10
10
10
10
10
10
10
10
10
10
10
10
10
10
10
10
10
10
10
10
10
10
10
10
10
10
10
10
10
10
10
10
10
10
10
10
10
10
10
10
10
10
10
10
10
10
10
10
10
10
10
10
10
10
10
10
10
10
10
10
10
10
10
10
10
10
10
10
10
10
10
10
10
10
10
10
10
10
10
10
10
10
10
10
10
10
10
10
10
10
10
10
10
10
10
10
10
10
10
10
10
10
10
10
10
10
10
10
10
10
10
10
10
10
10
10
10
10
10
10
10
10
10
10
10
10
10
10
10
10
10
10
10
10
10
10
10
10
10
10
10
10
10
10
10
10
10
10
10
10
10
10
10
10
10
10
10
10
10
10
10
10
10
10
10
10
10
10
10
10
10
10
10
10
10
10
10
10
10
10
10
10
10
10
10
10
10
10
10
10
10
10
10
10
10
10
10
10
10
10
10
10
10
10
10
10
10
10
10
10
10
10
10
10
10
10
10
10
10
10
10
10
10
10
10
10
10
10
10
10
10
10
10
10
10
10
10
10
10
10
10
10
10
10
10
10
10
10
10
10
10
10
10
10
10
10
10
10
10
10
10
10
10
10
10
10
10
10
10
10
10
10
10
10
10
10
10
10
10
10
10
10
10
10
10
10
10
10
10
10
10
10
10
10
10
10
10
10
10
10
10
10
10
10
10
10
10
10
10
10
10
10
10
10
10
10
10
10
10
10
10
10
10
10
10
10
10
10
10
10
10
10
10
10
10
10
10
10
10
10
10
10
10
10
10
10
10
10
10
10
10
10
10
10
10
10
10
10
10
10
10
10
10
10
10
10
10
10
10
10
10
10
10
10
10
10
10
10
10
10
10
10
10
10
10
10
10
10
10
10
10
10
10
10
10
10
10
10
10
10
10
10
10
10
10
10
10
10
10
10
10
10
10
10
10
10
10
10
10
10
10
10
10
10
10
10
10
10
10
10
10
10
10
10
10
10
10
10
10
10
10
10
10
10
10
10
10
10
10
10
10
10
10
10
10
10
10
10
10
10
10
10
10
10
10
10
10
10
10
10
10
10
10
10
10
10
10
10
10
10
10
10
10
10
10
10
10
10
10
10
10
10
10
10
10
10
10
10
10
10
10
10
10
10
10
10
10
10
10
10
10
10
10
10
10
10
10
10
10
10
10
10
10
10
10
10
10
10
10
10
10
10
10
10
10
10
10
10
10
10
10
10
10
10
10
10
10
10
10
10
10
10
10
10
10
10
10
10
10
10
10
10
10
10
10
10
10
10
10
10
10
10
10
10
10
10
10
10
10
10
10
10
10
10
10
10
10
10
10
10
10
10
10
10
10
10
10
10
10
10
10
10
10
10
10
10
10
10
10
10
10
10
10
10
10
10
10
10
10
10
10
10
10
10
10
10
10
10
10
10
10
10
10
10
10
10
10
10
10
10
10
10
10
10
10
10
10
10
10
10
10
10
10
10
10
10
10
10
10
10
10
10
10
10
10
10
10
10
10
10
10
10
10
10
10
10
10
10
10
10
10
10
10
10
10
10
10
10
10
10
10
10
10
10
10
10
10
10
10
10
10
10
10
10
10
10
10
10
10
10
10
10
10
10
10
10
10
10
10
10
10
10
10
10
10
10
10
10
10
10
10
10
10
10
10
10
10
10
10
10
10
10
10
10
10
10
10
10
10
10
10
10
10
10
10
10
10
10
10
10
10
10
10
10
10
10
10
10
10
10
10
10
10
10
10
10
10
10
10
10
10
10
10
10
10
10
10
10
10
10
10
10
10
10
10
10
10
10
10
10
10
10
10
10
10
10
10
10
10
10
10
10
10
10
10
10
10
10
10
10
10
10
10
10
10
10
10
10
10
10
10
10
10
10
10
10
10
10
10
10
10
10
10
10
10
10
10
10
10
10
10
10
10
10
10
10
10
10
10
10
10
10
10
10
10
10
10
10
10
10
10
10
10
10
10
10
10
10
10
10
10
10
10
10
10
10
10
10
10
10
10
10
10
10
10
10
10
10
10
10
10
10
10
10
10
10
10
10
10
10
10
10
10
10
10
10
10
10
10
10
10
10
10
10
10
10
10
10
10
10
10
10
10
10
10
10
10
10
10
10
10
10
10
10
10
10
10
10
10
10
10
10
10
10
10
10
10
10
10
10
10
10
10
10
10
10
10
10
10
10
10
10
10
10
10
10
10
10
10
10
10
10
10
10
10
10
10
10
10
10
10
10
10
10
10
10
10
10
10
10
10
10
10
10
10
10
10
10
10
10
10
10
10
10
10
10
10
10
10
10
10
10
10
10
10
10
10
10
10
10
10
10
10
10
10
10
10
10
10
10
10
10
10
10
10
10
10
10
10
10
10
10
10
10
10
10
10
10
10
10
10
10
10
10
10
10
10
10
10
10
10
10
10
10
10
10
10
10
10
10
10
10
10
10
10
10
10
10
10
10
10
10
10
10
10
10
10
10
10
10
10
10
10
10
10
10
10
10
10
10
10
10
10
10
10
10
10
10
10
10
10
10
10
10
10
10
10
10
10
10
10
10
10
10
10
10
10
10
10
10
10
10
10
10
10
10
10
10
10
10
10
10
10
10
10
10
10
10
10
10
10
10
10
10
10
10
10
10
10
10
10
10
10
10
10
10
10
10
10
10
10
10
10
10
10
10
10
10
10
10
10
10
10
10
10
10
10
10
10
10
10
10
10
10
10
10
10
10
10
10
10
10
10
10
10
10
10
10
10
10
10
10
10
10
10
10
10
10
10
10
10
10
10
10
10
10
10
10
10
10
10
10
10
10
10
10
10
10
10
10
10
10
10
10
10
10
10
10
10
10
10
10
10
10
10
10
10
10
10
10
10
10
10
10
10
10
10
10
10
10
10
10
10
10
10
10
10
10
10
10
10
10
10
10
10
10
10
10
10
10
10
10
10
10
10
10
10
10
10
10
10
10
10
10
10
10
10
10
10
10
10
10
10
10
10
10
10
10
10
10
10
10
10
10
10
10
10
10
10
10
10
10
              </DataArray>   
          </Cells>  
          <PointData>  
             <DataArray type="Float64" NumberOfComponents="3" Name="Strains" format="ascii">   
-5.056313829227386e-05   0.0   -3.330651037324857e-05
-5.056313829227386e-05   0.0   -3.330651037324857e-05
-5.056313829227386e-05   0.0   -3.330651037324857e-05
-5.056313829227386e-05   0.0   -3.330651037324857e-05
-3.216225291142045e-05   5.585260096377624e-06   7.127879860002918e-07
-3.216225291142045e-05   5.585260096377624e-06   7.127879860002918e-07
-3.216225291142045e-05   5.585260096377624e-06   7.127879860002918e-07
-3.216225291142045e-05   5.585260096377624e-06   7.127879860002918e-07
-3.1517942177977736e-05   0.0   -3.1450820941147166e-05
-3.1517942177977736e-05   0.0   -3.1450820941147166e-05
-3.1517942177977736e-05   0.0   -3.1450820941147166e-05
-3.1517942177977736e-05   0.0   -3.1450820941147166e-05
-5.290652083237546e-05   6.71030966316527e-06   1.7062435161669211e-07
-5.290652083237546e-05   6.71030966316527e-06   1.7062435161669211e-07
-5.290652083237546e-05   6.71030966316527e-06   1.7062435161669211e-07
-5.290652083237546e-05   6.71030966316527e-06   1.7062435161669211e-07
-4.104054023512573e-05   1.5464078600844969e-06   -1.6507668895284386e-05
-4.104054023512573e-05   1.5464078600844969e-06   -1.6507668895284386e-05
-4.104054023512573e-05   1.5464078600844969e-06   -1.6507668895284386e-05
-4.104054023512573e-05   1.5464078600844969e-06   -1.6507668895284386e-05
-5.290652083237555e-05   0.0   -3.547700673904633e-05
-5.290652083237555e-05   0.0   -3.547700673904633e-05
-5.290652083237555e-05   0.0   -3.547700673904633e-05
-5.290652083237555e-05   0.0   -3.547700673904633e-05
-3.1517942177977736e-05   6.710309663165276e-06   4.196810149515858e-06
-3.1517942177977736e-05   6.710309663165276e-06   4.196810149515858e-06
-3.1517942177977736e-05   6.710309663165276e-06   4.196810149515858e-06
-3.1517942177977736e-05   6.710309663165276e-06   4.196810149515858e-06
-3.15979123117798e-05   0.0   -3.2218226675339044e-05
-3.15979123117798e-05   0.0   -3.2218226675339044e-05
-3.15979123117798e-05   0.0   -3.2218226675339044e-05
-3.15979123117798e-05   0.0   -3.2218226675339044e-05
-5.4548162252190436e-05   7.191186078055734e-06   1.7174782451787128e-06
-5.4548162252190436e-05   7.191186078055734e-06   1.7174782451787128e-06
-5.4548162252190436e-05   7.191186078055734e-06   1.7174782451787128e-06
-5.4548162252190436e-05   7.191186078055734e-06   1.7174782451787128e-06
-4.22522165720776e-05   2.7156500530894044e-06   -1.6090442940029527e-05
-4.22522165720776e-05   2.7156500530894044e-06   -1.6090442940029527e-05
-4.22522165720776e-05   2.7156500530894044e-06   -1.6090442940029527e-05
-4.22522165720776e-05   2.7156500530894044e-06   -1.6090442940029527e-05
-5.454816225219053e-05   0.0   -3.653293832217249e-05
-5.454816225219053e-05   0.0   -3.653293832217249e-05
-5.454816225219053e-05   0.0   -3.653293832217249e-05
-5.454816225219053e-05   0.0   -3.653293832217249e-05
-3.15979123117798e-05   7.191186078055748e-06   6.0321898920121615e-06
-3.15979123117798e-05   7.191186078055748e-06   6.0321898920121615e-06
-3.15979123117798e-05   7.191186078055748e-06   6.0321898920121615e-06
-3.15979123117798e-05   7.191186078055748e-06   6.0321898920121615e-06
-3.1571252883419025e-05   0.0   -3.2416825308897343e-05
-3.1571252883419025e-05   0.0   -3.2416825308897343e-05
-3.1571252883419025e-05   0.0   -3.2416825308897343e-05
-3.1571252883419025e-05   0.0   -3.2416825308897343e-05
-5.8093558326683166e-05   8.198794460607359e-06   6.86774042017862e-06
-5.8093558326683166e-05   8.198794460607359e-06   6.86774042017862e-06
-5.8093558326683166e-05   8.198794460607359e-06   6.86774042017862e-06
-5.8093558326683166e-05   8.198794460607359e-06   6.86774042017862e-06
-4.3059707567804704e-05   3.4300941777292877e-06   -1.532745734155862e-05
-4.3059707567804704e-05   3.4300941777292877e-06   -1.532745734155862e-05
-4.3059707567804704e-05   3.4300941777292877e-06   -1.532745734155862e-05
-4.3059707567804704e-05   3.4300941777292877e-06   -1.532745734155862e-05
-3.2162252911420506e-05   0.0   -2.9955354315421987e-05
-3.2162252911420506e-05   0.0   -2.9955354315421987e-05
-3.2162252911420506e-05   0.0   -2.9955354315421987e-05
-3.2162252911420506e-05   0.0   -2.9955354315421987e-05
-1.4657174646692313e-05   2.0453346625802323e-06   4.469769233397961e-07
-1.4657174646692313e-05   2.0453346625802323e-06   4.469769233397961e-07
-1.4657174646692313e-05   2.0453346625802323e-06   4.469769233397961e-07
-1.4657174646692313e-05   2.0453346625802323e-06   4.469769233397961e-07
-1.408837330163973e-05   0.0   -2.9700471844035378e-05
-1.408837330163973e-05   0.0   -2.9700471844035378e-05
-1.408837330163973e-05   0.0   -2.9700471844035378e-05
-1.408837330163973e-05   0.0   -2.9700471844035378e-05
-3.1517942177977736e-05   2.9172484951863075e-06   -2.4015394805838216e-06
-3.1517942177977736e-05   2.9172484951863075e-06   -2.4015394805838216e-06
-3.1517942177977736e-05   2.9172484951863075e-06   -2.4015394805838216e-06
-3.1517942177977736e-05   2.9172484951863075e-06   -2.4015394805838216e-06
-2.312531310653008e-05   2.12402059488842e-07   -1.4766346738244662e-05
-2.312531310653008e-05   2.12402059488842e-07   -1.4766346738244662e-05
-2.312531310653008e-05   2.12402059488842e-07   -1.4766346738244662e-05
-2.312531310653008e-05   2.12402059488842e-07   -1.4766346738244662e-05
-3.151794217797771e-05   0.0   -3.145082094114714e-05
-3.151794217797771e-05   0.0   -3.145082094114714e-05
-3.151794217797771e-05   0.0   -3.145082094114714e-05
-3.151794217797771e-05   0.0   -3.145082094114714e-05
-1.408837330163973e-05   2.9172484951863075e-06   -6.511903834720364e-07
-1.408837330163973e-05   2.9172484951863075e-06   -6.511903834720364e-07
-1.408837330163973e-05   2.9172484951863075e-06   -6.511903834720364e-07
-1.408837330163973e-05   2.9172484951863075e-06   -6.511903834720364e-07
-1.3765272299990237e-05   0.0   -3.0071449042219736e-05
-1.3765272299990237e-05   0.0   -3.0071449042219736e-05
-1.3765272299990237e-05   0.0   -3.0071449042219736e-05
-1.3765272299990237e-05   0.0   -3.0071449042219736e-05
-3.15979123117798e-05   3.5779627218655077e-06   -2.497159989023108e-06
-3.15979123117798e-05   3.5779627218655077e-06   -2.497159989023108e-06
-3.15979123117798e-05   3.5779627218655077e-06   -2.497159989023108e-06
-3.15979123117798e-05   3.5779627218655077e-06   -2.497159989023108e-06
-2.2641607238983942e-05   1.1494765824395268e-06   -1.5967243426693812e-05
-2.2641607238983942e-05   1.1494765824395268e-06   -1.5967243426693812e-05
-2.2641607238983942e-05   1.1494765824395268e-06   -1.5967243426693812e-05
-2.2641607238983942e-05   1.1494765824395268e-06   -1.5967243426693812e-05
-3.15979123117798e-05   0.0   -3.2218226675339044e-05
-3.15979123117798e-05   0.0   -3.2218226675339044e-05
-3.15979123117798e-05   0.0   -3.2218226675339044e-05
-3.15979123117798e-05   0.0   -3.2218226675339044e-05
-1.3765272299990237e-05   3.5779627218655077e-06   -3.5038235590380333e-07
-1.3765272299990237e-05   3.5779627218655077e-06   -3.5038235590380333e-07
-1.3765272299990237e-05   3.5779627218655077e-06   -3.5038235590380333e-07
-1.3765272299990237e-05   3.5779627218655077e-06   -3.5038235590380333e-07
-1.3469590650333723e-05   0.0   -2.9917530057066363e-05
-1.3469590650333723e-05   0.0   -2.9917530057066363e-05
-1.3469590650333723e-05   0.0   -2.9917530057066363e-05
-1.3469590650333723e-05   0.0   -2.9917530057066363e-05
-3.1571252883418944e-05   4.165492086384917e-06   -2.247388253755169e-06
-3.1571252883418944e-05   4.165492086384917e-06   -2.247388253755169e-06
-3.1571252883418944e-05   4.165492086384917e-06   -2.247388253755169e-06
-3.1571252883418944e-05   4.165492086384917e-06   -2.247388253755169e-06
-2.2533751481056754e-05   1.917247181893879e-06   -1.596094364833097e-05
-2.2533751481056754e-05   1.917247181893879e-06   -1.596094364833097e-05
-2.2533751481056754e-05   1.917247181893879e-06   -1.596094364833097e-05
-2.2533751481056754e-05   1.917247181893879e-06   -1.596094364833097e-05
-1.4657174646692338e-05   0.0   -2.8728153517873845e-05
-1.4657174646692338e-05   0.0   -2.8728153517873845e-05
-1.4657174646692338e-05   0.0   -2.8728153517873845e-05
-1.4657174646692338e-05   0.0   -2.8728153517873845e-05
1.8742159409552304e-06   -2.6438502896966793e-07   -1.3344668891763401e-06
1.8742159409552304e-06   -2.6438502896966793e-07   -1.3344668891763401e-06
1.8742159409552304e-06   -2.6438502896966793e-07   -1.3344668891763401e-06
1.8742159409552304e-06   -2.6438502896966793e-07   -1.3344668891763401e-06
2.2414139848588577e-06   0.0   -2.938954162850919e-05
2.2414139848588577e-06   0.0   -2.938954162850919e-05
2.2414139848588577e-06   0.0   -2.938954162850919e-05
2.2414139848588577e-06   0.0   -2.938954162850919e-05
-1.408837330163973e-05   5.182170258768136e-07   -2.484159699871056e-06
-1.408837330163973e-05   5.182170258768136e-07   -2.484159699871056e-06
-1.408837330163973e-05   5.182170258768136e-07   -2.484159699871056e-06
-1.408837330163973e-05   5.182170258768136e-07   -2.484159699871056e-06
-6.207880330916726e-06   -5.511567588628707e-07   -1.4976690380232195e-05
-6.207880330916726e-06   -5.511567588628707e-07   -1.4976690380232195e-05
-6.207880330916726e-06   -5.511567588628707e-07   -1.4976690380232195e-05
-6.207880330916726e-06   -5.511567588628707e-07   -1.4976690380232195e-05
-1.408837330163973e-05   0.0   -2.9700471844035378e-05
-1.408837330163973e-05   0.0   -2.9700471844035378e-05
-1.408837330163973e-05   0.0   -2.9700471844035378e-05
-1.408837330163973e-05   0.0   -2.9700471844035378e-05
2.2414139848588615e-06   5.182170258768068e-07   -2.173229484344964e-06
2.2414139848588615e-06   5.182170258768068e-07   -2.173229484344964e-06
2.2414139848588615e-06   5.182170258768068e-07   -2.173229484344964e-06
2.2414139848588615e-06   5.182170258768068e-07   -2.173229484344964e-06
2.532408428955405e-06   0.0   -2.934681076410236e-05
2.532408428955405e-06   0.0   -2.934681076410236e-05
2.532408428955405e-06   0.0   -2.934681076410236e-05
2.532408428955405e-06   0.0   -2.934681076410236e-05
-1.3765272299990213e-05   1.2077304635288742e-06   -2.90864782731032e-06
-1.3765272299990213e-05   1.2077304635288742e-06   -2.90864782731032e-06
-1.3765272299990213e-05   1.2077304635288742e-06   -2.90864782731032e-06
-1.3765272299990213e-05   1.2077304635288742e-06   -2.90864782731032e-06
-5.7779824363421605e-06   2.9471756661081017e-07   -1.567298986190627e-05
-5.7779824363421605e-06   2.9471756661081017e-07   -1.567298986190627e-05
-5.7779824363421605e-06   2.9471756661081017e-07   -1.567298986190627e-05
-5.7779824363421605e-06   2.9471756661081017e-07   -1.567298986190627e-05
-1.3765272299990237e-05   0.0   -3.0071449042219736e-05
-1.3765272299990237e-05   0.0   -3.0071449042219736e-05
-1.3765272299990237e-05   0.0   -3.0071449042219736e-05
-1.3765272299990237e-05   0.0   -3.0071449042219736e-05
2.5324084289554093e-06   1.207730463528881e-06   -2.184009549193003e-06
2.5324084289554093e-06   1.207730463528881e-06   -2.184009549193003e-06
2.5324084289554093e-06   1.207730463528881e-06   -2.184009549193003e-06
2.5324084289554093e-06   1.207730463528881e-06   -2.184009549193003e-06
2.920983109736526e-06   0.0   -2.8714030474044407e-05
2.920983109736526e-06   0.0   -2.8714030474044407e-05
2.920983109736526e-06   0.0   -2.8714030474044407e-05
2.920983109736526e-06   0.0   -2.8714030474044407e-05
-1.3469590650333711e-05   2.0058326383698785e-06   -2.5999071236159454e-06
-1.3469590650333711e-05   2.0058326383698785e-06   -2.5999071236159454e-06
-1.3469590650333711e-05   2.0058326383698785e-06   -2.5999071236159454e-06
-1.3469590650333711e-05   2.0058326383698785e-06   -2.5999071236159454e-06
-5.422144595126843e-06   1.131182140146061e-06   -1.5487526916693087e-05
-5.422144595126843e-06   1.131182140146061e-06   -1.5487526916693087e-05
-5.422144595126843e-06   1.131182140146061e-06   -1.5487526916693087e-05
-5.422144595126843e-06   1.131182140146061e-06   -1.5487526916693087e-05
1.8742159409552338e-06   0.0   -2.888678453525565e-05
1.8742159409552338e-06   0.0   -2.888678453525565e-05
1.8742159409552338e-06   0.0   -2.888678453525565e-05
1.8742159409552338e-06   0.0   -2.888678453525565e-05
1.9826375837326846e-05   -2.325478356062012e-06   -3.6180505494015023e-07
1.9826375837326846e-05   -2.325478356062012e-06   -3.6180505494015023e-07
1.9826375837326846e-05   -2.325478356062012e-06   -3.6180505494015023e-07
1.9826375837326846e-05   -2.325478356062012e-06   -3.6180505494015023e-07
1.9872527721588368e-05   0.0   -3.0439895491496498e-05
1.9872527721588368e-05   0.0   -3.0439895491496498e-05
1.9872527721588368e-05   0.0   -3.0439895491496498e-05
1.9872527721588368e-05   0.0   -3.0439895491496498e-05
2.2414139848588653e-06   -1.750589771645341e-06   -4.352067293459848e-09
2.2414139848588653e-06   -1.750589771645341e-06   -4.352067293459848e-09
2.2414139848588653e-06   -1.750589771645341e-06   -4.352067293459848e-09
2.2414139848588653e-06   -1.750589771645341e-06   -4.352067293459848e-09
1.0873371831271801e-05   -1.2942591302007072e-06   -1.4664746862848453e-05
1.0873371831271801e-05   -1.2942591302007072e-06   -1.4664746862848453e-05
1.0873371831271801e-05   -1.2942591302007072e-06   -1.4664746862848453e-05
1.0873371831271801e-05   -1.2942591302007072e-06   -1.4664746862848453e-05
2.2414139848588653e-06   0.0   -2.938954162850929e-05
2.2414139848588653e-06   0.0   -2.938954162850929e-05
2.2414139848588653e-06   0.0   -2.938954162850929e-05
2.2414139848588653e-06   0.0   -2.938954162850929e-05
1.9872527721588368e-05   -1.750589771645341e-06   -1.0547059302806622e-06
1.9872527721588368e-05   -1.750589771645341e-06   -1.0547059302806622e-06
1.9872527721588368e-05   -1.750589771645341e-06   -1.0547059302806622e-06
1.9872527721588368e-05   -1.750589771645341e-06   -1.0547059302806622e-06
1.9796807612470722e-05   0.0   -3.0005303346384105e-05
1.9796807612470722e-05   0.0   -3.0005303346384105e-05
1.9796807612470722e-05   0.0   -3.0005303346384105e-05
1.9796807612470722e-05   0.0   -3.0005303346384105e-05
2.5324084289554093e-06   -1.0974876371361623e-06   -5.728121249102265e-07
2.5324084289554093e-06   -1.0974876371361623e-06   -5.728121249102265e-07
2.5324084289554093e-06   -1.0974876371361623e-06   -5.728121249102265e-07
2.5324084289554093e-06   -1.0974876371361623e-06   -5.728121249102265e-07
1.1019110798664794e-05   -5.131347648956777e-07   -1.5067927797770142e-05
1.1019110798664794e-05   -5.131347648956777e-07   -1.5067927797770142e-05
1.1019110798664794e-05   -5.131347648956777e-07   -1.5067927797770142e-05
1.1019110798664794e-05   -5.131347648956777e-07   -1.5067927797770142e-05
2.532408428955407e-06   0.0   -2.9346810764102383e-05
2.532408428955407e-06   0.0   -2.9346810764102383e-05
2.532408428955407e-06   0.0   -2.9346810764102383e-05
2.532408428955407e-06   0.0   -2.9346810764102383e-05
1.9796807612470722e-05   -1.0974876371361623e-06   -1.2313047071919214e-06
1.9796807612470722e-05   -1.0974876371361623e-06   -1.2313047071919214e-06
1.9796807612470722e-05   -1.0974876371361623e-06   -1.2313047071919214e-06
1.9796807612470722e-05   -1.0974876371361623e-06   -1.2313047071919214e-06
2.0189235753831654e-05   0.0   -2.8846292355595893e-05
2.0189235753831654e-05   0.0   -2.8846292355595893e-05
2.0189235753831654e-05   0.0   -2.8846292355595893e-05
2.0189235753831654e-05   0.0   -2.8846292355595893e-05
2.9209831097365312e-06   -2.2043646925239092e-07   6.63905994474098e-08
2.9209831097365312e-06   -2.2043646925239092e-07   6.63905994474098e-08
2.9209831097365312e-06   -2.2043646925239092e-07   6.63905994474098e-08
2.9209831097365312e-06   -2.2043646925239092e-07   6.63905994474098e-08
1.1360822091393523e-05   4.170986737554284e-07   -1.4382528789118928e-05
1.1360822091393523e-05   4.170986737554284e-07   -1.4382528789118928e-05
1.1360822091393523e-05   4.170986737554284e-07   -1.4382528789118928e-05
1.1360822091393523e-05   4.170986737554284e-07   -1.4382528789118928e-05
1.9826375837326846e-05   0.0   -3.0282071548892857e-05
1.9826375837326846e-05   0.0   -3.0282071548892857e-05
1.9826375837326846e-05   0.0   -3.0282071548892857e-05
1.9826375837326846e-05   0.0   -3.0282071548892857e-05
4.481849261607054e-05   -5.90240789799221e-06   7.83001167688488e-06
4.481849261607054e-05   -5.90240789799221e-06   7.83001167688488e-06
4.481849261607054e-05   -5.90240789799221e-06   7.83001167688488e-06
4.481849261607054e-05   -5.90240789799221e-06   7.83001167688488e-06
4.2105952049362094e-05   0.0   -3.3449648038125993e-05
4.2105952049362094e-05   0.0   -3.3449648038125993e-05
4.2105952049362094e-05   0.0   -3.3449648038125993e-05
4.2105952049362094e-05   0.0   -3.3449648038125993e-05
1.9872527721588368e-05   -5.016254244382499e-06   6.615811721459712e-06
1.9872527721588368e-05   -5.016254244382499e-06   6.615811721459712e-06
1.9872527721588368e-05   -5.016254244382499e-06   6.615811721459712e-06
1.9872527721588368e-05   -5.016254244382499e-06   6.615811721459712e-06
3.096616394334447e-05   -2.6396470743609508e-06   -1.3299546283480033e-05
3.096616394334447e-05   -2.6396470743609508e-06   -1.3299546283480033e-05
3.096616394334447e-05   -2.6396470743609508e-06   -1.3299546283480033e-05
3.096616394334447e-05   -2.6396470743609508e-06   -1.3299546283480033e-05
1.987252772158835e-05   0.0   -3.043989549149647e-05
1.987252772158835e-05   0.0   -3.043989549149647e-05
1.987252772158835e-05   0.0   -3.043989549149647e-05
1.987252772158835e-05   0.0   -3.043989549149647e-05
4.210595204936195e-05   -5.016254244382479e-06   3.6060591748301893e-06
4.210595204936195e-05   -5.016254244382479e-06   3.6060591748301893e-06
4.210595204936195e-05   -5.016254244382479e-06   3.6060591748301893e-06
4.210595204936195e-05   -5.016254244382479e-06   3.6060591748301893e-06
4.085933297451396e-05   0.0   -3.275431449443237e-05
4.085933297451396e-05   0.0   -3.275431449443237e-05
4.085933297451396e-05   0.0   -3.275431449443237e-05
4.085933297451396e-05   0.0   -3.275431449443237e-05
1.9796807612470722e-05   -4.581685246747111e-06   5.098905590354615e-06
1.9796807612470722e-05   -4.581685246747111e-06   5.098905590354615e-06
1.9796807612470722e-05   -4.581685246747111e-06   5.098905590354615e-06
1.9796807612470722e-05   -4.581685246747111e-06   5.098905590354615e-06
3.0365930348051143e-05   -1.928682502446566e-06   -1.410810061552642e-05
3.0365930348051143e-05   -1.928682502446566e-06   -1.410810061552642e-05
3.0365930348051143e-05   -1.928682502446566e-06   -1.410810061552642e-05
3.0365930348051143e-05   -1.928682502446566e-06   -1.410810061552642e-05
1.9796807612470722e-05   0.0   -3.0005303346384105e-05
1.9796807612470722e-05   0.0   -3.0005303346384105e-05
1.9796807612470722e-05   0.0   -3.0005303346384105e-05
1.9796807612470722e-05   0.0   -3.0005303346384105e-05
4.0859332974513816e-05   -4.581685246747097e-06   2.349894442306327e-06
4.0859332974513816e-05   -4.581685246747097e-06   2.349894442306327e-06
4.0859332974513816e-05   -4.581685246747097e-06   2.349894442306327e-06
4.0859332974513816e-05   -4.581685246747097e-06   2.349894442306327e-06
3.899690401126403e-05   0.0   -3.0978830960279285e-05
3.899690401126403e-05   0.0   -3.0978830960279285e-05
3.899690401126403e-05   0.0   -3.0978830960279285e-05
3.899690401126403e-05   0.0   -3.0978830960279285e-05
2.0189235753831654e-05   -3.5542310078057394e-06   2.4998214067915067e-06
2.0189235753831654e-05   -3.5542310078057394e-06   2.4998214067915067e-06
2.0189235753831654e-05   -3.5542310078057394e-06   2.4998214067915067e-06
2.0189235753831654e-05   -3.5542310078057394e-06   2.4998214067915067e-06
2.9396855811867412e-05   -8.112730115793635e-07   -1.4491986821003897e-05
2.9396855811867412e-05   -8.112730115793635e-07   -1.4491986821003897e-05
2.9396855811867412e-05   -8.112730115793635e-07   -1.4491986821003897e-05
2.9396855811867412e-05   -8.112730115793635e-07   -1.4491986821003897e-05
-4.378051475921633e-05   5.585260096377617e-06   -2.880669767061899e-05
-4.378051475921633e-05   5.585260096377617e-06   -2.880669767061899e-05
-4.378051475921633e-05   5.585260096377617e-06   -2.880669767061899e-05
-4.378051475921633e-05   5.585260096377617e-06   -2.880669767061899e-05
-2.804917255146849e-05   5.017267864357549e-06   -2.9285893302512895e-06
-2.804917255146849e-05   5.017267864357549e-06   -2.9285893302512895e-06
-2.804917255146849e-05   5.017267864357549e-06   -2.9285893302512895e-06
-2.804917255146849e-05   5.017267864357549e-06   -2.9285893302512895e-06
-2.875018636319195e-05   6.710309663165263e-06   -2.420068907802811e-05
-2.875018636319195e-05   6.710309663165263e-06   -2.420068907802811e-05
-2.875018636319195e-05   6.710309663165263e-06   -2.420068907802811e-05
-2.875018636319195e-05   6.710309663165263e-06   -2.420068907802811e-05
-4.424456834400195e-05   6.0268308788220565e-06   2.033368160594593e-06
-4.424456834400195e-05   6.0268308788220565e-06   2.033368160594593e-06
-4.424456834400195e-05   6.0268308788220565e-06   2.033368160594593e-06
-4.424456834400195e-05   6.0268308788220565e-06   2.033368160594593e-06
-3.477150392443198e-05   5.8365513825632e-06   -1.364090484093365e-05
-3.477150392443198e-05   5.8365513825632e-06   -1.364090484093365e-05
-3.477150392443198e-05   5.8365513825632e-06   -1.364090484093365e-05
-3.477150392443198e-05   5.8365513825632e-06   -1.364090484093365e-05
-4.424456834400195e-05   6.710309663165263e-06   -2.379060180742218e-05
-4.424456834400195e-05   6.710309663165263e-06   -2.379060180742218e-05
-4.424456834400195e-05   6.710309663165263e-06   -2.379060180742218e-05
-4.424456834400195e-05   6.710309663165263e-06   -2.379060180742218e-05
-2.875018636319205e-05   6.0268308788220565e-06   1.6232808899886448e-06
-2.875018636319205e-05   6.0268308788220565e-06   1.6232808899886448e-06
-2.875018636319205e-05   6.0268308788220565e-06   1.6232808899886448e-06
-2.875018636319205e-05   6.0268308788220565e-06   1.6232808899886448e-06
-2.8892066270122806e-05   7.1911860780557275e-06   -2.17633995728067e-05
-2.8892066270122806e-05   7.1911860780557275e-06   -2.17633995728067e-05
-2.8892066270122806e-05   7.1911860780557275e-06   -2.17633995728067e-05
-2.8892066270122806e-05   7.1911860780557275e-06   -2.17633995728067e-05
-4.454742184009167e-05   6.482666589812113e-06   4.7539714034207825e-06
-4.454742184009167e-05   6.482666589812113e-06   4.7539714034207825e-06
-4.454742184009167e-05   6.482666589812113e-06   4.7539714034207825e-06
-4.454742184009167e-05   6.482666589812113e-06   4.7539714034207825e-06
-3.5787481664055986e-05   6.471095168883326e-06   -9.838986037414638e-06
-3.5787481664055986e-05   6.471095168883326e-06   -9.838986037414638e-06
-3.5787481664055986e-05   6.471095168883326e-06   -9.838986037414638e-06
-3.5787481664055986e-05   6.471095168883326e-06   -9.838986037414638e-06
-4.4547421840091604e-05   7.1911860780557275e-06   -2.1338287879860512e-05
-4.4547421840091604e-05   7.1911860780557275e-06   -2.1338287879860512e-05
-4.4547421840091604e-05   7.1911860780557275e-06   -2.1338287879860512e-05
-4.4547421840091604e-05   7.1911860780557275e-06   -2.1338287879860512e-05
-2.8892066270122853e-05   6.482666589812113e-06   4.328859710474593e-06
-2.8892066270122853e-05   6.482666589812113e-06   4.328859710474593e-06
-2.8892066270122853e-05   6.482666589812113e-06   4.328859710474593e-06
-2.8892066270122853e-05   6.482666589812113e-06   4.328859710474593e-06
-2.8722420280943586e-05   8.198794460607359e-06   -1.6097695974365262e-05
-2.8722420280943586e-05   8.198794460607359e-06   -1.6097695974365262e-05
-2.8722420280943586e-05   8.198794460607359e-06   -1.6097695974365262e-05
-2.8722420280943586e-05   8.198794460607359e-06   -1.6097695974365262e-05
-4.329968005782005e-05   6.8478005560263205e-06   9.00833332984397e-06
-4.329968005782005e-05   6.8478005560263205e-06   9.00833332984397e-06
-4.329968005782005e-05   6.8478005560263205e-06   9.00833332984397e-06
-4.329968005782005e-05   6.8478005560263205e-06   9.00833332984397e-06
-3.48488933090909e-05   7.100961992169961e-06   -5.228208113057398e-06
-3.48488933090909e-05   7.100961992169961e-06   -5.228208113057398e-06
-3.48488933090909e-05   7.100961992169961e-06   -5.228208113057398e-06
-3.48488933090909e-05   7.100961992169961e-06   -5.228208113057398e-06
-2.804917255146849e-05   2.0453346625802323e-06   -3.064050487003966e-05
-2.804917255146849e-05   2.0453346625802323e-06   -3.064050487003966e-05
-2.804917255146849e-05   2.0453346625802323e-06   -3.064050487003966e-05
-2.804917255146849e-05   2.0453346625802323e-06   -3.064050487003966e-05
-1.3305761351388752e-05   2.334783384164255e-06   -5.8944836369563176e-06
-1.3305761351388752e-05   2.334783384164255e-06   -5.8944836369563176e-06
-1.3305761351388752e-05   2.334783384164255e-06   -5.8944836369563176e-06
-1.3305761351388752e-05   2.334783384164255e-06   -5.8944836369563176e-06
-1.3618638642536515e-05   2.9172484951863007e-06   -3.0591572654542484e-05
-1.3618638642536515e-05   2.9172484951863007e-06   -3.0591572654542484e-05
-1.3618638642536515e-05   2.9172484951863007e-06   -3.0591572654542484e-05
-1.3618638642536515e-05   2.9172484951863007e-06   -3.0591572654542484e-05
-2.875018636319195e-05   3.26302525116177e-06   -5.579792507035306e-06
-2.875018636319195e-05   3.26302525116177e-06   -5.579792507035306e-06
-2.875018636319195e-05   3.26302525116177e-06   -5.579792507035306e-06
-2.875018636319195e-05   3.26302525116177e-06   -5.579792507035306e-06
-2.0871660291197624e-05   2.6269425756727984e-06   -1.8329019688399315e-05
-2.0871660291197624e-05   2.6269425756727984e-06   -1.8329019688399315e-05
-2.0871660291197624e-05   2.6269425756727984e-06   -1.8329019688399315e-05
-2.0871660291197624e-05   2.6269425756727984e-06   -1.8329019688399315e-05
-2.8750186363191922e-05   2.9172484951863007e-06   -3.0799038708127714e-05
-2.8750186363191922e-05   2.9172484951863007e-06   -3.0799038708127714e-05
-2.8750186363191922e-05   2.9172484951863007e-06   -3.0799038708127714e-05
-2.8750186363191922e-05   2.9172484951863007e-06   -3.0799038708127714e-05
-1.3618638642536537e-05   3.26302525116177e-06   -5.372326453450034e-06
-1.3618638642536537e-05   3.26302525116177e-06   -5.372326453450034e-06
-1.3618638642536537e-05   3.26302525116177e-06   -5.372326453450034e-06
-1.3618638642536537e-05   3.26302525116177e-06   -5.372326453450034e-06
-1.3713296241016737e-05   3.577962721865501e-06   -3.0020348689569122e-05
-1.3713296241016737e-05   3.577962721865501e-06   -3.0020348689569122e-05
-1.3713296241016737e-05   3.577962721865501e-06   -3.0020348689569122e-05
-1.3713296241016737e-05   3.577962721865501e-06   -3.0020348689569122e-05
-2.8892066270122806e-05   4.031963995653555e-06   -4.9947994053318475e-06
-2.8892066270122806e-05   4.031963995653555e-06   -4.9947994053318475e-06
-2.8892066270122806e-05   4.031963995653555e-06   -4.9947994053318475e-06
-2.8892066270122806e-05   4.031963995653555e-06   -4.9947994053318475e-06
-2.103020573437859e-05   3.3366929358643514e-06   -1.768073766236528e-05
-2.103020573437859e-05   3.3366929358643514e-06   -1.768073766236528e-05
-2.103020573437859e-05   3.3366929358643514e-06   -1.768073766236528e-05
-2.103020573437859e-05   3.3366929358643514e-06   -1.768073766236528e-05
-2.8892066270122806e-05   3.577962721865501e-06   -3.0292749453841943e-05
-2.8892066270122806e-05   3.577962721865501e-06   -3.0292749453841943e-05
-2.8892066270122806e-05   3.577962721865501e-06   -3.0292749453841943e-05
-2.8892066270122806e-05   3.577962721865501e-06   -3.0292749453841943e-05
-1.3713296241016788e-05   4.031963995653555e-06   -4.7223986410590496e-06
-1.3713296241016788e-05   4.031963995653555e-06   -4.7223986410590496e-06
-1.3713296241016788e-05   4.031963995653555e-06   -4.7223986410590496e-06
-1.3713296241016788e-05   4.031963995653555e-06   -4.7223986410590496e-06
-1.3674919755518148e-05   4.16549208638491e-06   -2.9715504991212376e-05
-1.3674919755518148e-05   4.16549208638491e-06   -2.9715504991212376e-05
-1.3674919755518148e-05   4.16549208638491e-06   -2.9715504991212376e-05
-1.3674919755518148e-05   4.16549208638491e-06   -2.9715504991212376e-05
-2.8722420280943565e-05   4.859819308803299e-06   -5.0529337822877315e-06
-2.8722420280943565e-05   4.859819308803299e-06   -5.0529337822877315e-06
-2.8722420280943565e-05   4.859819308803299e-06   -5.0529337822877315e-06
-2.8722420280943565e-05   4.859819308803299e-06   -5.0529337822877315e-06
-2.1148981902172636e-05   3.979122482294635e-06   -1.714691298433416e-05
-2.1148981902172636e-05   3.979122482294635e-06   -1.714691298433416e-05
-2.1148981902172636e-05   3.979122482294635e-06   -1.714691298433416e-05
-2.1148981902172636e-05   3.979122482294635e-06   -1.714691298433416e-05
-1.3305761351388727e-05   -2.643850289696747e-07   -3.208964843222359e-05
-1.3305761351388727e-05   -2.643850289696747e-07   -3.208964843222359e-05
-1.3305761351388727e-05   -2.643850289696747e-07   -3.208964843222359e-05
-1.3305761351388727e-05   -2.643850289696747e-07   -3.208964843222359e-05
1.250811573656034e-06   -7.098301060018365e-08   -7.712652346127282e-06
1.250811573656034e-06   -7.098301060018365e-08   -7.712652346127282e-06
1.250811573656034e-06   -7.098301060018365e-08   -7.712652346127282e-06
1.250811573656034e-06   -7.098301060018365e-08   -7.712652346127282e-06
1.1956273738825847e-06   5.182170258768068e-07   -3.2264751314777896e-05
1.1956273738825847e-06   5.182170258768068e-07   -3.2264751314777896e-05
1.1956273738825847e-06   5.182170258768068e-07   -3.2264751314777896e-05
1.1956273738825847e-06   5.182170258768068e-07   -3.2264751314777896e-05
-1.3618638642536515e-05   7.845347861495662e-07   -7.734098610242934e-06
-1.3618638642536515e-05   7.845347861495662e-07   -7.734098610242934e-06
-1.3618638642536515e-05   7.845347861495662e-07   -7.734098610242934e-06
-1.3618638642536515e-05   7.845347861495662e-07   -7.734098610242934e-06
-6.15586863932756e-06   2.6100151458744944e-07   -1.9857928652654002e-05
-6.15586863932756e-06   2.6100151458744944e-07   -1.9857928652654002e-05
-6.15586863932756e-06   2.6100151458744944e-07   -1.9857928652654002e-05
-6.15586863932756e-06   2.6100151458744944e-07   -1.9857928652654002e-05
-1.3618638642536515e-05   5.182170258768068e-07   -3.242454197094151e-05
-1.3618638642536515e-05   5.182170258768068e-07   -3.242454197094151e-05
-1.3618638642536515e-05   5.182170258768068e-07   -3.242454197094151e-05
-1.3618638642536515e-05   5.182170258768068e-07   -3.242454197094151e-05
1.1956273738825847e-06   7.845347861495662e-07   -7.57430795407931e-06
1.1956273738825847e-06   7.845347861495662e-07   -7.57430795407931e-06
1.1956273738825847e-06   7.845347861495662e-07   -7.57430795407931e-06
1.1956273738825847e-06   7.845347861495662e-07   -7.57430795407931e-06
1.1192331430334873e-06   1.2077304635288742e-06   -3.233088295462681e-05
1.1192331430334873e-06   1.2077304635288742e-06   -3.233088295462681e-05
1.1192331430334873e-06   1.2077304635288742e-06   -3.233088295462681e-05
1.1192331430334873e-06   1.2077304635288742e-06   -3.233088295462681e-05
-1.3713296241016737e-05   1.6206158074435865e-06   -7.857731854225283e-06
-1.3713296241016737e-05   1.6206158074435865e-06   -7.857731854225283e-06
-1.3713296241016737e-05   1.6206158074435865e-06   -7.857731854225283e-06
-1.3713296241016737e-05   1.6206158074435865e-06   -7.857731854225283e-06
-6.265756028527988e-06   9.856153660108924e-07   -1.988929861018018e-05
-6.265756028527988e-06   9.856153660108924e-07   -1.988929861018018e-05
-6.265756028527988e-06   9.856153660108924e-07   -1.988929861018018e-05
-6.265756028527988e-06   9.856153660108924e-07   -1.988929861018018e-05
-1.3713296241016737e-05   1.2077304635288742e-06   -3.257861416097564e-05
-1.3713296241016737e-05   1.2077304635288742e-06   -3.257861416097564e-05
-1.3713296241016737e-05   1.2077304635288742e-06   -3.257861416097564e-05
-1.3713296241016737e-05   1.2077304635288742e-06   -3.257861416097564e-05
1.1192331430334894e-06   1.6206158074435865e-06   -7.6100006478764634e-06
1.1192331430334894e-06   1.6206158074435865e-06   -7.6100006478764634e-06
1.1192331430334894e-06   1.6206158074435865e-06   -7.6100006478764634e-06
1.1192331430334894e-06   1.6206158074435865e-06   -7.6100006478764634e-06
9.597986972531823e-07   2.0058326383698785e-06   -3.227590550951545e-05
9.597986972531823e-07   2.0058326383698785e-06   -3.227590550951545e-05
9.597986972531823e-07   2.0058326383698785e-06   -3.227590550951545e-05
9.597986972531823e-07   2.0058326383698785e-06   -3.227590550951545e-05
-1.367491975551816e-05   2.4915219773510183e-06   -8.176121691618592e-06
-1.367491975551816e-05   2.4915219773510183e-06   -8.176121691618592e-06
-1.367491975551816e-05   2.4915219773510183e-06   -8.176121691618592e-06
-1.367491975551816e-05   2.4915219773510183e-06   -8.176121691618592e-06
-6.3303022563194685e-06   1.7300206617153386e-06   -1.9960250067568305e-05
-6.3303022563194685e-06   1.7300206617153386e-06   -1.9960250067568305e-05
-6.3303022563194685e-06   1.7300206617153386e-06   -1.9960250067568305e-05
-6.3303022563194685e-06   1.7300206617153386e-06   -1.9960250067568305e-05
1.250811573656034e-06   -2.325478356062005e-06   -2.960565837332851e-05
1.250811573656034e-06   -2.325478356062005e-06   -2.960565837332851e-05
1.250811573656034e-06   -2.325478356062005e-06   -2.960565837332851e-05
1.250811573656034e-06   -2.325478356062005e-06   -2.960565837332851e-05
1.6251342595381054e-05   -2.390389163382735e-06   -4.643719821512566e-06
1.6251342595381054e-05   -2.390389163382735e-06   -4.643719821512566e-06
1.6251342595381054e-05   -2.390389163382735e-06   -4.643719821512566e-06
1.6251342595381054e-05   -2.390389163382735e-06   -4.643719821512566e-06
1.6390243094638136e-05   -1.7505897716453274e-06   -3.001275154577917e-05
1.6390243094638136e-05   -1.7505897716453274e-06   -3.001275154577917e-05
1.6390243094638136e-05   -1.7505897716453274e-06   -3.001275154577917e-05
1.6390243094638136e-05   -1.7505897716453274e-06   -3.001275154577917e-05
1.1956273738825847e-06   -1.6120525184001215e-06   -4.77151436313366e-06
1.1956273738825847e-06   -1.6120525184001215e-06   -4.77151436313366e-06
1.1956273738825847e-06   -1.6120525184001215e-06   -4.77151436313366e-06
1.1956273738825847e-06   -1.6120525184001215e-06   -4.77151436313366e-06
8.660004254326045e-06   -1.931380930281912e-06   -1.702054545007707e-05
8.660004254326045e-06   -1.931380930281912e-06   -1.702054545007707e-05
8.660004254326045e-06   -1.931380930281912e-06   -1.702054545007707e-05
8.660004254326045e-06   -1.931380930281912e-06   -1.702054545007707e-05
1.1956273738825826e-06   -1.7505897716453342e-06   -3.0095873897726338e-05
1.1956273738825826e-06   -1.7505897716453342e-06   -3.0095873897726338e-05
1.1956273738825826e-06   -1.7505897716453342e-06   -3.0095873897726338e-05
1.1956273738825826e-06   -1.7505897716453342e-06   -3.0095873897726338e-05
1.639024309463816e-05   -1.6120525184001215e-06   -4.688392011186512e-06
1.639024309463816e-05   -1.6120525184001215e-06   -4.688392011186512e-06
1.639024309463816e-05   -1.6120525184001215e-06   -4.688392011186512e-06
1.639024309463816e-05   -1.6120525184001215e-06   -4.688392011186512e-06
1.631519326021914e-05   -1.0974876371361555e-06   -3.0571353357910196e-05
1.631519326021914e-05   -1.0974876371361555e-06   -3.0571353357910196e-05
1.631519326021914e-05   -1.0974876371361555e-06   -3.0571353357910196e-05
1.631519326021914e-05   -1.0974876371361555e-06   -3.0571353357910196e-05
1.1192331430334873e-06   -8.502673497465284e-07   -5.3930853350345995e-06
1.1192331430334873e-06   -8.502673497465284e-07   -5.3930853350345995e-06
1.1192331430334873e-06   -8.502673497465284e-07   -5.3930853350345995e-06
1.1192331430334873e-06   -8.502673497465284e-07   -5.3930853350345995e-06
8.57205304044378e-06   -1.3109458195242625e-06   -1.7538044748851733e-05
8.57205304044378e-06   -1.3109458195242625e-06   -1.7538044748851733e-05
8.57205304044378e-06   -1.3109458195242625e-06   -1.7538044748851733e-05
8.57205304044378e-06   -1.3109458195242625e-06   -1.7538044748851733e-05
1.1192331430334865e-06   -1.0974876371361555e-06   -3.071968553034399e-05
1.1192331430334865e-06   -1.0974876371361555e-06   -3.071968553034399e-05
1.1192331430334865e-06   -1.0974876371361555e-06   -3.071968553034399e-05
1.1192331430334865e-06   -1.0974876371361555e-06   -3.071968553034399e-05
1.6315193260219194e-05   -8.502673497465284e-07   -5.244753162600828e-06
1.6315193260219194e-05   -8.502673497465284e-07   -5.244753162600828e-06
1.6315193260219194e-05   -8.502673497465284e-07   -5.244753162600828e-06
1.6315193260219194e-05   -8.502673497465284e-07   -5.244753162600828e-06
1.5842458114551673e-05   -2.2043646925239092e-07   -3.062614023488618e-05
1.5842458114551673e-05   -2.2043646925239092e-07   -3.062614023488618e-05
1.5842458114551673e-05   -2.2043646925239092e-07   -3.062614023488618e-05
1.5842458114551673e-05   -2.2043646925239092e-07   -3.062614023488618e-05
9.597986972531823e-07   9.11754217272436e-08   -6.008675007309849e-06
9.597986972531823e-07   9.11754217272436e-08   -6.008675007309849e-06
9.597986972531823e-07   9.11754217272436e-08   -6.008675007309849e-06
9.597986972531823e-07   9.11754217272436e-08   -6.008675007309849e-06
8.482772359082499e-06   -5.863596688958464e-07   -1.8140443389318156e-05
8.482772359082499e-06   -5.863596688958464e-07   -1.8140443389318156e-05
8.482772359082499e-06   -5.863596688958464e-07   -1.8140443389318156e-05
8.482772359082499e-06   -5.863596688958464e-07   -1.8140443389318156e-05
1.6251342595381054e-05   -5.90240789799221e-06   -1.79113433871006e-05
1.6251342595381054e-05   -5.90240789799221e-06   -1.79113433871006e-05
1.6251342595381054e-05   -5.90240789799221e-06   -1.79113433871006e-05
1.6251342595381054e-05   -5.90240789799221e-06   -1.79113433871006e-05
3.1045530670046716e-05   -4.438184212150336e-06   7.624170948847221e-06
3.1045530670046716e-05   -4.438184212150336e-06   7.624170948847221e-06
3.1045530670046716e-05   -4.438184212150336e-06   7.624170948847221e-06
3.1045530670046716e-05   -4.438184212150336e-06   7.624170948847221e-06
3.2239587930592144e-05   -5.016254244382492e-06   -2.1745445279132576e-05
3.2239587930592144e-05   -5.016254244382492e-06   -2.1745445279132576e-05
3.2239587930592144e-05   -5.016254244382492e-06   -2.1745445279132576e-05
3.2239587930592144e-05   -5.016254244382492e-06   -2.1745445279132576e-05
1.6390243094638187e-05   -4.021606552871942e-06   4.073340832551086e-06
1.6390243094638187e-05   -4.021606552871942e-06   4.073340832551086e-06
1.6390243094638187e-05   -4.021606552871942e-06   4.073340832551086e-06
1.6390243094638187e-05   -4.021606552871942e-06   4.073340832551086e-06
2.2866119037501553e-05   -4.82289868819995e-06   -6.239010457691088e-06
2.2866119037501553e-05   -4.82289868819995e-06   -6.239010457691088e-06
2.2866119037501553e-05   -4.82289868819995e-06   -6.239010457691088e-06
2.2866119037501553e-05   -4.82289868819995e-06   -6.239010457691088e-06
1.6390243094638143e-05   -5.016254244382479e-06   -2.2342233894038822e-05
1.6390243094638143e-05   -5.016254244382479e-06   -2.2342233894038822e-05
1.6390243094638143e-05   -5.016254244382479e-06   -2.2342233894038822e-05
1.6390243094638143e-05   -5.016254244382479e-06   -2.2342233894038822e-05
3.2239587930592144e-05   -4.021606552871942e-06   4.67012944745744e-06
3.2239587930592144e-05   -4.021606552871942e-06   4.67012944745744e-06
3.2239587930592144e-05   -4.021606552871942e-06   4.67012944745744e-06
3.2239587930592144e-05   -4.021606552871942e-06   4.67012944745744e-06
3.212703648132179e-05   -4.581685246747111e-06   -2.364214056566812e-05
3.212703648132179e-05   -4.581685246747111e-06   -2.364214056566812e-05
3.212703648132179e-05   -4.581685246747111e-06   -2.364214056566812e-05
3.212703648132179e-05   -4.581685246747111e-06   -2.364214056566812e-05
1.6315193260219194e-05   -3.583347755587655e-06   2.111928974807182e-06
1.6315193260219194e-05   -3.583347755587655e-06   2.111928974807182e-06
1.6315193260219194e-05   -3.583347755587655e-06   2.111928974807182e-06
1.6315193260219194e-05   -3.583347755587655e-06   2.111928974807182e-06
2.3673190305114707e-05   -4.255976741741191e-06   -9.747822041659881e-06
2.3673190305114707e-05   -4.255976741741191e-06   -9.747822041659881e-06
2.3673190305114707e-05   -4.255976741741191e-06   -9.747822041659881e-06
2.3673190305114707e-05   -4.255976741741191e-06   -9.747822041659881e-06
1.6315193260219167e-05   -4.581685246747097e-06   -2.424114306036373e-05
1.6315193260219167e-05   -4.581685246747097e-06   -2.424114306036373e-05
1.6315193260219167e-05   -4.581685246747097e-06   -2.424114306036373e-05
1.6315193260219167e-05   -4.581685246747097e-06   -2.424114306036373e-05
3.212703648132179e-05   -3.583347755587655e-06   2.710931469502854e-06
3.212703648132179e-05   -3.583347755587655e-06   2.710931469502854e-06
3.212703648132179e-05   -3.583347755587655e-06   2.710931469502854e-06
3.212703648132179e-05   -3.583347755587655e-06   2.710931469502854e-06
3.194218570091264e-05   -3.5542310078057394e-06   -2.751230502133553e-05
3.194218570091264e-05   -3.5542310078057394e-06   -2.751230502133553e-05
3.194218570091264e-05   -3.5542310078057394e-06   -2.751230502133553e-05
3.194218570091264e-05   -3.5542310078057394e-06   -2.751230502133553e-05
1.5842458114551724e-05   -2.6406601333803746e-06   -1.227568235389271e-06
1.5842458114551724e-05   -2.6406601333803746e-06   -1.227568235389271e-06
1.5842458114551724e-05   -2.6406601333803746e-06   -1.227568235389271e-06
1.5842458114551724e-05   -2.6406601333803746e-06   -1.227568235389271e-06
2.3001260928260524e-05   -3.6621804494601227e-06   -1.2545994068589389e-05
2.3001260928260524e-05   -3.6621804494601227e-06   -1.2545994068589389e-05
2.3001260928260524e-05   -3.6621804494601227e-06   -1.2545994068589389e-05
2.3001260928260524e-05   -3.6621804494601227e-06   -1.2545994068589389e-05
-3.480095437151444e-05   5.017267864357549e-06   -2.407641225125396e-05
-3.480095437151444e-05   5.017267864357549e-06   -2.407641225125396e-05
-3.480095437151444e-05   5.017267864357549e-06   -2.407641225125396e-05
-3.480095437151444e-05   5.017267864357549e-06   -2.407641225125396e-05
-2.2833122931551958e-05   3.827257788188178e-06   -4.844032563684811e-06
-2.2833122931551958e-05   3.827257788188178e-06   -4.844032563684811e-06
-2.2833122931551958e-05   3.827257788188178e-06   -4.844032563684811e-06
-2.2833122931551958e-05   3.827257788188178e-06   -4.844032563684811e-06
-2.2940771576231252e-05   6.0268308788220565e-06   -1.999403374486889e-05
-2.2940771576231252e-05   6.0268308788220565e-06   -1.999403374486889e-05
-2.2940771576231252e-05   6.0268308788220565e-06   -1.999403374486889e-05
-2.2940771576231252e-05   6.0268308788220565e-06   -1.999403374486889e-05
-3.426562185716182e-05   4.633373538694369e-06   -2.8320887257462894e-07
-3.426562185716182e-05   4.633373538694369e-06   -2.8320887257462894e-07
-3.426562185716182e-05   4.633373538694369e-06   -2.8320887257462894e-07
-3.426562185716182e-05   4.633373538694369e-06   -2.8320887257462894e-07
-2.7495496450569588e-05   5.103568895512684e-06   -1.1848868430986098e-05
-2.7495496450569588e-05   5.103568895512684e-06   -1.1848868430986098e-05
-2.7495496450569588e-05   5.103568895512684e-06   -1.1848868430986098e-05
-2.7495496450569588e-05   5.103568895512684e-06   -1.1848868430986098e-05
-3.426562185716182e-05   6.0268308788220565e-06   -1.915795934079225e-05
-3.426562185716182e-05   6.0268308788220565e-06   -1.915795934079225e-05
-3.426562185716182e-05   6.0268308788220565e-06   -1.915795934079225e-05
-3.426562185716182e-05   6.0268308788220565e-06   -1.915795934079225e-05
-2.2940771576231252e-05   4.633373538694369e-06   -1.1192832766511468e-06
-2.2940771576231252e-05   4.633373538694369e-06   -1.1192832766511468e-06
-2.2940771576231252e-05   4.633373538694369e-06   -1.1192832766511468e-06
-2.2940771576231252e-05   4.633373538694369e-06   -1.1192832766511468e-06
-2.2914620877572287e-05   6.482666589812113e-06   -1.7107591396460812e-05
-2.2914620877572287e-05   6.482666589812113e-06   -1.7107591396460812e-05
-2.2914620877572287e-05   6.482666589812113e-06   -1.7107591396460812e-05
-2.2914620877572287e-05   6.482666589812113e-06   -1.7107591396460812e-05
-3.3745354295573846e-05   4.988156630822069e-06   1.8403369422690578e-06
-3.3745354295573846e-05   4.988156630822069e-06   1.8403369422690578e-06
-3.3745354295573846e-05   4.988156630822069e-06   1.8403369422690578e-06
-3.3745354295573846e-05   4.988156630822069e-06   1.8403369422690578e-06
-2.7728798929781204e-05   5.570826361299419e-06   -8.536857172338115e-06
-2.7728798929781204e-05   5.570826361299419e-06   -8.536857172338115e-06
-2.7728798929781204e-05   5.570826361299419e-06   -8.536857172338115e-06
-2.7728798929781204e-05   5.570826361299419e-06   -8.536857172338115e-06
-3.3745354295573846e-05   6.482666589812113e-06   -1.6210885421066797e-05
-3.3745354295573846e-05   6.482666589812113e-06   -1.6210885421066797e-05
-3.3745354295573846e-05   6.482666589812113e-06   -1.6210885421066797e-05
-3.3745354295573846e-05   6.482666589812113e-06   -1.6210885421066797e-05
-2.2914620877572328e-05   4.988156630822069e-06   9.436309668751846e-07
-2.2914620877572328e-05   4.988156630822069e-06   9.436309668751846e-07
-2.2914620877572328e-05   4.988156630822069e-06   9.436309668751846e-07
-2.2914620877572328e-05   4.988156630822069e-06   9.436309668751846e-07
-2.293582694515727e-05   6.8478005560263205e-06   -1.3070607303321518e-05
-2.293582694515727e-05   6.8478005560263205e-06   -1.3070607303321518e-05
-2.293582694515727e-05   6.8478005560263205e-06   -1.3070607303321518e-05
-2.293582694515727e-05   6.8478005560263205e-06   -1.3070607303321518e-05
-3.3068167957274895e-05   5.339375266721219e-06   4.721682890457436e-06
-3.3068167957274895e-05   5.339375266721219e-06   4.721682890457436e-06
-3.3068167957274895e-05   5.339375266721219e-06   4.721682890457436e-06
-3.3068167957274895e-05   5.339375266721219e-06   4.721682890457436e-06
-2.7093610765485008e-05   5.818299074150012e-06   -5.523266713649275e-06
-2.7093610765485008e-05   5.818299074150012e-06   -5.523266713649275e-06
-2.7093610765485008e-05   5.818299074150012e-06   -5.523266713649275e-06
-2.7093610765485008e-05   5.818299074150012e-06   -5.523266713649275e-06
-2.2833122931551958e-05   2.3347833841642278e-06   -2.792998183661102e-05
-2.2833122931551958e-05   2.3347833841642278e-06   -2.792998183661102e-05
-2.2833122931551958e-05   2.3347833841642278e-06   -2.792998183661102e-05
-2.2833122931551958e-05   2.3347833841642278e-06   -2.792998183661102e-05
-1.1640714803729218e-05   1.9108248107008456e-06   -9.53034343431779e-06
-1.1640714803729218e-05   1.9108248107008456e-06   -9.53034343431779e-06
-1.1640714803729218e-05   1.9108248107008456e-06   -9.53034343431779e-06
-1.1640714803729218e-05   1.9108248107008456e-06   -9.53034343431779e-06
-1.1779871183287087e-05   3.26302525116177e-06   -2.753243087668563e-05
-1.1779871183287087e-05   3.26302525116177e-06   -2.753243087668563e-05
-1.1779871183287087e-05   3.26302525116177e-06   -2.753243087668563e-05
-1.1779871183287087e-05   3.26302525116177e-06   -2.753243087668563e-05
-2.294077157623121e-05   2.704152359840476e-06   -8.595606486985898e-06
-2.294077157623121e-05   2.704152359840476e-06   -8.595606486985898e-06
-2.294077157623121e-05   2.704152359840476e-06   -8.595606486985898e-06
-2.294077157623121e-05   2.704152359840476e-06   -8.595606486985898e-06
-1.7150183491326768e-05   2.6959924340098505e-06   -1.8241690672994996e-05
-1.7150183491326768e-05   2.6959924340098505e-06   -1.8241690672994996e-05
-1.7150183491326768e-05   2.6959924340098505e-06   -1.8241690672994996e-05
-1.7150183491326768e-05   2.6959924340098505e-06   -1.8241690672994996e-05
-2.2940771576231225e-05   3.26302525116177e-06   -2.719710714189276e-05
-2.2940771576231225e-05   3.26302525116177e-06   -2.719710714189276e-05
-2.2940771576231225e-05   3.26302525116177e-06   -2.719710714189276e-05
-2.2940771576231225e-05   3.26302525116177e-06   -2.719710714189276e-05
-1.1779871183287108e-05   2.704152359840476e-06   -8.930930221778638e-06
-1.1779871183287108e-05   2.704152359840476e-06   -8.930930221778638e-06
-1.1779871183287108e-05   2.704152359840476e-06   -8.930930221778638e-06
-1.1779871183287108e-05   2.704152359840476e-06   -8.930930221778638e-06
-1.1869342677093032e-05   4.031963995653555e-06   -2.6804590018169097e-05
-1.1869342677093032e-05   4.031963995653555e-06   -2.6804590018169097e-05
-1.1869342677093032e-05   4.031963995653555e-06   -2.6804590018169097e-05
-1.1869342677093032e-05   4.031963995653555e-06   -2.6804590018169097e-05
-2.2914620877572287e-05   3.4097314858170754e-06   -8.022453511468612e-06
-2.2914620877572287e-05   3.4097314858170754e-06   -8.022453511468612e-06
-2.2914620877572287e-05   3.4097314858170754e-06   -8.022453511468612e-06
-2.2914620877572287e-05   3.4097314858170754e-06   -8.022453511468612e-06
-1.7179910404711043e-05   3.3491846655356414e-06   -1.7543976207401473e-05
-1.7179910404711043e-05   3.3491846655356414e-06   -1.7543976207401473e-05
-1.7179910404711043e-05   3.3491846655356414e-06   -1.7543976207401473e-05
-1.7179910404711043e-05   3.3491846655356414e-06   -1.7543976207401473e-05
-2.2914620877572287e-05   4.031963995653555e-06   -2.643125051226728e-05
-2.2914620877572287e-05   4.031963995653555e-06   -2.643125051226728e-05
-2.2914620877572287e-05   4.031963995653555e-06   -2.643125051226728e-05
-2.2914620877572287e-05   4.031963995653555e-06   -2.643125051226728e-05
-1.1869342677093069e-05   3.4097314858171296e-06   -8.395793017370368e-06
-1.1869342677093069e-05   3.4097314858171296e-06   -8.395793017370368e-06
-1.1869342677093069e-05   3.4097314858171296e-06   -8.395793017370368e-06
-1.1869342677093069e-05   3.4097314858171296e-06   -8.395793017370368e-06
-1.1985944594454943e-05   4.859819308803353e-06   -2.674050340679515e-05
-1.1985944594454943e-05   4.859819308803353e-06   -2.674050340679515e-05
-1.1985944594454943e-05   4.859819308803353e-06   -2.674050340679515e-05
-1.1985944594454943e-05   4.859819308803353e-06   -2.674050340679515e-05
-2.2935826945157258e-05   4.161110418652496e-06   -8.071474154867453e-06
-2.2935826945157258e-05   4.161110418652496e-06   -8.071474154867453e-06
-2.2935826945157258e-05   4.161110418652496e-06   -8.071474154867453e-06
-2.2935826945157258e-05   4.161110418652496e-06   -8.071474154867453e-06
-1.7381406377206044e-05   3.9968576878788426e-06   -1.723029012965505e-05
-1.7381406377206044e-05   3.9968576878788426e-06   -1.723029012965505e-05
-1.7381406377206044e-05   3.9968576878788426e-06   -1.723029012965505e-05
-1.7381406377206044e-05   3.9968576878788426e-06   -1.723029012965505e-05
-1.1640714803729191e-05   -7.098301060018365e-08   -3.011856690088172e-05
-1.1640714803729191e-05   -7.098301060018365e-08   -3.011856690088172e-05
-1.1640714803729191e-05   -7.098301060018365e-08   -3.011856690088172e-05
-1.1640714803729191e-05   -7.098301060018365e-08   -3.011856690088172e-05
-5.711249291469789e-07   1.0221038329290624e-07   -1.1565334406908836e-05
-5.711249291469789e-07   1.0221038329290624e-07   -1.1565334406908836e-05
-5.711249291469789e-07   1.0221038329290624e-07   -1.1565334406908836e-05
-5.711249291469789e-07   1.0221038329290624e-07   -1.1565334406908836e-05
-6.824977387533383e-07   7.845347861495391e-07   -2.983462232309468e-05
-6.824977387533383e-07   7.845347861495391e-07   -2.983462232309468e-05
-6.824977387533383e-07   7.845347861495391e-07   -2.983462232309468e-05
-6.824977387533383e-07   7.845347861495391e-07   -2.983462232309468e-05
-1.1779871183287087e-05   8.838359701225781e-07   -1.139858062592229e-05
-1.1779871183287087e-05   8.838359701225781e-07   -1.139858062592229e-05
-1.1779871183287087e-05   8.838359701225781e-07   -1.139858062592229e-05
-1.1779871183287087e-05   8.838359701225781e-07   -1.139858062592229e-05
-6.133561376128587e-06   5.1549388283974e-07   -2.058809171881674e-05
-6.133561376128587e-06   5.1549388283974e-07   -2.058809171881674e-05
-6.133561376128587e-06   5.1549388283974e-07   -2.058809171881674e-05
-6.133561376128587e-06   5.1549388283974e-07   -2.058809171881674e-05
-1.1779871183287087e-05   7.845347861495662e-07   -2.989420303347852e-05
-1.1779871183287087e-05   7.845347861495662e-07   -2.989420303347852e-05
-1.1779871183287087e-05   7.845347861495662e-07   -2.989420303347852e-05
-1.1779871183287087e-05   7.845347861495662e-07   -2.989420303347852e-05
-6.824977387533395e-07   8.838359701226323e-07   -1.1338999915538409e-05
-6.824977387533395e-07   8.838359701226323e-07   -1.1338999915538409e-05
-6.824977387533395e-07   8.838359701226323e-07   -1.1338999915538409e-05
-6.824977387533395e-07   8.838359701226323e-07   -1.1338999915538409e-05
-7.621985467208218e-07   1.6206158074435865e-06   -2.9914369752691e-05
-7.621985467208218e-07   1.6206158074435865e-06   -2.9914369752691e-05
-7.621985467208218e-07   1.6206158074435865e-06   -2.9914369752691e-05
-7.621985467208218e-07   1.6206158074435865e-06   -2.9914369752691e-05
-1.1869342677093052e-05   1.6632049385174917e-06   -1.1428016347381754e-05
-1.1869342677093052e-05   1.6632049385174917e-06   -1.1428016347381754e-05
-1.1869342677093052e-05   1.6632049385174917e-06   -1.1428016347381754e-05
-1.1869342677093052e-05   1.6632049385174917e-06   -1.1428016347381754e-05
-6.277956459964865e-06   1.2049963501221277e-06   -2.0472068222891342e-05
-6.277956459964865e-06   1.2049963501221277e-06   -2.0472068222891342e-05
-6.277956459964865e-06   1.2049963501221277e-06   -2.0472068222891342e-05
-6.277956459964865e-06   1.2049963501221277e-06   -2.0472068222891342e-05
-1.1869342677093052e-05   1.6206158074435865e-06   -2.9939923231335388e-05
-1.1869342677093052e-05   1.6206158074435865e-06   -2.9939923231335388e-05
-1.1869342677093052e-05   1.6206158074435865e-06   -2.9939923231335388e-05
-1.1869342677093052e-05   1.6206158074435865e-06   -2.9939923231335388e-05
-7.62198546720823e-07   1.6632049385174917e-06   -1.1402462868737286e-05
-7.62198546720823e-07   1.6632049385174917e-06   -1.1402462868737286e-05
-7.62198546720823e-07   1.6632049385174917e-06   -1.1402462868737286e-05
-7.62198546720823e-07   1.6632049385174917e-06   -1.1402462868737286e-05
-8.886947553263984e-07   2.4915219773510183e-06   -3.0298833003550415e-05
-8.886947553263984e-07   2.4915219773510183e-06   -3.0298833003550415e-05
-8.886947553263984e-07   2.4915219773510183e-06   -3.0298833003550415e-05
-8.886947553263984e-07   2.4915219773510183e-06   -3.0298833003550415e-05
-1.1985944594454933e-05   2.4606130540619155e-06   -1.1784871251029527e-05
-1.1985944594454933e-05   2.4606130540619155e-06   -1.1784871251029527e-05
-1.1985944594454933e-05   2.4606130540619155e-06   -1.1784871251029527e-05
-1.1985944594454933e-05   2.4606130540619155e-06   -1.1784871251029527e-05
-6.431477666286858e-06   1.9026967213213659e-06   -2.0707566331665134e-05
-6.431477666286858e-06   1.9026967213213659e-06   -2.0707566331665134e-05
-6.431477666286858e-06   1.9026967213213659e-06   -2.0707566331665134e-05
-6.431477666286858e-06   1.9026967213213659e-06   -2.0707566331665134e-05
-5.711249291469797e-07   -2.390389163382735e-06   -2.69067718555387e-05
-5.711249291469797e-07   -2.390389163382735e-06   -2.69067718555387e-05
-5.711249291469797e-07   -2.390389163382735e-06   -2.69067718555387e-05
-5.711249291469797e-07   -2.390389163382735e-06   -2.69067718555387e-05
1.0438042956542692e-05   -1.598630873034918e-06   -8.083103738513965e-06
1.0438042956542692e-05   -1.598630873034918e-06   -8.083103738513965e-06
1.0438042956542692e-05   -1.598630873034918e-06   -8.083103738513965e-06
1.0438042956542692e-05   -1.598630873034918e-06   -8.083103738513965e-06
1.0432250230238275e-05   -1.6120525184001215e-06   -2.659329251543392e-05
1.0432250230238275e-05   -1.6120525184001215e-06   -2.659329251543392e-05
1.0432250230238275e-05   -1.6120525184001215e-06   -2.659329251543392e-05
1.0432250230238275e-05   -1.6120525184001215e-06   -2.659329251543392e-05
-6.824977387533395e-07   -8.811588238747813e-07   -8.507248783829748e-06
-6.824977387533395e-07   -8.811588238747813e-07   -8.507248783829748e-06
-6.824977387533395e-07   -8.811588238747813e-07   -8.507248783829748e-06
-6.824977387533395e-07   -8.811588238747813e-07   -8.507248783829748e-06
4.867081920239863e-06   -1.5636526955102679e-06   -1.734705189250381e-05
4.867081920239863e-06   -1.5636526955102679e-06   -1.734705189250381e-05
4.867081920239863e-06   -1.5636526955102679e-06   -1.734705189250381e-05
4.867081920239863e-06   -1.5636526955102679e-06   -1.734705189250381e-05
-6.824977387533395e-07   -1.6120525184001215e-06   -2.703182873214906e-05
-6.824977387533395e-07   -1.6120525184001215e-06   -2.703182873214906e-05
-6.824977387533395e-07   -1.6120525184001215e-06   -2.703182873214906e-05
-6.824977387533395e-07   -1.6120525184001215e-06   -2.703182873214906e-05
1.0432250230238275e-05   -8.811588238747813e-07   -8.068712567114517e-06
1.0432250230238275e-05   -8.811588238747813e-07   -8.068712567114517e-06
1.0432250230238275e-05   -8.811588238747813e-07   -8.068712567114517e-06
1.0432250230238275e-05   -8.811588238747813e-07   -8.068712567114517e-06
1.0484913296087056e-05   -8.502673497465284e-07   -2.7293504453853755e-05
1.0484913296087056e-05   -8.502673497465284e-07   -2.7293504453853755e-05
1.0484913296087056e-05   -8.502673497465284e-07   -2.7293504453853755e-05
1.0484913296087056e-05   -8.502673497465284e-07   -2.7293504453853755e-05
-7.621985467208247e-07   -1.7701737308742013e-07   -8.952268035169514e-06
-7.621985467208247e-07   -1.7701737308742013e-07   -8.952268035169514e-06
-7.621985467208247e-07   -1.7701737308742013e-07   -8.952268035169514e-06
-7.621985467208247e-07   -1.7701737308742013e-07   -8.952268035169514e-06
4.718522700274805e-06   -9.417644844047254e-07   -1.7627955180038362e-05
4.718522700274805e-06   -9.417644844047254e-07   -1.7627955180038362e-05
4.718522700274805e-06   -9.417644844047254e-07   -1.7627955180038362e-05
4.718522700274805e-06   -9.417644844047254e-07   -1.7627955180038362e-05
-7.621985467208222e-07   -8.502673497465284e-07   -2.7697454439849117e-05
-7.621985467208222e-07   -8.502673497465284e-07   -2.7697454439849117e-05
-7.621985467208222e-07   -8.502673497465284e-07   -2.7697454439849117e-05
-7.621985467208222e-07   -8.502673497465284e-07   -2.7697454439849117e-05
1.0484913296087056e-05   -1.7701737308742013e-07   -8.548318049173898e-06
1.0484913296087056e-05   -1.7701737308742013e-07   -8.548318049173898e-06
1.0484913296087056e-05   -1.7701737308742013e-07   -8.548318049173898e-06
1.0484913296087056e-05   -1.7701737308742013e-07   -8.548318049173898e-06
1.0406954015263864e-05   9.11754217272436e-08   -2.8090279938330773e-05
1.0406954015263864e-05   9.11754217272436e-08   -2.8090279938330773e-05
1.0406954015263864e-05   9.11754217272436e-08   -2.8090279938330773e-05
1.0406954015263864e-05   9.11754217272436e-08   -2.8090279938330773e-05
-8.886947553264001e-07   6.453753955600332e-07   -9.596718638313406e-06
-8.886947553264001e-07   6.453753955600332e-07   -9.596718638313406e-06
-8.886947553264001e-07   6.453753955600332e-07   -9.596718638313406e-06
-8.886947553264001e-07   6.453753955600332e-07   -9.596718638313406e-06
4.667654114617825e-06   -2.771127137060961e-07   -1.8303807222660593e-05
4.667654114617825e-06   -2.771127137060961e-07   -1.8303807222660593e-05
4.667654114617825e-06   -2.771127137060961e-07   -1.8303807222660593e-05
4.667654114617825e-06   -2.771127137060961e-07   -1.8303807222660593e-05
1.0438042956542678e-05   -4.438184212150363e-06   -1.5042360322475344e-05
1.0438042956542678e-05   -4.438184212150363e-06   -1.5042360322475344e-05
1.0438042956542678e-05   -4.438184212150363e-06   -1.5042360322475344e-05
1.0438042956542678e-05   -4.438184212150363e-06   -1.5042360322475344e-05
2.0728172167248227e-05   -2.892906789547637e-06   3.0350214822622316e-06
2.0728172167248227e-05   -2.892906789547637e-06   3.0350214822622316e-06
2.0728172167248227e-05   -2.892906789547637e-06   3.0350214822622316e-06
2.0728172167248227e-05   -2.892906789547637e-06   3.0350214822622316e-06
2.143609275881536e-05   -4.021606552871915e-06   -1.690530963451697e-05
2.143609275881536e-05   -4.021606552871915e-06   -1.690530963451697e-05
2.143609275881536e-05   -4.021606552871915e-06   -1.690530963451697e-05
2.143609275881536e-05   -4.021606552871915e-06   -1.690530963451697e-05
1.0432250230238254e-05   -2.477856490906488e-06   5.081778759323156e-07
1.0432250230238254e-05   -2.477856490906488e-06   5.081778759323156e-07
1.0432250230238254e-05   -2.477856490906488e-06   5.081778759323156e-07
1.0432250230238254e-05   -2.477856490906488e-06   5.081778759323156e-07
1.5085300012838119e-05   -3.4163313513211192e-06   -6.683820178818718e-06
1.5085300012838119e-05   -3.4163313513211192e-06   -6.683820178818718e-06
1.5085300012838119e-05   -3.4163313513211192e-06   -6.683820178818718e-06
1.5085300012838119e-05   -3.4163313513211192e-06   -6.683820178818718e-06
1.0432250230238248e-05   -4.021606552871942e-06   -1.7831559671696194e-05
1.0432250230238248e-05   -4.021606552871942e-06   -1.7831559671696194e-05
1.0432250230238248e-05   -4.021606552871942e-06   -1.7831559671696194e-05
1.0432250230238248e-05   -4.021606552871942e-06   -1.7831559671696194e-05
2.143609275881536e-05   -2.4778564909064336e-06   1.434427913111656e-06
2.143609275881536e-05   -2.4778564909064336e-06   1.434427913111656e-06
2.143609275881536e-05   -2.4778564909064336e-06   1.434427913111656e-06
2.143609275881536e-05   -2.4778564909064336e-06   1.434427913111656e-06
2.1981974253774204e-05   -3.583347755587655e-06   -1.9061055309608645e-05
2.1981974253774204e-05   -3.583347755587655e-06   -1.9061055309608645e-05
2.1981974253774204e-05   -3.583347755587655e-06   -1.9061055309608645e-05
2.1981974253774204e-05   -3.583347755587655e-06   -1.9061055309608645e-05
1.0484913296087015e-05   -2.1237360775258965e-06   -7.75054053633848e-07
1.0484913296087015e-05   -2.1237360775258965e-06   -7.75054053633848e-07
1.0484913296087015e-05   -2.1237360775258965e-06   -7.75054053633848e-07
1.0484913296087015e-05   -2.1237360775258965e-06   -7.75054053633848e-07
1.5602911951715262e-05   -3.1487227127930035e-06   -8.690059831853894e-06
1.5602911951715262e-05   -3.1487227127930035e-06   -8.690059831853894e-06
1.5602911951715262e-05   -3.1487227127930035e-06   -8.690059831853894e-06
1.5602911951715262e-05   -3.1487227127930035e-06   -8.690059831853894e-06
1.0484913296087035e-05   -3.583347755587655e-06   -1.993682231644571e-05
1.0484913296087035e-05   -3.583347755587655e-06   -1.993682231644571e-05
1.0484913296087035e-05   -3.583347755587655e-06   -1.993682231644571e-05
1.0484913296087035e-05   -3.583347755587655e-06   -1.993682231644571e-05
2.1981974253774164e-05   -2.1237360775258965e-06   1.0071295320336713e-07
2.1981974253774164e-05   -2.1237360775258965e-06   1.0071295320336713e-07
2.1981974253774164e-05   -2.1237360775258965e-06   1.0071295320336713e-07
2.1981974253774164e-05   -2.1237360775258965e-06   1.0071295320336713e-07
2.2565188726854414e-05   -2.6406601333803746e-06   -2.2733007636563596e-05
2.2565188726854414e-05   -2.6406601333803746e-06   -2.2733007636563596e-05
2.2565188726854414e-05   -2.6406601333803746e-06   -2.2733007636563596e-05
2.2565188726854414e-05   -2.6406601333803746e-06   -2.2733007636563596e-05
1.040695401526383e-05   -1.3687723593231631e-06   -3.232415781680338e-06
1.040695401526383e-05   -1.3687723593231631e-06   -3.232415781680338e-06
1.040695401526383e-05   -1.3687723593231631e-06   -3.232415781680338e-06
1.040695401526383e-05   -1.3687723593231631e-06   -3.232415781680338e-06
1.5541564641794494e-05   -2.710251795481444e-06   -1.0985212497536403e-05
1.5541564641794494e-05   -2.710251795481444e-06   -1.0985212497536403e-05
1.5541564641794494e-05   -2.710251795481444e-06   -1.0985212497536403e-05
1.5541564641794494e-05   -2.710251795481444e-06   -1.0985212497536403e-05
-2.4944573102084178e-05   3.827257788188178e-06   -1.9019231880086586e-05
-2.4944573102084178e-05   3.827257788188178e-06   -1.9019231880086586e-05
-2.4944573102084178e-05   3.827257788188178e-06   -1.9019231880086586e-05
-2.4944573102084178e-05   3.827257788188178e-06   -1.9019231880086586e-05
-1.700967886216318e-05   2.428544768258835e-06   -6.6336359588425e-06
-1.700967886216318e-05   2.428544768258835e-06   -6.6336359588425e-06
-1.700967886216318e-05   2.428544768258835e-06   -6.6336359588425e-06
-1.700967886216318e-05   2.428544768258835e-06   -6.6336359588425e-06
-1.694727069526732e-05   4.633373538694369e-06   -1.6158826831879605e-05
-1.694727069526732e-05   4.633373538694369e-06   -1.6158826831879605e-05
-1.694727069526732e-05   4.633373538694369e-06   -1.6158826831879605e-05
-1.694727069526732e-05   4.633373538694369e-06   -1.6158826831879605e-05
-2.41925196368324e-05   3.0944074854442395e-06   -3.1600322973210576e-06
-2.41925196368324e-05   3.0944074854442395e-06   -3.1600322973210576e-06
-2.41925196368324e-05   3.0944074854442395e-06   -3.1600322973210576e-06
-2.41925196368324e-05   3.0944074854442395e-06   -3.1600322973210576e-06
-1.9892045954888392e-05   3.68655335976001e-06   -1.0682775958483859e-05
-1.9892045954888392e-05   3.68655335976001e-06   -1.0682775958483859e-05
-1.9892045954888392e-05   3.68655335976001e-06   -1.0682775958483859e-05
-1.9892045954888392e-05   3.68655335976001e-06   -1.0682775958483859e-05
-2.41925196368324e-05   4.633373538694369e-06   -1.5235447199929457e-05
-2.41925196368324e-05   4.633373538694369e-06   -1.5235447199929457e-05
-2.41925196368324e-05   4.633373538694369e-06   -1.5235447199929457e-05
-2.41925196368324e-05   4.633373538694369e-06   -1.5235447199929457e-05
-1.694727069526736e-05   3.0944074854442395e-06   -4.08341192927119e-06
-1.694727069526736e-05   3.0944074854442395e-06   -4.08341192927119e-06
-1.694727069526736e-05   3.0944074854442395e-06   -4.08341192927119e-06
-1.694727069526736e-05   3.0944074854442395e-06   -4.08341192927119e-06
-1.6818414167773347e-05   4.988156630822069e-06   -1.4090879739554556e-05
-1.6818414167773347e-05   4.988156630822069e-06   -1.4090879739554556e-05
-1.6818414167773347e-05   4.988156630822069e-06   -1.4090879739554556e-05
-1.6818414167773347e-05   4.988156630822069e-06   -1.4090879739554556e-05
-2.3631394559669094e-05   3.4055235497140518e-06   -1.786332571063556e-06
-2.3631394559669094e-05   3.4055235497140518e-06   -1.786332571063556e-06
-2.3631394559669094e-05   3.4055235497140518e-06   -1.786332571063556e-06
-2.3631394559669094e-05   3.4055235497140518e-06   -1.786332571063556e-06
-1.9891202896181562e-05   4.058282395844699e-06   -8.411640651221226e-06
-1.9891202896181562e-05   4.058282395844699e-06   -8.411640651221226e-06
-1.9891202896181562e-05   4.058282395844699e-06   -8.411640651221226e-06
-1.9891202896181562e-05   4.058282395844699e-06   -8.411640651221226e-06
-2.3631394559669094e-05   4.988156630822069e-06   -1.3141299890889779e-05
-2.3631394559669094e-05   4.988156630822069e-06   -1.3141299890889779e-05
-2.3631394559669094e-05   4.988156630822069e-06   -1.3141299890889779e-05
-2.3631394559669094e-05   4.988156630822069e-06   -1.3141299890889779e-05
-1.6818414167773374e-05   3.4055235497140518e-06   -2.7359124197282592e-06
-1.6818414167773374e-05   3.4055235497140518e-06   -2.7359124197282592e-06
-1.6818414167773374e-05   3.4055235497140518e-06   -2.7359124197282592e-06
-1.6818414167773374e-05   3.4055235497140518e-06   -2.7359124197282592e-06
-1.6767521519959878e-05   5.339375266721165e-06   -1.1231562683927557e-05
-1.6767521519959878e-05   5.339375266721165e-06   -1.1231562683927557e-05
-1.6767521519959878e-05   5.339375266721165e-06   -1.1231562683927557e-05
-1.6767521519959878e-05   5.339375266721165e-06   -1.1231562683927557e-05
-2.2898435412417286e-05   3.798088947701533e-06   -8.860107175338123e-08
-2.2898435412417286e-05   3.798088947701533e-06   -8.860107175338123e-08
-2.2898435412417286e-05   3.798088947701533e-06   -8.860107175338123e-08
-2.2898435412417286e-05   3.798088947701533e-06   -8.860107175338123e-08
-1.9301674387875937e-05   4.261370143633062e-06   -6.361171496881206e-06
-1.9301674387875937e-05   4.261370143633062e-06   -6.361171496881206e-06
-1.9301674387875937e-05   4.261370143633062e-06   -6.361171496881206e-06
-1.9301674387875937e-05   4.261370143633062e-06   -6.361171496881206e-06
-1.7009678862163152e-05   1.9108248107009e-06   -2.4290395418599095e-05
-1.7009678862163152e-05   1.9108248107009e-06   -2.4290395418599095e-05
-1.7009678862163152e-05   1.9108248107009e-06   -2.4290395418599095e-05
-1.7009678862163152e-05   1.9108248107009e-06   -2.4290395418599095e-05
-9.809653562541516e-06   1.259678046365239e-06   -1.2681041311164487e-05
-9.809653562541516e-06   1.259678046365239e-06   -1.2681041311164487e-05
-9.809653562541516e-06   1.259678046365239e-06   -1.2681041311164487e-05
-9.809653562541516e-06   1.259678046365239e-06   -1.2681041311164487e-05
-9.814660019733513e-06   2.704152359840422e-06   -2.4079692631427023e-05
-9.814660019733513e-06   2.704152359840422e-06   -2.4079692631427023e-05
-9.814660019733513e-06   2.704152359840422e-06   -2.4079692631427023e-05
-9.814660019733513e-06   2.704152359840422e-06   -2.4079692631427023e-05
-1.694727069526732e-05   1.963248044485838e-06   -1.1747465582991154e-05
-1.694727069526732e-05   1.963248044485838e-06   -1.1747465582991154e-05
-1.694727069526732e-05   1.963248044485838e-06   -1.1747465582991154e-05
-1.694727069526732e-05   1.963248044485838e-06   -1.1747465582991154e-05
-1.3271609742294895e-05   2.09263063387675e-06   -1.795119672491318e-05
-1.3271609742294895e-05   2.09263063387675e-06   -1.795119672491318e-05
-1.3271609742294895e-05   2.09263063387675e-06   -1.795119672491318e-05
-1.3271609742294895e-05   2.09263063387675e-06   -1.795119672491318e-05
-1.694727069526732e-05   2.704152359840476e-06   -2.3635150042214154e-05
-1.694727069526732e-05   2.704152359840476e-06   -2.3635150042214154e-05
-1.694727069526732e-05   2.704152359840476e-06   -2.3635150042214154e-05
-1.694727069526732e-05   2.704152359840476e-06   -2.3635150042214154e-05
-9.814660019733513e-06   1.963248044485838e-06   -1.2192008172203956e-05
-9.814660019733513e-06   1.963248044485838e-06   -1.2192008172203956e-05
-9.814660019733513e-06   1.963248044485838e-06   -1.2192008172203956e-05
-9.814660019733513e-06   1.963248044485838e-06   -1.2192008172203956e-05
-9.807751518954722e-06   3.4097314858171296e-06   -2.3540209671881482e-05
-9.807751518954722e-06   3.4097314858171296e-06   -2.3540209671881482e-05
-9.807751518954722e-06   3.4097314858171296e-06   -2.3540209671881482e-05
-9.807751518954722e-06   3.4097314858171296e-06   -2.3540209671881482e-05
-1.6818414167773347e-05   2.6043223958450643e-06   -1.1372526469867212e-05
-1.6818414167773347e-05   2.6043223958450643e-06   -1.1372526469867212e-05
-1.6818414167773347e-05   2.6043223958450643e-06   -1.1372526469867212e-05
-1.6818414167773347e-05   2.6043223958450643e-06   -1.1372526469867212e-05
-1.3210175481392374e-05   2.6712377155542607e-06   -1.74264068056609e-05
-1.3210175481392374e-05   2.6712377155542607e-06   -1.74264068056609e-05
-1.3210175481392374e-05   2.6712377155542607e-06   -1.74264068056609e-05
-1.3210175481392374e-05   2.6712377155542607e-06   -1.74264068056609e-05
-1.6818414167773347e-05   3.4097314858171296e-06   -2.3056964217898238e-05
-1.6818414167773347e-05   3.4097314858171296e-06   -2.3056964217898238e-05
-1.6818414167773347e-05   3.4097314858171296e-06   -2.3056964217898238e-05
-1.6818414167773347e-05   3.4097314858171296e-06   -2.3056964217898238e-05
-9.807751518954736e-06   2.6043223958451185e-06   -1.1855771923850402e-05
-9.807751518954736e-06   2.6043223958451185e-06   -1.1855771923850402e-05
-9.807751518954736e-06   2.6043223958451185e-06   -1.1855771923850402e-05
-9.807751518954736e-06   2.6043223958451185e-06   -1.1855771923850402e-05
-9.816113327875888e-06   4.16111041865255e-06   -2.3635396242229335e-05
-9.816113327875888e-06   4.16111041865255e-06   -2.3635396242229335e-05
-9.816113327875888e-06   4.16111041865255e-06   -2.3635396242229335e-05
-9.816113327875888e-06   4.16111041865255e-06   -2.3635396242229335e-05
-1.6767521519959905e-05   3.301557607719209e-06   -1.15339842355293e-05
-1.6767521519959905e-05   3.301557607719209e-06   -1.15339842355293e-05
-1.6767521519959905e-05   3.301557607719209e-06   -1.15339842355293e-05
-1.6767521519959905e-05   3.301557607719209e-06   -1.15339842355293e-05
-1.3296085313905496e-05   3.2445652821835955e-06   -1.7285515850298588e-05
-1.3296085313905496e-05   3.2445652821835955e-06   -1.7285515850298588e-05
-1.3296085313905496e-05   3.2445652821835955e-06   -1.7285515850298588e-05
-1.3296085313905496e-05   3.2445652821835955e-06   -1.7285515850298588e-05
-9.809653562541502e-06   1.0221038329285203e-07   -2.6819990486127418e-05
-9.809653562541502e-06   1.0221038329285203e-07   -2.6819990486127418e-05
-9.809653562541502e-06   1.0221038329285203e-07   -2.6819990486127418e-05
-9.809653562541502e-06   1.0221038329285203e-07   -2.6819990486127418e-05
-2.7058896966888573e-06   2.1943543591505972e-07   -1.4910049011466412e-05
-2.7058896966888573e-06   2.1943543591505972e-07   -1.4910049011466412e-05
-2.7058896966888573e-06   2.1943543591505972e-07   -1.4910049011466412e-05
-2.7058896966888573e-06   2.1943543591505972e-07   -1.4910049011466412e-05
-2.711434289906599e-06   8.838359701225781e-07   -2.6521003232703736e-05
-2.711434289906599e-06   8.838359701225781e-07   -2.6521003232703736e-05
-2.711434289906599e-06   8.838359701225781e-07   -2.6521003232703736e-05
-2.711434289906599e-06   8.838359701225781e-07   -2.6521003232703736e-05
-9.8146600197335e-06   9.277356415673152e-07   -1.4708633485859088e-05
-9.8146600197335e-06   9.277356415673152e-07   -1.4708633485859088e-05
-9.8146600197335e-06   9.277356415673152e-07   -1.4708633485859088e-05
-9.8146600197335e-06   9.277356415673152e-07   -1.4708633485859088e-05
-6.2186072461356035e-06   6.256884432040031e-07   -2.0520826456170928e-05
-6.2186072461356035e-06   6.256884432040031e-07   -2.0520826456170928e-05
-6.2186072461356035e-06   6.256884432040031e-07   -2.0520826456170928e-05
-6.2186072461356035e-06   6.256884432040031e-07   -2.0520826456170928e-05
-9.8146600197335e-06   8.838359701225781e-07   -2.6547343035570573e-05
-9.8146600197335e-06   8.838359701225781e-07   -2.6547343035570573e-05
-9.8146600197335e-06   8.838359701225781e-07   -2.6547343035570573e-05
-9.8146600197335e-06   8.838359701225781e-07   -2.6547343035570573e-05
-2.711434289906599e-06   9.277356415673152e-07   -1.4682293682992251e-05
-2.711434289906599e-06   9.277356415673152e-07   -1.4682293682992251e-05
-2.711434289906599e-06   9.277356415673152e-07   -1.4682293682992251e-05
-2.711434289906599e-06   9.277356415673152e-07   -1.4682293682992251e-05
-2.702336382482746e-06   1.6632049385174917e-06   -2.658736723312635e-05
-2.702336382482746e-06   1.6632049385174917e-06   -2.658736723312635e-05
-2.702336382482746e-06   1.6632049385174917e-06   -2.658736723312635e-05
-2.702336382482746e-06   1.6632049385174917e-06   -2.658736723312635e-05
-9.807751518954722e-06   1.638314553128106e-06   -1.4730074441106141e-05
-9.807751518954722e-06   1.638314553128106e-06   -1.4730074441106141e-05
-9.807751518954722e-06   1.638314553128106e-06   -1.4730074441106141e-05
-9.807751518954722e-06   1.638314553128106e-06   -1.4730074441106141e-05
-6.260534453149794e-06   1.2458232120282002e-06   -2.0406608079454364e-05
-6.260534453149794e-06   1.2458232120282002e-06   -2.0406608079454364e-05
-6.260534453149794e-06   1.2458232120282002e-06   -2.0406608079454364e-05
-6.260534453149794e-06   1.2458232120282002e-06   -2.0406608079454364e-05
-9.807751518954722e-06   1.6632049385174917e-06   -2.6572433001892766e-05
-9.807751518954722e-06   1.6632049385174917e-06   -2.6572433001892766e-05
-9.807751518954722e-06   1.6632049385174917e-06   -2.6572433001892766e-05
-9.807751518954722e-06   1.6632049385174917e-06   -2.6572433001892766e-05
-2.7023363824827508e-06   1.638314553128106e-06   -1.4745008672339683e-05
-2.7023363824827508e-06   1.638314553128106e-06   -1.4745008672339683e-05
-2.7023363824827508e-06   1.638314553128106e-06   -1.4745008672339683e-05
-2.7023363824827508e-06   1.638314553128106e-06   -1.4745008672339683e-05
-2.706716014082382e-06   2.4606130540619155e-06   -2.698914580995319e-05
-2.706716014082382e-06   2.4606130540619155e-06   -2.698914580995319e-05
-2.706716014082382e-06   2.4606130540619155e-06   -2.698914580995319e-05
-2.706716014082382e-06   2.4606130540619155e-06   -2.698914580995319e-05
-9.816113327875881e-06   2.3613167113082614e-06   -1.5080572481311703e-05
-9.816113327875881e-06   2.3613167113082614e-06   -1.5080572481311703e-05
-9.816113327875881e-06   2.3613167113082614e-06   -1.5080572481311703e-05
-9.816113327875881e-06   2.3613167113082614e-06   -1.5080572481311703e-05
-6.31463986221753e-06   1.874109699847692e-06   -2.0624037383865966e-05
-6.31463986221753e-06   1.874109699847692e-06   -2.0624037383865966e-05
-6.31463986221753e-06   1.874109699847692e-06   -2.0624037383865966e-05
-6.31463986221753e-06   1.874109699847692e-06   -2.0624037383865966e-05
-2.7058896966888526e-06   -1.598630873034918e-06   -2.3742479760367898e-05
-2.7058896966888526e-06   -1.598630873034918e-06   -2.3742479760367898e-05
-2.7058896966888526e-06   -1.598630873034918e-06   -2.3742479760367898e-05
-2.7058896966888526e-06   -1.598630873034918e-06   -2.3742479760367898e-05
4.288617211181995e-06   -7.311940912326865e-07   -1.156450617816854e-05
4.288617211181995e-06   -7.311940912326865e-07   -1.156450617816854e-05
4.288617211181995e-06   -7.311940912326865e-07   -1.156450617816854e-05
4.288617211181995e-06   -7.311940912326865e-07   -1.156450617816854e-05
4.345516052365967e-06   -8.811588238747813e-07   -2.3198431603990493e-05
4.345516052365967e-06   -8.811588238747813e-07   -2.3198431603990493e-05
4.345516052365967e-06   -8.811588238747813e-07   -2.3198431603990493e-05
4.345516052365967e-06   -8.811588238747813e-07   -2.3198431603990493e-05
-2.711434289906599e-06   -6.312466220060892e-08   -1.1927668197207414e-05
-2.711434289906599e-06   -6.312466220060892e-08   -1.1927668197207414e-05
-2.711434289906599e-06   -6.312466220060892e-08   -1.1927668197207414e-05
-2.711434289906599e-06   -6.312466220060892e-08   -1.1927668197207414e-05
8.09122489183754e-07   -7.56825027432525e-07   -1.7379042609885493e-05
8.09122489183754e-07   -7.56825027432525e-07   -1.7379042609885493e-05
8.09122489183754e-07   -7.56825027432525e-07   -1.7379042609885493e-05
8.09122489183754e-07   -7.56825027432525e-07   -1.7379042609885493e-05
-2.711434289906599e-06   -8.811588238747813e-07   -2.3689252100995024e-05
-2.711434289906599e-06   -8.811588238747813e-07   -2.3689252100995024e-05
-2.711434289906599e-06   -8.811588238747813e-07   -2.3689252100995024e-05
-2.711434289906599e-06   -8.811588238747813e-07   -2.3689252100995024e-05
4.3455160523659804e-06   -6.312466220066313e-08   -1.1436847700202978e-05
4.3455160523659804e-06   -6.312466220066313e-08   -1.1436847700202978e-05
4.3455160523659804e-06   -6.312466220066313e-08   -1.1436847700202978e-05
4.3455160523659804e-06   -6.312466220066313e-08   -1.1436847700202978e-05
4.481098447097344e-06   -1.7701737308742013e-07   -2.3683724597301767e-05
4.481098447097344e-06   -1.7701737308742013e-07   -2.3683724597301767e-05
4.481098447097344e-06   -1.7701737308742013e-07   -2.3683724597301767e-05
4.481098447097344e-06   -1.7701737308742013e-07   -2.3683724597301767e-05
-2.7023363824827508e-06   5.787289640070978e-07   -1.2164781016924962e-05
-2.7023363824827508e-06   5.787289640070978e-07   -1.2164781016924962e-05
-2.7023363824827508e-06   5.787289640070978e-07   -1.2164781016924962e-05
-2.7023363824827508e-06   5.787289640070978e-07   -1.2164781016924962e-05
7.683289371114648e-07   -2.008620079480992e-07   -1.7481468633075573e-05
7.683289371114648e-07   -2.008620079480992e-07   -1.7481468633075573e-05
7.683289371114648e-07   -2.008620079480992e-07   -1.7481468633075573e-05
7.683289371114648e-07   -2.008620079480992e-07   -1.7481468633075573e-05
-2.7023363824827486e-06   -1.7701737308742013e-07   -2.4137172399558418e-05
-2.7023363824827486e-06   -1.7701737308742013e-07   -2.4137172399558418e-05
-2.7023363824827486e-06   -1.7701737308742013e-07   -2.4137172399558418e-05
-2.7023363824827486e-06   -1.7701737308742013e-07   -2.4137172399558418e-05
4.481098447097357e-06   5.787289640070978e-07   -1.1711333214668284e-05
4.481098447097357e-06   5.787289640070978e-07   -1.1711333214668284e-05
4.481098447097357e-06   5.787289640070978e-07   -1.1711333214668284e-05
4.481098447097357e-06   5.787289640070978e-07   -1.1711333214668284e-05
4.54783171852765e-06   6.453753955600874e-07   -2.4381615610797903e-05
4.54783171852765e-06   6.453753955600874e-07   -2.4381615610797903e-05
4.54783171852765e-06   6.453753955600874e-07   -2.4381615610797903e-05
4.54783171852765e-06   6.453753955600874e-07   -2.4381615610797903e-05
-2.706716014082377e-06   1.3134291163360715e-06   -1.2691534955580084e-05
-2.706716014082377e-06   1.3134291163360715e-06   -1.2691534955580084e-05
-2.706716014082377e-06   1.3134291163360715e-06   -1.2691534955580084e-05
-2.706716014082377e-06   1.3134291163360715e-06   -1.2691534955580084e-05
7.922925122599482e-07   3.9285176787697993e-07   -1.7970869423741828e-05
7.922925122599482e-07   3.9285176787697993e-07   -1.7970869423741828e-05
7.922925122599482e-07   3.9285176787697993e-07   -1.7970869423741828e-05
7.922925122599482e-07   3.9285176787697993e-07   -1.7970869423741828e-05
4.288617211181988e-06   -2.892906789547637e-06   -1.3031058924071966e-05
4.288617211181988e-06   -2.892906789547637e-06   -1.3031058924071966e-05
4.288617211181988e-06   -2.892906789547637e-06   -1.3031058924071966e-05
4.288617211181988e-06   -2.892906789547637e-06   -1.3031058924071966e-05
1.0478645031124505e-05   -1.3383468937280775e-06   -1.7816099533427324e-06
1.0478645031124505e-05   -1.3383468937280775e-06   -1.7816099533427324e-06
1.0478645031124505e-05   -1.3383468937280775e-06   -1.7816099533427324e-06
1.0478645031124505e-05   -1.3383468937280775e-06   -1.7816099533427324e-06
1.1221739477317833e-05   -2.477856490906488e-06   -1.366562178126806e-05
1.1221739477317833e-05   -2.477856490906488e-06   -1.366562178126806e-05
1.1221739477317833e-05   -2.477856490906488e-06   -1.366562178126806e-05
1.1221739477317833e-05   -2.477856490906488e-06   -1.366562178126806e-05
4.345516052365974e-06   -8.846575247804865e-07   -3.1611687860239545e-06
4.345516052365974e-06   -8.846575247804865e-07   -3.1611687860239545e-06
4.345516052365974e-06   -8.846575247804865e-07   -3.1611687860239545e-06
4.345516052365974e-06   -8.846575247804865e-07   -3.1611687860239545e-06
7.260267158344778e-06   -1.839430727042853e-06   -7.446223374631166e-06
7.260267158344778e-06   -1.839430727042853e-06   -7.446223374631166e-06
7.260267158344778e-06   -1.839430727042853e-06   -7.446223374631166e-06
7.260267158344778e-06   -1.839430727042853e-06   -7.446223374631166e-06
4.345516052365974e-06   -2.477856490906488e-06   -1.4621541160943566e-05
4.345516052365974e-06   -2.477856490906488e-06   -1.4621541160943566e-05
4.345516052365974e-06   -2.477856490906488e-06   -1.4621541160943566e-05
4.345516052365974e-06   -2.477856490906488e-06   -1.4621541160943566e-05
1.1221739477317778e-05   -8.846575247804865e-07   -2.2052494063483537e-06
1.1221739477317778e-05   -8.846575247804865e-07   -2.2052494063483537e-06
1.1221739477317778e-05   -8.846575247804865e-07   -2.2052494063483537e-06
1.1221739477317778e-05   -8.846575247804865e-07   -2.2052494063483537e-06
1.1794678300483722e-05   -2.1237360775258965e-06   -1.4979722988157644e-05
1.1794678300483722e-05   -2.1237360775258965e-06   -1.4979722988157644e-05
1.1794678300483722e-05   -2.1237360775258965e-06   -1.4979722988157644e-05
1.1794678300483722e-05   -2.1237360775258965e-06   -1.4979722988157644e-05
4.481098447097357e-06   -5.725067215192441e-07   -3.721160846117716e-06
4.481098447097357e-06   -5.725067215192441e-07   -3.721160846117716e-06
4.481098447097357e-06   -5.725067215192441e-07   -3.721160846117716e-06
4.481098447097357e-06   -5.725067215192441e-07   -3.721160846117716e-06
7.71250610068887e-06   -1.6059725965168964e-06   -8.486760743771566e-06
7.71250610068887e-06   -1.6059725965168964e-06   -8.486760743771566e-06
7.71250610068887e-06   -1.6059725965168964e-06   -8.486760743771566e-06
7.71250610068887e-06   -1.6059725965168964e-06   -8.486760743771566e-06
4.4810984470973505e-06   -2.1237360775258965e-06   -1.5910460601761595e-05
4.4810984470973505e-06   -2.1237360775258965e-06   -1.5910460601761595e-05
4.4810984470973505e-06   -2.1237360775258965e-06   -1.5910460601761595e-05
4.4810984470973505e-06   -2.1237360775258965e-06   -1.5910460601761595e-05
1.1794678300483668e-05   -5.725067215191899e-07   -2.790423232513616e-06
1.1794678300483668e-05   -5.725067215191899e-07   -2.790423232513616e-06
1.1794678300483668e-05   -5.725067215191899e-07   -2.790423232513616e-06
1.1794678300483668e-05   -5.725067215191899e-07   -2.790423232513616e-06
1.2557453727522712e-05   -1.3687723593231631e-06   -1.7505095494960724e-05
1.2557453727522712e-05   -1.3687723593231631e-06   -1.7505095494960724e-05
1.2557453727522712e-05   -1.3687723593231631e-06   -1.7505095494960724e-05
1.2557453727522712e-05   -1.3687723593231631e-06   -1.7505095494960724e-05
4.547831718527657e-06   3.912304651667838e-08   -5.0004627234728055e-06
4.547831718527657e-06   3.912304651667838e-08   -5.0004627234728055e-06
4.547831718527657e-06   3.912304651667838e-08   -5.0004627234728055e-06
4.547831718527657e-06   3.912304651667838e-08   -5.0004627234728055e-06
7.866376594585502e-06   -1.2615069274111946e-06   -9.750992865879214e-06
7.866376594585502e-06   -1.2615069274111946e-06   -9.750992865879214e-06
7.866376594585502e-06   -1.2615069274111946e-06   -9.750992865879214e-06
7.866376594585502e-06   -1.2615069274111946e-06   -9.750992865879214e-06
-1.5042401370928758e-05   2.428544768258835e-06   -1.4135435197255538e-05
-1.5042401370928758e-05   2.428544768258835e-06   -1.4135435197255538e-05
-1.5042401370928758e-05   2.428544768258835e-06   -1.4135435197255538e-05
-1.5042401370928758e-05   2.428544768258835e-06   -1.4135435197255538e-05
-1.1141216578597335e-05   9.837512200389477e-07   -8.500336672301857e-06
-1.1141216578597335e-05   9.837512200389477e-07   -8.500336672301857e-06
-1.1141216578597335e-05   9.837512200389477e-07   -8.500336672301857e-06
-1.1141216578597335e-05   9.837512200389477e-07   -8.500336672301857e-06
-1.0979251181864389e-05   3.0944074854441853e-06   -1.2470229511994148e-05
-1.0979251181864389e-05   3.0944074854441853e-06   -1.2470229511994148e-05
-1.0979251181864389e-05   3.0944074854441853e-06   -1.2470229511994148e-05
-1.0979251181864389e-05   3.0944074854441853e-06   -1.2470229511994148e-05
-1.4220818495056572e-05   1.536593591586915e-06   -6.132928987026033e-06
-1.4220818495056572e-05   1.536593591586915e-06   -6.132928987026033e-06
-1.4220818495056572e-05   1.536593591586915e-06   -6.132928987026033e-06
-1.4220818495056572e-05   1.536593591586915e-06   -6.132928987026033e-06
-1.2301772981787217e-05   2.1795550462095628e-06   -9.717115048582466e-06
-1.2301772981787217e-05   2.1795550462095628e-06   -9.717115048582466e-06
-1.2301772981787217e-05   2.1795550462095628e-06   -9.717115048582466e-06
-1.2301772981787217e-05   2.1795550462095628e-06   -9.717115048582466e-06
-1.4220818495056572e-05   3.0944074854441853e-06   -1.1535541175679753e-05
-1.4220818495056572e-05   3.0944074854441853e-06   -1.1535541175679753e-05
-1.4220818495056572e-05   3.0944074854441853e-06   -1.1535541175679753e-05
-1.4220818495056572e-05   3.0944074854441853e-06   -1.1535541175679753e-05
-1.0979251181864416e-05   1.536593591586915e-06   -7.0676173233403736e-06
-1.0979251181864416e-05   1.536593591586915e-06   -7.0676173233403736e-06
-1.0979251181864416e-05   1.536593591586915e-06   -7.0676173233403736e-06
-1.0979251181864416e-05   1.536593591586915e-06   -7.0676173233403736e-06
-1.074750504146321e-05   3.4055235497140518e-06   -1.1134437760655083e-05
-1.074750504146321e-05   3.4055235497140518e-06   -1.1134437760655083e-05
-1.074750504146321e-05   3.4055235497140518e-06   -1.1134437760655083e-05
-1.074750504146321e-05   3.4055235497140518e-06   -1.1134437760655083e-05
-1.3567174954782e-05   1.8169906792011876e-06   -5.481868182816054e-06
-1.3567174954782e-05   1.8169906792011876e-06   -5.481868182816054e-06
-1.3567174954782e-05   1.8169906792011876e-06   -5.481868182816054e-06
-1.3567174954782e-05   1.8169906792011876e-06   -5.481868182816054e-06
-1.2086032036973232e-05   2.4783024431922207e-06   -8.347226770892015e-06
-1.2086032036973232e-05   2.4783024431922207e-06   -8.347226770892015e-06
-1.2086032036973232e-05   2.4783024431922207e-06   -8.347226770892015e-06
-1.2086032036973232e-05   2.4783024431922207e-06   -8.347226770892015e-06
-1.3567174954781972e-05   3.4055235497140518e-06   -1.0181318038347397e-05
-1.3567174954781972e-05   3.4055235497140518e-06   -1.0181318038347397e-05
-1.3567174954781972e-05   3.4055235497140518e-06   -1.0181318038347397e-05
-1.3567174954781972e-05   3.4055235497140518e-06   -1.0181318038347397e-05
-1.0747505041463224e-05   1.8169906792011876e-06   -6.4349879051237675e-06
-1.0747505041463224e-05   1.8169906792011876e-06   -6.4349879051237675e-06
-1.0747505041463224e-05   1.8169906792011876e-06   -6.4349879051237675e-06
-1.0747505041463224e-05   1.8169906792011876e-06   -6.4349879051237675e-06
-1.0591150277100057e-05   3.7980889477014787e-06   -9.423115032686767e-06
-1.0591150277100057e-05   3.7980889477014787e-06   -9.423115032686767e-06
-1.0591150277100057e-05   3.7980889477014787e-06   -9.423115032686767e-06
-1.0591150277100057e-05   3.7980889477014787e-06   -9.423115032686767e-06
-1.273526946548174e-05   2.261680300578387e-06   -4.9277378637766454e-06
-1.273526946548174e-05   2.261680300578387e-06   -4.9277378637766454e-06
-1.273526946548174e-05   2.261680300578387e-06   -4.9277378637766454e-06
-1.273526946548174e-05   2.261680300578387e-06   -4.9277378637766454e-06
-1.1522412213721655e-05   2.687113191704297e-06   -7.204426351385939e-06
-1.1522412213721655e-05   2.687113191704297e-06   -7.204426351385939e-06
-1.1522412213721655e-05   2.687113191704297e-06   -7.204426351385939e-06
-1.1522412213721655e-05   2.687113191704297e-06   -7.204426351385939e-06
-1.1141216578597335e-05   1.2596780463651849e-06   -2.065902861990806e-05
-1.1141216578597335e-05   1.2596780463651849e-06   -2.065902861990806e-05
-1.1141216578597335e-05   1.2596780463651849e-06   -2.065902861990806e-05
-1.1141216578597335e-05   1.2596780463651849e-06   -2.065902861990806e-05
-7.967245058155788e-06   5.705794981101728e-07   -1.5782535214791803e-05
-7.967245058155788e-06   5.705794981101728e-07   -1.5782535214791803e-05
-7.967245058155788e-06   5.705794981101728e-07   -1.5782535214791803e-05
-7.967245058155788e-06   5.705794981101728e-07   -1.5782535214791803e-05
-7.862506565353467e-06   1.963248044485838e-06   -2.0589180576704525e-05
-7.862506565353467e-06   1.963248044485838e-06   -2.0589180576704525e-05
-7.862506565353467e-06   1.963248044485838e-06   -2.0589180576704525e-05
-7.862506565353467e-06   1.963248044485838e-06   -2.0589180576704525e-05
-1.097925118186443e-05   1.2050856928353141e-06   -1.4939708804862488e-05
-1.097925118186443e-05   1.2050856928353141e-06   -1.4939708804862488e-05
-1.097925118186443e-05   1.2050856928353141e-06   -1.4939708804862488e-05
-1.097925118186443e-05   1.2050856928353141e-06   -1.4939708804862488e-05
-9.395009185365875e-06   1.3728575630682187e-06   -1.7680775254500306e-05
-9.395009185365875e-06   1.3728575630682187e-06   -1.7680775254500306e-05
-9.395009185365875e-06   1.3728575630682187e-06   -1.7680775254500306e-05
-9.395009185365875e-06   1.3728575630682187e-06   -1.7680775254500306e-05
-1.0979251181864375e-05   1.963248044485838e-06   -2.013428316571407e-05
-1.0979251181864375e-05   1.963248044485838e-06   -2.013428316571407e-05
-1.0979251181864375e-05   1.963248044485838e-06   -2.013428316571407e-05
-1.0979251181864375e-05   1.963248044485838e-06   -2.013428316571407e-05
-7.862506565353467e-06   1.2050856928353141e-06   -1.539460621585286e-05
-7.862506565353467e-06   1.2050856928353141e-06   -1.539460621585286e-05
-7.862506565353467e-06   1.2050856928353141e-06   -1.539460621585286e-05
-7.862506565353467e-06   1.2050856928353141e-06   -1.539460621585286e-05
-7.746653290464365e-06   2.6043223958450643e-06   -2.0256058334443088e-05
-7.746653290464365e-06   2.6043223958450643e-06   -2.0256058334443088e-05
-7.746653290464365e-06   2.6043223958450643e-06   -2.0256058334443088e-05
-7.746653290464365e-06   2.6043223958450643e-06   -2.0256058334443088e-05
-1.0747505041463237e-05   1.7959781897633129e-06   -1.4769632225795839e-05
-1.0747505041463237e-05   1.7959781897633129e-06   -1.4769632225795839e-05
-1.0747505041463237e-05   1.7959781897633129e-06   -1.4769632225795839e-05
-1.0747505041463237e-05   1.7959781897633129e-06   -1.4769632225795839e-05
-9.256590623803341e-06   1.8868569896662857e-06   -1.7309016868503955e-05
-9.256590623803341e-06   1.8868569896662857e-06   -1.7309016868503955e-05
-9.256590623803341e-06   1.8868569896662857e-06   -1.7309016868503955e-05
-9.256590623803341e-06   1.8868569896662857e-06   -1.7309016868503955e-05
-1.074750504146321e-05   2.6043223958450643e-06   -1.977105181079396e-05
-1.074750504146321e-05   2.6043223958450643e-06   -1.977105181079396e-05
-1.074750504146321e-05   2.6043223958450643e-06   -1.977105181079396e-05
-1.074750504146321e-05   2.6043223958450643e-06   -1.977105181079396e-05
-7.746653290464345e-06   1.7959781897633129e-06   -1.525463874944483e-05
-7.746653290464345e-06   1.7959781897633129e-06   -1.525463874944483e-05
-7.746653290464345e-06   1.7959781897633129e-06   -1.525463874944483e-05
-7.746653290464345e-06   1.7959781897633129e-06   -1.525463874944483e-05
-7.644133630218981e-06   3.301557607719209e-06   -2.0452594781658834e-05
-7.644133630218981e-06   3.301557607719209e-06   -2.0452594781658834e-05
-7.644133630218981e-06   3.301557607719209e-06   -2.0452594781658834e-05
-7.644133630218981e-06   3.301557607719209e-06   -2.0452594781658834e-05
-1.059115027710007e-05   2.453443646705986e-06   -1.5032031993582264e-05
-1.059115027710007e-05   2.453443646705986e-06   -1.5032031993582264e-05
-1.059115027710007e-05   2.453443646705986e-06   -1.5032031993582264e-05
-1.059115027710007e-05   2.453443646705986e-06   -1.5032031993582264e-05
-9.204268130289292e-06   2.408456399528489e-06   -1.7316509889960625e-05
-9.204268130289292e-06   2.408456399528489e-06   -1.7316509889960625e-05
-9.204268130289292e-06   2.408456399528489e-06   -1.7316509889960625e-05
-9.204268130289292e-06   2.408456399528489e-06   -1.7316509889960625e-05
-7.967245058155754e-06   2.1943543591505972e-07   -2.337183048073632e-05
-7.967245058155754e-06   2.1943543591505972e-07   -2.337183048073632e-05
-7.967245058155754e-06   2.1943543591505972e-07   -2.337183048073632e-05
-7.967245058155754e-06   2.1943543591505972e-07   -2.337183048073632e-05
-4.870780688726887e-06   3.3085058034421425e-07   -1.814420744503071e-05
-4.870780688726887e-06   3.3085058034421425e-07   -1.814420744503071e-05
-4.870780688726887e-06   3.3085058034421425e-07   -1.814420744503071e-05
-4.870780688726887e-06   3.3085058034421425e-07   -1.814420744503071e-05
-4.769019275118545e-06   9.277356415673152e-07   -2.307557618499653e-05
-4.769019275118545e-06   9.277356415673152e-07   -2.307557618499653e-05
-4.769019275118545e-06   9.277356415673152e-07   -2.307557618499653e-05
-4.769019275118545e-06   9.277356415673152e-07   -2.307557618499653e-05
-7.862506565353467e-06   9.78118483839171e-07   -1.7949993739967986e-05
-7.862506565353467e-06   9.78118483839171e-07   -1.7949993739967986e-05
-7.862506565353467e-06   9.78118483839171e-07   -1.7949993739967986e-05
-7.862506565353467e-06   9.78118483839171e-07   -1.7949993739967986e-05
-6.3264645545615975e-06   7.047207516474099e-07   -2.034602511863975e-05
-6.3264645545615975e-06   7.047207516474099e-07   -2.034602511863975e-05
-6.3264645545615975e-06   7.047207516474099e-07   -2.034602511863975e-05
-6.3264645545615975e-06   7.047207516474099e-07   -2.034602511863975e-05
-7.86250656535346e-06   9.277356415673694e-07   -2.310580589035959e-05
-7.86250656535346e-06   9.277356415673694e-07   -2.310580589035959e-05
-7.86250656535346e-06   9.277356415673694e-07   -2.310580589035959e-05
-7.86250656535346e-06   9.277356415673694e-07   -2.310580589035959e-05
-4.769019275118545e-06   9.781184838392794e-07   -1.7919764034604927e-05
-4.769019275118545e-06   9.781184838392794e-07   -1.7919764034604927e-05
-4.769019275118545e-06   9.781184838392794e-07   -1.7919764034604927e-05
-4.769019275118545e-06   9.781184838392794e-07   -1.7919764034604927e-05
-4.653957864970123e-06   1.638314553128106e-06   -2.3134743315419482e-05
-4.653957864970123e-06   1.638314553128106e-06   -2.3134743315419482e-05
-4.653957864970123e-06   1.638314553128106e-06   -2.3134743315419482e-05
-4.653957864970123e-06   1.638314553128106e-06   -2.3134743315419482e-05
-7.746653290464345e-06   1.6310104469268371e-06   -1.797586847587496e-05
-7.746653290464345e-06   1.6310104469268371e-06   -1.797586847587496e-05
-7.746653290464345e-06   1.6310104469268371e-06   -1.797586847587496e-05
-7.746653290464345e-06   1.6310104469268371e-06   -1.797586847587496e-05
-6.2591737638809295e-06   1.2615259895731997e-06   -2.0233310345768487e-05
-6.2591737638809295e-06   1.2615259895731997e-06   -2.0233310345768487e-05
-6.2591737638809295e-06   1.2615259895731997e-06   -2.0233310345768487e-05
-6.2591737638809295e-06   1.2615259895731997e-06   -2.0233310345768487e-05
-7.746653290464338e-06   1.6383145531280517e-06   -2.3130360851698732e-05
-7.746653290464338e-06   1.6383145531280517e-06   -2.3130360851698732e-05
-7.746653290464338e-06   1.6383145531280517e-06   -2.3130360851698732e-05
-7.746653290464338e-06   1.6383145531280517e-06   -2.3130360851698732e-05
-4.653957864970132e-06   1.6310104469269456e-06   -1.7980250939595723e-05
-4.653957864970132e-06   1.6310104469269456e-06   -1.7980250939595723e-05
-4.653957864970132e-06   1.6310104469269456e-06   -1.7980250939595723e-05
-4.653957864970132e-06   1.6310104469269456e-06   -1.7980250939595723e-05
-4.550748883962479e-06   2.3613167113082614e-06   -2.352395578993164e-05
-4.550748883962479e-06   2.3613167113082614e-06   -2.352395578993164e-05
-4.550748883962479e-06   2.3613167113082614e-06   -2.352395578993164e-05
-4.550748883962479e-06   2.3613167113082614e-06   -2.352395578993164e-05
-7.644133630218981e-06   2.2938092962242196e-06   -1.8327810097120274e-05
-7.644133630218981e-06   2.2938092962242196e-06   -1.8327810097120274e-05
-7.644133630218981e-06   2.2938092962242196e-06   -1.8327810097120274e-05
-7.644133630218981e-06   2.2938092962242196e-06   -1.8327810097120274e-05
-6.204116094251623e-06   1.825750425463418e-06   -2.0447004001276187e-05
-6.204116094251623e-06   1.825750425463418e-06   -2.0447004001276187e-05
-6.204116094251623e-06   1.825750425463418e-06   -2.0447004001276187e-05
-6.204116094251623e-06   1.825750425463418e-06   -2.0447004001276187e-05
-4.870780688726871e-06   -7.311940912326865e-07   -2.047990062986225e-05
-4.870780688726871e-06   -7.311940912326865e-07   -2.047990062986225e-05
-4.870780688726871e-06   -7.311940912326865e-07   -2.047990062986225e-05
-4.870780688726871e-06   -7.311940912326865e-07   -2.047990062986225e-05
-1.8748153277373003e-06   1.4832758809082188e-07   -1.495891202061894e-05
-1.8748153277373003e-06   1.4832758809082188e-07   -1.495891202061894e-05
-1.8748153277373003e-06   1.4832758809082188e-07   -1.495891202061894e-05
-1.8748153277373003e-06   1.4832758809082188e-07   -1.495891202061894e-05
-1.7213968106197895e-06   -6.312466220060892e-08   -1.981741911079982e-05
-1.7213968106197895e-06   -6.312466220060892e-08   -1.981741911079982e-05
-1.7213968106197895e-06   -6.312466220060892e-08   -1.981741911079982e-05
-1.7213968106197895e-06   -6.312466220060892e-08   -1.981741911079982e-05
-4.7690192751185365e-06   7.760946518192268e-07   -1.5241579925046888e-05
-4.7690192751185365e-06   7.760946518192268e-07   -1.5241579925046888e-05
-4.7690192751185365e-06   7.760946518192268e-07   -1.5241579925046888e-05
-4.7690192751185365e-06   7.760946518192268e-07   -1.5241579925046888e-05
-3.2755577211272746e-06   9.787792098483409e-08   -1.732375247653209e-05
-3.2755577211272746e-06   9.787792098483409e-08   -1.732375247653209e-05
-3.2755577211272746e-06   9.787792098483409e-08   -1.732375247653209e-05
-3.2755577211272746e-06   9.787792098483409e-08   -1.732375247653209e-05
-4.769019275118528e-06   -6.312466220066313e-08   -2.0320950699211624e-05
-4.769019275118528e-06   -6.312466220066313e-08   -2.0320950699211624e-05
-4.769019275118528e-06   -6.312466220066313e-08   -2.0320950699211624e-05
-4.769019275118528e-06   -6.312466220066313e-08   -2.0320950699211624e-05
-1.7213968106197963e-06   7.760946518191184e-07   -1.4738048336635184e-05
-1.7213968106197963e-06   7.760946518191184e-07   -1.4738048336635184e-05
-1.7213968106197963e-06   7.760946518191184e-07   -1.4738048336635184e-05
-1.7213968106197963e-06   7.760946518191184e-07   -1.4738048336635184e-05
-1.4913845691343192e-06   5.787289640070978e-07   -2.008161520358515e-05
-1.4913845691343192e-06   5.787289640070978e-07   -2.008161520358515e-05
-1.4913845691343192e-06   5.787289640070978e-07   -2.008161520358515e-05
-1.4913845691343192e-06   5.787289640070978e-07   -2.008161520358515e-05
-4.653957864970123e-06   1.3668963913729534e-06   -1.528356016694491e-05
-4.653957864970123e-06   1.3668963913729534e-06   -1.528356016694491e-05
-4.653957864970123e-06   1.3668963913729534e-06   -1.528356016694491e-05
-4.653957864970123e-06   1.3668963913729534e-06   -1.528356016694491e-05
-3.1834628199565742e-06   6.051953356756793e-07   -1.727736460854922e-05
-3.1834628199565742e-06   6.051953356756793e-07   -1.727736460854922e-05
-3.1834628199565742e-06   6.051953356756793e-07   -1.727736460854922e-05
-3.1834628199565742e-06   6.051953356756793e-07   -1.727736460854922e-05
-4.653957864970111e-06   5.787289640070978e-07   -2.0554515660004544e-05
-4.653957864970111e-06   5.787289640070978e-07   -2.0554515660004544e-05
-4.653957864970111e-06   5.787289640070978e-07   -2.0554515660004544e-05
-4.653957864970111e-06   5.787289640070978e-07   -2.0554515660004544e-05
-1.4913845691343192e-06   1.366896391372845e-06   -1.4810659710525441e-05
-1.4913845691343192e-06   1.366896391372845e-06   -1.4810659710525441e-05
-1.4913845691343192e-06   1.366896391372845e-06   -1.4810659710525441e-05
-1.4913845691343192e-06   1.366896391372845e-06   -1.4810659710525441e-05
-1.3311688104647367e-06   1.3134291163360715e-06   -2.0643028355903114e-05
-1.3311688104647367e-06   1.3134291163360715e-06   -2.0643028355903114e-05
-1.3311688104647367e-06   1.3134291163360715e-06   -2.0643028355903114e-05
-1.3311688104647367e-06   1.3134291163360715e-06   -2.0643028355903114e-05
-4.550748883962479e-06   2.0339492874106406e-06   -1.5709373669384834e-05
-4.550748883962479e-06   2.0339492874106406e-06   -1.5709373669384834e-05
-4.550748883962479e-06   2.0339492874106406e-06   -1.5709373669384834e-05
-4.550748883962479e-06   2.0339492874106406e-06   -1.5709373669384834e-05
-3.0874620419649653e-06   1.1359259720547651e-06   -1.760937108350049e-05
-3.0874620419649653e-06   1.1359259720547651e-06   -1.760937108350049e-05
-3.0874620419649653e-06   1.1359259720547651e-06   -1.760937108350049e-05
-3.0874620419649653e-06   1.1359259720547651e-06   -1.760937108350049e-05
-1.8748153277372935e-06   -1.3383468937280775e-06   -1.1102027334934151e-05
-1.8748153277372935e-06   -1.3383468937280775e-06   -1.1102027334934151e-05
-1.8748153277372935e-06   -1.3383468937280775e-06   -1.1102027334934151e-05
-1.8748153277372935e-06   -1.3383468937280775e-06   -1.1102027334934151e-05
3.12678178855487e-07   2.1340152071922663e-07   -6.525155775277778e-06
3.12678178855487e-07   2.1340152071922663e-07   -6.525155775277778e-06
3.12678178855487e-07   2.1340152071922663e-07   -6.525155775277778e-06
3.12678178855487e-07   2.1340152071922663e-07   -6.525155775277778e-06
1.1366515325675862e-06   -8.846575247804323e-07   -1.0584612416331601e-05
1.1366515325675862e-06   -8.846575247804323e-07   -1.0584612416331601e-05
1.1366515325675862e-06   -8.846575247804323e-07   -1.0584612416331601e-05
1.1366515325675862e-06   -8.846575247804323e-07   -1.0584612416331601e-05
-1.7213968106197895e-06   7.105554423682183e-07   -6.77832629130838e-06
-1.7213968106197895e-06   7.105554423682183e-07   -6.77832629130838e-06
-1.7213968106197895e-06   7.105554423682183e-07   -6.77832629130838e-06
-1.7213968106197895e-06   7.105554423682183e-07   -6.77832629130838e-06
-5.208952809853214e-07   -2.586192676402562e-07   -8.197657348027725e-06
-5.208952809853214e-07   -2.586192676402562e-07   -8.197657348027725e-06
-5.208952809853214e-07   -2.586192676402562e-07   -8.197657348027725e-06
-5.208952809853214e-07   -2.586192676402562e-07   -8.197657348027725e-06
-1.7213968106197895e-06   -8.846575247804323e-07   -1.1541740196620743e-05
-1.7213968106197895e-06   -8.846575247804323e-07   -1.1541740196620743e-05
-1.7213968106197895e-06   -8.846575247804323e-07   -1.1541740196620743e-05
-1.7213968106197895e-06   -8.846575247804323e-07   -1.1541740196620743e-05
1.1366515325675862e-06   7.105554423682183e-07   -5.821198511019238e-06
1.1366515325675862e-06   7.105554423682183e-07   -5.821198511019238e-06
1.1366515325675862e-06   7.105554423682183e-07   -5.821198511019238e-06
1.1366515325675862e-06   7.105554423682183e-07   -5.821198511019238e-06
1.7875926395320685e-06   -5.725067215192441e-07   -1.1154147586770233e-05
1.7875926395320685e-06   -5.725067215192441e-07   -1.1154147586770233e-05
1.7875926395320685e-06   -5.725067215192441e-07   -1.1154147586770233e-05
1.7875926395320685e-06   -5.725067215192441e-07   -1.1154147586770233e-05
-1.4913845691343192e-06   9.89652025587995e-07   -6.626480820590564e-06
-1.4913845691343192e-06   9.89652025587995e-07   -6.626480820590564e-06
-1.4913845691343192e-06   9.89652025587995e-07   -6.626480820590564e-06
-1.4913845691343192e-06   9.89652025587995e-07   -6.626480820590564e-06
-1.058149470625678e-07   -1.9719221833647445e-08   -8.3301407755904e-06
-1.058149470625678e-07   -1.9719221833647445e-08   -8.3301407755904e-06
-1.058149470625678e-07   -1.9719221833647445e-08   -8.3301407755904e-06
-1.058149470625678e-07   -1.9719221833647445e-08   -8.3301407755904e-06
-1.4913845691343192e-06   -5.725067215192441e-07   -1.2091442835034528e-05
-1.4913845691343192e-06   -5.725067215192441e-07   -1.2091442835034528e-05
-1.4913845691343192e-06   -5.725067215192441e-07   -1.2091442835034528e-05
-1.4913845691343192e-06   -5.725067215192441e-07   -1.2091442835034528e-05
1.7875926395320685e-06   9.89652025587995e-07   -5.6891855723261884e-06
1.7875926395320685e-06   9.89652025587995e-07   -5.6891855723261884e-06
1.7875926395320685e-06   9.89652025587995e-07   -5.6891855723261884e-06
1.7875926395320685e-06   9.89652025587995e-07   -5.6891855723261884e-06
2.6109906727975977e-06   3.912304651667838e-08   -1.2486911186642606e-05
2.6109906727975977e-06   3.912304651667838e-08   -1.2486911186642606e-05
2.6109906727975977e-06   3.912304651667838e-08   -1.2486911186642606e-05
2.6109906727975977e-06   3.912304651667838e-08   -1.2486911186642606e-05
-1.3311688104647367e-06   1.4822516625480299e-06   -6.782522550823999e-06
-1.3311688104647367e-06   1.4822516625480299e-06   -6.782522550823999e-06
-1.3311688104647367e-06   1.4822516625480299e-06   -6.782522550823999e-06
-1.3311688104647367e-06   1.4822516625480299e-06   -6.782522550823999e-06
2.5492463691145477e-07   2.5063568871459135e-07   -8.687042045484505e-06
2.5492463691145477e-07   2.5063568871459135e-07   -8.687042045484505e-06
2.5492463691145477e-07   2.5063568871459135e-07   -8.687042045484505e-06
2.5492463691145477e-07   2.5063568871459135e-07   -8.687042045484505e-06
-5.178732653208877e-06   9.837512200389477e-07   -9.374821321510838e-06
-5.178732653208877e-06   9.837512200389477e-07   -9.374821321510838e-06
-5.178732653208877e-06   9.837512200389477e-07   -9.374821321510838e-06
-5.178732653208877e-06   9.837512200389477e-07   -9.374821321510838e-06
-5.307813503598613e-06   -4.6658756172276473e-07   -1.0460159341217363e-05
-5.307813503598613e-06   -4.6658756172276473e-07   -1.0460159341217363e-05
-5.307813503598613e-06   -4.6658756172276473e-07   -1.0460159341217363e-05
-5.307813503598613e-06   -4.6658756172276473e-07   -1.0460159341217363e-05
-5.045415763806348e-06   1.5365935915870235e-06   -8.809789419176543e-06
-5.045415763806348e-06   1.5365935915870235e-06   -8.809789419176543e-06
-5.045415763806348e-06   1.5365935915870235e-06   -8.809789419176543e-06
-5.045415763806348e-06   1.5365935915870235e-06   -8.809789419176543e-06
-4.26355660912699e-06   -2.052909367500355e-08   -9.178614399151441e-06
-4.26355660912699e-06   -2.052909367500355e-08   -9.178614399151441e-06
-4.26355660912699e-06   -2.052909367500355e-08   -9.178614399151441e-06
-4.26355660912699e-06   -2.052909367500355e-08   -9.178614399151441e-06
-4.732829653467849e-06   6.775752270919049e-07   -8.815355251043876e-06
-4.732829653467849e-06   6.775752270919049e-07   -8.815355251043876e-06
-4.732829653467849e-06   6.775752270919049e-07   -8.815355251043876e-06
-4.732829653467849e-06   6.775752270919049e-07   -8.815355251043876e-06
-4.26355660912699e-06   1.5365935915870235e-06   -7.87551580801925e-06
-4.26355660912699e-06   1.5365935915870235e-06   -7.87551580801925e-06
-4.26355660912699e-06   1.5365935915870235e-06   -7.87551580801925e-06
-4.26355660912699e-06   1.5365935915870235e-06   -7.87551580801925e-06
-5.045415763806348e-06   -2.052909367500355e-08   -1.0112888010308706e-05
-5.045415763806348e-06   -2.052909367500355e-08   -1.0112888010308706e-05
-5.045415763806348e-06   -2.052909367500355e-08   -1.0112888010308706e-05
-5.045415763806348e-06   -2.052909367500355e-08   -1.0112888010308706e-05
-4.713697564406798e-06   1.8169906792010792e-06   -8.175004582310357e-06
-4.713697564406798e-06   1.8169906792010792e-06   -8.175004582310357e-06
-4.713697564406798e-06   1.8169906792010792e-06   -8.175004582310357e-06
-4.713697564406798e-06   1.8169906792010792e-06   -8.175004582310357e-06
-3.508767318728895e-06   2.3303737907052428e-07   -9.232849678361872e-06
-3.508767318728895e-06   2.3303737907052428e-07   -9.232849678361872e-06
-3.508767318728895e-06   2.3303737907052428e-07   -9.232849678361872e-06
-3.508767318728895e-06   2.3303737907052428e-07   -9.232849678361872e-06
-4.301446055416919e-06   9.072708475123563e-07   -8.31625853161378e-06
-4.301446055416919e-06   9.072708475123563e-07   -8.31625853161378e-06
-4.301446055416919e-06   9.072708475123563e-07   -8.31625853161378e-06
-4.301446055416919e-06   9.072708475123563e-07   -8.31625853161378e-06
-3.508767318728895e-06   1.8169906792010792e-06   -7.224632602232056e-06
-3.508767318728895e-06   1.8169906792010792e-06   -7.224632602232056e-06
-3.508767318728895e-06   1.8169906792010792e-06   -7.224632602232056e-06
-3.508767318728895e-06   1.8169906792010792e-06   -7.224632602232056e-06
-4.713697564406798e-06   2.330373790706327e-07   -1.0183221658440118e-05
-4.713697564406798e-06   2.330373790706327e-07   -1.0183221658440118e-05
-4.713697564406798e-06   2.330373790706327e-07   -1.0183221658440118e-05
-4.713697564406798e-06   2.330373790706327e-07   -1.0183221658440118e-05
-4.45663787096945e-06   2.261680300578387e-06   -7.58717197129504e-06
-4.45663787096945e-06   2.261680300578387e-06   -7.58717197129504e-06
-4.45663787096945e-06   2.261680300578387e-06   -7.58717197129504e-06
-4.45663787096945e-06   2.261680300578387e-06   -7.58717197129504e-06
-2.5768422528619746e-06   7.383300410459441e-07   -9.806154512421365e-06
-2.5768422528619746e-06   7.383300410459441e-07   -9.806154512421365e-06
-2.5768422528619746e-06   7.383300410459441e-07   -9.806154512421365e-06
-2.5768422528619746e-06   7.383300410459441e-07   -9.806154512421365e-06
-3.7637275550983458e-06   1.1289553496960335e-06   -8.06238752721746e-06
-3.7637275550983458e-06   1.1289553496960335e-06   -8.06238752721746e-06
-3.7637275550983458e-06   1.1289553496960335e-06   -8.06238752721746e-06
-3.7637275550983458e-06   1.1289553496960335e-06   -8.06238752721746e-06
-5.3078135035986e-06   5.705794981101728e-07   -1.7113764004104688e-05
-5.3078135035986e-06   5.705794981101728e-07   -1.7113764004104688e-05
-5.3078135035986e-06   5.705794981101728e-07   -1.7113764004104688e-05
-5.3078135035986e-06   5.705794981101728e-07   -1.7113764004104688e-05
-6.161746563875455e-06   -9.703444595185115e-08   -1.893755413767017e-05
-6.161746563875455e-06   -9.703444595185115e-08   -1.893755413767017e-05
-6.161746563875455e-06   -9.703444595185115e-08   -1.893755413767017e-05
-6.161746563875455e-06   -9.703444595185115e-08   -1.893755413767017e-05
-5.951067144314168e-06   1.2050856928353141e-06   -1.7124982190270285e-05
-5.951067144314168e-06   1.2050856928353141e-06   -1.7124982190270285e-05
-5.951067144314168e-06   1.2050856928353141e-06   -1.7124982190270285e-05
-5.951067144314168e-06   1.2050856928353141e-06   -1.7124982190270285e-05
-5.045415763806348e-06   4.665835435493839e-07   -1.819129986821151e-05
-5.045415763806348e-06   4.665835435493839e-07   -1.819129986821151e-05
-5.045415763806348e-06   4.665835435493839e-07   -1.819129986821151e-05
-5.045415763806348e-06   4.665835435493839e-07   -1.819129986821151e-05
-5.55120138931217e-06   6.611537329895539e-07   -1.746506593936631e-05
-5.55120138931217e-06   6.611537329895539e-07   -1.746506593936631e-05
-5.55120138931217e-06   6.611537329895539e-07   -1.746506593936631e-05
-5.55120138931217e-06   6.611537329895539e-07   -1.746506593936631e-05
-5.045415763806334e-06   1.2050856928353141e-06   -1.6681880900698467e-05
-5.045415763806334e-06   1.2050856928353141e-06   -1.6681880900698467e-05
-5.045415763806334e-06   1.2050856928353141e-06   -1.6681880900698467e-05
-5.045415763806334e-06   1.2050856928353141e-06   -1.6681880900698467e-05
-5.951067144314161e-06   4.665835435493839e-07   -1.8634401157783165e-05
-5.951067144314161e-06   4.665835435493839e-07   -1.8634401157783165e-05
-5.951067144314161e-06   4.665835435493839e-07   -1.8634401157783165e-05
-5.951067144314161e-06   4.665835435493839e-07   -1.8634401157783165e-05
-5.731833413841008e-06   1.7959781897633129e-06   -1.6981213199908796e-05
-5.731833413841008e-06   1.7959781897633129e-06   -1.6981213199908796e-05
-5.731833413841008e-06   1.7959781897633129e-06   -1.6981213199908796e-05
-5.731833413841008e-06   1.7959781897633129e-06   -1.6981213199908796e-05
-4.713697564406812e-06   1.0100376948861314e-06   -1.8206541985372592e-05
-4.713697564406812e-06   1.0100376948861314e-06   -1.8206541985372592e-05
-4.713697564406812e-06   1.0100376948861314e-06   -1.8206541985372592e-05
-4.713697564406812e-06   1.0100376948861314e-06   -1.8206541985372592e-05
-5.340209409218657e-06   1.1166017486100412e-06   -1.7226294009587334e-05
-5.340209409218657e-06   1.1166017486100412e-06   -1.7226294009587334e-05
-5.340209409218657e-06   1.1166017486100412e-06   -1.7226294009587334e-05
-5.340209409218657e-06   1.1166017486100412e-06   -1.7226294009587334e-05
-4.713697564406798e-06   1.7959781897634213e-06   -1.6509648902982292e-05
-4.713697564406798e-06   1.7959781897634213e-06   -1.6509648902982292e-05
-4.713697564406798e-06   1.7959781897634213e-06   -1.6509648902982292e-05
-4.713697564406798e-06   1.7959781897634213e-06   -1.6509648902982292e-05
-5.7318334138409876e-06   1.0100376948861314e-06   -1.8678106282298934e-05
-5.7318334138409876e-06   1.0100376948861314e-06   -1.8678106282298934e-05
-5.7318334138409876e-06   1.0100376948861314e-06   -1.8678106282298934e-05
-5.7318334138409876e-06   1.0100376948861314e-06   -1.8678106282298934e-05
-5.525820586365736e-06   2.4534436467060945e-06   -1.7262821787495785e-05
-5.525820586365736e-06   2.4534436467060945e-06   -1.7262821787495785e-05
-5.525820586365736e-06   2.4534436467060945e-06   -1.7262821787495785e-05
-5.525820586365736e-06   2.4534436467060945e-06   -1.7262821787495785e-05
-4.456637870969463e-06   1.6314421889245673e-06   -1.8551592105153867e-05
-4.456637870969463e-06   1.6314421889245673e-06   -1.8551592105153867e-05
-4.456637870969463e-06   1.6314421889245673e-06   -1.8551592105153867e-05
-4.456637870969463e-06   1.6314421889245673e-06   -1.8551592105153867e-05
-5.1551254218933646e-06   1.5953066992154636e-06   -1.736576489312202e-05
-5.1551254218933646e-06   1.5953066992154636e-06   -1.736576489312202e-05
-5.1551254218933646e-06   1.5953066992154636e-06   -1.736576489312202e-05
-5.1551254218933646e-06   1.5953066992154636e-06   -1.736576489312202e-05
-6.161746563875442e-06   3.3085058034432267e-07   -1.99428536874384e-05
-6.161746563875442e-06   3.3085058034432267e-07   -1.99428536874384e-05
-6.161746563875442e-06   3.3085058034432267e-07   -1.99428536874384e-05
-6.161746563875442e-06   3.3085058034432267e-07   -1.99428536874384e-05
-7.05466518775859e-06   4.7300994137115197e-07   -2.1345755777294243e-05
-7.05466518775859e-06   4.7300994137115197e-07   -2.1345755777294243e-05
-7.05466518775859e-06   4.7300994137115197e-07   -2.1345755777294243e-05
-7.05466518775859e-06   4.7300994137115197e-07   -2.1345755777294243e-05
-6.847932481536547e-06   9.781184838392794e-07   -1.963327568907505e-05
-6.847932481536547e-06   9.781184838392794e-07   -1.963327568907505e-05
-6.847932481536547e-06   9.781184838392794e-07   -1.963327568907505e-05
-6.847932481536547e-06   9.781184838392794e-07   -1.963327568907505e-05
-5.951067144314168e-06   1.056608526023013e-06   -2.1175145276422632e-05
-5.951067144314168e-06   1.056608526023013e-06   -2.1175145276422632e-05
-5.951067144314168e-06   1.056608526023013e-06   -2.1175145276422632e-05
-5.951067144314168e-06   1.056608526023013e-06   -2.1175145276422632e-05
-6.4646604502274085e-06   8.008576627315444e-07   -2.0165705915259157e-05
-6.4646604502274085e-06   8.008576627315444e-07   -2.0165705915259157e-05
-6.4646604502274085e-06   8.008576627315444e-07   -2.0165705915259157e-05
-6.4646604502274085e-06   8.008576627315444e-07   -2.0165705915259157e-05
-5.9510671443141475e-06   9.781184838392794e-07   -1.9680369714385247e-05
-5.9510671443141475e-06   9.781184838392794e-07   -1.9680369714385247e-05
-5.9510671443141475e-06   9.781184838392794e-07   -1.9680369714385247e-05
-5.9510671443141475e-06   9.781184838392794e-07   -1.9680369714385247e-05
-6.847932481536559e-06   1.0566085260231214e-06   -2.1128051251112436e-05
-6.847932481536559e-06   1.0566085260231214e-06   -2.1128051251112436e-05
-6.847932481536559e-06   1.0566085260231214e-06   -2.1128051251112436e-05
-6.847932481536559e-06   1.0566085260231214e-06   -2.1128051251112436e-05
-6.630020010418722e-06   1.6310104469269456e-06   -1.9689327477020687e-05
-6.630020010418722e-06   1.6310104469269456e-06   -1.9689327477020687e-05
-6.630020010418722e-06   1.6310104469269456e-06   -1.9689327477020687e-05
-6.630020010418722e-06   1.6310104469269456e-06   -1.9689327477020687e-05
-5.731833413841008e-06   1.6528695291238241e-06   -2.1199420587301706e-05
-5.731833413841008e-06   1.6528695291238241e-06   -2.1199420587301706e-05
-5.731833413841008e-06   1.6528695291238241e-06   -2.1199420587301706e-05
-5.731833413841008e-06   1.6528695291238241e-06   -2.1199420587301706e-05
-6.291881058455933e-06   1.3008148884352446e-06   -2.0054775061863927e-05
-6.291881058455933e-06   1.3008148884352446e-06   -2.0054775061863927e-05
-6.291881058455933e-06   1.3008148884352446e-06   -2.0054775061863927e-05
-6.291881058455933e-06   1.3008148884352446e-06   -2.0054775061863927e-05
-5.7318334138409876e-06   1.6310104469268371e-06   -1.9702442926338804e-05
-5.7318334138409876e-06   1.6310104469268371e-06   -1.9702442926338804e-05
-5.7318334138409876e-06   1.6310104469268371e-06   -1.9702442926338804e-05
-5.7318334138409876e-06   1.6310104469268371e-06   -1.9702442926338804e-05
-6.630020010418722e-06   1.6528695291238241e-06   -2.118630513798348e-05
-6.630020010418722e-06   1.6528695291238241e-06   -2.118630513798348e-05
-6.630020010418722e-06   1.6528695291238241e-06   -2.118630513798348e-05
-6.630020010418722e-06   1.6528695291238241e-06   -2.118630513798348e-05
-6.424623322358576e-06   2.2938092962242196e-06   -2.0071539010497075e-05
-6.424623322358576e-06   2.2938092962242196e-06   -2.0071539010497075e-05
-6.424623322358576e-06   2.2938092962242196e-06   -2.0071539010497075e-05
-6.424623322358576e-06   2.2938092962242196e-06   -2.0071539010497075e-05
-5.5258205863657425e-06   2.257463469438909e-06   -2.154773607441377e-05
-5.5258205863657425e-06   2.257463469438909e-06   -2.154773607441377e-05
-5.5258205863657425e-06   2.257463469438909e-06   -2.154773607441377e-05
-5.5258205863657425e-06   2.257463469438909e-06   -2.154773607441377e-05
-6.133298714756869e-06   1.807802986602278e-06   -2.026547623739335e-05
-6.133298714756869e-06   1.807802986602278e-06   -2.026547623739335e-05
-6.133298714756869e-06   1.807802986602278e-06   -2.026547623739335e-05
-6.133298714756869e-06   1.807802986602278e-06   -2.026547623739335e-05
-7.054665187758564e-06   1.4832758809071346e-07   -1.719997565400455e-05
-7.054665187758564e-06   1.4832758809071346e-07   -1.719997565400455e-05
-7.054665187758564e-06   1.4832758809071346e-07   -1.719997565400455e-05
-7.054665187758564e-06   1.4832758809071346e-07   -1.719997565400455e-05
-8.001972474544909e-06   1.0490717099999542e-06   -1.82383746588363e-05
-8.001972474544909e-06   1.0490717099999542e-06   -1.82383746588363e-05
-8.001972474544909e-06   1.0490717099999542e-06   -1.82383746588363e-05
-8.001972474544909e-06   1.0490717099999542e-06   -1.82383746588363e-05
-7.750896339445231e-06   7.760946518191184e-07   -1.6439630001494586e-05
-7.750896339445231e-06   7.760946518191184e-07   -1.6439630001494586e-05
-7.750896339445231e-06   7.760946518191184e-07   -1.6439630001494586e-05
-7.750896339445231e-06   7.760946518191184e-07   -1.6439630001494586e-05
-6.847932481536547e-06   1.6351972818569142e-06   -1.8460031342698235e-05
-6.847932481536547e-06   1.6351972818569142e-06   -1.8460031342698235e-05
-6.847932481536547e-06   1.6351972818569142e-06   -1.8460031342698235e-05
-6.847932481536547e-06   1.6351972818569142e-06   -1.8460031342698235e-05
-7.35642118330127e-06   9.670558851001968e-07   -1.7211665335036626e-05
-7.35642118330127e-06   9.670558851001968e-07   -1.7211665335036626e-05
-7.35642118330127e-06   9.670558851001968e-07   -1.7211665335036626e-05
-7.35642118330127e-06   9.670558851001968e-07   -1.7211665335036626e-05
-6.847932481536535e-06   7.760946518191184e-07   -1.6955091579517166e-05
-6.847932481536535e-06   7.760946518191184e-07   -1.6955091579517166e-05
-6.847932481536535e-06   7.760946518191184e-07   -1.6955091579517166e-05
-6.847932481536535e-06   7.760946518191184e-07   -1.6955091579517166e-05
-7.750896339445231e-06   1.6351972818569142e-06   -1.7944569764675696e-05
-7.750896339445231e-06   1.6351972818569142e-06   -1.7944569764675696e-05
-7.750896339445231e-06   1.6351972818569142e-06   -1.7944569764675696e-05
-7.750896339445231e-06   1.6351972818569142e-06   -1.7944569764675696e-05
-7.424282991712097e-06   1.3668963913729534e-06   -1.6507634545361374e-05
-7.424282991712097e-06   1.3668963913729534e-06   -1.6507634545361374e-05
-7.424282991712097e-06   1.3668963913729534e-06   -1.6507634545361374e-05
-7.424282991712097e-06   1.3668963913729534e-06   -1.6507634545361374e-05
-6.630020010418709e-06   2.175233323053788e-06   -1.8316408339858822e-05
-6.630020010418709e-06   2.175233323053788e-06   -1.8316408339858822e-05
-6.630020010418709e-06   2.175233323053788e-06   -1.8316408339858822e-05
-6.630020010418709e-06   2.175233323053788e-06   -1.8316408339858822e-05
-7.13189321878594e-06   1.4326693893966643e-06   -1.703441463238607e-05
-7.13189321878594e-06   1.4326693893966643e-06   -1.703441463238607e-05
-7.13189321878594e-06   1.4326693893966643e-06   -1.703441463238607e-05
-7.13189321878594e-06   1.4326693893966643e-06   -1.703441463238607e-05
-6.630020010418692e-06   1.366896391372845e-06   -1.69926367043698e-05
-6.630020010418692e-06   1.366896391372845e-06   -1.69926367043698e-05
-6.630020010418692e-06   1.366896391372845e-06   -1.69926367043698e-05
-6.630020010418692e-06   1.366896391372845e-06   -1.69926367043698e-05
-7.424282991712111e-06   2.1752333230538965e-06   -1.7831406180850292e-05
-7.424282991712111e-06   2.1752333230538965e-06   -1.7831406180850292e-05
-7.424282991712111e-06   2.1752333230538965e-06   -1.7831406180850292e-05
-7.424282991712111e-06   2.1752333230538965e-06   -1.7831406180850292e-05
-7.16824159196314e-06   2.033949287410532e-06   -1.6965334915696438e-05
-7.16824159196314e-06   2.033949287410532e-06   -1.6965334915696438e-05
-7.16824159196314e-06   2.033949287410532e-06   -1.6965334915696438e-05
-7.16824159196314e-06   2.033949287410532e-06   -1.6965334915696438e-05
-6.424623322358576e-06   2.7793879841018316e-06   -1.8651961916385403e-05
-6.424623322358576e-06   2.7793879841018316e-06   -1.8651961916385403e-05
-6.424623322358576e-06   2.7793879841018316e-06   -1.8651961916385403e-05
-6.424623322358576e-06   2.7793879841018316e-06   -1.8651961916385403e-05
-6.965526116607484e-06   1.9076057616656487e-06   -1.722738792584195e-05
-6.965526116607484e-06   1.9076057616656487e-06   -1.722738792584195e-05
-6.965526116607484e-06   1.9076057616656487e-06   -1.722738792584195e-05
-6.965526116607484e-06   1.9076057616656487e-06   -1.722738792584195e-05
-8.001972474544882e-06   2.1340152071922663e-07   -9.15682198418641e-06
-8.001972474544882e-06   2.1340152071922663e-07   -9.15682198418641e-06
-8.001972474544882e-06   2.1340152071922663e-07   -9.15682198418641e-06
-8.001972474544882e-06   2.1340152071922663e-07   -9.15682198418641e-06
-9.731243095451679e-06   1.7670511426635211e-06   -1.1106749912531038e-05
-9.731243095451679e-06   1.7670511426635211e-06   -1.1106749912531038e-05
-9.731243095451679e-06   1.7670511426635211e-06   -1.1106749912531038e-05
-9.731243095451679e-06   1.7670511426635211e-06   -1.1106749912531038e-05
-8.825696920253668e-06   7.105554423681099e-07   -7.5266236107757525e-06
-8.825696920253668e-06   7.105554423681099e-07   -7.5266236107757525e-06
-8.825696920253668e-06   7.105554423681099e-07   -7.5266236107757525e-06
-8.825696920253668e-06   7.105554423681099e-07   -7.5266236107757525e-06
-7.750896339445224e-06   2.299362684688366e-06   -1.027124225751518e-05
-7.750896339445224e-06   2.299362684688366e-06   -1.027124225751518e-05
-7.750896339445224e-06   2.299362684688366e-06   -1.027124225751518e-05
-7.750896339445224e-06   2.299362684688366e-06   -1.027124225751518e-05
-8.230370662502452e-06   1.3108548068943484e-06   -8.879013659076929e-06
-8.230370662502452e-06   1.3108548068943484e-06   -8.879013659076929e-06
-8.230370662502452e-06   1.3108548068943484e-06   -8.879013659076929e-06
-8.230370662502452e-06   1.3108548068943484e-06   -8.879013659076929e-06
-7.750896339445204e-06   7.105554423682183e-07   -8.479907956167754e-06
-7.750896339445204e-06   7.105554423682183e-07   -8.479907956167754e-06
-7.750896339445204e-06   7.105554423682183e-07   -8.479907956167754e-06
-7.750896339445204e-06   7.105554423682183e-07   -8.479907956167754e-06
-8.825696920253655e-06   2.299362684688366e-06   -9.31795791212311e-06
-8.825696920253655e-06   2.299362684688366e-06   -9.31795791212311e-06
-8.825696920253655e-06   2.299362684688366e-06   -9.31795791212311e-06
-8.825696920253655e-06   2.299362684688366e-06   -9.31795791212311e-06
-8.08916329273545e-06   9.89652025587995e-07   -7.391442297254524e-06
-8.08916329273545e-06   9.89652025587995e-07   -7.391442297254524e-06
-8.08916329273545e-06   9.89652025587995e-07   -7.391442297254524e-06
-8.08916329273545e-06   9.89652025587995e-07   -7.391442297254524e-06
-7.424282991712097e-06   2.5430076225411947e-06   -9.431589490465364e-06
-7.424282991712097e-06   2.5430076225411947e-06   -9.431589490465364e-06
-7.424282991712097e-06   2.5430076225411947e-06   -9.431589490465364e-06
-7.424282991712097e-06   2.5430076225411947e-06   -9.431589490465364e-06
-7.848478244869545e-06   1.5584040852365455e-06   -8.133835279486838e-06
-7.848478244869545e-06   1.5584040852365455e-06   -8.133835279486838e-06
-7.848478244869545e-06   1.5584040852365455e-06   -8.133835279486838e-06
-7.848478244869545e-06   1.5584040852365455e-06   -8.133835279486838e-06
-7.424282991712084e-06   9.89652025587995e-07   -8.323455655426444e-06
-7.424282991712084e-06   9.89652025587995e-07   -8.323455655426444e-06
-7.424282991712084e-06   9.89652025587995e-07   -8.323455655426444e-06
-7.424282991712084e-06   9.89652025587995e-07   -8.323455655426444e-06
-8.08916329273545e-06   2.5430076225411947e-06   -8.499576132293377e-06
-8.08916329273545e-06   2.5430076225411947e-06   -8.499576132293377e-06
-8.08916329273545e-06   2.5430076225411947e-06   -8.499576132293377e-06
-8.08916329273545e-06   2.5430076225411947e-06   -8.499576132293377e-06
-7.186015896296603e-06   1.4822516625480299e-06   -7.609376054550565e-06
-7.186015896296603e-06   1.4822516625480299e-06   -7.609376054550565e-06
-7.186015896296603e-06   1.4822516625480299e-06   -7.609376054550565e-06
-7.186015896296603e-06   1.4822516625480299e-06   -7.609376054550565e-06
-7.1682415919631265e-06   2.9179514045977496e-06   -8.500419740336052e-06
-7.1682415919631265e-06   2.9179514045977496e-06   -8.500419740336052e-06
-7.1682415919631265e-06   2.9179514045977496e-06   -8.500419740336052e-06
-7.1682415919631265e-06   2.9179514045977496e-06   -8.500419740336052e-06
-7.278436721626555e-06   1.7568161715263066e-06   -7.620080051054203e-06
-7.278436721626555e-06   1.7568161715263066e-06   -7.620080051054203e-06
-7.278436721626555e-06   1.7568161715263066e-06   -7.620080051054203e-06
-7.278436721626555e-06   1.7568161715263066e-06   -7.620080051054203e-06
4.728962021137515e-06   -4.665875617226563e-07   -4.691305541298506e-06
4.728962021137515e-06   -4.665875617226563e-07   -4.691305541298506e-06
4.728962021137515e-06   -4.665875617226563e-07   -4.691305541298506e-06
4.728962021137515e-06   -4.665875617226563e-07   -4.691305541298506e-06
4.961752147281871e-07   -1.937282343911521e-06   -1.2628367087960657e-05
4.961752147281871e-07   -1.937282343911521e-06   -1.2628367087960657e-05
4.961752147281871e-07   -1.937282343911521e-06   -1.2628367087960657e-05
4.961752147281871e-07   -1.937282343911521e-06   -1.2628367087960657e-05
8.550907711580099e-07   -2.052909367500355e-08   -5.195943068424832e-06
8.550907711580099e-07   -2.052909367500355e-08   -5.195943068424832e-06
8.550907711580099e-07   -2.052909367500355e-08   -5.195943068424832e-06
8.550907711580099e-07   -2.052909367500355e-08   -5.195943068424832e-06
5.74294952886378e-06   -1.5934947778929558e-06   -1.2398594920737076e-05
5.74294952886378e-06   -1.5934947778929558e-06   -1.2398594920737076e-05
5.74294952886378e-06   -1.5934947778929558e-06   -1.2398594920737076e-05
5.74294952886378e-06   -1.5934947778929558e-06   -1.2398594920737076e-05
2.844881799042695e-06   -8.109101639012378e-07   -8.038032806096957e-06
2.844881799042695e-06   -8.109101639012378e-07   -8.038032806096957e-06
2.844881799042695e-06   -8.109101639012378e-07   -8.038032806096957e-06
2.844881799042695e-06   -8.109101639012378e-07   -8.038032806096957e-06
5.7429495288638345e-06   -2.052909367500355e-08   -4.252163657894094e-06
5.7429495288638345e-06   -2.052909367500355e-08   -4.252163657894094e-06
5.7429495288638345e-06   -2.052909367500355e-08   -4.252163657894094e-06
5.7429495288638345e-06   -2.052909367500355e-08   -4.252163657894094e-06
8.550907711580099e-07   -1.5934947778928473e-06   -1.3342374331267977e-05
8.550907711580099e-07   -1.5934947778928473e-06   -1.3342374331267977e-05
8.550907711580099e-07   -1.5934947778928473e-06   -1.3342374331267977e-05
8.550907711580099e-07   -1.5934947778928473e-06   -1.3342374331267977e-05
1.278830003824917e-06   2.3303737907052428e-07   -5.240104716307346e-06
1.278830003824917e-06   2.3303737907052428e-07   -5.240104716307346e-06
1.278830003824917e-06   2.3303737907052428e-07   -5.240104716307346e-06
1.278830003824917e-06   2.3303737907052428e-07   -5.240104716307346e-06
6.597906310320661e-06   -1.362865006725297e-06   -1.3147690462322599e-05
6.597906310320661e-06   -1.362865006725297e-06   -1.3147690462322599e-05
6.597906310320661e-06   -1.362865006725297e-06   -1.3147690462322599e-05
6.597906310320661e-06   -1.362865006725297e-06   -1.3147690462322599e-05
3.4865352521950445e-06   -6.49378644454468e-07   -8.390163849476243e-06
3.4865352521950445e-06   -6.49378644454468e-07   -8.390163849476243e-06
3.4865352521950445e-06   -6.49378644454468e-07   -8.390163849476243e-06
3.4865352521950445e-06   -6.49378644454468e-07   -8.390163849476243e-06
6.597906310320688e-06   2.3303737907052428e-07   -4.282563284829788e-06
6.597906310320688e-06   2.3303737907052428e-07   -4.282563284829788e-06
6.597906310320688e-06   2.3303737907052428e-07   -4.282563284829788e-06
6.597906310320688e-06   2.3303737907052428e-07   -4.282563284829788e-06
1.278830003824917e-06   -1.362865006725297e-06   -1.4105231893800265e-05
1.278830003824917e-06   -1.362865006725297e-06   -1.4105231893800265e-05
1.278830003824917e-06   -1.362865006725297e-06   -1.4105231893800265e-05
1.278830003824917e-06   -1.362865006725297e-06   -1.4105231893800265e-05
1.6260113759117967e-06   7.383300410459441e-07   -5.753343834881842e-06
1.6260113759117967e-06   7.383300410459441e-07   -5.753343834881842e-06
1.6260113759117967e-06   7.383300410459441e-07   -5.753343834881842e-06
1.6260113759117967e-06   7.383300410459441e-07   -5.753343834881842e-06
7.625108118967103e-06   -7.831339617936665e-07   -1.4838960004936801e-05
7.625108118967103e-06   -7.831339617936665e-07   -1.4838960004936801e-05
7.625108118967103e-06   -7.831339617936665e-07   -1.4838960004936801e-05
7.625108118967103e-06   -7.831339617936665e-07   -1.4838960004936801e-05
3.993501196652269e-06   -4.10917730363225e-07   -9.009611539937377e-06
3.993501196652269e-06   -4.10917730363225e-07   -9.009611539937377e-06
3.993501196652269e-06   -4.10917730363225e-07   -9.009611539937377e-06
3.993501196652269e-06   -4.10917730363225e-07   -9.009611539937377e-06
4.961752147281871e-07   -9.703444595195957e-08   -1.365054884062733e-05
4.961752147281871e-07   -9.703444595195957e-08   -1.365054884062733e-05
4.961752147281871e-07   -9.703444595195957e-08   -1.365054884062733e-05
4.961752147281871e-07   -9.703444595195957e-08   -1.365054884062733e-05
-4.416953554211116e-06   -7.604001794913641e-07   -2.2237116228983128e-05
-4.416953554211116e-06   -7.604001794913641e-07   -2.2237116228983128e-05
-4.416953554211116e-06   -7.604001794913641e-07   -2.2237116228983128e-05
-4.416953554211116e-06   -7.604001794913641e-07   -2.2237116228983128e-05
-4.103355264806042e-06   4.665835435493839e-07   -1.37268024575295e-05
-4.103355264806042e-06   4.665835435493839e-07   -1.37268024575295e-05
-4.103355264806042e-06   4.665835435493839e-07   -1.37268024575295e-05
-4.103355264806042e-06   4.665835435493839e-07   -1.37268024575295e-05
8.550907711580099e-07   -2.8749567512016336e-07   -2.153843165293449e-05
8.550907711580099e-07   -2.8749567512016336e-07   -2.153843165293449e-05
8.550907711580099e-07   -2.8749567512016336e-07   -2.153843165293449e-05
8.550907711580099e-07   -2.8749567512016336e-07   -2.153843165293449e-05
-1.751210250510189e-06   -2.4269505644091208e-08   -1.7352532318506568e-05
-1.751210250510189e-06   -2.4269505644091208e-08   -1.7352532318506568e-05
-1.751210250510189e-06   -2.4269505644091208e-08   -1.7352532318506568e-05
-1.751210250510189e-06   -2.4269505644091208e-08   -1.7352532318506568e-05
8.550907711580099e-07   4.665835435493839e-07   -1.3274354926327608e-05
8.550907711580099e-07   4.665835435493839e-07   -1.3274354926327608e-05
8.550907711580099e-07   4.665835435493839e-07   -1.3274354926327608e-05
8.550907711580099e-07   4.665835435493839e-07   -1.3274354926327608e-05
-4.103355264806042e-06   -2.874956751202718e-07   -2.1990879184136353e-05
-4.103355264806042e-06   -2.874956751202718e-07   -2.1990879184136353e-05
-4.103355264806042e-06   -2.874956751202718e-07   -2.1990879184136353e-05
-4.103355264806042e-06   -2.874956751202718e-07   -2.1990879184136353e-05
-3.7879165137396807e-06   1.0100376948861314e-06   -1.3748246725884899e-05
-3.7879165137396807e-06   1.0100376948861314e-06   -1.3748246725884899e-05
-3.7879165137396807e-06   1.0100376948861314e-06   -1.3748246725884899e-05
-3.7879165137396807e-06   1.0100376948861314e-06   -1.3748246725884899e-05
1.278830003824917e-06   2.0200155714409848e-07   -2.1708002572514226e-05
1.278830003824917e-06   2.0200155714409848e-07   -2.1708002572514226e-05
1.278830003824917e-06   2.0200155714409848e-07   -2.1708002572514226e-05
1.278830003824917e-06   2.0200155714409848e-07   -2.1708002572514226e-05
-1.4742399261490096e-06   3.651426053034347e-07   -1.7217437318119957e-05
-1.4742399261490096e-06   3.651426053034347e-07   -1.7217437318119957e-05
-1.4742399261490096e-06   3.651426053034347e-07   -1.7217437318119957e-05
-1.4742399261490096e-06   3.651426053034347e-07   -1.7217437318119957e-05
1.278830003824917e-06   1.0100376948861314e-06   -1.326342504323982e-05
1.278830003824917e-06   1.0100376948861314e-06   -1.326342504323982e-05
1.278830003824917e-06   1.0100376948861314e-06   -1.326342504323982e-05
1.278830003824917e-06   1.0100376948861314e-06   -1.326342504323982e-05
-3.7879165137396807e-06   2.020015571442069e-07   -2.2192824255159386e-05
-3.7879165137396807e-06   2.020015571442069e-07   -2.2192824255159386e-05
-3.7879165137396807e-06   2.020015571442069e-07   -2.2192824255159386e-05
-3.7879165137396807e-06   2.020015571442069e-07   -2.2192824255159386e-05
-3.486956488907026e-06   1.6314421889245673e-06   -1.4094157698461688e-05
-3.486956488907026e-06   1.6314421889245673e-06   -1.4094157698461688e-05
-3.486956488907026e-06   1.6314421889245673e-06   -1.4094157698461688e-05
-3.486956488907026e-06   1.6314421889245673e-06   -1.4094157698461688e-05
1.6260113759117967e-06   7.824648113133065e-07   -2.2106384379926307e-05
1.6260113759117967e-06   7.824648113133065e-07   -2.2106384379926307e-05
1.6260113759117967e-06   7.824648113133065e-07   -2.2106384379926307e-05
1.6260113759117967e-06   7.824648113133065e-07   -2.2106384379926307e-05
-1.1649530220291836e-06   7.976010055761162e-07   -1.746385876658259e-05
-1.1649530220291836e-06   7.976010055761162e-07   -1.746385876658259e-05
-1.1649530220291836e-06   7.976010055761162e-07   -1.746385876658259e-05
-1.1649530220291836e-06   7.976010055761162e-07   -1.746385876658259e-05
-4.416953554211116e-06   4.7300994137115197e-07   -1.6542065536991285e-05
-4.416953554211116e-06   4.7300994137115197e-07   -1.6542065536991285e-05
-4.416953554211116e-06   4.7300994137115197e-07   -1.6542065536991285e-05
-4.416953554211116e-06   4.7300994137115197e-07   -1.6542065536991285e-05
-9.285145492455277e-06   5.959031224441694e-07   -2.4581982858754318e-05
-9.285145492455277e-06   5.959031224441694e-07   -2.4581982858754318e-05
-9.285145492455277e-06   5.959031224441694e-07   -2.4581982858754318e-05
-9.285145492455277e-06   5.959031224441694e-07   -2.4581982858754318e-05
-8.969596458884917e-06   1.056608526023013e-06   -1.6243159867038105e-05
-8.969596458884917e-06   1.056608526023013e-06   -1.6243159867038105e-05
-8.969596458884917e-06   1.056608526023013e-06   -1.6243159867038105e-05
-8.969596458884917e-06   1.056608526023013e-06   -1.6243159867038105e-05
-4.103355264806042e-06   1.0972530412410976e-06   -2.43779485663005e-05
-4.103355264806042e-06   1.0972530412410976e-06   -2.43779485663005e-05
-4.103355264806042e-06   1.0972530412410976e-06   -2.43779485663005e-05
-4.103355264806042e-06   1.0972530412410976e-06   -2.43779485663005e-05
-6.655069290739063e-06   9.077703036331321e-07   -2.001140221384728e-05
-6.655069290739063e-06   9.077703036331321e-07   -2.001140221384728e-05
-6.655069290739063e-06   9.077703036331321e-07   -2.001140221384728e-05
-6.655069290739063e-06   9.077703036331321e-07   -2.001140221384728e-05
-4.103355264806042e-06   1.056608526023013e-06   -1.6267546576168967e-05
-4.103355264806042e-06   1.056608526023013e-06   -1.6267546576168967e-05
-4.103355264806042e-06   1.056608526023013e-06   -1.6267546576168967e-05
-4.103355264806042e-06   1.056608526023013e-06   -1.6267546576168967e-05
-8.969596458884917e-06   1.0972530412410976e-06   -2.4353561857169692e-05
-8.969596458884917e-06   1.0972530412410976e-06   -2.4353561857169692e-05
-8.969596458884917e-06   1.0972530412410976e-06   -2.4353561857169692e-05
-8.969596458884917e-06   1.0972530412410976e-06   -2.4353561857169692e-05
-8.648582582023138e-06   1.6528695291238241e-06   -1.628473157880934e-05
-8.648582582023138e-06   1.6528695291238241e-06   -1.628473157880934e-05
-8.648582582023138e-06   1.6528695291238241e-06   -1.628473157880934e-05
-8.648582582023138e-06   1.6528695291238241e-06   -1.628473157880934e-05
-3.7879165137396942e-06   1.6275852825877249e-06   -2.4370671144693327e-05
-3.7879165137396942e-06   1.6275852825877249e-06   -2.4370671144693327e-05
-3.7879165137396942e-06   1.6275852825877249e-06   -2.4370671144693327e-05
-3.7879165137396942e-06   1.6275852825877249e-06   -2.4370671144693327e-05
-6.37796703418174e-06   1.3459684997258739e-06   -1.9884950207573203e-05
-6.37796703418174e-06   1.3459684997258739e-06   -1.9884950207573203e-05
-6.37796703418174e-06   1.3459684997258739e-06   -1.9884950207573203e-05
-6.37796703418174e-06   1.3459684997258739e-06   -1.9884950207573203e-05
-3.7879165137396942e-06   1.6528695291238241e-06   -1.626956103088767e-05
-3.7879165137396942e-06   1.6528695291238241e-06   -1.626956103088767e-05
-3.7879165137396942e-06   1.6528695291238241e-06   -1.626956103088767e-05
-3.7879165137396942e-06   1.6528695291238241e-06   -1.626956103088767e-05
-8.648582582023124e-06   1.6275852825876165e-06   -2.4385841692615106e-05
-8.648582582023124e-06   1.6275852825876165e-06   -2.4385841692615106e-05
-8.648582582023124e-06   1.6275852825876165e-06   -2.4385841692615106e-05
-8.648582582023124e-06   1.6275852825876165e-06   -2.4385841692615106e-05
-8.342551970271482e-06   2.257463469438909e-06   -1.6651297546360286e-05
-8.342551970271482e-06   2.257463469438909e-06   -1.6651297546360286e-05
-8.342551970271482e-06   2.257463469438909e-06   -1.6651297546360286e-05
-8.342551970271482e-06   2.257463469438909e-06   -1.6651297546360286e-05
-3.4869564889070397e-06   2.1671355472594736e-06   -2.4689759928660072e-05
-3.4869564889070397e-06   2.1671355472594736e-06   -2.4689759928660072e-05
-3.4869564889070397e-06   2.1671355472594736e-06   -2.4689759928660072e-05
-3.4869564889070397e-06   2.1671355472594736e-06   -2.4689759928660072e-05
-6.120612658370225e-06   1.7908816707332695e-06   -2.0074580653639372e-05
-6.120612658370225e-06   1.7908816707332695e-06   -2.0074580653639372e-05
-6.120612658370225e-06   1.7908816707332695e-06   -2.0074580653639372e-05
-6.120612658370225e-06   1.7908816707332695e-06   -2.0074580653639372e-05
-9.285145492455294e-06   1.0490717100000626e-06   -1.3901394983035023e-05
-9.285145492455294e-06   1.0490717100000626e-06   -1.3901394983035023e-05
-9.285145492455294e-06   1.0490717100000626e-06   -1.3901394983035023e-05
-9.285145492455294e-06   1.0490717100000626e-06   -1.3901394983035023e-05
-1.4104226955037557e-05   1.9148746358498524e-06   -2.1413715665162297e-05
-1.4104226955037557e-05   1.9148746358498524e-06   -2.1413715665162297e-05
-1.4104226955037557e-05   1.9148746358498524e-06   -2.1413715665162297e-05
-1.4104226955037557e-05   1.9148746358498524e-06   -2.1413715665162297e-05
-1.3742986500271722e-05   1.6351972818569142e-06   -1.308619986940937e-05
-1.3742986500271722e-05   1.6351972818569142e-06   -1.308619986940937e-05
-1.3742986500271722e-05   1.6351972818569142e-06   -1.308619986940937e-05
-1.3742986500271722e-05   1.6351972818569142e-06   -1.308619986940937e-05
-8.969596458884917e-06   2.4500974305479827e-06   -2.1530790027602154e-05
-8.969596458884917e-06   2.4500974305479827e-06   -2.1530790027602154e-05
-8.969596458884917e-06   2.4500974305479827e-06   -2.1530790027602154e-05
-8.969596458884917e-06   2.4500974305479827e-06   -2.1530790027602154e-05
-1.1445534701624038e-05   1.8310990496735093e-06   -1.703282726117888e-05
-1.1445534701624038e-05   1.8310990496735093e-06   -1.703282726117888e-05
-1.1445534701624038e-05   1.8310990496735093e-06   -1.703282726117888e-05
-1.1445534701624038e-05   1.8310990496735093e-06   -1.703282726117888e-05
-8.969596458884931e-06   1.6351972818569142e-06   -1.3575139958624108e-05
-8.969596458884931e-06   1.6351972818569142e-06   -1.3575139958624108e-05
-8.969596458884931e-06   1.6351972818569142e-06   -1.3575139958624108e-05
-8.969596458884931e-06   1.6351972818569142e-06   -1.3575139958624108e-05
-1.3742986500271749e-05   2.4500974305479827e-06   -2.1041849938387537e-05
-1.3742986500271749e-05   2.4500974305479827e-06   -2.1041849938387537e-05
-1.3742986500271749e-05   2.4500974305479827e-06   -2.1041849938387537e-05
-1.3742986500271749e-05   2.4500974305479827e-06   -2.1041849938387537e-05
-1.330852537876803e-05   2.1752333230538965e-06   -1.2960978618625275e-05
-1.330852537876803e-05   2.1752333230538965e-06   -1.2960978618625275e-05
-1.330852537876803e-05   2.1752333230538965e-06   -1.2960978618625275e-05
-1.330852537876803e-05   2.1752333230538965e-06   -1.2960978618625275e-05
-8.648582582023138e-06   2.931660259819437e-06   -2.1181406108592866e-05
-8.648582582023138e-06   2.931660259819437e-06   -2.1181406108592866e-05
-8.648582582023138e-06   2.931660259819437e-06   -2.1181406108592866e-05
-8.648582582023138e-06   2.931660259819437e-06   -2.1181406108592866e-05
-1.1080495962680452e-05   2.254335985381697e-06   -1.6721822576168236e-05
-1.1080495962680452e-05   2.254335985381697e-06   -1.6721822576168236e-05
-1.1080495962680452e-05   2.254335985381697e-06   -1.6721822576168236e-05
-1.1080495962680452e-05   2.254335985381697e-06   -1.6721822576168236e-05
-8.648582582023131e-06   2.1752333230538965e-06   -1.3414834780684632e-05
-8.648582582023131e-06   2.1752333230538965e-06   -1.3414834780684632e-05
-8.648582582023131e-06   2.1752333230538965e-06   -1.3414834780684632e-05
-8.648582582023131e-06   2.1752333230538965e-06   -1.3414834780684632e-05
-1.330852537876803e-05   2.9316602598195452e-06   -2.0727549946533523e-05
-1.330852537876803e-05   2.9316602598195452e-06   -2.0727549946533523e-05
-1.330852537876803e-05   2.9316602598195452e-06   -2.0727549946533523e-05
-1.330852537876803e-05   2.9316602598195452e-06   -2.0727549946533523e-05
-1.2947065004153715e-05   2.7793879841018316e-06   -1.331978434551261e-05
-1.2947065004153715e-05   2.7793879841018316e-06   -1.331978434551261e-05
-1.2947065004153715e-05   2.7793879841018316e-06   -1.331978434551261e-05
-1.2947065004153715e-05   2.7793879841018316e-06   -1.331978434551261e-05
-8.342551970271482e-06   3.4692738953485437e-06   -2.1407904282064323e-05
-8.342551970271482e-06   3.4692738953485437e-06   -2.1407904282064323e-05
-8.342551970271482e-06   3.4692738953485437e-06   -2.1407904282064323e-05
-8.342551970271482e-06   3.4692738953485437e-06   -2.1407904282064323e-05
-1.0838896752660558e-05   2.6706109039211726e-06   -1.676813184989278e-05
-1.0838896752660558e-05   2.6706109039211726e-06   -1.676813184989278e-05
-1.0838896752660558e-05   2.6706109039211726e-06   -1.676813184989278e-05
-1.0838896752660558e-05   2.6706109039211726e-06   -1.676813184989278e-05
-1.4104226955037557e-05   1.7670511426635211e-06   -7.182478254386506e-06
-1.4104226955037557e-05   1.7670511426635211e-06   -7.182478254386506e-06
-1.4104226955037557e-05   1.7670511426635211e-06   -7.182478254386506e-06
-1.4104226955037557e-05   1.7670511426635211e-06   -7.182478254386506e-06
-1.9606147691778486e-05   3.2938211325810084e-06   -1.5436284155004396e-05
-1.9606147691778486e-05   3.2938211325810084e-06   -1.5436284155004396e-05
-1.9606147691778486e-05   3.2938211325810084e-06   -1.5436284155004396e-05
-1.9606147691778486e-05   3.2938211325810084e-06   -1.5436284155004396e-05
-1.8601254267445552e-05   2.299362684688366e-06   -4.482214078356159e-06
-1.8601254267445552e-05   2.299362684688366e-06   -4.482214078356159e-06
-1.8601254267445552e-05   2.299362684688366e-06   -4.482214078356159e-06
-1.8601254267445552e-05   2.299362684688366e-06   -4.482214078356159e-06
-1.3742986500271722e-05   3.850459824509861e-06   -1.3509985307538652e-05
-1.3742986500271722e-05   3.850459824509861e-06   -1.3509985307538652e-05
-1.3742986500271722e-05   3.850459824509861e-06   -1.3509985307538652e-05
-1.3742986500271722e-05   3.850459824509861e-06   -1.3509985307538652e-05
-1.5842041556295543e-05   2.864818574406817e-06   -9.420175464103914e-06
-1.5842041556295543e-05   2.864818574406817e-06   -9.420175464103914e-06
-1.5842041556295543e-05   2.864818574406817e-06   -9.420175464103914e-06
-1.5842041556295543e-05   2.864818574406817e-06   -9.420175464103914e-06
-1.3742986500271732e-05   2.299362684688366e-06   -5.412872362248948e-06
-1.3742986500271732e-05   2.299362684688366e-06   -5.412872362248948e-06
-1.3742986500271732e-05   2.299362684688366e-06   -5.412872362248948e-06
-1.3742986500271732e-05   2.299362684688366e-06   -5.412872362248948e-06
-1.860125426744547e-05   3.850459824509861e-06   -1.2579327023645769e-05
-1.860125426744547e-05   3.850459824509861e-06   -1.2579327023645769e-05
-1.860125426744547e-05   3.850459824509861e-06   -1.2579327023645769e-05
-1.860125426744547e-05   3.850459824509861e-06   -1.2579327023645769e-05
-1.7770781600419397e-05   2.5430076225411947e-06   -3.656830539967631e-06
-1.7770781600419397e-05   2.5430076225411947e-06   -3.656830539967631e-06
-1.7770781600419397e-05   2.5430076225411947e-06   -3.656830539967631e-06
-1.7770781600419397e-05   2.5430076225411947e-06   -3.656830539967631e-06
-1.3308525378768006e-05   4.050226602995825e-06   -1.1998255630992668e-05
-1.3308525378768006e-05   4.050226602995825e-06   -1.1998255630992668e-05
-1.3308525378768006e-05   4.050226602995825e-06   -1.1998255630992668e-05
-1.3308525378768006e-05   4.050226602995825e-06   -1.1998255630992668e-05
-1.5480372339232215e-05   3.1164652524227985e-06   -7.818253886541902e-06
-1.5480372339232215e-05   3.1164652524227985e-06   -7.818253886541902e-06
-1.5480372339232215e-05   3.1164652524227985e-06   -7.818253886541902e-06
-1.5480372339232215e-05   3.1164652524227985e-06   -7.818253886541902e-06
-1.330852537876803e-05   2.5430076225411947e-06   -4.5611619282403875e-06
-1.330852537876803e-05   2.5430076225411947e-06   -4.5611619282403875e-06
-1.330852537876803e-05   2.5430076225411947e-06   -4.5611619282403875e-06
-1.330852537876803e-05   2.5430076225411947e-06   -4.5611619282403875e-06
-1.7770781600419383e-05   4.050226602995825e-06   -1.1093924242720115e-05
-1.7770781600419383e-05   4.050226602995825e-06   -1.1093924242720115e-05
-1.7770781600419383e-05   4.050226602995825e-06   -1.1093924242720115e-05
-1.7770781600419383e-05   4.050226602995825e-06   -1.1093924242720115e-05
-1.6786139394990435e-05   2.917951404597641e-06   -2.785815501390749e-06
-1.6786139394990435e-05   2.917951404597641e-06   -2.785815501390749e-06
-1.6786139394990435e-05   2.917951404597641e-06   -2.785815501390749e-06
-1.6786139394990435e-05   2.917951404597641e-06   -2.785815501390749e-06
-1.2947065004153715e-05   4.300767881409984e-06   -1.0013962705539338e-05
-1.2947065004153715e-05   4.300767881409984e-06   -1.0013962705539338e-05
-1.2947065004153715e-05   4.300767881409984e-06   -1.0013962705539338e-05
-1.2947065004153715e-05   4.300767881409984e-06   -1.0013962705539338e-05
-1.469706666615646e-05   3.236974533936182e-06   -6.459017260383851e-06
-1.469706666615646e-05   3.236974533936182e-06   -6.459017260383851e-06
-1.469706666615646e-05   3.236974533936182e-06   -6.459017260383851e-06
-1.469706666615646e-05   3.236974533936182e-06   -6.459017260383851e-06
1.4798616402872432e-05   -1.9372823439116294e-06   -1.7178563907417795e-08
1.4798616402872432e-05   -1.9372823439116294e-06   -1.7178563907417795e-08
1.4798616402872432e-05   -1.9372823439116294e-06   -1.7178563907417795e-08
1.4798616402872432e-05   -1.9372823439116294e-06   -1.7178563907417795e-08
6.290422581993265e-06   -3.4820549807571075e-06   -1.5124365180813309e-05
6.290422581993265e-06   -3.4820549807571075e-06   -1.5124365180813309e-05
6.290422581993265e-06   -3.4820549807571075e-06   -1.5124365180813309e-05
6.290422581993265e-06   -3.4820549807571075e-06   -1.5124365180813309e-05
6.72758134340193e-06   -1.5934947778929558e-06   -1.5729580379859973e-06
6.72758134340193e-06   -1.5934947778929558e-06   -1.5729580379859973e-06
6.72758134340193e-06   -1.5934947778929558e-06   -1.5729580379859973e-06
6.72758134340193e-06   -1.5934947778929558e-06   -1.5729580379859973e-06
1.5903361703823468e-05   -3.239767159149507e-06   -1.5878161876601356e-05
1.5903361703823468e-05   -3.239767159149507e-06   -1.5878161876601356e-05
1.5903361703823468e-05   -3.239767159149507e-06   -1.5878161876601356e-05
1.5903361703823468e-05   -3.239767159149507e-06   -1.5878161876601356e-05
1.0488418300383892e-05   -2.298869864986435e-06   -7.4177945806998345e-06
1.0488418300383892e-05   -2.298869864986435e-06   -7.4177945806998345e-06
1.0488418300383892e-05   -2.298869864986435e-06   -7.4177945806998345e-06
1.0488418300383892e-05   -2.298869864986435e-06   -7.4177945806998345e-06
1.5903361703823468e-05   -1.5934947778929558e-06   -5.851946092320448e-07
1.5903361703823468e-05   -1.5934947778929558e-06   -5.851946092320448e-07
1.5903361703823468e-05   -1.5934947778929558e-06   -5.851946092320448e-07
1.5903361703823468e-05   -1.5934947778929558e-06   -5.851946092320448e-07
6.727581343401917e-06   -3.2397671591492903e-06   -1.6865925305355146e-05
6.727581343401917e-06   -3.2397671591492903e-06   -1.6865925305355146e-05
6.727581343401917e-06   -3.2397671591492903e-06   -1.6865925305355146e-05
6.727581343401917e-06   -3.2397671591492903e-06   -1.6865925305355146e-05
7.212321517463598e-06   -1.3628650067251885e-06   -2.2575825083274645e-06
7.212321517463598e-06   -1.3628650067251885e-06   -2.2575825083274645e-06
7.212321517463598e-06   -1.3628650067251885e-06   -2.2575825083274645e-06
7.212321517463598e-06   -1.3628650067251885e-06   -2.2575825083274645e-06
1.6829541532685174e-05   -3.02975471691818e-06   -1.728614870758101e-05
1.6829541532685174e-05   -3.02975471691818e-06   -1.728614870758101e-05
1.6829541532685174e-05   -3.02975471691818e-06   -1.728614870758101e-05
1.6829541532685174e-05   -3.02975471691818e-06   -1.728614870758101e-05
1.1317878322099242e-05   -2.2052717844878427e-06   -8.594733116062682e-06
1.1317878322099242e-05   -2.2052717844878427e-06   -8.594733116062682e-06
1.1317878322099242e-05   -2.2052717844878427e-06   -8.594733116062682e-06
1.1317878322099242e-05   -2.2052717844878427e-06   -8.594733116062682e-06
1.6829541532685174e-05   -1.3628650067251885e-06   -1.257448682211778e-06
1.6829541532685174e-05   -1.3628650067251885e-06   -1.257448682211778e-06
1.6829541532685174e-05   -1.3628650067251885e-06   -1.257448682211778e-06
1.6829541532685174e-05   -1.3628650067251885e-06   -1.257448682211778e-06
7.212321517463598e-06   -3.029754716918397e-06   -1.8286282533696858e-05
7.212321517463598e-06   -3.029754716918397e-06   -1.8286282533696858e-05
7.212321517463598e-06   -3.029754716918397e-06   -1.8286282533696858e-05
7.212321517463598e-06   -3.029754716918397e-06   -1.8286282533696858e-05
7.611541227096959e-06   -7.831339617936665e-07   -3.831819399345506e-06
7.611541227096959e-06   -7.831339617936665e-07   -3.831819399345506e-06
7.611541227096959e-06   -7.831339617936665e-07   -3.831819399345506e-06
7.611541227096959e-06   -7.831339617936665e-07   -3.831819399345506e-06
1.7905205476392004e-05   -2.3676182480413845e-06   -2.003723590975531e-05
1.7905205476392004e-05   -2.3676182480413845e-06   -2.003723590975531e-05
1.7905205476392004e-05   -2.3676182480413845e-06   -2.003723590975531e-05
1.7905205476392004e-05   -2.3676182480413845e-06   -2.003723590975531e-05
1.1762073515147339e-05   -1.9447865686943264e-06   -1.0052381648622757e-05
1.1762073515147339e-05   -1.9447865686943264e-06   -1.0052381648622757e-05
1.1762073515147339e-05   -1.9447865686943264e-06   -1.0052381648622757e-05
1.1762073515147339e-05   -1.9447865686943264e-06   -1.0052381648622757e-05
6.290422581993279e-06   -7.604001794913641e-07   -1.0154771846913597e-05
6.290422581993279e-06   -7.604001794913641e-07   -1.0154771846913597e-05
6.290422581993279e-06   -7.604001794913641e-07   -1.0154771846913597e-05
6.290422581993279e-06   -7.604001794913641e-07   -1.0154771846913597e-05
-2.6983090763704206e-06   -1.621383354727347e-06   -2.5652581182661273e-05
-2.6983090763704206e-06   -1.621383354727347e-06   -2.5652581182661273e-05
-2.6983090763704206e-06   -1.621383354727347e-06   -2.5652581182661273e-05
-2.6983090763704206e-06   -1.621383354727347e-06   -2.5652581182661273e-05
-2.292614326713778e-06   -2.8749567512016336e-07   -1.036570430204282e-05
-2.292614326713778e-06   -2.8749567512016336e-07   -1.036570430204282e-05
-2.292614326713778e-06   -2.8749567512016336e-07   -1.036570430204282e-05
-2.292614326713778e-06   -2.8749567512016336e-07   -1.036570430204282e-05
6.72758134340193e-06   -1.281977245770529e-06   -2.4802674809845464e-05
6.72758134340193e-06   -1.281977245770529e-06   -2.4802674809845464e-05
6.72758134340193e-06   -1.281977245770529e-06   -2.4802674809845464e-05
6.72758134340193e-06   -1.281977245770529e-06   -2.4802674809845464e-05
2.0286252686561144e-06   -7.822836982924585e-07   -1.7270897480422718e-05
2.0286252686561144e-06   -7.822836982924585e-07   -1.7270897480422718e-05
2.0286252686561144e-06   -7.822836982924585e-07   -1.7270897480422718e-05
2.0286252686561144e-06   -7.822836982924585e-07   -1.7270897480422718e-05
6.72758134340193e-06   -2.8749567512016336e-07   -9.769015359652536e-06
6.72758134340193e-06   -2.8749567512016336e-07   -9.769015359652536e-06
6.72758134340193e-06   -2.8749567512016336e-07   -9.769015359652536e-06
6.72758134340193e-06   -2.8749567512016336e-07   -9.769015359652536e-06
-2.2926143267137646e-06   -1.281977245770529e-06   -2.539936375223564e-05
-2.2926143267137646e-06   -1.281977245770529e-06   -2.539936375223564e-05
-2.2926143267137646e-06   -1.281977245770529e-06   -2.539936375223564e-05
-2.2926143267137646e-06   -1.281977245770529e-06   -2.539936375223564e-05
-1.9052975421397469e-06   2.020015571442069e-07   -1.0501974973029177e-05
-1.9052975421397469e-06   2.020015571442069e-07   -1.0501974973029177e-05
-1.9052975421397469e-06   2.020015571442069e-07   -1.0501974973029177e-05
-1.9052975421397469e-06   2.020015571442069e-07   -1.0501974973029177e-05
7.212321517463598e-06   -8.673680861688484e-07   -2.5056384953047004e-05
7.212321517463598e-06   -8.673680861688484e-07   -2.5056384953047004e-05
7.212321517463598e-06   -8.673680861688484e-07   -2.5056384953047004e-05
7.212321517463598e-06   -8.673680861688484e-07   -2.5056384953047004e-05
2.3491646049726516e-06   -4.813875821949466e-07   -1.718271173461268e-05
2.3491646049726516e-06   -4.813875821949466e-07   -1.718271173461268e-05
2.3491646049726516e-06   -4.813875821949466e-07   -1.718271173461268e-05
2.3491646049726516e-06   -4.813875821949466e-07   -1.718271173461268e-05
7.212321517463598e-06   2.0200155714409848e-07   -9.860353187041452e-06
7.212321517463598e-06   2.0200155714409848e-07   -9.860353187041452e-06
7.212321517463598e-06   2.0200155714409848e-07   -9.860353187041452e-06
7.212321517463598e-06   2.0200155714409848e-07   -9.860353187041452e-06
-1.9052975421397469e-06   -8.673680861686316e-07   -2.5698006739034837e-05
-1.9052975421397469e-06   -8.673680861686316e-07   -2.5698006739034837e-05
-1.9052975421397469e-06   -8.673680861686316e-07   -2.5698006739034837e-05
-1.9052975421397469e-06   -8.673680861686316e-07   -2.5698006739034837e-05
-1.5418697554976489e-06   7.824648113133065e-07   -1.0862889846958968e-05
-1.5418697554976489e-06   7.824648113133065e-07   -1.0862889846958968e-05
-1.5418697554976489e-06   7.824648113133065e-07   -1.0862889846958968e-05
-1.5418697554976489e-06   7.824648113133065e-07   -1.0862889846958968e-05
7.611541227096959e-06   -3.4507597923322426e-07   -2.5442050343622125e-05
7.611541227096959e-06   -3.4507597923322426e-07   -2.5442050343622125e-05
7.611541227096959e-06   -3.4507597923322426e-07   -2.5442050343622125e-05
7.611541227096959e-06   -3.4507597923322426e-07   -2.5442050343622125e-05
2.7512254278677192e-06   -1.0987944038302021e-07   -1.7482641934883972e-05
2.7512254278677192e-06   -1.0987944038302021e-07   -1.7482641934883972e-05
2.7512254278677192e-06   -1.0987944038302021e-07   -1.7482641934883972e-05
2.7512254278677192e-06   -1.0987944038302021e-07   -1.7482641934883972e-05
-2.698309076370434e-06   5.959031224441694e-07   -1.3089964290470047e-05
-2.698309076370434e-06   5.959031224441694e-07   -1.3089964290470047e-05
-2.698309076370434e-06   5.959031224441694e-07   -1.3089964290470047e-05
-2.698309076370434e-06   5.959031224441694e-07   -1.3089964290470047e-05
-1.1528643424790517e-05   3.1346086540144646e-07   -2.797665355872914e-05
-1.1528643424790517e-05   3.1346086540144646e-07   -2.797665355872914e-05
-1.1528643424790517e-05   3.1346086540144646e-07   -2.797665355872914e-05
-1.1528643424790517e-05   3.1346086540144646e-07   -2.797665355872914e-05
-1.1092110594533577e-05   1.0972530412410976e-06   -1.299390452864078e-05
-1.1092110594533577e-05   1.0972530412410976e-06   -1.299390452864078e-05
-1.1092110594533577e-05   1.0972530412410976e-06   -1.299390452864078e-05
-1.1092110594533577e-05   1.0972530412410976e-06   -1.299390452864078e-05
-2.2926143267137646e-06   6.953683005181139e-07   -2.7418600797239948e-05
-2.2926143267137646e-06   6.953683005181139e-07   -2.7418600797239948e-05
-2.2926143267137646e-06   6.953683005181139e-07   -2.7418600797239948e-05
-2.2926143267137646e-06   6.953683005181139e-07   -2.7418600797239948e-05
-6.856028747560395e-06   8.177915281127636e-07   -1.9886364032385608e-05
-6.856028747560395e-06   8.177915281127636e-07   -1.9886364032385608e-05
-6.856028747560395e-06   8.177915281127636e-07   -1.9886364032385608e-05
-6.856028747560395e-06   8.177915281127636e-07   -1.9886364032385608e-05
-2.292614326713778e-06   1.0972530412410976e-06   -1.2752773684207076e-05
-2.292614326713778e-06   1.0972530412410976e-06   -1.2752773684207076e-05
-2.292614326713778e-06   1.0972530412410976e-06   -1.2752773684207076e-05
-2.292614326713778e-06   1.0972530412410976e-06   -1.2752773684207076e-05
-1.1092110594533577e-05   6.953683005181139e-07   -2.765973164167376e-05
-1.1092110594533577e-05   6.953683005181139e-07   -2.765973164167376e-05
-1.1092110594533577e-05   6.953683005181139e-07   -2.765973164167376e-05
-1.1092110594533577e-05   6.953683005181139e-07   -2.765973164167376e-05
-1.0670822579835401e-05   1.6275852825877249e-06   -1.2974414601624857e-05
-1.0670822579835401e-05   1.6275852825877249e-06   -1.2974414601624857e-05
-1.0670822579835401e-05   1.6275852825877249e-06   -1.2974414601624857e-05
-1.0670822579835401e-05   1.6275852825877249e-06   -1.2974414601624857e-05
-1.9052975421397469e-06   1.1365973841515834e-06   -2.7289030258722695e-05
-1.9052975421397469e-06   1.1365973841515834e-06   -2.7289030258722695e-05
-1.9052975421397469e-06   1.1365973841515834e-06   -2.7289030258722695e-05
-1.9052975421397469e-06   1.1365973841515834e-06   -2.7289030258722695e-05
-6.4809290011440165e-06   1.1755254748146635e-06   -1.9686334681446606e-05
-6.4809290011440165e-06   1.1755254748146635e-06   -1.9686334681446606e-05
-6.4809290011440165e-06   1.1755254748146635e-06   -1.9686334681446606e-05
-6.4809290011440165e-06   1.1755254748146635e-06   -1.9686334681446606e-05
-1.9052975421397469e-06   1.6275852825877249e-06   -1.267982186256328e-05
-1.9052975421397469e-06   1.6275852825877249e-06   -1.267982186256328e-05
-1.9052975421397469e-06   1.6275852825877249e-06   -1.267982186256328e-05
-1.9052975421397469e-06   1.6275852825877249e-06   -1.267982186256328e-05
-1.0670822579835401e-05   1.1365973841515834e-06   -2.7583622997784298e-05
-1.0670822579835401e-05   1.1365973841515834e-06   -2.7583622997784298e-05
-1.0670822579835401e-05   1.1365973841515834e-06   -2.7583622997784298e-05
-1.0670822579835401e-05   1.1365973841515834e-06   -2.7583622997784298e-05
-1.0281571654755578e-05   2.1671355472594736e-06   -1.3281721210232564e-05
-1.0281571654755578e-05   2.1671355472594736e-06   -1.3281721210232564e-05
-1.0281571654755578e-05   2.1671355472594736e-06   -1.3281721210232564e-05
-1.0281571654755578e-05   2.1671355472594736e-06   -1.3281721210232564e-05
-1.5418697554976489e-06   1.5923984787486085e-06   -2.7503048801222663e-05
-1.5418697554976489e-06   1.5923984787486085e-06   -2.7503048801222663e-05
-1.5418697554976489e-06   1.5923984787486085e-06   -2.7503048801222663e-05
-1.5418697554976489e-06   1.5923984787486085e-06   -2.7503048801222663e-05
-6.1462777213527984e-06   1.5425640777129174e-06   -1.979913488417629e-05
-6.1462777213527984e-06   1.5425640777129174e-06   -1.979913488417629e-05
-6.1462777213527984e-06   1.5425640777129174e-06   -1.979913488417629e-05
-6.1462777213527984e-06   1.5425640777129174e-06   -1.979913488417629e-05
-1.1528643424790534e-05   1.9148746358498524e-06   -1.0610644206613491e-05
-1.1528643424790534e-05   1.9148746358498524e-06   -1.0610644206613491e-05
-1.1528643424790534e-05   1.9148746358498524e-06   -1.0610644206613491e-05
-1.1528643424790534e-05   1.9148746358498524e-06   -1.0610644206613491e-05
-2.020601357932692e-05   2.3179045405086283e-06   -2.483110985471214e-05
-2.020601357932692e-05   2.3179045405086283e-06   -2.483110985471214e-05
-2.020601357932692e-05   2.3179045405086283e-06   -2.483110985471214e-05
-2.020601357932692e-05   2.3179045405086283e-06   -2.483110985471214e-05
-1.967918421983106e-05   2.4500974305479827e-06   -9.960232855856172e-06
-1.967918421983106e-05   2.4500974305479827e-06   -9.960232855856172e-06
-1.967918421983106e-05   2.4500974305479827e-06   -9.960232855856172e-06
-1.967918421983106e-05   2.4500974305479827e-06   -9.960232855856172e-06
-1.1092110594533597e-05   2.8015971692432837e-06   -2.4482922074569056e-05
-1.1092110594533597e-05   2.8015971692432837e-06   -2.4482922074569056e-05
-1.1092110594533597e-05   2.8015971692432837e-06   -2.4482922074569056e-05
-1.1092110594533597e-05   2.8015971692432837e-06   -2.4482922074569056e-05
-1.5512536816973628e-05   2.4706704773377886e-06   -1.69169890220258e-05
-1.5512536816973628e-05   2.4706704773377886e-06   -1.69169890220258e-05
-1.5512536816973628e-05   2.4706704773377886e-06   -1.69169890220258e-05
-1.5512536816973628e-05   2.4706704773377886e-06   -1.69169890220258e-05
-1.1092110594533597e-05   2.4500974305479827e-06   -1.01711326990732e-05
-1.1092110594533597e-05   2.4500974305479827e-06   -1.01711326990732e-05
-1.1092110594533597e-05   2.4500974305479827e-06   -1.01711326990732e-05
-1.1092110594533597e-05   2.4500974305479827e-06   -1.01711326990732e-05
-1.9679184219831093e-05   2.8015971692432837e-06   -2.4272022231351946e-05
-1.9679184219831093e-05   2.8015971692432837e-06   -2.4272022231351946e-05
-1.9679184219831093e-05   2.8015971692432837e-06   -2.4272022231351946e-05
-1.9679184219831093e-05   2.8015971692432837e-06   -2.4272022231351946e-05
-1.9094743488389487e-05   2.931660259819437e-06   -9.59820076445973e-06
-1.9094743488389487e-05   2.931660259819437e-06   -9.59820076445973e-06
-1.9094743488389487e-05   2.931660259819437e-06   -9.59820076445973e-06
-1.9094743488389487e-05   2.931660259819437e-06   -9.59820076445973e-06
-1.0670822579835418e-05   3.2179573483909034e-06   -2.3809847198526138e-05
-1.0670822579835418e-05   3.2179573483909034e-06   -2.3809847198526138e-05
-1.0670822579835418e-05   3.2179573483909034e-06   -2.3809847198526138e-05
-1.0670822579835418e-05   3.2179573483909034e-06   -2.3809847198526138e-05
-1.4978138462994552e-05   2.848076072731187e-06   -1.640905862786504e-05
-1.4978138462994552e-05   2.848076072731187e-06   -1.640905862786504e-05
-1.4978138462994552e-05   2.848076072731187e-06   -1.640905862786504e-05
-1.4978138462994552e-05   2.848076072731187e-06   -1.640905862786504e-05
-1.0670822579835411e-05   2.931660259819437e-06   -9.769979017602631e-06
-1.0670822579835411e-05   2.931660259819437e-06   -9.769979017602631e-06
-1.0670822579835411e-05   2.931660259819437e-06   -9.769979017602631e-06
-1.0670822579835411e-05   2.931660259819437e-06   -9.769979017602631e-06
-1.9094743488389487e-05   3.2179573483909034e-06   -2.3638068945383344e-05
-1.9094743488389487e-05   3.2179573483909034e-06   -2.3638068945383344e-05
-1.9094743488389487e-05   3.2179573483909034e-06   -2.3638068945383344e-05
-1.9094743488389487e-05   3.2179573483909034e-06   -2.3638068945383344e-05
-1.8601281084169246e-05   3.4692738953485437e-06   -9.820702487631228e-06
-1.8601281084169246e-05   3.4692738953485437e-06   -9.820702487631228e-06
-1.8601281084169246e-05   3.4692738953485437e-06   -9.820702487631228e-06
-1.8601281084169246e-05   3.4692738953485437e-06   -9.820702487631228e-06
-1.0281571654755595e-05   3.6775510998453362e-06   -2.3811851192685407e-05
-1.0281571654755595e-05   3.6775510998453362e-06   -2.3811851192685407e-05
-1.0281571654755595e-05   3.6775510998453362e-06   -2.3811851192685407e-05
-1.0281571654755595e-05   3.6775510998453362e-06   -2.3811851192685407e-05
-1.4649409910143145e-05   3.195303291839667e-06   -1.6242772082236223e-05
-1.4649409910143145e-05   3.195303291839667e-06   -1.6242772082236223e-05
-1.4649409910143145e-05   3.195303291839667e-06   -1.6242772082236223e-05
-1.4649409910143145e-05   3.195303291839667e-06   -1.6242772082236223e-05
-2.020601357932692e-05   3.2938211325809e-06   -5.30745674761073e-06
-2.020601357932692e-05   3.2938211325809e-06   -5.30745674761073e-06
-2.020601357932692e-05   3.2938211325809e-06   -5.30745674761073e-06
-2.020601357932692e-05   3.2938211325809e-06   -5.30745674761073e-06
-2.93605614959253e-05   4.5407329431900074e-06   -1.9816889522242622e-05
-2.93605614959253e-05   4.5407329431900074e-06   -1.9816889522242622e-05
-2.93605614959253e-05   4.5407329431900074e-06   -1.9816889522242622e-05
-2.93605614959253e-05   4.5407329431900074e-06   -1.9816889522242622e-05
-2.8140155637636647e-05   3.850459824509861e-06   -1.628486127665512e-06
-2.8140155637636647e-05   3.850459824509861e-06   -1.628486127665512e-06
-2.8140155637636647e-05   3.850459824509861e-06   -1.628486127665512e-06
-2.8140155637636647e-05   3.850459824509861e-06   -1.628486127665512e-06
-1.967918421983106e-05   5.183596653413058e-06   -1.6529987254683353e-05
-1.967918421983106e-05   5.183596653413058e-06   -1.6529987254683353e-05
-1.967918421983106e-05   5.183596653413058e-06   -1.6529987254683353e-05
-1.967918421983106e-05   5.183596653413058e-06   -1.6529987254683353e-05
-2.334055906875216e-05   4.325378384806245e-06   -9.912764878650864e-06
-2.334055906875216e-05   4.325378384806245e-06   -9.912764878650864e-06
-2.334055906875216e-05   4.325378384806245e-06   -9.912764878650864e-06
-2.334055906875216e-05   4.325378384806245e-06   -9.912764878650864e-06
-1.967918421983108e-05   3.850459824509861e-06   -2.4283682250074087e-06
-1.967918421983108e-05   3.850459824509861e-06   -2.4283682250074087e-06
-1.967918421983108e-05   3.850459824509861e-06   -2.4283682250074087e-06
-1.967918421983108e-05   3.850459824509861e-06   -2.4283682250074087e-06
-2.81401556376366e-05   5.183596653413058e-06   -1.5730105157341426e-05
-2.81401556376366e-05   5.183596653413058e-06   -1.5730105157341426e-05
-2.81401556376366e-05   5.183596653413058e-06   -1.5730105157341426e-05
-2.81401556376366e-05   5.183596653413058e-06   -1.5730105157341426e-05
-2.71361019658317e-05   4.050226602995825e-06   -8.707742174399787e-08
-2.71361019658317e-05   4.050226602995825e-06   -8.707742174399787e-08
-2.71361019658317e-05   4.050226602995825e-06   -8.707742174399787e-08
-2.71361019658317e-05   4.050226602995825e-06   -8.707742174399787e-08
-1.9094743488389487e-05   5.353274981620849e-06   -1.427117057798951e-05
-1.9094743488389487e-05   5.353274981620849e-06   -1.427117057798951e-05
-1.9094743488389487e-05   5.353274981620849e-06   -1.427117057798951e-05
-1.9094743488389487e-05   5.353274981620849e-06   -1.427117057798951e-05
-2.2933125608956842e-05   4.583314761265073e-06   -7.411890911496893e-06
-2.2933125608956842e-05   4.583314761265073e-06   -7.411890911496893e-06
-2.2933125608956842e-05   4.583314761265073e-06   -7.411890911496893e-06
-2.2933125608956842e-05   4.583314761265073e-06   -7.411890911496893e-06
-1.9094743488389487e-05   4.050226602995825e-06   -8.689064489190773e-07
-1.9094743488389487e-05   4.050226602995825e-06   -8.689064489190773e-07
-1.9094743488389487e-05   4.050226602995825e-06   -8.689064489190773e-07
-1.9094743488389487e-05   4.050226602995825e-06   -8.689064489190773e-07
-2.7136101965831604e-05   5.353274981620849e-06   -1.3489341550814425e-05
-2.7136101965831604e-05   5.353274981620849e-06   -1.3489341550814425e-05
-2.7136101965831604e-05   5.353274981620849e-06   -1.3489341550814425e-05
-2.7136101965831604e-05   5.353274981620849e-06   -1.3489341550814425e-05
-2.6050277108832608e-05   4.300767881409984e-06   1.8766277106761287e-06
-2.6050277108832608e-05   4.300767881409984e-06   1.8766277106761287e-06
-2.6050277108832608e-05   4.300767881409984e-06   1.8766277106761287e-06
-2.6050277108832608e-05   4.300767881409984e-06   1.8766277106761287e-06
-1.8601281084169246e-05   5.496301495627092e-06   -1.1255685832293161e-05
-1.8601281084169246e-05   5.496301495627092e-06   -1.1255685832293161e-05
-1.8601281084169246e-05   5.496301495627092e-06   -1.1255685832293161e-05
-1.8601281084169246e-05   5.496301495627092e-06   -1.1255685832293161e-05
-2.191065366248092e-05   4.624951719281673e-06   -5.217255002633065e-06
-2.191065366248092e-05   4.624951719281673e-06   -5.217255002633065e-06
-2.191065366248092e-05   4.624951719281673e-06   -5.217255002633065e-06
-2.191065366248092e-05   4.624951719281673e-06   -5.217255002633065e-06
2.501024073028879e-05   -3.4820549807568907e-06   5.051363344617146e-06
2.501024073028879e-05   -3.4820549807568907e-06   5.051363344617146e-06
2.501024073028879e-05   -3.4820549807568907e-06   5.051363344617146e-06
2.501024073028879e-05   -3.4820549807568907e-06   5.051363344617146e-06
1.2032009483012502e-05   -5.141849713694328e-06   -1.7574898907272312e-05
1.2032009483012502e-05   -5.141849713694328e-06   -1.7574898907272312e-05
1.2032009483012502e-05   -5.141849713694328e-06   -1.7574898907272312e-05
1.2032009483012502e-05   -5.141849713694328e-06   -1.7574898907272312e-05
1.2515917822067708e-05   -3.2397671591492903e-06   2.4848847975675412e-06
1.2515917822067708e-05   -3.2397671591492903e-06   2.4848847975675412e-06
1.2515917822067708e-05   -3.2397671591492903e-06   2.4848847975675412e-06
1.2515917822067708e-05   -3.2397671591492903e-06   2.4848847975675412e-06
2.6141892325085735e-05   -5.023424752720242e-06   -1.9154878151320066e-05
2.6141892325085735e-05   -5.023424752720242e-06   -1.9154878151320066e-05
2.6141892325085735e-05   -5.023424752720242e-06   -1.9154878151320066e-05
2.6141892325085735e-05   -5.023424752720242e-06   -1.9154878151320066e-05
1.815460543365376e-05   -3.8094380743710667e-06   -6.571125339276313e-06
1.815460543365376e-05   -3.8094380743710667e-06   -6.571125339276313e-06
1.815460543365376e-05   -3.8094380743710667e-06   -6.571125339276313e-06
1.815460543365376e-05   -3.8094380743710667e-06   -6.571125339276313e-06
2.6141892325085762e-05   -3.2397671591492903e-06   3.5550793537100474e-06
2.6141892325085762e-05   -3.2397671591492903e-06   3.5550793537100474e-06
2.6141892325085762e-05   -3.2397671591492903e-06   3.5550793537100474e-06
2.6141892325085762e-05   -3.2397671591492903e-06   3.5550793537100474e-06
1.2515917822067681e-05   -5.023424752720242e-06   -2.0225072707462572e-05
1.2515917822067681e-05   -5.023424752720242e-06   -2.0225072707462572e-05
1.2515917822067681e-05   -5.023424752720242e-06   -2.0225072707462572e-05
1.2515917822067681e-05   -5.023424752720242e-06   -2.0225072707462572e-05
1.2997525395632746e-05   -3.029754716918397e-06   1.2253856256904403e-06
1.2997525395632746e-05   -3.029754716918397e-06   1.2253856256904403e-06
1.2997525395632746e-05   -3.029754716918397e-06   1.2253856256904403e-06
1.2997525395632746e-05   -3.029754716918397e-06   1.2253856256904403e-06
2.7009261539217487e-05   -4.848468339657425e-06   -2.103627977330727e-05
2.7009261539217487e-05   -4.848468339657425e-06   -2.103627977330727e-05
2.7009261539217487e-05   -4.848468339657425e-06   -2.103627977330727e-05
2.7009261539217487e-05   -4.848468339657425e-06   -2.103627977330727e-05
1.9109025744414944e-05   -3.796497055982666e-06   -8.500402885507931e-06
1.9109025744414944e-05   -3.796497055982666e-06   -8.500402885507931e-06
1.9109025744414944e-05   -3.796497055982666e-06   -8.500402885507931e-06
1.9109025744414944e-05   -3.796497055982666e-06   -8.500402885507931e-06
2.7009261539217487e-05   -3.029754716918397e-06   2.3166137993339874e-06
2.7009261539217487e-05   -3.029754716918397e-06   2.3166137993339874e-06
2.7009261539217487e-05   -3.029754716918397e-06   2.3166137993339874e-06
2.7009261539217487e-05   -3.029754716918397e-06   2.3166137993339874e-06
1.2997525395632746e-05   -4.848468339657425e-06   -2.2127507946950817e-05
1.2997525395632746e-05   -4.848468339657425e-06   -2.2127507946950817e-05
1.2997525395632746e-05   -4.848468339657425e-06   -2.2127507946950817e-05
1.2997525395632746e-05   -4.848468339657425e-06   -2.2127507946950817e-05
1.3323220385334257e-05   -2.3676182480413845e-06   -1.304963307379543e-06
1.3323220385334257e-05   -2.3676182480413845e-06   -1.304963307379543e-06
1.3323220385334257e-05   -2.3676182480413845e-06   -1.304963307379543e-06
1.3323220385334257e-05   -2.3676182480413845e-06   -1.304963307379543e-06
2.7926913594141504e-05   -4.168078082009748e-06   -2.456417608834397e-05
2.7926913594141504e-05   -4.168078082009748e-06   -2.456417608834397e-05
2.7926913594141504e-05   -4.168078082009748e-06   -2.456417608834397e-05
2.7926913594141504e-05   -4.168078082009748e-06   -2.456417608834397e-05
1.9369550980495417e-05   -3.503639677573467e-06   -1.0700568108262462e-05
1.9369550980495417e-05   -3.503639677573467e-06   -1.0700568108262462e-05
1.9369550980495417e-05   -3.503639677573467e-06   -1.0700568108262462e-05
1.9369550980495417e-05   -3.503639677573467e-06   -1.0700568108262462e-05
1.203200948301253e-05   -1.621383354727347e-06   -5.956139591851528e-06
1.203200948301253e-05   -1.621383354727347e-06   -5.956139591851528e-06
1.203200948301253e-05   -1.621383354727347e-06   -5.956139591851528e-06
1.203200948301253e-05   -1.621383354727347e-06   -5.956139591851528e-06
-7.653555919759597e-07   -3.309863993474155e-06   -2.829816976674716e-05
-7.653555919759597e-07   -3.309863993474155e-06   -2.829816976674716e-05
-7.653555919759597e-07   -3.309863993474155e-06   -2.829816976674716e-05
-7.653555919759597e-07   -3.309863993474155e-06   -2.829816976674716e-05
-2.694367851810019e-07   -1.2819772457707459e-06   -6.571662342477551e-06
-2.694367851810019e-07   -1.2819772457707459e-06   -6.571662342477551e-06
-2.694367851810019e-07   -1.2819772457707459e-06   -6.571662342477551e-06
-2.694367851810019e-07   -1.2819772457707459e-06   -6.571662342477551e-06
1.2515917822067708e-05   -3.148306638361747e-06   -2.6760789052337325e-05
1.2515917822067708e-05   -3.148306638361747e-06   -2.6760789052337325e-05
1.2515917822067708e-05   -3.148306638361747e-06   -2.6760789052337325e-05
1.2515917822067708e-05   -3.148306638361747e-06   -2.6760789052337325e-05
5.895275484056123e-06   -2.0034746344940214e-06   -1.6413284357972126e-05
5.895275484056123e-06   -2.0034746344940214e-06   -1.6413284357972126e-05
5.895275484056123e-06   -2.0034746344940214e-06   -1.6413284357972126e-05
5.895275484056123e-06   -2.0034746344940214e-06   -1.6413284357972126e-05
1.2515917822067694e-05   -1.2819772457707459e-06   -5.451864706922777e-06
1.2515917822067694e-05   -1.2819772457707459e-06   -5.451864706922777e-06
1.2515917822067694e-05   -1.2819772457707459e-06   -5.451864706922777e-06
1.2515917822067694e-05   -1.2819772457707459e-06   -5.451864706922777e-06
-2.694367851810019e-07   -3.148306638361747e-06   -2.7880586687891937e-05
-2.694367851810019e-07   -3.148306638361747e-06   -2.7880586687891937e-05
-2.694367851810019e-07   -3.148306638361747e-06   -2.7880586687891937e-05
-2.694367851810019e-07   -3.148306638361747e-06   -2.7880586687891937e-05
1.672977472948916e-07   -8.673680861686316e-07   -6.734174555975895e-06
1.672977472948916e-07   -8.673680861686316e-07   -6.734174555975895e-06
1.672977472948916e-07   -8.673680861686316e-07   -6.734174555975895e-06
1.672977472948916e-07   -8.673680861686316e-07   -6.734174555975895e-06
1.2997525395632746e-05   -2.8497976900291287e-06   -2.6928429540889467e-05
1.2997525395632746e-05   -2.8497976900291287e-06   -2.6928429540889467e-05
1.2997525395632746e-05   -2.8497976900291287e-06   -2.6928429540889467e-05
1.2997525395632746e-05   -2.8497976900291287e-06   -2.6928429540889467e-05
6.2309187942790416e-06   -1.8357947890630666e-06   -1.6259153612545828e-05
6.2309187942790416e-06   -1.8357947890630666e-06   -1.6259153612545828e-05
6.2309187942790416e-06   -1.8357947890630666e-06   -1.6259153612545828e-05
6.2309187942790416e-06   -1.8357947890630666e-06   -1.6259153612545828e-05
1.2997525395632746e-05   -8.673680861686316e-07   -5.5447167936597055e-06
1.2997525395632746e-05   -8.673680861686316e-07   -5.5447167936597055e-06
1.2997525395632746e-05   -8.673680861686316e-07   -5.5447167936597055e-06
1.2997525395632746e-05   -8.673680861686316e-07   -5.5447167936597055e-06
1.672977472948916e-07   -2.8497976900291287e-06   -2.8117887303205657e-05
1.672977472948916e-07   -2.8497976900291287e-06   -2.8117887303205657e-05
1.672977472948916e-07   -2.8497976900291287e-06   -2.8117887303205657e-05
1.672977472948916e-07   -2.8497976900291287e-06   -2.8117887303205657e-05
4.775453986922485e-07   -3.4507597923322426e-07   -7.006987698611857e-06
4.775453986922485e-07   -3.4507597923322426e-07   -7.006987698611857e-06
4.775453986922485e-07   -3.4507597923322426e-07   -7.006987698611857e-06
4.775453986922485e-07   -3.4507597923322426e-07   -7.006987698611857e-06
1.3323220385334298e-05   -2.424910194423306e-06   -2.7168545480567936e-05
1.3323220385334298e-05   -2.424910194423306e-06   -2.7168545480567936e-05
1.3323220385334298e-05   -2.424910194423306e-06   -2.7168545480567936e-05
1.3323220385334298e-05   -2.424910194423306e-06   -2.7168545480567936e-05
6.635638982551617e-06   -1.5417355240204648e-06   -1.6552481278172236e-05
6.635638982551617e-06   -1.5417355240204648e-06   -1.6552481278172236e-05
6.635638982551617e-06   -1.5417355240204648e-06   -1.6552481278172236e-05
6.635638982551617e-06   -1.5417355240204648e-06   -1.6552481278172236e-05
-7.653555919759597e-07   3.1346086540144646e-07   -9.123834996941911e-06
-7.653555919759597e-07   3.1346086540144646e-07   -9.123834996941911e-06
-7.653555919759597e-07   3.1346086540144646e-07   -9.123834996941911e-06
-7.653555919759597e-07   3.1346086540144646e-07   -9.123834996941911e-06
-1.3373782003691832e-05   -1.7034830564360316e-06   -3.1348045369571e-05
-1.3373782003691832e-05   -1.7034830564360316e-06   -3.1348045369571e-05
-1.3373782003691832e-05   -1.7034830564360316e-06   -3.1348045369571e-05
-1.3373782003691832e-05   -1.7034830564360316e-06   -3.1348045369571e-05
-1.2778471816775603e-05   6.953683005181139e-07   -9.915414611399455e-06
-1.2778471816775603e-05   6.953683005181139e-07   -9.915414611399455e-06
-1.2778471816775603e-05   6.953683005181139e-07   -9.915414611399455e-06
-1.2778471816775603e-05   6.953683005181139e-07   -9.915414611399455e-06
-2.694367851810019e-07   -1.5121570726777354e-06   -2.943929110680621e-05
-2.694367851810019e-07   -1.5121570726777354e-06   -2.943929110680621e-05
-2.694367851810019e-07   -1.5121570726777354e-06   -2.943929110680621e-05
-2.694367851810019e-07   -1.5121570726777354e-06   -2.943929110680621e-05
-6.717313576184025e-06   -3.069021185094986e-07   -1.9415982760968744e-05
-6.717313576184025e-06   -3.069021185094986e-07   -1.9415982760968744e-05
-6.717313576184025e-06   -3.069021185094986e-07   -1.9415982760968744e-05
-6.717313576184025e-06   -3.069021185094986e-07   -1.9415982760968744e-05
-2.694367851810019e-07   6.953683005183307e-07   -8.590899387481859e-06
-2.694367851810019e-07   6.953683005183307e-07   -8.590899387481859e-06
-2.694367851810019e-07   6.953683005183307e-07   -8.590899387481859e-06
-2.694367851810019e-07   6.953683005183307e-07   -8.590899387481859e-06
-1.2778471816775603e-05   -1.5121570726779523e-06   -3.076380633072382e-05
-1.2778471816775603e-05   -1.5121570726779523e-06   -3.076380633072382e-05
-1.2778471816775603e-05   -1.5121570726779523e-06   -3.076380633072382e-05
-1.2778471816775603e-05   -1.5121570726779523e-06   -3.076380633072382e-05
-1.223234158229262e-05   1.1365973841515834e-06   -9.737706892234532e-06
-1.223234158229262e-05   1.1365973841515834e-06   -9.737706892234532e-06
-1.223234158229262e-05   1.1365973841515834e-06   -9.737706892234532e-06
-1.223234158229262e-05   1.1365973841515834e-06   -9.737706892234532e-06
1.672977472948916e-07   -1.2175839767996147e-06   -2.899126362497643e-05
1.672977472948916e-07   -1.2175839767996147e-06   -2.899126362497643e-05
1.672977472948916e-07   -1.2175839767996147e-06   -2.899126362497643e-05
1.672977472948916e-07   -1.2175839767996147e-06   -2.899126362497643e-05
-6.233114116544166e-06   -8.906526493862761e-08   -1.900102174569459e-05
-6.233114116544166e-06   -8.906526493862761e-08   -1.900102174569459e-05
-6.233114116544166e-06   -8.906526493862761e-08   -1.900102174569459e-05
-6.233114116544166e-06   -8.906526493862761e-08   -1.900102174569459e-05
1.672977472948916e-07   1.1365973841515834e-06   -8.325198075663834e-06
1.672977472948916e-07   1.1365973841515834e-06   -8.325198075663834e-06
1.672977472948916e-07   1.1365973841515834e-06   -8.325198075663834e-06
1.672977472948916e-07   1.1365973841515834e-06   -8.325198075663834e-06
-1.2232341582292644e-05   -1.2175839767998315e-06   -3.0403772441547168e-05
-1.2232341582292644e-05   -1.2175839767998315e-06   -3.0403772441547168e-05
-1.2232341582292644e-05   -1.2175839767998315e-06   -3.0403772441547168e-05
-1.2232341582292644e-05   -1.2175839767998315e-06   -3.0403772441547168e-05
-1.1864387947456454e-05   1.5923984787486085e-06   -9.90956903240876e-06
-1.1864387947456454e-05   1.5923984787486085e-06   -9.90956903240876e-06
-1.1864387947456454e-05   1.5923984787486085e-06   -9.90956903240876e-06
-1.1864387947456454e-05   1.5923984787486085e-06   -9.90956903240876e-06
4.775453986922485e-07   -9.377804387918336e-07   -2.8961350592132294e-05
4.775453986922485e-07   -9.377804387918336e-07   -2.8961350592132294e-05
4.775453986922485e-07   -9.377804387918336e-07   -2.8961350592132294e-05
4.775453986922485e-07   -9.377804387918336e-07   -2.8961350592132294e-05
-5.888476653767048e-06   1.5510978329069496e-07   -1.9007047971283334e-05
-5.888476653767048e-06   1.5510978329069496e-07   -1.9007047971283334e-05
-5.888476653767048e-06   1.5510978329069496e-07   -1.9007047971283334e-05
-5.888476653767048e-06   1.5510978329069496e-07   -1.9007047971283334e-05
-1.3373782003691805e-05   2.317904540508845e-06   -7.430275588822706e-06
-1.3373782003691805e-05   2.317904540508845e-06   -7.430275588822706e-06
-1.3373782003691805e-05   2.317904540508845e-06   -7.430275588822706e-06
-1.3373782003691805e-05   2.317904540508845e-06   -7.430275588822706e-06
-2.616257541636941e-05   5.064120298546235e-07   -2.9831826783011215e-05
-2.616257541636941e-05   5.064120298546235e-07   -2.9831826783011215e-05
-2.616257541636941e-05   5.064120298546235e-07   -2.9831826783011215e-05
-2.616257541636941e-05   5.064120298546235e-07   -2.9831826783011215e-05
-2.5314717667942206e-05   2.801597169243067e-06   -7.906199813221865e-06
-2.5314717667942206e-05   2.801597169243067e-06   -7.906199813221865e-06
-2.5314717667942206e-05   2.801597169243067e-06   -7.906199813221865e-06
-2.5314717667942206e-05   2.801597169243067e-06   -7.906199813221865e-06
-1.2778471816775582e-05   8.556058876979956e-07   -2.7632348129572474e-05
-1.2778471816775582e-05   8.556058876979956e-07   -2.7632348129572474e-05
-1.2778471816775582e-05   8.556058876979956e-07   -2.7632348129572474e-05
-1.2778471816775582e-05   8.556058876979956e-07   -2.7632348129572474e-05
-1.9207724565860375e-05   1.7839104735526638e-06   -1.747390963261061e-05
-1.9207724565860375e-05   1.7839104735526638e-06   -1.747390963261061e-05
-1.9207724565860375e-05   1.7839104735526638e-06   -1.747390963261061e-05
-1.9207724565860375e-05   1.7839104735526638e-06   -1.747390963261061e-05
-1.2778471816775582e-05   2.801597169243067e-06   -6.738605044294779e-06
-1.2778471816775582e-05   2.801597169243067e-06   -6.738605044294779e-06
-1.2778471816775582e-05   2.801597169243067e-06   -6.738605044294779e-06
-1.2778471816775582e-05   2.801597169243067e-06   -6.738605044294779e-06
-2.5314717667942247e-05   8.556058876979956e-07   -2.8799942898499655e-05
-2.5314717667942247e-05   8.556058876979956e-07   -2.8799942898499655e-05
-2.5314717667942247e-05   8.556058876979956e-07   -2.8799942898499655e-05
-2.5314717667942247e-05   8.556058876979956e-07   -2.8799942898499655e-05
-2.4493553600561068e-05   3.2179573483909034e-06   -7.188756087803355e-06
-2.4493553600561068e-05   3.2179573483909034e-06   -7.188756087803355e-06
-2.4493553600561068e-05   3.2179573483909034e-06   -7.188756087803355e-06
-2.4493553600561068e-05   3.2179573483909034e-06   -7.188756087803355e-06
-1.2232341582292644e-05   1.1765823570123075e-06   -2.639928445675706e-05
-1.2232341582292644e-05   1.1765823570123075e-06   -2.639928445675706e-05
-1.2232341582292644e-05   1.1765823570123075e-06   -2.639928445675706e-05
-1.2232341582292644e-05   1.1765823570123075e-06   -2.639928445675706e-05
-1.843914777182962e-05   2.087804342452244e-06   -1.6601340665459315e-05
-1.843914777182962e-05   2.087804342452244e-06   -1.6601340665459315e-05
-1.843914777182962e-05   2.087804342452244e-06   -1.6601340665459315e-05
-1.843914777182962e-05   2.087804342452244e-06   -1.6601340665459315e-05
-1.2232341582292613e-05   3.2179573483909034e-06   -5.9639310929762625e-06
-1.2232341582292613e-05   3.2179573483909034e-06   -5.9639310929762625e-06
-1.2232341582292613e-05   3.2179573483909034e-06   -5.9639310929762625e-06
-1.2232341582292613e-05   3.2179573483909034e-06   -5.9639310929762625e-06
-2.449355360056111e-05   1.1765823570125244e-06   -2.7624109451584262e-05
-2.449355360056111e-05   1.1765823570125244e-06   -2.7624109451584262e-05
-2.449355360056111e-05   1.1765823570125244e-06   -2.7624109451584262e-05
-2.449355360056111e-05   1.1765823570125244e-06   -2.7624109451584262e-05
-2.3872889086637907e-05   3.6775510998453362e-06   -7.211818235121825e-06
-2.3872889086637907e-05   3.6775510998453362e-06   -7.211818235121825e-06
-2.3872889086637907e-05   3.6775510998453362e-06   -7.211818235121825e-06
-2.3872889086637907e-05   3.6775510998453362e-06   -7.211818235121825e-06
-1.1864387947456478e-05   1.4470693459169362e-06   -2.588769774806746e-05
-1.1864387947456478e-05   1.4470693459169362e-06   -2.588769774806746e-05
-1.1864387947456478e-05   1.4470693459169362e-06   -2.588769774806746e-05
-1.1864387947456478e-05   1.4470693459169362e-06   -2.588769774806746e-05
-1.8013867673035856e-05   2.300215879470118e-06   -1.6150452792233544e-05
-1.8013867673035856e-05   2.300215879470118e-06   -1.6150452792233544e-05
-1.8013867673035856e-05   2.300215879470118e-06   -1.6150452792233544e-05
-1.8013867673035856e-05   2.300215879470118e-06   -1.6150452792233544e-05
-2.616257541636941e-05   4.5407329431900074e-06   -4.251097849111338e-06
-2.616257541636941e-05   4.5407329431900074e-06   -4.251097849111338e-06
-2.616257541636941e-05   4.5407329431900074e-06   -4.251097849111338e-06
-2.616257541636941e-05   4.5407329431900074e-06   -4.251097849111338e-06
-3.953746442956982e-05   4.3011786933400305e-06   -2.6686312087688857e-05
-3.953746442956982e-05   4.3011786933400305e-06   -2.6686312087688857e-05
-3.953746442956982e-05   4.3011786933400305e-06   -2.6686312087688857e-05
-3.953746442956982e-05   4.3011786933400305e-06   -2.6686312087688857e-05
-3.785250395860002e-05   5.183596653413058e-06   -1.914400612102081e-08
-3.785250395860002e-05   5.183596653413058e-06   -1.914400612102081e-08
-3.785250395860002e-05   5.183596653413058e-06   -1.914400612102081e-08
-3.785250395860002e-05   5.183596653413058e-06   -1.914400612102081e-08
-2.531471766794216e-05   5.425298037466976e-06   -2.1060475320983086e-05
-2.531471766794216e-05   5.425298037466976e-06   -2.1060475320983086e-05
-2.531471766794216e-05   5.425298037466976e-06   -2.1060475320983086e-05
-2.531471766794216e-05   5.425298037466976e-06   -2.1060475320983086e-05
-3.082822589835868e-05   5.11292136433231e-06   -1.1683868933074924e-05
-3.082822589835868e-05   5.11292136433231e-06   -1.1683868933074924e-05
-3.082822589835868e-05   5.11292136433231e-06   -1.1683868933074924e-05
-3.082822589835868e-05   5.11292136433231e-06   -1.1683868933074924e-05
-2.5314717667942227e-05   5.183596653413058e-06   -1.6416483655324124e-07
-2.5314717667942227e-05   5.183596653413058e-06   -1.6416483655324124e-07
-2.5314717667942227e-05   5.183596653413058e-06   -1.6416483655324124e-07
-2.5314717667942227e-05   5.183596653413058e-06   -1.6416483655324124e-07
-3.785250395860002e-05   5.425298037466976e-06   -2.091545449055081e-05
-3.785250395860002e-05   5.425298037466976e-06   -2.091545449055081e-05
-3.785250395860002e-05   5.425298037466976e-06   -2.091545449055081e-05
-3.785250395860002e-05   5.425298037466976e-06   -2.091545449055081e-05
-3.645687526893062e-05   5.353274981620849e-06   2.373472095074146e-06
-3.645687526893062e-05   5.353274981620849e-06   2.373472095074146e-06
-3.645687526893062e-05   5.353274981620849e-06   2.373472095074146e-06
-3.645687526893062e-05   5.353274981620849e-06   2.373472095074146e-06
-2.4493553600561068e-05   5.6788246740938336e-06   -1.776072716769219e-05
-2.4493553600561068e-05   5.6788246740938336e-06   -1.776072716769219e-05
-2.4493553600561068e-05   5.6788246740938336e-06   -1.776072716769219e-05
-2.4493553600561068e-05   5.6788246740938336e-06   -1.776072716769219e-05
-3.0201472514380153e-05   5.482233388161457e-06   -8.129574206433977e-06
-3.0201472514380153e-05   5.482233388161457e-06   -8.129574206433977e-06
-3.0201472514380153e-05   5.482233388161457e-06   -8.129574206433977e-06
-3.0201472514380153e-05   5.482233388161457e-06   -8.129574206433977e-06
-2.449355360056111e-05   5.3532749816210656e-06   2.1781422795904854e-06
-2.449355360056111e-05   5.3532749816210656e-06   2.1781422795904854e-06
-2.449355360056111e-05   5.3532749816210656e-06   2.1781422795904854e-06
-2.449355360056111e-05   5.3532749816210656e-06   2.1781422795904854e-06
-3.645687526893055e-05   5.678824674093617e-06   -1.7565397352208413e-05
-3.645687526893055e-05   5.678824674093617e-06   -1.7565397352208413e-05
-3.645687526893055e-05   5.678824674093617e-06   -1.7565397352208413e-05
-3.645687526893055e-05   5.678824674093617e-06   -1.7565397352208413e-05
-3.499526661334269e-05   5.496301495627092e-06   5.58660506087957e-06
-3.499526661334269e-05   5.496301495627092e-06   5.58660506087957e-06
-3.499526661334269e-05   5.496301495627092e-06   5.58660506087957e-06
-3.499526661334269e-05   5.496301495627092e-06   5.58660506087957e-06
-2.3872889086637907e-05   6.108341926139424e-06   -1.3317915075269077e-05
-2.3872889086637907e-05   6.108341926139424e-06   -1.3317915075269077e-05
-2.3872889086637907e-05   6.108341926139424e-06   -1.3317915075269077e-05
-2.3872889086637907e-05   6.108341926139424e-06   -1.3317915075269077e-05
-2.8786372244432397e-05   5.603957604921432e-06   -4.826145886214551e-06
-2.8786372244432397e-05   5.603957604921432e-06   -4.826145886214551e-06
-2.8786372244432397e-05   5.603957604921432e-06   -4.826145886214551e-06
-2.8786372244432397e-05   5.603957604921432e-06   -4.826145886214551e-06
3.43024341424886e-05   -5.141849713694328e-06   1.1775620145048596e-05
3.43024341424886e-05   -5.141849713694328e-06   1.1775620145048596e-05
3.43024341424886e-05   -5.141849713694328e-06   1.1775620145048596e-05
3.43024341424886e-05   -5.141849713694328e-06   1.1775620145048596e-05
1.722021627807214e-05   -6.491726638845627e-06   -1.750466911740276e-05
1.722021627807214e-05   -6.491726638845627e-06   -1.750466911740276e-05
1.722021627807214e-05   -6.491726638845627e-06   -1.750466911740276e-05
1.722021627807214e-05   -6.491726638845627e-06   -1.750466911740276e-05
1.7633563418208923e-05   -5.023424752720242e-06   8.464695300051494e-06
1.7633563418208923e-05   -5.023424752720242e-06   8.464695300051494e-06
1.7633563418208923e-05   -5.023424752720242e-06   8.464695300051494e-06
1.7633563418208923e-05   -5.023424752720242e-06   8.464695300051494e-06
3.5147623331780486e-05   -6.654199720367883e-06   -1.974693957531272e-05
3.5147623331780486e-05   -6.654199720367883e-06   -1.974693957531272e-05
3.5147623331780486e-05   -6.654199720367883e-06   -1.974693957531272e-05
3.5147623331780486e-05   -6.654199720367883e-06   -1.974693957531272e-05
2.503565330995339e-05   -5.251892741828983e-06   -3.7350403927241494e-06
2.503565330995339e-05   -5.251892741828983e-06   -3.7350403927241494e-06
2.503565330995339e-05   -5.251892741828983e-06   -3.7350403927241494e-06
2.503565330995339e-05   -5.251892741828983e-06   -3.7350403927241494e-06
3.5147623331780486e-05   -5.023424752720242e-06   9.443160280639927e-06
3.5147623331780486e-05   -5.023424752720242e-06   9.443160280639927e-06
3.5147623331780486e-05   -5.023424752720242e-06   9.443160280639927e-06
3.5147623331780486e-05   -5.023424752720242e-06   9.443160280639927e-06
1.7633563418208923e-05   -6.654199720367883e-06   -2.0725404555901124e-05
1.7633563418208923e-05   -6.654199720367883e-06   -2.0725404555901124e-05
1.7633563418208923e-05   -6.654199720367883e-06   -2.0725404555901124e-05
1.7633563418208923e-05   -6.654199720367883e-06   -2.0725404555901124e-05
1.7982770109622643e-05   -4.848468339657425e-06   6.688544402297142e-06
1.7982770109622643e-05   -4.848468339657425e-06   6.688544402297142e-06
1.7982770109622643e-05   -4.848468339657425e-06   6.688544402297142e-06
1.7982770109622643e-05   -4.848468339657425e-06   6.688544402297142e-06
3.5673601169117276e-05   -6.592473793999186e-06   -2.1749770757588773e-05
3.5673601169117276e-05   -6.592473793999186e-06   -2.1749770757588773e-05
3.5673601169117276e-05   -6.592473793999186e-06   -2.1749770757588773e-05
3.5673601169117276e-05   -6.592473793999186e-06   -2.1749770757588773e-05
2.591163278447391e-05   -5.4160043997310715e-06   -6.1857050864108296e-06
2.591163278447391e-05   -5.4160043997310715e-06   -6.1857050864108296e-06
2.591163278447391e-05   -5.4160043997310715e-06   -6.1857050864108296e-06
2.591163278447391e-05   -5.4160043997310715e-06   -6.1857050864108296e-06
3.5673601169117276e-05   -4.848468339657425e-06   7.73494767490222e-06
3.5673601169117276e-05   -4.848468339657425e-06   7.73494767490222e-06
3.5673601169117276e-05   -4.848468339657425e-06   7.73494767490222e-06
3.5673601169117276e-05   -4.848468339657425e-06   7.73494767490222e-06
1.7982770109622643e-05   -6.592473793999186e-06   -2.279617403019385e-05
1.7982770109622643e-05   -6.592473793999186e-06   -2.279617403019385e-05
1.7982770109622643e-05   -6.592473793999186e-06   -2.279617403019385e-05
1.7982770109622643e-05   -6.592473793999186e-06   -2.279617403019385e-05
1.834652397123549e-05   -4.1680780820095315e-06   3.2506444449441297e-06
1.834652397123549e-05   -4.1680780820095315e-06   3.2506444449441297e-06
1.834652397123549e-05   -4.1680780820095315e-06   3.2506444449441297e-06
1.834652397123549e-05   -4.1680780820095315e-06   3.2506444449441297e-06
3.6191596951410524e-05   -6.2215357533707515e-06   -2.5259069252530898e-05
3.6191596951410524e-05   -6.2215357533707515e-06   -2.5259069252530898e-05
3.6191596951410524e-05   -6.2215357533707515e-06   -2.5259069252530898e-05
3.6191596951410524e-05   -6.2215357533707515e-06   -2.5259069252530898e-05
2.591739405578465e-05   -5.210002251377103e-06   -8.742317861017352e-06
2.591739405578465e-05   -5.210002251377103e-06   -8.742317861017352e-06
2.591739405578465e-05   -5.210002251377103e-06   -8.742317861017352e-06
2.591739405578465e-05   -5.210002251377103e-06   -8.742317861017352e-06
1.722021627807214e-05   -3.309863993474155e-06   1.2555115137312476e-06
1.722021627807214e-05   -3.309863993474155e-06   1.2555115137312476e-06
1.722021627807214e-05   -3.309863993474155e-06   1.2555115137312476e-06
1.722021627807214e-05   -3.309863993474155e-06   1.2555115137312476e-06
1.9837154300740675e-06   -6.459487753720334e-06   -2.6028430822413323e-05
1.9837154300740675e-06   -6.459487753720334e-06   -2.6028430822413323e-05
1.9837154300740675e-06   -6.459487753720334e-06   -2.6028430822413323e-05
1.9837154300740675e-06   -6.459487753720334e-06   -2.6028430822413323e-05
2.464764685287241e-06   -3.148306638361747e-06   -3.609687585220001e-08
2.464764685287241e-06   -3.148306638361747e-06   -3.609687585220001e-08
2.464764685287241e-06   -3.148306638361747e-06   -3.609687585220001e-08
2.464764685287241e-06   -3.148306638361747e-06   -3.609687585220001e-08
1.763356341820895e-05   -6.4234330234100735e-06   -2.335235226635934e-05
1.763356341820895e-05   -6.4234330234100735e-06   -2.335235226635934e-05
1.763356341820895e-05   -6.4234330234100735e-06   -2.335235226635934e-05
1.763356341820895e-05   -6.4234330234100735e-06   -2.335235226635934e-05
9.862484850689933e-06   -4.360965554488054e-06   -1.1638035135180856e-05
9.862484850689933e-06   -4.360965554488054e-06   -1.1638035135180856e-05
9.862484850689933e-06   -4.360965554488054e-06   -1.1638035135180856e-05
9.862484850689933e-06   -4.360965554488054e-06   -1.1638035135180856e-05
1.763356341820891e-05   -3.148306638361747e-06   1.928978955176904e-06
1.763356341820891e-05   -3.148306638361747e-06   1.928978955176904e-06
1.763356341820891e-05   -3.148306638361747e-06   1.928978955176904e-06
1.763356341820891e-05   -3.148306638361747e-06   1.928978955176904e-06
2.4647646852872274e-06   -6.423433023409857e-06   -2.5317428097388337e-05
2.4647646852872274e-06   -6.423433023409857e-06   -2.5317428097388337e-05
2.4647646852872274e-06   -6.423433023409857e-06   -2.5317428097388337e-05
2.4647646852872274e-06   -6.423433023409857e-06   -2.5317428097388337e-05
2.8989022641201864e-06   -2.849797690028912e-06   -2.024665149146258e-07
2.8989022641201864e-06   -2.849797690028912e-06   -2.024665149146258e-07
2.8989022641201864e-06   -2.849797690028912e-06   -2.024665149146258e-07
2.8989022641201864e-06   -2.849797690028912e-06   -2.024665149146258e-07
1.7982770109622643e-05   -6.333279895484253e-06   -2.3252156934145556e-05
1.7982770109622643e-05   -6.333279895484253e-06   -2.3252156934145556e-05
1.7982770109622643e-05   -6.333279895484253e-06   -2.3252156934145556e-05
1.7982770109622643e-05   -6.333279895484253e-06   -2.3252156934145556e-05
1.0133107330217738e-05   -4.405463636641309e-06   -1.1326075390442674e-05
1.0133107330217738e-05   -4.405463636641309e-06   -1.1326075390442674e-05
1.0133107330217738e-05   -4.405463636641309e-06   -1.1326075390442674e-05
1.0133107330217738e-05   -4.405463636641309e-06   -1.1326075390442674e-05
1.7982770109622643e-05   -2.8497976900291287e-06   1.8876228083586008e-06
1.7982770109622643e-05   -2.8497976900291287e-06   1.8876228083586008e-06
1.7982770109622643e-05   -2.8497976900291287e-06   1.8876228083586008e-06
1.7982770109622643e-05   -2.8497976900291287e-06   1.8876228083586008e-06
2.8989022641201864e-06   -6.333279895484253e-06   -2.5342246257418675e-05
2.8989022641201864e-06   -6.333279895484253e-06   -2.5342246257418675e-05
2.8989022641201864e-06   -6.333279895484253e-06   -2.5342246257418675e-05
2.8989022641201864e-06   -6.333279895484253e-06   -2.5342246257418675e-05
3.547437342476414e-06   -2.424910194423306e-06   -5.11932496789335e-07
3.547437342476414e-06   -2.424910194423306e-06   -5.11932496789335e-07
3.547437342476414e-06   -2.424910194423306e-06   -5.11932496789335e-07
3.547437342476414e-06   -2.424910194423306e-06   -5.11932496789335e-07
1.8346523971235476e-05   -6.155715944240834e-06   -2.293859342816391e-05
1.8346523971235476e-05   -6.155715944240834e-06   -2.293859342816391e-05
1.8346523971235476e-05   -6.155715944240834e-06   -2.293859342816391e-05
1.8346523971235476e-05   -6.155715944240834e-06   -2.293859342816391e-05
1.0655483642286558e-05   -4.332483130507509e-06   -1.1214132568155622e-05
1.0655483642286558e-05   -4.332483130507509e-06   -1.1214132568155622e-05
1.0655483642286558e-05   -4.332483130507509e-06   -1.1214132568155622e-05
1.0655483642286558e-05   -4.332483130507509e-06   -1.1214132568155622e-05
1.9837154300740675e-06   -1.7034830564358148e-06   -2.4739719921377254e-06
1.9837154300740675e-06   -1.7034830564358148e-06   -2.4739719921377254e-06
1.9837154300740675e-06   -1.7034830564358148e-06   -2.4739719921377254e-06
1.9837154300740675e-06   -1.7034830564358148e-06   -2.4739719921377254e-06
-1.3092762237027114e-05   -7.736110766895597e-06   -3.1221011396915534e-05
-1.3092762237027114e-05   -7.736110766895597e-06   -3.1221011396915534e-05
-1.3092762237027114e-05   -7.736110766895597e-06   -3.1221011396915534e-05
-1.3092762237027114e-05   -7.736110766895597e-06   -3.1221011396915534e-05
-1.2342788483824888e-05   -1.5121570726777354e-06   -5.429162080378678e-06
-1.2342788483824888e-05   -1.5121570726777354e-06   -5.429162080378678e-06
-1.2342788483824888e-05   -1.5121570726777354e-06   -5.429162080378678e-06
-1.2342788483824888e-05   -1.5121570726777354e-06   -5.429162080378678e-06
2.4647646852872274e-06   -7.902758382031822e-06   -2.6274056576619826e-05
2.4647646852872274e-06   -7.902758382031822e-06   -2.6274056576619826e-05
2.4647646852872274e-06   -7.902758382031822e-06   -2.6274056576619826e-05
2.4647646852872274e-06   -7.902758382031822e-06   -2.6274056576619826e-05
-5.075240708623032e-06   -4.360189077680723e-06   -1.5832922502713237e-05
-5.075240708623032e-06   -4.360189077680723e-06   -1.5832922502713237e-05
-5.075240708623032e-06   -4.360189077680723e-06   -1.5832922502713237e-05
-5.075240708623032e-06   -4.360189077680723e-06   -1.5832922502713237e-05
2.4647646852872274e-06   -1.5121570726777354e-06   -1.5948012947662694e-06
2.4647646852872274e-06   -1.5121570726777354e-06   -1.5948012947662694e-06
2.4647646852872274e-06   -1.5121570726777354e-06   -1.5948012947662694e-06
2.4647646852872274e-06   -1.5121570726777354e-06   -1.5948012947662694e-06
-1.2342788483824908e-05   -7.902758382031605e-06   -3.0108417362232167e-05
-1.2342788483824908e-05   -7.902758382031605e-06   -3.0108417362232167e-05
-1.2342788483824908e-05   -7.902758382031605e-06   -3.0108417362232167e-05
-1.2342788483824908e-05   -7.902758382031605e-06   -3.0108417362232167e-05
-1.1695776588489522e-05   -1.2175839767996147e-06   -5.061552109185082e-06
-1.1695776588489522e-05   -1.2175839767996147e-06   -5.061552109185082e-06
-1.1695776588489522e-05   -1.2175839767996147e-06   -5.061552109185082e-06
-1.1695776588489522e-05   -1.2175839767996147e-06   -5.061552109185082e-06
2.8989022641201864e-06   -7.860432764299164e-06   -2.5400307591034858e-05
2.8989022641201864e-06   -7.860432764299164e-06   -2.5400307591034858e-05
2.8989022641201864e-06   -7.860432764299164e-06   -2.5400307591034858e-05
2.8989022641201864e-06   -7.860432764299164e-06   -2.5400307591034858e-05
-4.543033033404978e-06   -4.455143198410375e-06   -1.5040255834692859e-05
-4.543033033404978e-06   -4.455143198410375e-06   -1.5040255834692859e-05
-4.543033033404978e-06   -4.455143198410375e-06   -1.5040255834692859e-05
-4.543033033404978e-06   -4.455143198410375e-06   -1.5040255834692859e-05
2.8989022641201864e-06   -1.2175839767996147e-06   -1.0758428366852224e-06
2.8989022641201864e-06   -1.2175839767996147e-06   -1.0758428366852224e-06
2.8989022641201864e-06   -1.2175839767996147e-06   -1.0758428366852224e-06
2.8989022641201864e-06   -1.2175839767996147e-06   -1.0758428366852224e-06
-1.1695776588489562e-05   -7.860432764299164e-06   -2.938601686353461e-05
-1.1695776588489562e-05   -7.860432764299164e-06   -2.938601686353461e-05
-1.1695776588489562e-05   -7.860432764299164e-06   -2.938601686353461e-05
-1.1695776588489562e-05   -7.860432764299164e-06   -2.938601686353461e-05
-1.0578978571222846e-05   -9.377804387918336e-07   -5.04128799963153e-06
-1.0578978571222846e-05   -9.377804387918336e-07   -5.04128799963153e-06
-1.0578978571222846e-05   -9.377804387918336e-07   -5.04128799963153e-06
-1.0578978571222846e-05   -9.377804387918336e-07   -5.04128799963153e-06
3.547437342476414e-06   -7.578531972778383e-06   -2.4600863602071733e-05
3.547437342476414e-06   -7.578531972778383e-06   -2.4600863602071733e-05
3.547437342476414e-06   -7.578531972778383e-06   -2.4600863602071733e-05
3.547437342476414e-06   -7.578531972778383e-06   -2.4600863602071733e-05
-3.851116715518209e-06   -4.351446060342837e-06   -1.420619171954194e-05
-3.851116715518209e-06   -4.351446060342837e-06   -1.420619171954194e-05
-3.851116715518209e-06   -4.351446060342837e-06   -1.420619171954194e-05
-3.851116715518209e-06   -4.351446060342837e-06   -1.420619171954194e-05
-1.3092762237027094e-05   5.064120298544066e-07   -3.4904345254612758e-06
-1.3092762237027094e-05   5.064120298544066e-07   -3.4904345254612758e-06
-1.3092762237027094e-05   5.064120298544066e-07   -3.4904345254612758e-06
-1.3092762237027094e-05   5.064120298544066e-07   -3.4904345254612758e-06
-2.989055505456666e-05   -9.590790267008592e-06   -3.7545077266145136e-05
-2.989055505456666e-05   -9.590790267008592e-06   -3.7545077266145136e-05
-2.989055505456666e-05   -9.590790267008592e-06   -3.7545077266145136e-05
-2.989055505456666e-05   -9.590790267008592e-06   -3.7545077266145136e-05
-2.8990552231051786e-05   8.556058876979956e-07   -9.249979028978458e-06
-2.8990552231051786e-05   8.556058876979956e-07   -9.249979028978458e-06
-2.8990552231051786e-05   8.556058876979956e-07   -9.249979028978458e-06
-2.8990552231051786e-05   8.556058876979956e-07   -9.249979028978458e-06
-1.2342788483824888e-05   -1.0731519361887416e-05   -3.0043976791272023e-05
-1.2342788483824888e-05   -1.0731519361887416e-05   -3.0043976791272023e-05
-1.2342788483824888e-05   -1.0731519361887416e-05   -3.0043976791272023e-05
-1.2342788483824888e-05   -1.0731519361887416e-05   -3.0043976791272023e-05
-2.0778858183327315e-05   -4.848608823910562e-06   -1.9513606948220715e-05
-2.0778858183327315e-05   -4.848608823910562e-06   -1.9513606948220715e-05
-2.0778858183327315e-05   -4.848608823910562e-06   -1.9513606948220715e-05
-2.0778858183327315e-05   -4.848608823910562e-06   -1.9513606948220715e-05
-1.2342788483824888e-05   8.556058876979956e-07   -2.2977038792273193e-06
-1.2342788483824888e-05   8.556058876979956e-07   -2.2977038792273193e-06
-1.2342788483824888e-05   8.556058876979956e-07   -2.2977038792273193e-06
-1.2342788483824888e-05   8.556058876979956e-07   -2.2977038792273193e-06
-2.8990552231051786e-05   -1.0731519361887416e-05   -3.699625194102335e-05
-2.8990552231051786e-05   -1.0731519361887416e-05   -3.699625194102335e-05
-2.8990552231051786e-05   -1.0731519361887416e-05   -3.699625194102335e-05
-2.8990552231051786e-05   -1.0731519361887416e-05   -3.699625194102335e-05
-2.8128301632317728e-05   1.1765823570123075e-06   -8.234599366959902e-06
-2.8128301632317728e-05   1.1765823570123075e-06   -8.234599366959902e-06
-2.8128301632317728e-05   1.1765823570123075e-06   -8.234599366959902e-06
-2.8128301632317728e-05   1.1765823570123075e-06   -8.234599366959902e-06
-1.1695776588489542e-05   -1.0785976380595867e-05   -2.8444605864108653e-05
-1.1695776588489542e-05   -1.0785976380595867e-05   -2.8444605864108653e-05
-1.1695776588489542e-05   -1.0785976380595867e-05   -2.8444605864108653e-05
-1.1695776588489542e-05   -1.0785976380595867e-05   -2.8444605864108653e-05
-1.9901163204783514e-05   -4.8601572654437e-06   -1.8324452972709915e-05
-1.9901163204783514e-05   -4.8601572654437e-06   -1.8324452972709915e-05
-1.9901163204783514e-05   -4.8601572654437e-06   -1.8324452972709915e-05
-1.9901163204783514e-05   -4.8601572654437e-06   -1.8324452972709915e-05
-1.1695776588489528e-05   1.1765823570123075e-06   -1.057064124394976e-06
-1.1695776588489528e-05   1.1765823570123075e-06   -1.057064124394976e-06
-1.1695776588489528e-05   1.1765823570123075e-06   -1.057064124394976e-06
-1.1695776588489528e-05   1.1765823570123075e-06   -1.057064124394976e-06
-2.8128301632317775e-05   -1.0785976380595867e-05   -3.5622141106673565e-05
-2.8128301632317775e-05   -1.0785976380595867e-05   -3.5622141106673565e-05
-2.8128301632317775e-05   -1.0785976380595867e-05   -3.5622141106673565e-05
-2.8128301632317775e-05   -1.0785976380595867e-05   -3.5622141106673565e-05
-2.6711630047130945e-05   1.4470693459169362e-06   -7.204428329772063e-06
-2.6711630047130945e-05   1.4470693459169362e-06   -7.204428329772063e-06
-2.6711630047130945e-05   1.4470693459169362e-06   -7.204428329772063e-06
-2.6711630047130945e-05   1.4470693459169362e-06   -7.204428329772063e-06
-1.057897857122288e-05   -9.811098195299309e-06   -2.733728026488915e-05
-1.057897857122288e-05   -9.811098195299309e-06   -2.733728026488915e-05
-1.057897857122288e-05   -9.811098195299309e-06   -2.733728026488915e-05
-1.057897857122288e-05   -9.811098195299309e-06   -2.733728026488915e-05
-1.903860021683733e-05   -4.269597377941055e-06   -1.6562811345946233e-05
-1.903860021683733e-05   -4.269597377941055e-06   -1.6562811345946233e-05
-1.903860021683733e-05   -4.269597377941055e-06   -1.6562811345946233e-05
-1.903860021683733e-05   -4.269597377941055e-06   -1.6562811345946233e-05
-2.989055505456666e-05   4.3011786933400305e-06   -6.259508658346992e-06
-2.989055505456666e-05   4.3011786933400305e-06   -6.259508658346992e-06
-2.989055505456666e-05   4.3011786933400305e-06   -6.259508658346992e-06
-2.989055505456666e-05   4.3011786933400305e-06   -6.259508658346992e-06
-5.1340097945713246e-05   0.0   -4.458945402626216e-05
-5.1340097945713246e-05   0.0   -4.458945402626216e-05
-5.1340097945713246e-05   0.0   -4.458945402626216e-05
-5.1340097945713246e-05   0.0   -4.458945402626216e-05
-5.002723988690618e-05   5.425298037466759e-06   -4.765690273942171e-06
-5.002723988690618e-05   5.425298037466759e-06   -4.765690273942171e-06
-5.002723988690618e-05   5.425298037466759e-06   -4.765690273942171e-06
-5.002723988690618e-05   5.425298037466759e-06   -4.765690273942171e-06
-2.899055223105173e-05   0.0   -3.6571657544552796e-05
-2.899055223105173e-05   0.0   -3.6571657544552796e-05
-2.899055223105173e-05   0.0   -3.6571657544552796e-05
-2.899055223105173e-05   0.0   -3.6571657544552796e-05
-3.8361032320339026e-05   1.6695727124147516e-06   -2.195593435652286e-05
-3.8361032320339026e-05   1.6695727124147516e-06   -2.195593435652286e-05
-3.8361032320339026e-05   1.6695727124147516e-06   -2.195593435652286e-05
-3.8361032320339026e-05   1.6695727124147516e-06   -2.195593435652286e-05
-2.899055223105176e-05   5.425298037466759e-06   -1.5105114514620509e-06
-2.899055223105176e-05   5.425298037466759e-06   -1.5105114514620509e-06
-2.899055223105176e-05   5.425298037466759e-06   -1.5105114514620509e-06
-2.899055223105176e-05   5.425298037466759e-06   -1.5105114514620509e-06
-5.002723988690609e-05   0.0   -3.982683636703278e-05
-5.002723988690609e-05   0.0   -3.982683636703278e-05
-5.002723988690609e-05   0.0   -3.982683636703278e-05
-5.002723988690609e-05   0.0   -3.982683636703278e-05
-4.891404615374444e-05   5.6788246740938336e-06   -1.7785118875242529e-06
-4.891404615374444e-05   5.6788246740938336e-06   -1.7785118875242529e-06
-4.891404615374444e-05   5.6788246740938336e-06   -1.7785118875242529e-06
-4.891404615374444e-05   5.6788246740938336e-06   -1.7785118875242529e-06
-2.8128301632317775e-05   0.0   -3.301412461877918e-05
-2.8128301632317775e-05   0.0   -3.301412461877918e-05
-2.8128301632317775e-05   0.0   -3.301412461877918e-05
-2.8128301632317775e-05   0.0   -3.301412461877918e-05
-3.7980742927197645e-05   2.6299602557274503e-06   -1.817136528074856e-05
-3.7980742927197645e-05   2.6299602557274503e-06   -1.817136528074856e-05
-3.7980742927197645e-05   2.6299602557274503e-06   -1.817136528074856e-05
-3.7980742927197645e-05   2.6299602557274503e-06   -1.817136528074856e-05
-2.8128301632317775e-05   5.678824674093617e-06   1.628782916932069e-06
-2.8128301632317775e-05   5.678824674093617e-06   1.628782916932069e-06
-2.8128301632317775e-05   5.678824674093617e-06   1.628782916932069e-06
-2.8128301632317775e-05   5.678824674093617e-06   1.628782916932069e-06
-4.891404615374435e-05   0.0   -3.6421419423235315e-05
-4.891404615374435e-05   0.0   -3.6421419423235315e-05
-4.891404615374435e-05   0.0   -3.6421419423235315e-05
-4.891404615374435e-05   0.0   -3.6421419423235315e-05
-4.669036304614176e-05   6.108341926139424e-06   3.0386382396996097e-06
-4.669036304614176e-05   6.108341926139424e-06   3.0386382396996097e-06
-4.669036304614176e-05   6.108341926139424e-06   3.0386382396996097e-06
-4.669036304614176e-05   6.108341926139424e-06   3.0386382396996097e-06
-2.671163004713099e-05   0.0   -2.659424493630161e-05
-2.671163004713099e-05   0.0   -2.659424493630161e-05
-2.671163004713099e-05   0.0   -2.659424493630161e-05
-2.671163004713099e-05   0.0   -2.659424493630161e-05
-3.6030822405877874e-05   3.239268476445435e-06   -1.300581875759055e-05
-3.6030822405877874e-05   3.239268476445435e-06   -1.300581875759055e-05
-3.6030822405877874e-05   3.239268476445435e-06   -1.300581875759055e-05
-3.6030822405877874e-05   3.239268476445435e-06   -1.300581875759055e-05
3.7948253178492375e-05   -6.491726638845627e-06   2.260710778902045e-05
3.7948253178492375e-05   -6.491726638845627e-06   2.260710778902045e-05
3.7948253178492375e-05   -6.491726638845627e-06   2.260710778902045e-05
3.7948253178492375e-05   -6.491726638845627e-06   2.260710778902045e-05
1.965989476213594e-05   -5.024777672502307e-06   -6.9933201917677995e-06
1.965989476213594e-05   -5.024777672502307e-06   -6.9933201917677995e-06
1.965989476213594e-05   -5.024777672502307e-06   -6.9933201917677995e-06
1.965989476213594e-05   -5.024777672502307e-06   -6.9933201917677995e-06
1.9171206519245874e-05   -6.654199720367883e-06   1.9940151007445672e-05
1.9171206519245874e-05   -6.654199720367883e-06   1.9940151007445672e-05
1.9171206519245874e-05   -6.654199720367883e-06   1.9940151007445672e-05
1.9171206519245874e-05   -6.654199720367883e-06   1.9940151007445672e-05
3.755056824799943e-05   -5.520372217628425e-06   -1.1372415042120422e-05
3.755056824799943e-05   -5.520372217628425e-06   -1.1372415042120422e-05
3.755056824799943e-05   -5.520372217628425e-06   -1.1372415042120422e-05
3.755056824799943e-05   -5.520372217628425e-06   -1.1372415042120422e-05
2.7411463353896202e-05   -5.6057980115497424e-06   5.577348591071039e-06
2.7411463353896202e-05   -5.6057980115497424e-06   5.577348591071039e-06
2.7411463353896202e-05   -5.6057980115497424e-06   5.577348591071039e-06
2.7411463353896202e-05   -5.6057980115497424e-06   5.577348591071039e-06
3.755056824799943e-05   -6.654199720367883e-06   1.925985450580215e-05
3.755056824799943e-05   -6.654199720367883e-06   1.925985450580215e-05
3.755056824799943e-05   -6.654199720367883e-06   1.925985450580215e-05
3.755056824799943e-05   -6.654199720367883e-06   1.925985450580215e-05
1.9171206519245874e-05   -5.520372217628425e-06   -1.0692118540476885e-05
1.9171206519245874e-05   -5.520372217628425e-06   -1.0692118540476885e-05
1.9171206519245874e-05   -5.520372217628425e-06   -1.0692118540476885e-05
1.9171206519245874e-05   -5.520372217628425e-06   -1.0692118540476885e-05
1.872857288225118e-05   -6.592473793999186e-06   1.7889687115670667e-05
1.872857288225118e-05   -6.592473793999186e-06   1.7889687115670667e-05
1.872857288225118e-05   -6.592473793999186e-06   1.7889687115670667e-05
1.872857288225118e-05   -6.592473793999186e-06   1.7889687115670667e-05
3.708850307494322e-05   -5.5642707766818955e-06   -1.3327118349206428e-05
3.708850307494322e-05   -5.5642707766818955e-06   -1.3327118349206428e-05
3.708850307494322e-05   -5.5642707766818955e-06   -1.3327118349206428e-05
3.708850307494322e-05   -5.5642707766818955e-06   -1.3327118349206428e-05
2.7397621055936115e-05   -5.70417205676731e-06   2.9082924505233047e-06
2.7397621055936115e-05   -5.70417205676731e-06   2.9082924505233047e-06
2.7397621055936115e-05   -5.70417205676731e-06   2.9082924505233047e-06
2.7397621055936115e-05   -5.70417205676731e-06   2.9082924505233047e-06
3.7088503074943284e-05   -6.592473793999402e-06   1.7272765305280336e-05
3.7088503074943284e-05   -6.592473793999402e-06   1.7272765305280336e-05
3.7088503074943284e-05   -6.592473793999402e-06   1.7272765305280336e-05
3.7088503074943284e-05   -6.592473793999402e-06   1.7272765305280336e-05
1.872857288225118e-05   -5.5642707766818955e-06   -1.2710196538815908e-05
1.872857288225118e-05   -5.5642707766818955e-06   -1.2710196538815908e-05
1.872857288225118e-05   -5.5642707766818955e-06   -1.2710196538815908e-05
1.872857288225118e-05   -5.5642707766818955e-06   -1.2710196538815908e-05
1.8188248434830382e-05   -6.2215357533707515e-06   1.4553696648093753e-05
1.8188248434830382e-05   -6.2215357533707515e-06   1.4553696648093753e-05
1.8188248434830382e-05   -6.2215357533707515e-06   1.4553696648093753e-05
1.8188248434830382e-05   -6.2215357533707515e-06   1.4553696648093753e-05
3.636433275430072e-05   -5.442370951689538e-06   -1.6207276098698892e-05
3.636433275430072e-05   -5.442370951689538e-06   -1.6207276098698892e-05
3.636433275430072e-05   -5.442370951689538e-06   -1.6207276098698892e-05
3.636433275430072e-05   -5.442370951689538e-06   -1.6207276098698892e-05
2.6468586280154878e-05   -5.423480113751983e-06   2.743001887814704e-07
2.6468586280154878e-05   -5.423480113751983e-06   2.743001887814704e-07
2.6468586280154878e-05   -5.423480113751983e-06   2.743001887814704e-07
2.6468586280154878e-05   -5.423480113751983e-06   2.743001887814704e-07
1.965989476213594e-05   -6.459487753720334e-06   1.6853289719963565e-05
1.965989476213594e-05   -6.459487753720334e-06   1.6853289719963565e-05
1.965989476213594e-05   -6.459487753720334e-06   1.6853289719963565e-05
1.965989476213594e-05   -6.459487753720334e-06   1.6853289719963565e-05
4.105725298536971e-06   -3.081253677569883e-06   -7.043385607011037e-06
4.105725298536971e-06   -3.081253677569883e-06   -7.043385607011037e-06
4.105725298536971e-06   -3.081253677569883e-06   -7.043385607011037e-06
4.105725298536971e-06   -3.081253677569883e-06   -7.043385607011037e-06
3.3324413187407894e-06   -6.423433023409857e-06   1.9207476575161097e-05
3.3324413187407894e-06   -6.423433023409857e-06   1.9207476575161097e-05
3.3324413187407894e-06   -6.423433023409857e-06   1.9207476575161097e-05
3.3324413187407894e-06   -6.423433023409857e-06   1.9207476575161097e-05
1.9171206519245874e-05   -3.266310893120525e-06   -9.084738703854254e-06
1.9171206519245874e-05   -3.266310893120525e-06   -9.084738703854254e-06
1.9171206519245874e-05   -3.266310893120525e-06   -9.084738703854254e-06
1.9171206519245874e-05   -3.266310893120525e-06   -9.084738703854254e-06
1.1550013466986803e-05   -4.629208638534969e-06   4.434988363826212e-06
1.1550013466986803e-05   -4.629208638534969e-06   4.434988363826212e-06
1.1550013466986803e-05   -4.629208638534969e-06   4.434988363826212e-06
1.1550013466986803e-05   -4.629208638534969e-06   4.434988363826212e-06
1.9171206519245888e-05   -6.4234330234100735e-06   1.7313203296987563e-05
1.9171206519245888e-05   -6.4234330234100735e-06   1.7313203296987563e-05
1.9171206519245888e-05   -6.4234330234100735e-06   1.7313203296987563e-05
1.9171206519245888e-05   -6.4234330234100735e-06   1.7313203296987563e-05
3.3324413187407894e-06   -3.266310893120525e-06   -7.190465425680652e-06
3.3324413187407894e-06   -3.266310893120525e-06   -7.190465425680652e-06
3.3324413187407894e-06   -3.266310893120525e-06   -7.190465425680652e-06
3.3324413187407894e-06   -3.266310893120525e-06   -7.190465425680652e-06
2.7801004887028323e-06   -6.333279895484253e-06   1.9225880747391244e-05
2.7801004887028323e-06   -6.333279895484253e-06   1.9225880747391244e-05
2.7801004887028323e-06   -6.333279895484253e-06   1.9225880747391244e-05
2.7801004887028323e-06   -6.333279895484253e-06   1.9225880747391244e-05
1.872857288225118e-05   -3.346319002697079e-06   -9.147083110861603e-06
1.872857288225118e-05   -3.346319002697079e-06   -9.147083110861603e-06
1.872857288225118e-05   -3.346319002697079e-06   -9.147083110861603e-06
1.872857288225118e-05   -3.346319002697079e-06   -9.147083110861603e-06
1.0884993436737136e-05   -4.532625064007081e-06   4.637332935115014e-06
1.0884993436737136e-05   -4.532625064007081e-06   4.637332935115014e-06
1.0884993436737136e-05   -4.532625064007081e-06   4.637332935115014e-06
1.0884993436737136e-05   -4.532625064007081e-06   4.637332935115014e-06
1.872857288225122e-05   -6.3332798954840366e-06   1.743370421171907e-05
1.872857288225122e-05   -6.3332798954840366e-06   1.743370421171907e-05
1.872857288225122e-05   -6.3332798954840366e-06   1.743370421171907e-05
1.872857288225122e-05   -6.3332798954840366e-06   1.743370421171907e-05
2.7801004887028323e-06   -3.346319002697079e-06   -7.354906575189374e-06
2.7801004887028323e-06   -3.346319002697079e-06   -7.354906575189374e-06
2.7801004887028323e-06   -3.346319002697079e-06   -7.354906575189374e-06
2.7801004887028323e-06   -3.346319002697079e-06   -7.354906575189374e-06
2.166046831075692e-06   -6.155715944240834e-06   1.9839594353581553e-05
2.166046831075692e-06   -6.155715944240834e-06   1.9839594353581553e-05
2.166046831075692e-06   -6.155715944240834e-06   1.9839594353581553e-05
2.166046831075692e-06   -6.155715944240834e-06   1.9839594353581553e-05
1.818824843483037e-05   -3.266803813733706e-06   -8.597422264313738e-06
1.818824843483037e-05   -3.266803813733706e-06   -8.597422264313738e-06
1.818824843483037e-05   -3.266803813733706e-06   -8.597422264313738e-06
1.818824843483037e-05   -3.266803813733706e-06   -8.597422264313738e-06
1.0480080381272166e-05   -4.330618703334531e-06   4.887813425377046e-06
1.0480080381272166e-05   -4.330618703334531e-06   4.887813425377046e-06
1.0480080381272166e-05   -4.330618703334531e-06   4.887813425377046e-06
1.0480080381272166e-05   -4.330618703334531e-06   4.887813425377046e-06
4.105725298536985e-06   -7.736110766895597e-06   1.730722621742743e-05
4.105725298536985e-06   -7.736110766895597e-06   1.730722621742743e-05
4.105725298536985e-06   -7.736110766895597e-06   1.730722621742743e-05
4.105725298536985e-06   -7.736110766895597e-06   1.730722621742743e-05
-1.0841884166176363e-05   -1.2560333479234246e-06   -3.717409772378117e-06
-1.0841884166176363e-05   -1.2560333479234246e-06   -3.717409772378117e-06
-1.0841884166176363e-05   -1.2560333479234246e-06   -3.717409772378117e-06
-1.0841884166176363e-05   -1.2560333479234246e-06   -3.717409772378117e-06
-1.2044138921316774e-05   -7.902758382031605e-06   2.2197477171766243e-05
-1.2044138921316774e-05   -7.902758382031605e-06   2.2197477171766243e-05
-1.2044138921316774e-05   -7.902758382031605e-06   2.2197477171766243e-05
-1.2044138921316774e-05   -7.902758382031605e-06   2.2197477171766243e-05
3.3324413187407894e-06   -1.3250432556372906e-06   -7.376785637499642e-06
3.3324413187407894e-06   -1.3250432556372906e-06   -7.376785637499642e-06
3.3324413187407894e-06   -1.3250432556372906e-06   -7.376785637499642e-06
3.3324413187407894e-06   -1.3250432556372906e-06   -7.376785637499642e-06
-3.7304487441429865e-06   -4.407442299311434e-06   6.244137226844556e-06
-3.7304487441429865e-06   -4.407442299311434e-06   6.244137226844556e-06
-3.7304487441429865e-06   -4.407442299311434e-06   6.244137226844556e-06
-3.7304487441429865e-06   -4.407442299311434e-06   6.244137226844556e-06
3.3324413187407894e-06   -7.902758382031822e-06   1.8250848095929567e-05
3.3324413187407894e-06   -7.902758382031822e-06   1.8250848095929567e-05
3.3324413187407894e-06   -7.902758382031822e-06   1.8250848095929567e-05
3.3324413187407894e-06   -7.902758382031822e-06   1.8250848095929567e-05
-1.2044138921316747e-05   -1.3250432556372906e-06   -3.430156561663061e-06
-1.2044138921316747e-05   -1.3250432556372906e-06   -3.430156561663061e-06
-1.2044138921316747e-05   -1.3250432556372906e-06   -3.430156561663061e-06
-1.2044138921316747e-05   -1.3250432556372906e-06   -3.430156561663061e-06
-1.2780465755860606e-05   -7.860432764299164e-06   2.3037969132847272e-05
-1.2780465755860606e-05   -7.860432764299164e-06   2.3037969132847272e-05
-1.2780465755860606e-05   -7.860432764299164e-06   2.3037969132847272e-05
-1.2780465755860606e-05   -7.860432764299164e-06   2.3037969132847272e-05
2.7801004887028323e-06   -1.4101832325123624e-06   -6.766457660497183e-06
2.7801004887028323e-06   -1.4101832325123624e-06   -6.766457660497183e-06
2.7801004887028323e-06   -1.4101832325123624e-06   -6.766457660497183e-06
2.7801004887028323e-06   -1.4101832325123624e-06   -6.766457660497183e-06
-4.545102142112522e-06   -4.389300476976676e-06   7.229683737540362e-06
-4.545102142112522e-06   -4.389300476976676e-06   7.229683737540362e-06
-4.545102142112522e-06   -4.389300476976676e-06   7.229683737540362e-06
-4.545102142112522e-06   -4.389300476976676e-06   7.229683737540362e-06
2.7801004887028187e-06   -7.860432764299164e-06   1.916781941377506e-05
2.7801004887028187e-06   -7.860432764299164e-06   1.916781941377506e-05
2.7801004887028187e-06   -7.860432764299164e-06   1.916781941377506e-05
2.7801004887028187e-06   -7.860432764299164e-06   1.916781941377506e-05
-1.2780465755860579e-05   -1.4101832325123624e-06   -2.896307941425134e-06
-1.2780465755860579e-05   -1.4101832325123624e-06   -2.896307941425134e-06
-1.2780465755860579e-05   -1.4101832325123624e-06   -2.896307941425134e-06
-1.2780465755860579e-05   -1.4101832325123624e-06   -2.896307941425134e-06
-1.3644704911831326e-05   -7.578531972778383e-06   2.4123768251124635e-05
-1.3644704911831326e-05   -7.578531972778383e-06   2.4123768251124635e-05
-1.3644704911831326e-05   -7.578531972778383e-06   2.4123768251124635e-05
-1.3644704911831326e-05   -7.578531972778383e-06   2.4123768251124635e-05
2.166046831075692e-06   -1.3985976035114922e-06   -5.935445275280721e-06
2.166046831075692e-06   -1.3985976035114922e-06   -5.935445275280721e-06
2.166046831075692e-06   -1.3985976035114922e-06   -5.935445275280721e-06
2.166046831075692e-06   -1.3985976035114922e-06   -5.935445275280721e-06
-5.209249304075875e-06   -4.209116413771011e-06   8.043026236127587e-06
-5.209249304075875e-06   -4.209116413771011e-06   8.043026236127587e-06
-5.209249304075875e-06   -4.209116413771011e-06   8.043026236127587e-06
-5.209249304075875e-06   -4.209116413771011e-06   8.043026236127587e-06
-1.0841884166176383e-05   -9.590790267008592e-06   2.0929528177698995e-05
-1.0841884166176383e-05   -9.590790267008592e-06   2.0929528177698995e-05
-1.0841884166176383e-05   -9.590790267008592e-06   2.0929528177698995e-05
-1.0841884166176383e-05   -9.590790267008592e-06   2.0929528177698995e-05
-2.781868056705403e-05   1.4639775755955018e-06   -7.322717848678648e-07
-2.781868056705403e-05   1.4639775755955018e-06   -7.322717848678648e-07
-2.781868056705403e-05   1.4639775755955018e-06   -7.322717848678648e-07
-2.781868056705403e-05   1.4639775755955018e-06   -7.322717848678648e-07
-2.9269006585631e-05   -1.0731519361887416e-05   2.953294634665943e-05
-2.9269006585631e-05   -1.0731519361887416e-05   2.953294634665943e-05
-2.9269006585631e-05   -1.0731519361887416e-05   2.953294634665943e-05
-2.9269006585631e-05   -1.0731519361887416e-05   2.953294634665943e-05
-1.2044138921316747e-05   1.386861644667647e-06   -6.446195031130689e-06
-1.2044138921316747e-05   1.386861644667647e-06   -6.446195031130689e-06
-1.2044138921316747e-05   1.386861644667647e-06   -6.446195031130689e-06
-1.2044138921316747e-05   1.386861644667647e-06   -6.446195031130689e-06
-1.971763179003526e-05   -3.930010745504609e-06   9.533083184170101e-06
-1.971763179003526e-05   -3.930010745504609e-06   9.533083184170101e-06
-1.971763179003526e-05   -3.930010745504609e-06   9.533083184170101e-06
-1.971763179003526e-05   -3.930010745504609e-06   9.533083184170101e-06
-1.2044138921316774e-05   -1.0731519361887416e-05   2.2261917742726306e-05
-1.2044138921316774e-05   -1.0731519361887416e-05   2.2261917742726306e-05
-1.2044138921316774e-05   -1.0731519361887416e-05   2.2261917742726306e-05
-1.2044138921316774e-05   -1.0731519361887416e-05   2.2261917742726306e-05
-2.9269006585631e-05   1.386861644667647e-06   8.248335728023269e-07
-2.9269006585631e-05   1.386861644667647e-06   8.248335728023269e-07
-2.9269006585631e-05   1.386861644667647e-06   8.248335728023269e-07
-2.9269006585631e-05   1.386861644667647e-06   8.248335728023269e-07
-3.0151882742015555e-05   -1.0785976380595867e-05   3.119350762219742e-05
-3.0151882742015555e-05   -1.0785976380595867e-05   3.119350762219742e-05
-3.0151882742015555e-05   -1.0785976380595867e-05   3.119350762219742e-05
-3.0151882742015555e-05   -1.0785976380595867e-05   3.119350762219742e-05
-1.2780465755860579e-05   1.2375694359446476e-06   -4.9729815113184344e-06
-1.2780465755860579e-05   1.2375694359446476e-06   -4.9729815113184344e-06
-1.2780465755860579e-05   1.2375694359446476e-06   -4.9729815113184344e-06
-1.2780465755860579e-05   1.2375694359446476e-06   -4.9729815113184344e-06
-2.0656009626679005e-05   -4.543537429979941e-06   1.1621589059600376e-05
-2.0656009626679005e-05   -4.543537429979941e-06   1.1621589059600376e-05
-2.0656009626679005e-05   -4.543537429979941e-06   1.1621589059600376e-05
-2.0656009626679005e-05   -4.543537429979941e-06   1.1621589059600376e-05
-1.2780465755860572e-05   -1.0785976380595867e-05   2.3979380132273134e-05
-1.2780465755860572e-05   -1.0785976380595867e-05   2.3979380132273134e-05
-1.2780465755860572e-05   -1.0785976380595867e-05   2.3979380132273134e-05
-1.2780465755860572e-05   -1.0785976380595867e-05   2.3979380132273134e-05
-3.0151882742015508e-05   1.2375694359446476e-06   2.241145978605988e-06
-3.0151882742015508e-05   1.2375694359446476e-06   2.241145978605988e-06
-3.0151882742015508e-05   1.2375694359446476e-06   2.241145978605988e-06
-3.0151882742015508e-05   1.2375694359446476e-06   2.241145978605988e-06
-3.110442696222002e-05   -9.811098195299309e-06   3.189902753395922e-05
-3.110442696222002e-05   -9.811098195299309e-06   3.189902753395922e-05
-3.110442696222002e-05   -9.811098195299309e-06   3.189902753395922e-05
-3.110442696222002e-05   -9.811098195299309e-06   3.189902753395922e-05
-1.3644704911831279e-05   1.0676101801342791e-06   -3.7277342419486675e-06
-1.3644704911831279e-05   1.0676101801342791e-06   -3.7277342419486675e-06
-1.3644704911831279e-05   1.0676101801342791e-06   -3.7277342419486675e-06
-1.3644704911831279e-05   1.0676101801342791e-06   -3.7277342419486675e-06
-2.1627406474107287e-05   -4.573941911356107e-06   1.2961699616739297e-05
-2.1627406474107287e-05   -4.573941911356107e-06   1.2961699616739297e-05
-2.1627406474107287e-05   -4.573941911356107e-06   1.2961699616739297e-05
-2.1627406474107287e-05   -4.573941911356107e-06   1.2961699616739297e-05
-2.7818680567053942e-05   0.0   2.3098719339148294e-05
-2.7818680567053942e-05   0.0   2.3098719339148294e-05
-2.7818680567053942e-05   0.0   2.3098719339148294e-05
-2.7818680567053942e-05   0.0   2.3098719339148294e-05
-4.8862329079922384e-05   6.422053690123379e-06   -8.120795968225058e-06
-4.8862329079922384e-05   6.422053690123379e-06   -8.120795968225058e-06
-4.8862329079922384e-05   6.422053690123379e-06   -8.120795968225058e-06
-4.8862329079922384e-05   6.422053690123379e-06   -8.120795968225058e-06
-5.0851927044689276e-05   0.0   3.368410371928053e-05
-5.0851927044689276e-05   0.0   3.368410371928053e-05
-5.0851927044689276e-05   0.0   3.368410371928053e-05
-5.0851927044689276e-05   0.0   3.368410371928053e-05
-2.9269006585630946e-05   6.210938293584522e-06   -6.013993355300819e-06
-2.9269006585630946e-05   6.210938293584522e-06   -6.013993355300819e-06
-2.9269006585630946e-05   6.210938293584522e-06   -6.013993355300819e-06
-2.9269006585630946e-05   6.210938293584522e-06   -6.013993355300819e-06
-3.7531011037828167e-05   3.8092292944337178e-06   9.197039464518364e-06
-3.7531011037828167e-05   3.8092292944337178e-06   9.197039464518364e-06
-3.7531011037828167e-05   3.8092292944337178e-06   9.197039464518364e-06
-3.7531011037828167e-05   3.8092292944337178e-06   9.197039464518364e-06
-2.9269006585630913e-05   0.0   2.9957540743129904e-05
-2.9269006585630913e-05   0.0   2.9957540743129904e-05
-2.9269006585630913e-05   0.0   2.9957540743129904e-05
-2.9269006585630913e-05   0.0   2.9957540743129904e-05
-5.0851927044689364e-05   6.210938293584522e-06   -2.2874303791500837e-06
-5.0851927044689364e-05   6.210938293584522e-06   -2.2874303791500837e-06
-5.0851927044689364e-05   6.210938293584522e-06   -2.2874303791500837e-06
-5.0851927044689364e-05   6.210938293584522e-06   -2.2874303791500837e-06
-5.185265499985938e-05   0.0   3.743533347057239e-05
-5.185265499985938e-05   0.0   3.743533347057239e-05
-5.185265499985938e-05   0.0   3.743533347057239e-05
-5.185265499985938e-05   0.0   3.743533347057239e-05
-3.0151882742015508e-05   6.056348934134351e-06   -2.3664296529814574e-06
-3.0151882742015508e-05   6.056348934134351e-06   -2.3664296529814574e-06
-3.0151882742015508e-05   6.056348934134351e-06   -2.3664296529814574e-06
-3.0151882742015508e-05   6.056348934134351e-06   -2.3664296529814574e-06
-3.946380296033089e-05   3.1841944050513445e-06   1.4876730094994428e-05
-3.946380296033089e-05   3.1841944050513445e-06   1.4876730094994428e-05
-3.946380296033089e-05   3.1841944050513445e-06   1.4876730094994428e-05
-3.946380296033089e-05   3.1841944050513445e-06   1.4876730094994428e-05
-3.0151882742015508e-05   0.0   3.3801524110091776e-05
-3.0151882742015508e-05   0.0   3.3801524110091776e-05
-3.0151882742015508e-05   0.0   3.3801524110091776e-05
-3.0151882742015508e-05   0.0   3.3801524110091776e-05
-5.1852654999859565e-05   6.056348934134351e-06   1.2673797074992752e-06
-5.1852654999859565e-05   6.056348934134351e-06   1.2673797074992752e-06
-5.1852654999859565e-05   6.056348934134351e-06   1.2673797074992752e-06
-5.1852654999859565e-05   6.056348934134351e-06   1.2673797074992752e-06
-5.296205991686272e-05   0.0   4.243493324170109e-05
-5.296205991686272e-05   0.0   4.243493324170109e-05
-5.296205991686272e-05   0.0   4.243493324170109e-05
-5.296205991686272e-05   0.0   4.243493324170109e-05
-3.110442696222002e-05   5.0632830907082396e-06   2.967575129538341e-06
-3.110442696222002e-05   5.0632830907082396e-06   2.967575129538341e-06
-3.110442696222002e-05   5.0632830907082396e-06   2.967575129538341e-06
-3.110442696222002e-05   5.0632830907082396e-06   2.967575129538341e-06
-3.9774955634879344e-05   2.24446401367491e-06   1.9109747696857075e-05
-3.9774955634879344e-05   2.24446401367491e-06   1.9109747696857075e-05
-3.9774955634879344e-05   2.24446401367491e-06   1.9109747696857075e-05
-3.9774955634879344e-05   2.24446401367491e-06   1.9109747696857075e-05
3.347513207388693e-05   -5.024777672502307e-06   2.3680328723112956e-05
3.347513207388693e-05   -5.024777672502307e-06   2.3680328723112956e-05
3.347513207388693e-05   -5.024777672502307e-06   2.3680328723112956e-05
3.347513207388693e-05   -5.024777672502307e-06   2.3680328723112956e-05
1.6909990172658076e-05   -3.8080833179390296e-06   -3.198224499530557e-06
1.6909990172658076e-05   -3.8080833179390296e-06   -3.198224499530557e-06
1.6909990172658076e-05   -3.8080833179390296e-06   -3.198224499530557e-06
1.6909990172658076e-05   -3.8080833179390296e-06   -3.198224499530557e-06
1.6469436179521247e-05   -5.520372217628208e-06   2.0650943385690083e-05
1.6469436179521247e-05   -5.520372217628208e-06   2.0650943385690083e-05
1.6469436179521247e-05   -5.520372217628208e-06   2.0650943385690083e-05
1.6469436179521247e-05   -5.520372217628208e-06   2.0650943385690083e-05
3.26910784155537e-05   -4.311101948297575e-06   -7.110689169295658e-06
3.26910784155537e-05   -4.311101948297575e-06   -7.110689169295658e-06
3.26910784155537e-05   -4.311101948297575e-06   -7.110689169295658e-06
3.26910784155537e-05   -4.311101948297575e-06   -7.110689169295658e-06
2.3778515975532626e-05   -4.481040084108098e-06   7.845544445559034e-06
2.3778515975532626e-05   -4.481040084108098e-06   7.845544445559034e-06
2.3778515975532626e-05   -4.481040084108098e-06   7.845544445559034e-06
2.3778515975532626e-05   -4.481040084108098e-06   7.845544445559034e-06
3.269107841555365e-05   -5.520372217628208e-06   1.9925381224091855e-05
3.269107841555365e-05   -5.520372217628208e-06   1.9925381224091855e-05
3.269107841555365e-05   -5.520372217628208e-06   1.9925381224091855e-05
3.269107841555365e-05   -5.520372217628208e-06   1.9925381224091855e-05
1.646943617952128e-05   -4.311101948297575e-06   -6.385127007697247e-06
1.646943617952128e-05   -4.311101948297575e-06   -6.385127007697247e-06
1.646943617952128e-05   -4.311101948297575e-06   -6.385127007697247e-06
1.646943617952128e-05   -4.311101948297575e-06   -6.385127007697247e-06
1.590186683118241e-05   -5.5642707766818955e-06   1.852472102673703e-05
1.590186683118241e-05   -5.5642707766818955e-06   1.852472102673703e-05
1.590186683118241e-05   -5.5642707766818955e-06   1.852472102673703e-05
1.590186683118241e-05   -5.5642707766818955e-06   1.852472102673703e-05
3.1896946286509554e-05   -4.384689675673847e-06   -8.841493392746275e-06
3.1896946286509554e-05   -4.384689675673847e-06   -8.841493392746275e-06
3.1896946286509554e-05   -4.384689675673847e-06   -8.841493392746275e-06
3.1896946286509554e-05   -4.384689675673847e-06   -8.841493392746275e-06
2.356423888220958e-05   -4.675555713954879e-06   5.2208719040555815e-06
2.356423888220958e-05   -4.675555713954879e-06   5.2208719040555815e-06
2.356423888220958e-05   -4.675555713954879e-06   5.2208719040555815e-06
2.356423888220958e-05   -4.675555713954879e-06   5.2208719040555815e-06
3.1896946286509554e-05   -5.5642707766818955e-06   1.7816972366132308e-05
3.1896946286509554e-05   -5.5642707766818955e-06   1.7816972366132308e-05
3.1896946286509554e-05   -5.5642707766818955e-06   1.7816972366132308e-05
3.1896946286509554e-05   -5.5642707766818955e-06   1.7816972366132308e-05
1.590186683118241e-05   -4.384689675673847e-06   -8.133744732141527e-06
1.590186683118241e-05   -4.384689675673847e-06   -8.133744732141527e-06
1.590186683118241e-05   -4.384689675673847e-06   -8.133744732141527e-06
1.590186683118241e-05   -4.384689675673847e-06   -8.133744732141527e-06
1.530595415329603e-05   -5.442370951689321e-06   1.536638021927821e-05
1.530595415329603e-05   -5.442370951689321e-06   1.536638021927821e-05
1.530595415329603e-05   -5.442370951689321e-06   1.536638021927821e-05
1.530595415329603e-05   -5.442370951689321e-06   1.536638021927821e-05
3.090250413582323e-05   -4.351707911678373e-06   -1.1282267575607235e-05
3.090250413582323e-05   -4.351707911678373e-06   -1.1282267575607235e-05
3.090250413582323e-05   -4.351707911678373e-06   -1.1282267575607235e-05
3.090250413582323e-05   -4.351707911678373e-06   -1.1282267575607235e-05
2.252358368178176e-05   -4.551407269560298e-06   2.8024194625250894e-06
2.252358368178176e-05   -4.551407269560298e-06   2.8024194625250894e-06
2.252358368178176e-05   -4.551407269560298e-06   2.8024194625250894e-06
2.252358368178176e-05   -4.551407269560298e-06   2.8024194625250894e-06
1.6909990172658103e-05   -3.081253677569883e-06   2.2333339474917393e-05
1.6909990172658103e-05   -3.081253677569883e-06   2.2333339474917393e-05
1.6909990172658103e-05   -3.081253677569883e-06   2.2333339474917393e-05
1.6909990172658103e-05   -3.081253677569883e-06   2.2333339474917393e-05
1.8046612914562307e-06   -1.3372408866594871e-06   -1.7958009858729711e-06
1.8046612914562307e-06   -1.3372408866594871e-06   -1.7958009858729711e-06
1.8046612914562307e-06   -1.3372408866594871e-06   -1.7958009858729711e-06
1.8046612914562307e-06   -1.3372408866594871e-06   -1.7958009858729711e-06
1.366442915551864e-06   -3.266310893120525e-06   2.3254273752393697e-05
1.366442915551864e-06   -3.266310893120525e-06   2.3254273752393697e-05
1.366442915551864e-06   -3.266310893120525e-06   2.3254273752393697e-05
1.366442915551864e-06   -3.266310893120525e-06   2.3254273752393697e-05
1.646943617952128e-05   -1.6063933429857034e-06   -2.9133322176362717e-06
1.646943617952128e-05   -1.6063933429857034e-06   -2.9133322176362717e-06
1.646943617952128e-05   -1.6063933429857034e-06   -2.9133322176362717e-06
1.646943617952128e-05   -1.6063933429857034e-06   -2.9133322176362717e-06
9.04976410220033e-06   -2.160635826602055e-06   9.785333401401703e-06
9.04976410220033e-06   -2.160635826602055e-06   9.785333401401703e-06
9.04976410220033e-06   -2.160635826602055e-06   9.785333401401703e-06
9.04976410220033e-06   -2.160635826602055e-06   9.785333401401703e-06
1.646943617952126e-05   -3.266310893120525e-06   2.2258323222312782e-05
1.646943617952126e-05   -3.266310893120525e-06   2.2258323222312782e-05
1.646943617952126e-05   -3.266310893120525e-06   2.2258323222312782e-05
1.646943617952126e-05   -3.266310893120525e-06   2.2258323222312782e-05
1.366442915551864e-06   -1.6063933429857034e-06   -1.917381687555411e-06
1.366442915551864e-06   -1.6063933429857034e-06   -1.917381687555411e-06
1.366442915551864e-06   -1.6063933429857034e-06   -1.917381687555411e-06
1.366442915551864e-06   -1.6063933429857034e-06   -1.917381687555411e-06
8.076657632621138e-07   -3.346319002697296e-06   2.3026848461152457e-05
8.076657632621138e-07   -3.346319002697296e-06   2.3026848461152457e-05
8.076657632621138e-07   -3.346319002697296e-06   2.3026848461152457e-05
8.076657632621138e-07   -3.346319002697296e-06   2.3026848461152457e-05
1.590186683118241e-05   -1.7812956585954408e-06   -3.069167325175641e-06
1.590186683118241e-05   -1.7812956585954408e-06   -3.069167325175641e-06
1.590186683118241e-05   -1.7812956585954408e-06   -3.069167325175641e-06
1.590186683118241e-05   -1.7812956585954408e-06   -3.069167325175641e-06
8.493037307632849e-06   -2.2616726273235604e-06   9.56710806197732e-06
8.493037307632849e-06   -2.2616726273235604e-06   9.56710806197732e-06
8.493037307632849e-06   -2.2616726273235604e-06   9.56710806197732e-06
8.493037307632849e-06   -2.2616726273235604e-06   9.56710806197732e-06
1.5901866831182377e-05   -3.346319002697079e-06   2.2087834454691496e-05
1.5901866831182377e-05   -3.346319002697079e-06   2.2087834454691496e-05
1.5901866831182377e-05   -3.346319002697079e-06   2.2087834454691496e-05
1.5901866831182377e-05   -3.346319002697079e-06   2.2087834454691496e-05
8.076657632621138e-07   -1.7812956585954408e-06   -2.1301533187147474e-06
8.076657632621138e-07   -1.7812956585954408e-06   -2.1301533187147474e-06
8.076657632621138e-07   -1.7812956585954408e-06   -2.1301533187147474e-06
8.076657632621138e-07   -1.7812956585954408e-06   -2.1301533187147474e-06
1.9046265651084321e-07   -3.2668038137339227e-06   2.335647339890372e-05
1.9046265651084321e-07   -3.2668038137339227e-06   2.335647339890372e-05
1.9046265651084321e-07   -3.2668038137339227e-06   2.335647339890372e-05
1.9046265651084321e-07   -3.2668038137339227e-06   2.335647339890372e-05
1.5305954153296016e-05   -1.853906769985281e-06   -2.6837506553207136e-06
1.5305954153296016e-05   -1.853906769985281e-06   -2.6837506553207136e-06
1.5305954153296016e-05   -1.853906769985281e-06   -2.6837506553207136e-06
1.5305954153296016e-05   -1.853906769985281e-06   -2.6837506553207136e-06
8.042070663352176e-06   -2.2379898422203275e-06   9.653171671260361e-06
8.042070663352176e-06   -2.2379898422203275e-06   9.653171671260361e-06
8.042070663352176e-06   -2.2379898422203275e-06   9.653171671260361e-06
8.042070663352176e-06   -2.2379898422203275e-06   9.653171671260361e-06
1.8046612914562172e-06   -1.2560333479234246e-06   2.281767653271316e-05
1.8046612914562172e-06   -1.2560333479234246e-06   2.281767653271316e-05
1.8046612914562172e-06   -1.2560333479234246e-06   2.281767653271316e-05
1.8046612914562172e-06   -1.2560333479234246e-06   2.281767653271316e-05
-1.2833855178584323e-05   1.2024107956998178e-06   -1.0478443118050462e-07
-1.2833855178584323e-05   1.2024107956998178e-06   -1.0478443118050462e-07
-1.2833855178584323e-05   1.2024107956998178e-06   -1.0478443118050462e-07
-1.2833855178584323e-05   1.2024107956998178e-06   -1.0478443118050462e-07
-1.332783958925385e-05   -1.3250432556372906e-06   2.4462096474584232e-05
-1.332783958925385e-05   -1.3250432556372906e-06   2.4462096474584232e-05
-1.332783958925385e-05   -1.3250432556372906e-06   2.4462096474584232e-05
-1.332783958925385e-05   -1.3250432556372906e-06   2.4462096474584232e-05
1.366442915551864e-06   9.98528301045373e-07   -1.4225173007681674e-06
1.366442915551864e-06   9.98528301045373e-07   -1.4225173007681674e-06
1.366442915551864e-06   9.98528301045373e-07   -1.4225173007681674e-06
1.366442915551864e-06   9.98528301045373e-07   -1.4225173007681674e-06
-5.737316469323996e-06   1.23875398489251e-08   1.1008766130742845e-05
-5.737316469323996e-06   1.23875398489251e-08   1.1008766130742845e-05
-5.737316469323996e-06   1.23875398489251e-08   1.1008766130742845e-05
-5.737316469323996e-06   1.23875398489251e-08   1.1008766130742845e-05
1.366442915551864e-06   -1.3250432556372906e-06   2.3067953540574612e-05
1.366442915551864e-06   -1.3250432556372906e-06   2.3067953540574612e-05
1.366442915551864e-06   -1.3250432556372906e-06   2.3067953540574612e-05
1.366442915551864e-06   -1.3250432556372906e-06   2.3067953540574612e-05
-1.332783958925385e-05   9.985283010455898e-07   -2.8374366758628956e-08
-1.332783958925385e-05   9.985283010455898e-07   -2.8374366758628956e-08
-1.332783958925385e-05   9.985283010455898e-07   -2.8374366758628956e-08
-1.332783958925385e-05   9.985283010455898e-07   -2.8374366758628956e-08
-1.3988687494046083e-05   -1.4101832325121456e-06   2.4946659912971248e-05
-1.3988687494046083e-05   -1.4101832325121456e-06   2.4946659912971248e-05
-1.3988687494046083e-05   -1.4101832325121456e-06   2.4946659912971248e-05
-1.3988687494046083e-05   -1.4101832325121456e-06   2.4946659912971248e-05
8.076657632621138e-07   8.087543293653927e-07   -1.0452913863357832e-06
8.076657632621138e-07   8.087543293653927e-07   -1.0452913863357832e-06
8.076657632621138e-07   8.087543293653927e-07   -1.0452913863357832e-06
8.076657632621138e-07   8.087543293653927e-07   -1.0452913863357832e-06
-6.2242052150526605e-06   -4.346091761779289e-08   1.1185822725712138e-05
-6.2242052150526605e-06   -4.346091761779289e-08   1.1185822725712138e-05
-6.2242052150526605e-06   -4.346091761779289e-08   1.1185822725712138e-05
-6.2242052150526605e-06   -4.346091761779289e-08   1.1185822725712138e-05
8.076657632621138e-07   -1.4101832325123624e-06   2.3615297375844595e-05
8.076657632621138e-07   -1.4101832325123624e-06   2.3615297375844595e-05
8.076657632621138e-07   -1.4101832325123624e-06   2.3615297375844595e-05
8.076657632621138e-07   -1.4101832325123624e-06   2.3615297375844595e-05
-1.3988687494046056e-05   8.087543293653927e-07   2.860711507908292e-07
-1.3988687494046056e-05   8.087543293653927e-07   2.860711507908292e-07
-1.3988687494046056e-05   8.087543293653927e-07   2.860711507908292e-07
-1.3988687494046056e-05   8.087543293653927e-07   2.860711507908292e-07
-1.4692737442983334e-05   -1.3985976035114922e-06   2.552781467049254e-05
-1.4692737442983334e-05   -1.3985976035114922e-06   2.552781467049254e-05
-1.4692737442983334e-05   -1.3985976035114922e-06   2.552781467049254e-05
-1.4692737442983334e-05   -1.3985976035114922e-06   2.552781467049254e-05
1.9046265651084321e-07   6.7258833125498e-07   -5.202303895242733e-07
1.9046265651084321e-07   6.7258833125498e-07   -5.202303895242733e-07
1.9046265651084321e-07   6.7258833125498e-07   -5.202303895242733e-07
1.9046265651084321e-07   6.7258833125498e-07   -5.202303895242733e-07
-6.8445756815440245e-06   -8.273755668412007e-08   1.1658029039997568e-05
-6.8445756815440245e-06   -8.273755668412007e-08   1.1658029039997568e-05
-6.8445756815440245e-06   -8.273755668412007e-08   1.1658029039997568e-05
-6.8445756815440245e-06   -8.273755668412007e-08   1.1658029039997568e-05
-1.2833855178584282e-05   1.4639775755955018e-06   2.0645020300834706e-05
-1.2833855178584282e-05   1.4639775755955018e-06   2.0645020300834706e-05
-1.2833855178584282e-05   1.4639775755955018e-06   2.0645020300834706e-05
-1.2833855178584282e-05   1.4639775755955018e-06   2.0645020300834706e-05
-2.71911026498177e-05   3.898869788614839e-06   -1.8227901567426184e-06
-2.71911026498177e-05   3.898869788614839e-06   -1.8227901567426184e-06
-2.71911026498177e-05   3.898869788614839e-06   -1.8227901567426184e-06
-2.71911026498177e-05   3.898869788614839e-06   -1.8227901567426184e-06
-2.7907549067737432e-05   1.386861644667647e-06   2.283133386852805e-05
-2.7907549067737432e-05   1.386861644667647e-06   2.283133386852805e-05
-2.7907549067737432e-05   1.386861644667647e-06   2.283133386852805e-05
-2.7907549067737432e-05   1.386861644667647e-06   2.283133386852805e-05
-1.332783958925381e-05   3.6956547503532843e-06   -2.8534577923560605e-06
-1.332783958925381e-05   3.6956547503532843e-06   -2.8534577923560605e-06
-1.332783958925381e-05   3.6956547503532843e-06   -2.8534577923560605e-06
-1.332783958925381e-05   3.6956547503532843e-06   -2.8534577923560605e-06
-2.0156924169010702e-05   2.653519932792163e-06   9.153630731108806e-06
-2.0156924169010702e-05   2.653519932792163e-06   9.153630731108806e-06
-2.0156924169010702e-05   2.653519932792163e-06   9.153630731108806e-06
-2.0156924169010702e-05   2.653519932792163e-06   9.153630731108806e-06
-1.3327839589253823e-05   1.386861644667647e-06   2.1446058005116604e-05
-1.3327839589253823e-05   1.386861644667647e-06   2.1446058005116604e-05
-1.3327839589253823e-05   1.386861644667647e-06   2.1446058005116604e-05
-1.3327839589253823e-05   1.386861644667647e-06   2.1446058005116604e-05
-2.790754906773739e-05   3.6956547503532843e-06   -1.4681819289446944e-06
-2.790754906773739e-05   3.6956547503532843e-06   -1.4681819289446944e-06
-2.790754906773739e-05   3.6956547503532843e-06   -1.4681819289446944e-06
-2.790754906773739e-05   3.6956547503532843e-06   -1.4681819289446944e-06
-2.8786590446138697e-05   1.2375694359446476e-06   2.4231421089479033e-05
-2.8786590446138697e-05   1.2375694359446476e-06   2.4231421089479033e-05
-2.8786590446138697e-05   1.2375694359446476e-06   2.4231421089479033e-05
-2.8786590446138697e-05   1.2375694359446476e-06   2.4231421089479033e-05
-1.3988687494046056e-05   3.5066273466133682e-06   -1.7931852437430486e-06
-1.3988687494046056e-05   3.5066273466133682e-06   -1.7931852437430486e-06
-1.3988687494046056e-05   3.5066273466133682e-06   -1.7931852437430486e-06
-1.3988687494046056e-05   3.5066273466133682e-06   -1.7931852437430486e-06
-2.068848847362951e-05   2.6091110437559926e-06   9.911659503943678e-06
-2.068848847362951e-05   2.6091110437559926e-06   9.911659503943678e-06
-2.068848847362951e-05   2.6091110437559926e-06   9.911659503943678e-06
-2.068848847362951e-05   2.6091110437559926e-06   9.911659503943678e-06
-1.3988687494046042e-05   1.2375694359446476e-06   2.2869986343077974e-05
-1.3988687494046042e-05   1.2375694359446476e-06   2.2869986343077974e-05
-1.3988687494046042e-05   1.2375694359446476e-06   2.2869986343077974e-05
-1.3988687494046042e-05   1.2375694359446476e-06   2.2869986343077974e-05
-2.8786590446138697e-05   3.5066273466131514e-06   -4.317504973419626e-07
-2.8786590446138697e-05   3.5066273466131514e-06   -4.317504973419626e-07
-2.8786590446138697e-05   3.5066273466131514e-06   -4.317504973419626e-07
-2.8786590446138697e-05   3.5066273466131514e-06   -4.317504973419626e-07
-2.9715528070531322e-05   1.0676101801340623e-06   2.5337766422261327e-05
-2.9715528070531322e-05   1.0676101801340623e-06   2.5337766422261327e-05
-2.9715528070531322e-05   1.0676101801340623e-06   2.5337766422261327e-05
-2.9715528070531322e-05   1.0676101801340623e-06   2.5337766422261327e-05
-1.4692737442983293e-05   3.251279080129354e-06   -1.0104192969823535e-06
-1.4692737442983293e-05   3.251279080129354e-06   -1.0104192969823535e-06
-1.4692737442983293e-05   3.251279080129354e-06   -1.0104192969823535e-06
-1.4692737442983293e-05   3.251279080129354e-06   -1.0104192969823535e-06
-2.1581220429472576e-05   2.4566083384259304e-06   1.0947188125522513e-05
-2.1581220429472576e-05   2.4566083384259304e-06   1.0947188125522513e-05
-2.1581220429472576e-05   2.4566083384259304e-06   1.0947188125522513e-05
-2.1581220429472576e-05   2.4566083384259304e-06   1.0947188125522513e-05
-2.71911026498177e-05   6.422053690123379e-06   1.086419923121537e-05
-2.71911026498177e-05   6.422053690123379e-06   1.086419923121537e-05
-2.71911026498177e-05   6.422053690123379e-06   1.086419923121537e-05
-2.71911026498177e-05   6.422053690123379e-06   1.086419923121537e-05
-4.096132466437914e-05   6.340876892155754e-06   -1.2134876871834274e-05
-4.096132466437914e-05   6.340876892155754e-06   -1.2134876871834274e-05
-4.096132466437914e-05   6.340876892155754e-06   -1.2134876871834274e-05
-4.096132466437914e-05   6.340876892155754e-06   -1.2134876871834274e-05
-4.224915702927498e-05   6.210938293584305e-06   1.614674036106952e-05
-4.224915702927498e-05   6.210938293584305e-06   1.614674036106952e-05
-4.224915702927498e-05   6.210938293584305e-06   1.614674036106952e-05
-4.224915702927498e-05   6.210938293584305e-06   1.614674036106952e-05
-2.790754906773739e-05   6.467993994659169e-06   -7.910172995471298e-06
-2.790754906773739e-05   6.467993994659169e-06   -7.910172995471298e-06
-2.790754906773739e-05   6.467993994659169e-06   -7.910172995471298e-06
-2.790754906773739e-05   6.467993994659169e-06   -7.910172995471298e-06
-3.3185473044597866e-05   6.455678058541869e-06   8.937565276330938e-07
-3.3185473044597866e-05   6.455678058541869e-06   8.937565276330938e-07
-3.3185473044597866e-05   6.455678058541869e-06   8.937565276330938e-07
-3.3185473044597866e-05   6.455678058541869e-06   8.937565276330938e-07
-2.7907549067737364e-05   6.210938293584522e-06   1.599250694042469e-05
-2.7907549067737364e-05   6.210938293584522e-06   1.599250694042469e-05
-2.7907549067737364e-05   6.210938293584522e-06   1.599250694042469e-05
-2.7907549067737364e-05   6.210938293584522e-06   1.599250694042469e-05
-4.224915702927498e-05   6.467993994659169e-06   -7.755939574826602e-06
-4.224915702927498e-05   6.467993994659169e-06   -7.755939574826602e-06
-4.224915702927498e-05   6.467993994659169e-06   -7.755939574826602e-06
-4.224915702927498e-05   6.467993994659169e-06   -7.755939574826602e-06
-4.351194731387243e-05   6.056348934134568e-06   1.9843953076057602e-05
-4.351194731387243e-05   6.056348934134568e-06   1.9843953076057602e-05
-4.351194731387243e-05   6.056348934134568e-06   1.9843953076057602e-05
-4.351194731387243e-05   6.056348934134568e-06   1.9843953076057602e-05
-2.8786590446138642e-05   6.423194964410694e-06   -4.918415988331397e-06
-2.8786590446138642e-05   6.423194964410694e-06   -4.918415988331397e-06
-2.8786590446138642e-05   6.423194964410694e-06   -4.918415988331397e-06
-2.8786590446138642e-05   6.423194964410694e-06   -4.918415988331397e-06
-3.467164625778337e-05   6.459565579604743e-06   4.8681879952939145e-06
-3.467164625778337e-05   6.459565579604743e-06   4.8681879952939145e-06
-3.467164625778337e-05   6.459565579604743e-06   4.8681879952939145e-06
-3.467164625778337e-05   6.459565579604743e-06   4.8681879952939145e-06
-2.8786590446138642e-05   6.056348934134351e-06   1.962384545789171e-05
-2.8786590446138642e-05   6.056348934134351e-06   1.962384545789171e-05
-2.8786590446138642e-05   6.056348934134351e-06   1.962384545789171e-05
-2.8786590446138642e-05   6.056348934134351e-06   1.962384545789171e-05
-4.351194731387243e-05   6.423194964410911e-06   -4.698308370165477e-06
-4.351194731387243e-05   6.423194964410911e-06   -4.698308370165477e-06
-4.351194731387243e-05   6.423194964410911e-06   -4.698308370165477e-06
-4.351194731387243e-05   6.423194964410911e-06   -4.698308370165477e-06
-4.5002143566263275e-05   5.063283090708023e-06   2.6018958359615672e-05
-4.5002143566263275e-05   5.063283090708023e-06   2.6018958359615672e-05
-4.5002143566263275e-05   5.063283090708023e-06   2.6018958359615672e-05
-4.5002143566263275e-05   5.063283090708023e-06   2.6018958359615672e-05
-2.9715528070531214e-05   5.9184624092538385e-06   2.8158275601426795e-08
-2.9715528070531214e-05   5.9184624092538385e-06   2.8158275601426795e-08
-2.9715528070531214e-05   5.9184624092538385e-06   2.8158275601426795e-08
-2.9715528070531214e-05   5.9184624092538385e-06   2.8158275601426795e-08
-3.5190781660040615e-05   6.15689524674631e-06   9.010521222288634e-06
-3.5190781660040615e-05   6.15689524674631e-06   9.010521222288634e-06
-3.5190781660040615e-05   6.15689524674631e-06   9.010521222288634e-06
-3.5190781660040615e-05   6.15689524674631e-06   9.010521222288634e-06
2.72563935370911e-05   -3.8080833179390296e-06   2.094437223102677e-05
2.72563935370911e-05   -3.8080833179390296e-06   2.094437223102677e-05
2.72563935370911e-05   -3.8080833179390296e-06   2.094437223102677e-05
2.72563935370911e-05   -3.8080833179390296e-06   2.094437223102677e-05
1.3477896889465436e-05   -2.806206289350131e-06   -1.4186626311962162e-06
1.3477896889465436e-05   -2.806206289350131e-06   -1.4186626311962162e-06
1.3477896889465436e-05   -2.806206289350131e-06   -1.4186626311962162e-06
1.3477896889465436e-05   -2.806206289350131e-06   -1.4186626311962162e-06
1.2970106605992252e-05   -4.311101948297575e-06   1.819997441659233e-05
1.2970106605992252e-05   -4.311101948297575e-06   1.819997441659233e-05
1.2970106605992252e-05   -4.311101948297575e-06   1.819997441659233e-05
1.2970106605992252e-05   -4.311101948297575e-06   1.819997441659233e-05
2.6323301232502208e-05   -3.251569045587899e-06   -4.691069702549877e-06
2.6323301232502208e-05   -3.251569045587899e-06   -4.691069702549877e-06
2.6323301232502208e-05   -3.251569045587899e-06   -4.691069702549877e-06
2.6323301232502208e-05   -3.251569045587899e-06   -4.691069702549877e-06
1.9091231752968396e-05   -3.5076510379987175e-06   7.516028625452866e-06
1.9091231752968396e-05   -3.5076510379987175e-06   7.516028625452866e-06
1.9091231752968396e-05   -3.5076510379987175e-06   7.516028625452866e-06
1.9091231752968396e-05   -3.5076510379987175e-06   7.516028625452866e-06
2.632330123250216e-05   -4.311101948297575e-06   1.7564254674966415e-05
2.632330123250216e-05   -4.311101948297575e-06   1.7564254674966415e-05
2.632330123250216e-05   -4.311101948297575e-06   1.7564254674966415e-05
2.632330123250216e-05   -4.311101948297575e-06   1.7564254674966415e-05
1.297010660599229e-05   -3.251569045587899e-06   -4.0553499609241594e-06
1.297010660599229e-05   -3.251569045587899e-06   -4.0553499609241594e-06
1.297010660599229e-05   -3.251569045587899e-06   -4.0553499609241594e-06
1.297010660599229e-05   -3.251569045587899e-06   -4.0553499609241594e-06
1.2405375805446441e-05   -4.384689675673847e-06   1.6301816421948308e-05
1.2405375805446441e-05   -4.384689675673847e-06   1.6301816421948308e-05
1.2405375805446441e-05   -4.384689675673847e-06   1.6301816421948308e-05
1.2405375805446441e-05   -4.384689675673847e-06   1.6301816421948308e-05
2.5477357168811952e-05   -3.340241348183306e-06   -6.111488180155254e-06
2.5477357168811952e-05   -3.340241348183306e-06   -6.111488180155254e-06
2.5477357168811952e-05   -3.340241348183306e-06   -6.111488180155254e-06
2.5477357168811952e-05   -3.340241348183306e-06   -6.111488180155254e-06
1.8745386168168505e-05   -3.680615603929207e-06   5.312688041031368e-06
1.8745386168168505e-05   -3.680615603929207e-06   5.312688041031368e-06
1.8745386168168505e-05   -3.680615603929207e-06   5.312688041031368e-06
1.8745386168168505e-05   -3.680615603929207e-06   5.312688041031368e-06
2.5477357168811864e-05   -4.384689675673847e-06   1.567514742545394e-05
2.5477357168811864e-05   -4.384689675673847e-06   1.567514742545394e-05
2.5477357168811864e-05   -4.384689675673847e-06   1.567514742545394e-05
2.5477357168811864e-05   -4.384689675673847e-06   1.567514742545394e-05
1.2405375805446465e-05   -3.340241348183306e-06   -5.484819183660837e-06
1.2405375805446465e-05   -3.340241348183306e-06   -5.484819183660837e-06
1.2405375805446465e-05   -3.340241348183306e-06   -5.484819183660837e-06
1.2405375805446465e-05   -3.340241348183306e-06   -5.484819183660837e-06
1.1861770450944227e-05   -4.351707911678156e-06   1.364820926177924e-05
1.1861770450944227e-05   -4.351707911678156e-06   1.364820926177924e-05
1.1861770450944227e-05   -4.351707911678156e-06   1.364820926177924e-05
1.1861770450944227e-05   -4.351707911678156e-06   1.364820926177924e-05
2.451831270610422e-05   -3.3720118942980135e-06   -8.033845440582342e-06
2.451831270610422e-05   -3.3720118942980135e-06   -8.033845440582342e-06
2.451831270610422e-05   -3.3720118942980135e-06   -8.033845440582342e-06
2.451831270610422e-05   -3.3720118942980135e-06   -8.033845440582342e-06
1.7790962008156997e-05   -3.6167533697347744e-06   3.3252506079254566e-06
1.7790962008156997e-05   -3.6167533697347744e-06   3.3252506079254566e-06
1.7790962008156997e-05   -3.6167533697347744e-06   3.3252506079254566e-06
1.7790962008156997e-05   -3.6167533697347744e-06   3.3252506079254566e-06
1.3477896889465436e-05   -1.3372408866594871e-06   2.19015142872912e-05
1.3477896889465436e-05   -1.3372408866594871e-06   2.19015142872912e-05
1.3477896889465436e-05   -1.3372408866594871e-06   2.19015142872912e-05
1.3477896889465436e-05   -1.3372408866594871e-06   2.19015142872912e-05
5.438723403589633e-07   -5.383478685646974e-07   8.241425163040602e-07
5.438723403589633e-07   -5.383478685646974e-07   8.241425163040602e-07
5.438723403589633e-07   -5.383478685646974e-07   8.241425163040602e-07
5.438723403589633e-07   -5.383478685646974e-07   8.241425163040602e-07
5.590249741158667e-08   -1.6063933429857034e-06   2.2123728733181415e-05
5.590249741158667e-08   -1.6063933429857034e-06   2.2123728733181415e-05
5.590249741158667e-08   -1.6063933429857034e-06   2.2123728733181415e-05
5.590249741158667e-08   -1.6063933429857034e-06   2.2123728733181415e-05
1.297010660599229e-05   -8.531274654389066e-07   1.4809569235215347e-07
1.297010660599229e-05   -8.531274654389066e-07   1.4809569235215347e-07
1.297010660599229e-05   -8.531274654389066e-07   1.4809569235215347e-07
1.297010660599229e-05   -8.531274654389066e-07   1.4809569235215347e-07
6.6796150601500955e-06   -1.044181095224278e-06   1.0746880446626855e-05
6.6796150601500955e-06   -1.044181095224278e-06   1.0746880446626855e-05
6.6796150601500955e-06   -1.044181095224278e-06   1.0746880446626855e-05
6.6796150601500955e-06   -1.044181095224278e-06   1.0746880446626855e-05
1.2970106605992283e-05   -1.6063933429857034e-06   2.167176920665325e-05
1.2970106605992283e-05   -1.6063933429857034e-06   2.167176920665325e-05
1.2970106605992283e-05   -1.6063933429857034e-06   2.167176920665325e-05
1.2970106605992283e-05   -1.6063933429857034e-06   2.167176920665325e-05
5.590249741158667e-08   -8.531274654389066e-07   6.000552188802641e-07
5.590249741158667e-08   -8.531274654389066e-07   6.000552188802641e-07
5.590249741158667e-08   -8.531274654389066e-07   6.000552188802641e-07
5.590249741158667e-08   -8.531274654389066e-07   6.000552188802641e-07
-4.513485962279873e-07   -1.7812956585954408e-06   2.178376979493162e-05
-4.513485962279873e-07   -1.7812956585954408e-06   2.178376979493162e-05
-4.513485962279873e-07   -1.7812956585954408e-06   2.178376979493162e-05
-4.513485962279873e-07   -1.7812956585954408e-06   2.178376979493162e-05
1.2405375805446465e-05   -1.0856690485661763e-06   -6.148017387659708e-08
1.2405375805446465e-05   -1.0856690485661763e-06   -6.148017387659708e-08
1.2405375805446465e-05   -1.0856690485661763e-06   -6.148017387659708e-08
1.2405375805446465e-05   -1.0856690485661763e-06   -6.148017387659708e-08
6.118261439147852e-06   -1.208517439074382e-06   1.0490752804259566e-05
6.118261439147852e-06   -1.208517439074382e-06   1.0490752804259566e-05
6.118261439147852e-06   -1.208517439074382e-06   1.0490752804259566e-05
6.118261439147852e-06   -1.208517439074382e-06   1.0490752804259566e-05
1.2405375805446441e-05   -1.7812956585954408e-06   2.1366393828914018e-05
1.2405375805446441e-05   -1.7812956585954408e-06   2.1366393828914018e-05
1.2405375805446441e-05   -1.7812956585954408e-06   2.1366393828914018e-05
1.2405375805446441e-05   -1.7812956585954408e-06   2.1366393828914018e-05
-4.513485962279873e-07   -1.0856690485661763e-06   3.558957921408288e-07
-4.513485962279873e-07   -1.0856690485661763e-06   3.558957921408288e-07
-4.513485962279873e-07   -1.0856690485661763e-06   3.558957921408288e-07
-4.513485962279873e-07   -1.0856690485661763e-06   3.558957921408288e-07
-9.794467638899943e-07   -1.8539067699854979e-06   2.1944138567022635e-05
-9.794467638899943e-07   -1.8539067699854979e-06   2.1944138567022635e-05
-9.794467638899943e-07   -1.8539067699854979e-06   2.1944138567022635e-05
-9.794467638899943e-07   -1.8539067699854979e-06   2.1944138567022635e-05
1.1861770450944258e-05   -1.2675564217124163e-06   1.9029966666848344e-07
1.1861770450944258e-05   -1.2675564217124163e-06   1.9029966666848344e-07
1.1861770450944258e-05   -1.2675564217124163e-06   1.9029966666848344e-07
1.1861770450944258e-05   -1.2675564217124163e-06   1.9029966666848344e-07
5.6982252258513124e-06   -1.2952047799580802e-06   1.0479464056771016e-05
5.6982252258513124e-06   -1.2952047799580802e-06   1.0479464056771016e-05
5.6982252258513124e-06   -1.2952047799580802e-06   1.0479464056771016e-05
5.6982252258513124e-06   -1.2952047799580802e-06   1.0479464056771016e-05
5.438723403589497e-07   1.202410795699601e-06   2.2596800166666594e-05
5.438723403589497e-07   1.202410795699601e-06   2.2596800166666594e-05
5.438723403589497e-07   1.202410795699601e-06   2.2596800166666594e-05
5.438723403589497e-07   1.202410795699601e-06   2.2596800166666594e-05
-1.2015881860254633e-05   1.7349187394115687e-06   1.9833812652045183e-06
-1.2015881860254633e-05   1.7349187394115687e-06   1.9833812652045183e-06
-1.2015881860254633e-05   1.7349187394115687e-06   1.9833812652045183e-06
-1.2015881860254633e-05   1.7349187394115687e-06   1.9833812652045183e-06
-1.252603151447573e-05   9.98528301045373e-07   2.2904160692223548e-05
-1.252603151447573e-05   9.98528301045373e-07   2.2904160692223548e-05
-1.252603151447573e-05   9.98528301045373e-07   2.2904160692223548e-05
-1.252603151447573e-05   9.98528301045373e-07   2.2904160692223548e-05
5.590249741158667e-08   1.4744742548036208e-06   1.6487031001564061e-06
5.590249741158667e-08   1.4744742548036208e-06   1.6487031001564061e-06
5.590249741158667e-08   1.4744742548036208e-06   1.6487031001564061e-06
5.590249741158667e-08   1.4744742548036208e-06   1.6487031001564061e-06
-5.994689924866163e-06   1.3666320358026417e-06   1.1797729135353246e-05
-5.994689924866163e-06   1.3666320358026417e-06   1.1797729135353246e-05
-5.994689924866163e-06   1.3666320358026417e-06   1.1797729135353246e-05
-5.994689924866163e-06   1.3666320358026417e-06   1.1797729135353246e-05
5.590249741158667e-08   9.98528301045373e-07   2.2618593119968686e-05
5.590249741158667e-08   9.98528301045373e-07   2.2618593119968686e-05
5.590249741158667e-08   9.98528301045373e-07   2.2618593119968686e-05
5.590249741158667e-08   9.98528301045373e-07   2.2618593119968686e-05
-1.252603151447573e-05   1.4744742548036208e-06   1.934270672411336e-06
-1.252603151447573e-05   1.4744742548036208e-06   1.934270672411336e-06
-1.252603151447573e-05   1.4744742548036208e-06   1.934270672411336e-06
-1.252603151447573e-05   1.4744742548036208e-06   1.934270672411336e-06
-1.306434011423007e-05   8.087543293653927e-07   2.3116369330964683e-05
-1.306434011423007e-05   8.087543293653927e-07   2.3116369330964683e-05
-1.306434011423007e-05   8.087543293653927e-07   2.3116369330964683e-05
-1.306434011423007e-05   8.087543293653927e-07   2.3116369330964683e-05
-4.513485962279873e-07   1.2216503354554441e-06   1.8469791973071503e-06
-4.513485962279873e-07   1.2216503354554441e-06   1.8469791973071503e-06
-4.513485962279873e-07   1.2216503354554441e-06   1.8469791973071503e-06
-4.513485962279873e-07   1.2216503354554441e-06   1.8469791973071503e-06
-6.468337110466047e-06   1.2187834411933086e-06   1.1877013524261336e-05
-6.468337110466047e-06   1.2187834411933086e-06   1.1877013524261336e-05
-6.468337110466047e-06   1.2187834411933086e-06   1.1877013524261336e-05
-6.468337110466047e-06   1.2187834411933086e-06   1.1877013524261336e-05
-4.513485962279873e-07   8.087543293653927e-07   2.2868631727310652e-05
-4.513485962279873e-07   8.087543293653927e-07   2.2868631727310652e-05
-4.513485962279873e-07   8.087543293653927e-07   2.2868631727310652e-05
-4.513485962279873e-07   8.087543293653927e-07   2.2868631727310652e-05
-1.3064340114230083e-05   1.2216503354554441e-06   2.094716800961154e-06
-1.3064340114230083e-05   1.2216503354554441e-06   2.094716800961154e-06
-1.3064340114230083e-05   1.2216503354554441e-06   2.094716800961154e-06
-1.3064340114230083e-05   1.2216503354554441e-06   2.094716800961154e-06
-1.36196034769044e-05   6.7258833125498e-07   2.345438797230696e-05
-1.36196034769044e-05   6.7258833125498e-07   2.345438797230696e-05
-1.36196034769044e-05   6.7258833125498e-07   2.345438797230696e-05
-1.36196034769044e-05   6.7258833125498e-07   2.345438797230696e-05
-9.794467638899943e-07   9.967006074833393e-07   2.1929927515457735e-06
-9.794467638899943e-07   9.967006074833393e-07   2.1929927515457735e-06
-9.794467638899943e-07   9.967006074833393e-07   2.1929927515457735e-06
-9.794467638899943e-07   9.967006074833393e-07   2.1929927515457735e-06
-6.980939299342629e-06   1.0773105977421229e-06   1.214711431647865e-05
-6.980939299342629e-06   1.0773105977421229e-06   1.214711431647865e-05
-6.980939299342629e-06   1.0773105977421229e-06   1.214711431647865e-05
-6.980939299342629e-06   1.0773105977421229e-06   1.214711431647865e-05
-1.2015881860254673e-05   3.898869788614839e-06   1.973736387952008e-05
-1.2015881860254673e-05   3.898869788614839e-06   1.973736387952008e-05
-1.2015881860254673e-05   3.898869788614839e-06   1.973736387952008e-05
-1.2015881860254673e-05   3.898869788614839e-06   1.973736387952008e-05
-2.4195286684908554e-05   3.9485733993773874e-06   -5.318219951120718e-07
-2.4195286684908554e-05   3.9485733993773874e-06   -5.318219951120718e-07
-2.4195286684908554e-05   3.9485733993773874e-06   -5.318219951120718e-07
-2.4195286684908554e-05   3.9485733993773874e-06   -5.318219951120718e-07
-2.47873415212924e-05   3.695654750353501e-06   2.0082400458545165e-05
-2.47873415212924e-05   3.695654750353501e-06   2.0082400458545165e-05
-2.47873415212924e-05   3.695654750353501e-06   2.0082400458545165e-05
-2.47873415212924e-05   3.695654750353501e-06   2.0082400458545165e-05
-1.2526031514475743e-05   3.7011934035516888e-06   -3.56439411401655e-07
-1.2526031514475743e-05   3.7011934035516888e-06   -3.56439411401655e-07
-1.2526031514475743e-05   3.7011934035516888e-06   -3.56439411401655e-07
-1.2526031514475743e-05   3.7011934035516888e-06   -3.56439411401655e-07
-1.8299064740248416e-05   3.799940111657435e-06   9.206034606689415e-06
-1.8299064740248416e-05   3.799940111657435e-06   9.206034606689415e-06
-1.8299064740248416e-05   3.799940111657435e-06   9.206034606689415e-06
-1.8299064740248416e-05   3.799940111657435e-06   9.206034606689415e-06
-1.2526031514475743e-05   3.695654750353501e-06   2.0079077266626144e-05
-1.2526031514475743e-05   3.695654750353501e-06   2.0079077266626144e-05
-1.2526031514475743e-05   3.695654750353501e-06   2.0079077266626144e-05
-1.2526031514475743e-05   3.695654750353501e-06   2.0079077266626144e-05
-2.4787341521292358e-05   3.7011934035516888e-06   -3.53116219482634e-07
-2.4787341521292358e-05   3.7011934035516888e-06   -3.53116219482634e-07
-2.4787341521292358e-05   3.7011934035516888e-06   -3.53116219482634e-07
-2.4787341521292358e-05   3.7011934035516888e-06   -3.53116219482634e-07
-2.544278839055975e-05   3.5066273466133682e-06   2.101633489543051e-05
-2.544278839055975e-05   3.5066273466133682e-06   2.101633489543051e-05
-2.544278839055975e-05   3.5066273466133682e-06   2.101633489543051e-05
-2.544278839055975e-05   3.5066273466133682e-06   2.101633489543051e-05
-1.3064340114230083e-05   3.4719972782793884e-06   4.06365809214567e-07
-1.3064340114230083e-05   3.4719972782793884e-06   4.06365809214567e-07
-1.3064340114230083e-05   3.4719972782793884e-06   4.06365809214567e-07
-1.3064340114230083e-05   3.4719972782793884e-06   4.06365809214567e-07
-1.8724780145255497e-05   3.6609951634251382e-06   9.727033796502933e-06
-1.8724780145255497e-05   3.6609951634251382e-06   9.727033796502933e-06
-1.8724780145255497e-05   3.6609951634251382e-06   9.727033796502933e-06
-1.8724780145255497e-05   3.6609951634251382e-06   9.727033796502933e-06
-1.3064340114230083e-05   3.5066273466131514e-06   2.1037112936430616e-05
-1.3064340114230083e-05   3.5066273466131514e-06   2.1037112936430616e-05
-1.3064340114230083e-05   3.5066273466131514e-06   2.1037112936430616e-05
-1.3064340114230083e-05   3.5066273466131514e-06   2.1037112936430616e-05
-2.544278839055971e-05   3.4719972782793884e-06   3.8558776821429833e-07
-2.544278839055971e-05   3.4719972782793884e-06   3.8558776821429833e-07
-2.544278839055971e-05   3.4719972782793884e-06   3.8558776821429833e-07
-2.544278839055971e-05   3.4719972782793884e-06   3.8558776821429833e-07
-2.6067017471340705e-05   3.251279080129354e-06   2.1685356890078383e-05
-2.6067017471340705e-05   3.251279080129354e-06   2.1685356890078383e-05
-2.6067017471340705e-05   3.251279080129354e-06   2.1685356890078383e-05
-2.6067017471340705e-05   3.251279080129354e-06   2.1685356890078383e-05
-1.3619603476904454e-05   3.1910613902781052e-06   9.7579751326201e-07
-1.3619603476904454e-05   3.1910613902781052e-06   9.7579751326201e-07
-1.3619603476904454e-05   3.1910613902781052e-06   9.7579751326201e-07
-1.3619603476904454e-05   3.1910613902781052e-06   9.7579751326201e-07
-1.9407235277696935e-05   3.4790356328328643e-06   1.0449065969050909e-05
-1.9407235277696935e-05   3.4790356328328643e-06   1.0449065969050909e-05
-1.9407235277696935e-05   3.4790356328328643e-06   1.0449065969050909e-05
-1.9407235277696935e-05   3.4790356328328643e-06   1.0449065969050909e-05
-2.4195286684908514e-05   6.340876892155754e-06   9.503805409666484e-06
-2.4195286684908514e-05   6.340876892155754e-06   9.503805409666484e-06
-2.4195286684908514e-05   6.340876892155754e-06   9.503805409666484e-06
-2.4195286684908514e-05   6.340876892155754e-06   9.503805409666484e-06
-3.579508807046941e-05   5.697937988336562e-06   -1.021496024189325e-05
-3.579508807046941e-05   5.697937988336562e-06   -1.021496024189325e-05
-3.579508807046941e-05   5.697937988336562e-06   -1.021496024189325e-05
-3.579508807046941e-05   5.697937988336562e-06   -1.021496024189325e-05
-3.672775775331332e-05   6.467993994659169e-06   1.3217132569407538e-05
-3.672775775331332e-05   6.467993994659169e-06   1.3217132569407538e-05
-3.672775775331332e-05   6.467993994659169e-06   1.3217132569407538e-05
-3.672775775331332e-05   6.467993994659169e-06   1.3217132569407538e-05
-2.47873415212924e-05   5.762532623641023e-06   -6.260284328016573e-06
-2.47873415212924e-05   5.762532623641023e-06   -6.260284328016573e-06
-2.47873415212924e-05   5.762532623641023e-06   -6.260284328016573e-06
-2.47873415212924e-05   5.762532623641023e-06   -6.260284328016573e-06
-2.921255839765051e-05   6.0295307946903794e-06   9.548782299506273e-07
-2.921255839765051e-05   6.0295307946903794e-06   9.548782299506273e-07
-2.921255839765051e-05   6.0295307946903794e-06   9.548782299506273e-07
-2.921255839765051e-05   6.0295307946903794e-06   9.548782299506273e-07
-2.4787341521292344e-05   6.467993994659169e-06   1.3640409392018426e-05
-2.4787341521292344e-05   6.467993994659169e-06   1.3640409392018426e-05
-2.4787341521292344e-05   6.467993994659169e-06   1.3640409392018426e-05
-2.4787341521292344e-05   6.467993994659169e-06   1.3640409392018426e-05
-3.6727757753313454e-05   5.762532623641023e-06   -6.683561150627488e-06
-3.6727757753313454e-05   5.762532623641023e-06   -6.683561150627488e-06
-3.6727757753313454e-05   5.762532623641023e-06   -6.683561150627488e-06
-3.6727757753313454e-05   5.762532623641023e-06   -6.683561150627488e-06
-3.7637364600688784e-05   6.423194964410911e-06   1.60959173856163e-05
-3.7637364600688784e-05   6.423194964410911e-06   1.60959173856163e-05
-3.7637364600688784e-05   6.423194964410911e-06   1.60959173856163e-05
-3.7637364600688784e-05   6.423194964410911e-06   1.60959173856163e-05
-2.544278839055975e-05   5.7002749330363825e-06   -3.794624279107573e-06
-2.544278839055975e-05   5.7002749330363825e-06   -3.794624279107573e-06
-2.544278839055975e-05   5.7002749330363825e-06   -3.794624279107573e-06
-2.544278839055975e-05   5.7002749330363825e-06   -3.794624279107573e-06
-3.036612558106711e-05   6.141219252190494e-06   4.1463711135794395e-06
-3.036612558106711e-05   6.141219252190494e-06   4.1463711135794395e-06
-3.036612558106711e-05   6.141219252190494e-06   4.1463711135794395e-06
-3.036612558106711e-05   6.141219252190494e-06   4.1463711135794395e-06
-2.544278839055975e-05   6.423194964410911e-06   1.6529669404441102e-05
-2.544278839055975e-05   6.423194964410911e-06   1.6529669404441102e-05
-2.544278839055975e-05   6.423194964410911e-06   1.6529669404441102e-05
-2.544278839055975e-05   6.423194964410911e-06   1.6529669404441102e-05
-3.763736460068892e-05   5.7002749330363825e-06   -4.228376297932322e-06
-3.763736460068892e-05   5.7002749330363825e-06   -4.228376297932322e-06
-3.763736460068892e-05   5.7002749330363825e-06   -4.228376297932322e-06
-3.763736460068892e-05   5.7002749330363825e-06   -4.228376297932322e-06
-3.8698571808474e-05   5.9184624092538385e-06   2.1020876347388386e-05
-3.8698571808474e-05   5.9184624092538385e-06   2.1020876347388386e-05
-3.8698571808474e-05   5.9184624092538385e-06   2.1020876347388386e-05
-3.8698571808474e-05   5.9184624092538385e-06   2.1020876347388386e-05
-2.6067017471340705e-05   5.2637011171260874e-06   3.611425607761372e-07
-2.6067017471340705e-05   5.2637011171260874e-06   3.611425607761372e-07
-2.6067017471340705e-05   5.2637011171260874e-06   3.611425607761372e-07
-2.6067017471340705e-05   5.2637011171260874e-06   3.611425607761372e-07
-3.064772406735563e-05   5.960845494396667e-06   7.577366927772331e-06
-3.064772406735563e-05   5.960845494396667e-06   7.577366927772331e-06
-3.064772406735563e-05   5.960845494396667e-06   7.577366927772331e-06
-3.064772406735563e-05   5.960845494396667e-06   7.577366927772331e-06
2.079231098319201e-05   -2.806206289350131e-06   1.755936033187946e-05
2.079231098319201e-05   -2.806206289350131e-06   1.755936033187946e-05
2.079231098319201e-05   -2.806206289350131e-06   1.755936033187946e-05
2.079231098319201e-05   -2.806206289350131e-06   1.755936033187946e-05
9.779484691907174e-06   -1.8669875289254942e-06   -2.3181889734029664e-07
9.779484691907174e-06   -1.8669875289254942e-06   -2.3181889734029664e-07
9.779484691907174e-06   -1.8669875289254942e-06   -2.3181889734029664e-07
9.779484691907174e-06   -1.8669875289254942e-06   -2.3181889734029664e-07
9.325109367973546e-06   -3.251569045587899e-06   1.541803020841282e-05
9.325109367973546e-06   -3.251569045587899e-06   1.541803020841282e-05
9.325109367973546e-06   -3.251569045587899e-06   1.541803020841282e-05
9.325109367973546e-06   -3.251569045587899e-06   1.541803020841282e-05
1.9912496707542798e-05   -2.2614878834625093e-06   -2.8216640548110907e-06
1.9912496707542798e-05   -2.2614878834625093e-06   -2.8216640548110907e-06
1.9912496707542798e-05   -2.2614878834625093e-06   -2.8216640548110907e-06
1.9912496707542798e-05   -2.2614878834625093e-06   -2.8216640548110907e-06
1.4249342867567393e-05   -2.5650869147596234e-06   6.799085097259521e-06
1.4249342867567393e-05   -2.5650869147596234e-06   6.799085097259521e-06
1.4249342867567393e-05   -2.5650869147596234e-06   6.799085097259521e-06
1.4249342867567393e-05   -2.5650869147596234e-06   6.799085097259521e-06
1.9912496707542798e-05   -3.251569045587899e-06   1.4823981511137736e-05
1.9912496707542798e-05   -3.251569045587899e-06   1.4823981511137736e-05
1.9912496707542798e-05   -3.251569045587899e-06   1.4823981511137736e-05
1.9912496707542798e-05   -3.251569045587899e-06   1.4823981511137736e-05
9.325109367973567e-06   -2.2614878834625093e-06   -2.2276153575359137e-06
9.325109367973567e-06   -2.2614878834625093e-06   -2.2276153575359137e-06
9.325109367973567e-06   -2.2614878834625093e-06   -2.2276153575359137e-06
9.325109367973567e-06   -2.2614878834625093e-06   -2.2276153575359137e-06
8.822921005045312e-06   -3.340241348183306e-06   1.3913955786058426e-05
8.822921005045312e-06   -3.340241348183306e-06   1.3913955786058426e-05
8.822921005045312e-06   -3.340241348183306e-06   1.3913955786058426e-05
8.822921005045312e-06   -3.340241348183306e-06   1.3913955786058426e-05
1.9140583531398555e-05   -2.366204078408209e-06   -3.866570786395321e-06
1.9140583531398555e-05   -2.366204078408209e-06   -3.866570786395321e-06
1.9140583531398555e-05   -2.366204078408209e-06   -3.866570786395321e-06
1.9140583531398555e-05   -2.366204078408209e-06   -3.866570786395321e-06
1.3889363137060456e-05   -2.7255218588021282e-06   5.1010538724048865e-06
1.3889363137060456e-05   -2.7255218588021282e-06   5.1010538724048865e-06
1.3889363137060456e-05   -2.7255218588021282e-06   5.1010538724048865e-06
1.3889363137060456e-05   -2.7255218588021282e-06   5.1010538724048865e-06
1.9140583531398518e-05   -3.340241348183089e-06   1.3329533424193563e-05
1.9140583531398518e-05   -3.340241348183089e-06   1.3329533424193563e-05
1.9140583531398518e-05   -3.340241348183089e-06   1.3329533424193563e-05
1.9140583531398518e-05   -3.340241348183089e-06   1.3329533424193563e-05
8.822921005045329e-06   -2.366204078408209e-06   -3.2821484245302212e-06
8.822921005045329e-06   -2.366204078408209e-06   -3.2821484245302212e-06
8.822921005045329e-06   -2.366204078408209e-06   -3.2821484245302212e-06
8.822921005045329e-06   -2.366204078408209e-06   -3.2821484245302212e-06
8.358840509460402e-06   -3.3720118942980135e-06   1.1870607633404726e-05
8.358840509460402e-06   -3.3720118942980135e-06   1.1870607633404726e-05
8.358840509460402e-06   -3.3720118942980135e-06   1.1870607633404726e-05
8.358840509460402e-06   -3.3720118942980135e-06   1.1870607633404726e-05
1.8276887985423137e-05   -2.460939837585713e-06   -5.206114727226922e-06
1.8276887985423137e-05   -2.460939837585713e-06   -5.206114727226922e-06
1.8276887985423137e-05   -2.460939837585713e-06   -5.206114727226922e-06
1.8276887985423137e-05   -2.460939837585713e-06   -5.206114727226922e-06
1.3078829772811145e-05   -2.7083363146240737e-06   3.605753513349593e-06
1.3078829772811145e-05   -2.7083363146240737e-06   3.605753513349593e-06
1.3078829772811145e-05   -2.7083363146240737e-06   3.605753513349593e-06
1.3078829772811145e-05   -2.7083363146240737e-06   3.605753513349593e-06
9.77948469190714e-06   -5.383478685646974e-07   1.988636092477758e-05
9.77948469190714e-06   -5.383478685646974e-07   1.988636092477758e-05
9.77948469190714e-06   -5.383478685646974e-07   1.988636092477758e-05
9.77948469190714e-06   -5.383478685646974e-07   1.988636092477758e-05
-6.392409537229896e-07   -1.6100973169747707e-08   2.835166319297604e-06
-6.392409537229896e-07   -1.6100973169747707e-08   2.835166319297604e-06
-6.392409537229896e-07   -1.6100973169747707e-08   2.835166319297604e-06
-6.392409537229896e-07   -1.6100973169747707e-08   2.835166319297604e-06
-1.0667910544078163e-06   -8.531274654389066e-07   1.9918511872572603e-05
-1.0667910544078163e-06   -8.531274654389066e-07   1.9918511872572603e-05
-1.0667910544078163e-06   -8.531274654389066e-07   1.9918511872572603e-05
-1.0667910544078163e-06   -8.531274654389066e-07   1.9918511872572603e-05
9.325109367973567e-06   -3.580674472996974e-07   2.301641824386814e-06
9.325109367973567e-06   -3.580674472996974e-07   2.301641824386814e-06
9.325109367973567e-06   -3.580674472996974e-07   2.301641824386814e-06
9.325109367973567e-06   -3.580674472996974e-07   2.301641824386814e-06
4.278972405724156e-06   -4.5401628543523254e-07   1.0769439397683757e-05
4.278972405724156e-06   -4.5401628543523254e-07   1.0769439397683757e-05
4.278972405724156e-06   -4.5401628543523254e-07   1.0769439397683757e-05
4.278972405724156e-06   -4.5401628543523254e-07   1.0769439397683757e-05
9.32510936797354e-06   -8.531274654386897e-07   1.9621475861689077e-05
9.32510936797354e-06   -8.531274654386897e-07   1.9621475861689077e-05
9.32510936797354e-06   -8.531274654386897e-07   1.9621475861689077e-05
9.32510936797354e-06   -8.531274654386897e-07   1.9621475861689077e-05
-1.0667910544078163e-06   -3.580674472996974e-07   2.598677835270258e-06
-1.0667910544078163e-06   -3.580674472996974e-07   2.598677835270258e-06
-1.0667910544078163e-06   -3.580674472996974e-07   2.598677835270258e-06
-1.0667910544078163e-06   -3.580674472996974e-07   2.598677835270258e-06
-1.5035906415768012e-06   -1.0856690485661763e-06   1.961279604737289e-05
-1.5035906415768012e-06   -1.0856690485661763e-06   1.961279604737289e-05
-1.5035906415768012e-06   -1.0856690485661763e-06   1.961279604737289e-05
-1.5035906415768012e-06   -1.0856690485661763e-06   1.961279604737289e-05
8.822921005045329e-06   -6.265002960158684e-07   2.1264420514724867e-06
8.822921005045329e-06   -6.265002960158684e-07   2.1264420514724867e-06
8.822921005045329e-06   -6.265002960158684e-07   2.1264420514724867e-06
8.822921005045329e-06   -6.265002960158684e-07   2.1264420514724867e-06
3.7983816509172105e-06   -6.644711237064997e-07   1.0523456804967788e-05
3.7983816509172105e-06   -6.644711237064997e-07   1.0523456804967788e-05
3.7983816509172105e-06   -6.644711237064997e-07   1.0523456804967788e-05
3.7983816509172105e-06   -6.644711237064997e-07   1.0523456804967788e-05
8.822921005045312e-06   -1.0856690485663931e-06   1.9337294795842598e-05
8.822921005045312e-06   -1.0856690485663931e-06   1.9337294795842598e-05
8.822921005045312e-06   -1.0856690485663931e-06   1.9337294795842598e-05
8.822921005045312e-06   -1.0856690485663931e-06   1.9337294795842598e-05
-1.5035906415768012e-06   -6.265002960158684e-07   2.4019433030027324e-06
-1.5035906415768012e-06   -6.265002960158684e-07   2.4019433030027324e-06
-1.5035906415768012e-06   -6.265002960158684e-07   2.4019433030027324e-06
-1.5035906415768012e-06   -6.265002960158684e-07   2.4019433030027324e-06
-1.9428535369462566e-06   -1.2675564217124163e-06   1.974323796130801e-05
-1.9428535369462566e-06   -1.2675564217124163e-06   1.974323796130801e-05
-1.9428535369462566e-06   -1.2675564217124163e-06   1.974323796130801e-05
-1.9428535369462566e-06   -1.2675564217124163e-06   1.974323796130801e-05
8.358840509460412e-06   -8.737183699114928e-07   2.337445052882895e-06
8.358840509460412e-06   -8.737183699114928e-07   2.337445052882895e-06
8.358840509460412e-06   -8.737183699114928e-07   2.337445052882895e-06
8.358840509460412e-06   -8.737183699114928e-07   2.337445052882895e-06
3.4330480325427132e-06   -8.189220375100139e-07   1.0514221381638486e-05
3.4330480325427132e-06   -8.189220375100139e-07   1.0514221381638486e-05
3.4330480325427132e-06   -8.189220375100139e-07   1.0514221381638486e-05
3.4330480325427132e-06   -8.189220375100139e-07   1.0514221381638486e-05
-6.392409537230031e-07   1.7349187394115687e-06   2.1039443044688e-05
-6.392409537230031e-07   1.7349187394115687e-06   2.1039443044688e-05
-6.392409537230031e-07   1.7349187394115687e-06   2.1039443044688e-05
-6.392409537230031e-07   1.7349187394115687e-06   2.1039443044688e-05
-1.0839226333094813e-05   1.7882659822997336e-06   4.071475758134517e-06
-1.0839226333094813e-05   1.7882659822997336e-06   4.071475758134517e-06
-1.0839226333094813e-05   1.7882659822997336e-06   4.071475758134517e-06
-1.0839226333094813e-05   1.7882659822997336e-06   4.071475758134517e-06
-1.1269455351842878e-05   1.4744742548036208e-06   2.097589992771699e-05
-1.1269455351842878e-05   1.4744742548036208e-06   2.097589992771699e-05
-1.1269455351842878e-05   1.4744742548036208e-06   2.097589992771699e-05
-1.1269455351842878e-05   1.4744742548036208e-06   2.097589992771699e-05
-1.0667910544078163e-06   1.4890412112506923e-06   3.9627192581237095e-06
-1.0667910544078163e-06   1.4890412112506923e-06   3.9627192581237095e-06
-1.0667910544078163e-06   1.4890412112506923e-06   3.9627192581237095e-06
-1.0667910544078163e-06   1.4890412112506923e-06   3.9627192581237095e-06
-5.969048396227574e-06   1.592577909200442e-06   1.2071026142386812e-05
-5.969048396227574e-06   1.592577909200442e-06   1.2071026142386812e-05
-5.969048396227574e-06   1.592577909200442e-06   1.2071026142386812e-05
-5.969048396227574e-06   1.592577909200442e-06   1.2071026142386812e-05
-1.0667910544078163e-06   1.4744742548036208e-06   2.096715975384892e-05
-1.0667910544078163e-06   1.4744742548036208e-06   2.096715975384892e-05
-1.0667910544078163e-06   1.4744742548036208e-06   2.096715975384892e-05
-1.0667910544078163e-06   1.4744742548036208e-06   2.096715975384892e-05
-1.1269455351842878e-05   1.4890412112506923e-06   3.971459431991874e-06
-1.1269455351842878e-05   1.4890412112506923e-06   3.971459431991874e-06
-1.1269455351842878e-05   1.4890412112506923e-06   3.971459431991874e-06
-1.1269455351842878e-05   1.4890412112506923e-06   3.971459431991874e-06
-1.1710222809566703e-05   1.2216503354554441e-06   2.1087663732691675e-05
-1.1710222809566703e-05   1.2216503354554441e-06   2.1087663732691675e-05
-1.1710222809566703e-05   1.2216503354554441e-06   2.1087663732691675e-05
-1.1710222809566703e-05   1.2216503354554441e-06   2.1087663732691675e-05
-1.5035906415768012e-06   1.1946241357098462e-06   4.092825839222732e-06
-1.5035906415768012e-06   1.1946241357098462e-06   4.092825839222732e-06
-1.5035906415768012e-06   1.1946241357098462e-06   4.092825839222732e-06
-1.5035906415768012e-06   1.1946241357098462e-06   4.092825839222732e-06
-6.368153987101449e-06   1.3919463194829538e-06   1.2082038104833481e-05
-6.368153987101449e-06   1.3919463194829538e-06   1.2082038104833481e-05
-6.368153987101449e-06   1.3919463194829538e-06   1.2082038104833481e-05
-6.368153987101449e-06   1.3919463194829538e-06   1.2082038104833481e-05
-1.5035906415768012e-06   1.221650335455661e-06   2.1103879452539294e-05
-1.5035906415768012e-06   1.221650335455661e-06   2.1103879452539294e-05
-1.5035906415768012e-06   1.221650335455661e-06   2.1103879452539294e-05
-1.5035906415768012e-06   1.221650335455661e-06   2.1103879452539294e-05
-1.1710222809566703e-05   1.1946241357098462e-06   4.076610119375262e-06
-1.1710222809566703e-05   1.1946241357098462e-06   4.076610119375262e-06
-1.1710222809566703e-05   1.1946241357098462e-06   4.076610119375262e-06
-1.1710222809566703e-05   1.1946241357098462e-06   4.076610119375262e-06
-1.2150627242420002e-05   9.967006074833393e-07   2.134530679604287e-05
-1.2150627242420002e-05   9.967006074833393e-07   2.134530679604287e-05
-1.2150627242420002e-05   9.967006074833393e-07   2.134530679604287e-05
-1.2150627242420002e-05   9.967006074833393e-07   2.134530679604287e-05
-1.9428535369462566e-06   9.153438721857046e-07   4.381164661432151e-06
-1.9428535369462566e-06   9.153438721857046e-07   4.381164661432151e-06
-1.9428535369462566e-06   9.153438721857046e-07   4.381164661432151e-06
-1.9428535369462566e-06   9.153438721857046e-07   4.381164661432151e-06
-6.786154802281012e-06   1.1966034251748112e-06   1.2284577705196824e-05
-6.786154802281012e-06   1.1966034251748112e-06   1.2284577705196824e-05
-6.786154802281012e-06   1.1966034251748112e-06   1.2284577705196824e-05
-6.786154802281012e-06   1.1966034251748112e-06   1.2284577705196824e-05
-1.0839226333094786e-05   3.9485733993773874e-06   1.852642596364667e-05
-1.0839226333094786e-05   3.9485733993773874e-06   1.852642596364667e-05
-1.0839226333094786e-05   3.9485733993773874e-06   1.852642596364667e-05
-1.0839226333094786e-05   3.9485733993773874e-06   1.852642596364667e-05
-2.0824601690500337e-05   3.52644959834272e-06   1.6308594206831885e-06
-2.0824601690500337e-05   3.52644959834272e-06   1.6308594206831885e-06
-2.0824601690500337e-05   3.52644959834272e-06   1.6308594206831885e-06
-2.0824601690500337e-05   3.52644959834272e-06   1.6308594206831885e-06
-2.12878564498443e-05   3.7011934035516888e-06   1.840905334771811e-05
-2.12878564498443e-05   3.7011934035516888e-06   1.840905334771811e-05
-2.12878564498443e-05   3.7011934035516888e-06   1.840905334771811e-05
-2.12878564498443e-05   3.7011934035516888e-06   1.840905334771811e-05
-1.1269455351842892e-05   3.2409659099083207e-06   1.987854680568458e-06
-1.1269455351842892e-05   3.2409659099083207e-06   1.987854680568458e-06
-1.1269455351842892e-05   3.2409659099083207e-06   1.987854680568458e-06
-1.1269455351842892e-05   3.2409659099083207e-06   1.987854680568458e-06
-1.600194703202581e-05   3.5559774452915104e-06   9.686333892976759e-06
-1.600194703202581e-05   3.5559774452915104e-06   9.686333892976759e-06
-1.600194703202581e-05   3.5559774452915104e-06   9.686333892976759e-06
-1.600194703202581e-05   3.5559774452915104e-06   9.686333892976759e-06
-1.1269455351842878e-05   3.7011934035516888e-06   1.8685189843904216e-05
-1.1269455351842878e-05   3.7011934035516888e-06   1.8685189843904216e-05
-1.1269455351842878e-05   3.7011934035516888e-06   1.8685189843904216e-05
-1.1269455351842878e-05   3.7011934035516888e-06   1.8685189843904216e-05
-2.12878564498443e-05   3.2409659099083207e-06   1.7117181843824048e-06
-2.12878564498443e-05   3.2409659099083207e-06   1.7117181843824048e-06
-2.12878564498443e-05   3.2409659099083207e-06   1.7117181843824048e-06
-2.12878564498443e-05   3.2409659099083207e-06   1.7117181843824048e-06
-2.179731828010081e-05   3.4719972782793884e-06   1.9100487699082267e-05
-2.179731828010081e-05   3.4719972782793884e-06   1.9100487699082267e-05
-2.179731828010081e-05   3.4719972782793884e-06   1.9100487699082267e-05
-2.179731828010081e-05   3.4719972782793884e-06   1.9100487699082267e-05
-1.1710222809566717e-05   2.9739555418410463e-06   2.587486956721766e-06
-1.1710222809566717e-05   2.9739555418410463e-06   2.587486956721766e-06
-1.1710222809566717e-05   2.9739555418410463e-06   2.587486956721766e-06
-1.1710222809566717e-05   2.9739555418410463e-06   2.587486956721766e-06
-1.6332326143466074e-05   3.37417501882647e-06   1.0050860827030047e-05
-1.6332326143466074e-05   3.37417501882647e-06   1.0050860827030047e-05
-1.6332326143466074e-05   3.37417501882647e-06   1.0050860827030047e-05
-1.6332326143466074e-05   3.37417501882647e-06   1.0050860827030047e-05
-1.1710222809566703e-05   3.4719972782793884e-06   1.9399312740945142e-05
-1.1710222809566703e-05   3.4719972782793884e-06   1.9399312740945142e-05
-1.1710222809566703e-05   3.4719972782793884e-06   1.9399312740945142e-05
-1.1710222809566703e-05   3.4719972782793884e-06   1.9399312740945142e-05
-2.179731828010081e-05   2.9739555418410463e-06   2.2886619148588367e-06
-2.179731828010081e-05   2.9739555418410463e-06   2.2886619148588367e-06
-2.179731828010081e-05   2.9739555418410463e-06   2.2886619148588367e-06
-2.179731828010081e-05   2.9739555418410463e-06   2.2886619148588367e-06
-2.2262544108984944e-05   3.1910613902781052e-06   1.9616262325391196e-05
-2.2262544108984944e-05   3.1910613902781052e-06   1.9616262325391196e-05
-2.2262544108984944e-05   3.1910613902781052e-06   1.9616262325391196e-05
-2.2262544108984944e-05   3.1910613902781052e-06   1.9616262325391196e-05
-1.2150627242420029e-05   2.6620916125600497e-06   3.0804494144138096e-06
-1.2150627242420029e-05   2.6620916125600497e-06   3.0804494144138096e-06
-1.2150627242420029e-05   2.6620916125600497e-06   3.0804494144138096e-06
-1.2150627242420029e-05   2.6620916125600497e-06   3.0804494144138096e-06
-1.6862422803240642e-05   3.167985498998046e-06   1.0629905683919662e-05
-1.6862422803240642e-05   3.167985498998046e-06   1.0629905683919662e-05
-1.6862422803240642e-05   3.167985498998046e-06   1.0629905683919662e-05
-1.6862422803240642e-05   3.167985498998046e-06   1.0629905683919662e-05
-2.0824601690500337e-05   5.697937988336562e-06   8.975776778536175e-06
-2.0824601690500337e-05   5.697937988336562e-06   8.975776778536175e-06
-2.0824601690500337e-05   5.697937988336562e-06   8.975776778536175e-06
-2.0824601690500337e-05   5.697937988336562e-06   8.975776778536175e-06
-3.033124966968028e-05   4.873241758576773e-06   -7.363454257952845e-06
-3.033124966968028e-05   4.873241758576773e-06   -7.363454257952845e-06
-3.033124966968028e-05   4.873241758576773e-06   -7.363454257952845e-06
-3.033124966968028e-05   4.873241758576773e-06   -7.363454257952845e-06
-3.116500446240331e-05   5.762532623641023e-06   1.1956021602642559e-05
-3.116500446240331e-05   5.762532623641023e-06   1.1956021602642559e-05
-3.116500446240331e-05   5.762532623641023e-06   1.1956021602642559e-05
-3.116500446240331e-05   5.762532623641023e-06   1.1956021602642559e-05
-2.12878564498443e-05   4.852759896071916e-06   -3.960028115081128e-06
-2.12878564498443e-05   4.852759896071916e-06   -3.960028115081128e-06
-2.12878564498443e-05   4.852759896071916e-06   -3.960028115081128e-06
-2.12878564498443e-05   4.852759896071916e-06   -3.960028115081128e-06
-2.491614667822148e-05   5.217504886548437e-06   1.8682752712615987e-06
-2.491614667822148e-05   5.217504886548437e-06   1.8682752712615987e-06
-2.491614667822148e-05   5.217504886548437e-06   1.8682752712615987e-06
-2.491614667822148e-05   5.217504886548437e-06   1.8682752712615987e-06
-2.1287856449844273e-05   5.7625326236408064e-06   1.250188523918398e-05
-2.1287856449844273e-05   5.7625326236408064e-06   1.250188523918398e-05
-2.1287856449844273e-05   5.7625326236408064e-06   1.250188523918398e-05
-2.1287856449844273e-05   5.7625326236408064e-06   1.250188523918398e-05
-3.1165004462403365e-05   4.852759896071916e-06   -4.505891751622603e-06
-3.1165004462403365e-05   4.852759896071916e-06   -4.505891751622603e-06
-3.1165004462403365e-05   4.852759896071916e-06   -4.505891751622603e-06
-3.1165004462403365e-05   4.852759896071916e-06   -4.505891751622603e-06
-3.191039153390768e-05   5.7002749330363825e-06   1.435320761981483e-05
-3.191039153390768e-05   5.7002749330363825e-06   1.435320761981483e-05
-3.191039153390768e-05   5.7002749330363825e-06   1.435320761981483e-05
-3.191039153390768e-05   5.7002749330363825e-06   1.435320761981483e-05
-2.179731828010081e-05   4.7551615464608375e-06   -1.9348464379180053e-06
-2.179731828010081e-05   4.7551615464608375e-06   -1.9348464379180053e-06
-2.179731828010081e-05   4.7551615464608375e-06   -1.9348464379180053e-06
-2.179731828010081e-05   4.7551615464608375e-06   -1.9348464379180053e-06
-2.5879976501006562e-05   5.276540509783437e-06   4.556756552265566e-06
-2.5879976501006562e-05   5.276540509783437e-06   4.556756552265566e-06
-2.5879976501006562e-05   5.276540509783437e-06   4.556756552265566e-06
-2.5879976501006562e-05   5.276540509783437e-06   4.556756552265566e-06
-2.179731828010081e-05   5.7002749330363825e-06   1.4920275651760287e-05
-2.179731828010081e-05   5.7002749330363825e-06   1.4920275651760287e-05
-2.179731828010081e-05   5.7002749330363825e-06   1.4920275651760287e-05
-2.179731828010081e-05   5.7002749330363825e-06   1.4920275651760287e-05
-3.1910391533907764e-05   4.7551615464608375e-06   -2.5019144698634624e-06
-3.1910391533907764e-05   4.7551615464608375e-06   -2.5019144698634624e-06
-3.1910391533907764e-05   4.7551615464608375e-06   -2.5019144698634624e-06
-3.1910391533907764e-05   4.7551615464608375e-06   -2.5019144698634624e-06
-3.2765808105781756e-05   5.2637011171260874e-06   1.8472438258902214e-05
-3.2765808105781756e-05   5.2637011171260874e-06   1.8472438258902214e-05
-3.2765808105781756e-05   5.2637011171260874e-06   1.8472438258902214e-05
-3.2765808105781756e-05   5.2637011171260874e-06   1.8472438258902214e-05
-2.2262544108984944e-05   4.321534903936521e-06   1.5322979921544421e-06
-2.2262544108984944e-05   4.321534903936521e-06   1.5322979921544421e-06
-2.2262544108984944e-05   4.321534903936521e-06   1.5322979921544421e-06
-2.2262544108984944e-05   4.321534903936521e-06   1.5322979921544421e-06
-2.607709622428218e-05   5.096381951424488e-06   7.424976622490793e-06
-2.607709622428218e-05   5.096381951424488e-06   7.424976622490793e-06
-2.607709622428218e-05   5.096381951424488e-06   7.424976622490793e-06
-2.607709622428218e-05   5.096381951424488e-06   7.424976622490793e-06
1.4420799046768968e-05   -1.8669875289254942e-06   1.4359833204457715e-05
1.4420799046768968e-05   -1.8669875289254942e-06   1.4359833204457715e-05
1.4420799046768968e-05   -1.8669875289254942e-06   1.4359833204457715e-05
1.4420799046768968e-05   -1.8669875289254942e-06   1.4359833204457715e-05
5.989747070467923e-06   -9.314541064872443e-07   8.693999640857443e-07
5.989747070467923e-06   -9.314541064872443e-07   8.693999640857443e-07
5.989747070467923e-06   -9.314541064872443e-07   8.693999640857443e-07
5.989747070467923e-06   -9.314541064872443e-07   8.693999640857443e-07
5.623092115084334e-06   -2.2614878834625093e-06   1.289970416540635e-05
5.623092115084334e-06   -2.2614878834625093e-06   1.289970416540635e-05
5.623092115084334e-06   -2.2614878834625093e-06   1.289970416540635e-05
5.623092115084334e-06   -2.2614878834625093e-06   1.289970416540635e-05
1.363878204570898e-05   -1.285803944729106e-06   -1.0451894155414802e-06
1.363878204570898e-05   -1.285803944729106e-06   -1.0451894155414802e-06
1.363878204570898e-05   -1.285803944729106e-06   -1.0451894155414802e-06
1.363878204570898e-05   -1.285803944729106e-06   -1.0451894155414802e-06
9.425297748769066e-06   -1.6236568160764298e-06   6.179996135500458e-06
9.425297748769066e-06   -1.6236568160764298e-06   6.179996135500458e-06
9.425297748769066e-06   -1.6236568160764298e-06   6.179996135500458e-06
9.425297748769066e-06   -1.6236568160764298e-06   6.179996135500458e-06
1.3638782045709004e-05   -2.2614878834625093e-06   1.231429380216633e-05
1.3638782045709004e-05   -2.2614878834625093e-06   1.231429380216633e-05
1.3638782045709004e-05   -2.2614878834625093e-06   1.231429380216633e-05
1.3638782045709004e-05   -2.2614878834625093e-06   1.231429380216633e-05
5.623092115084315e-06   -1.285803944729106e-06   -4.5977905230136507e-07
5.623092115084315e-06   -1.285803944729106e-06   -4.5977905230136507e-07
5.623092115084315e-06   -1.285803944729106e-06   -4.5977905230136507e-07
5.623092115084315e-06   -1.285803944729106e-06   -4.5977905230136507e-07
5.210526551783489e-06   -2.366204078408209e-06   1.1816876791740554e-05
5.210526551783489e-06   -2.366204078408209e-06   1.1816876791740554e-05
5.210526551783489e-06   -2.366204078408209e-06   1.1816876791740554e-05
5.210526551783489e-06   -2.366204078408209e-06   1.1816876791740554e-05
1.2966695841798902e-05   -1.4069989921804485e-06   -1.685595076688414e-06
1.2966695841798902e-05   -1.4069989921804485e-06   -1.685595076688414e-06
1.2966695841798902e-05   -1.4069989921804485e-06   -1.685595076688414e-06
1.2966695841798902e-05   -1.4069989921804485e-06   -1.685595076688414e-06
9.081170986120668e-06   -1.7742398434409659e-06   5.010624193531831e-06
9.081170986120668e-06   -1.7742398434409659e-06   5.010624193531831e-06
9.081170986120668e-06   -1.7742398434409659e-06   5.010624193531831e-06
9.081170986120668e-06   -1.7742398434409659e-06   5.010624193531831e-06
1.2966695841798926e-05   -2.366204078408209e-06   1.124135374000392e-05
1.2966695841798926e-05   -2.366204078408209e-06   1.124135374000392e-05
1.2966695841798926e-05   -2.366204078408209e-06   1.124135374000392e-05
1.2966695841798926e-05   -2.366204078408209e-06   1.124135374000392e-05
5.210526551783479e-06   -1.4069989921804485e-06   -1.110072024951888e-06
5.210526551783479e-06   -1.4069989921804485e-06   -1.110072024951888e-06
5.210526551783479e-06   -1.4069989921804485e-06   -1.110072024951888e-06
5.210526551783479e-06   -1.4069989921804485e-06   -1.110072024951888e-06
4.840383387437124e-06   -2.460939837585713e-06   1.0404976559273541e-05
4.840383387437124e-06   -2.460939837585713e-06   1.0404976559273541e-05
4.840383387437124e-06   -2.460939837585713e-06   1.0404976559273541e-05
4.840383387437124e-06   -2.460939837585713e-06   1.0404976559273541e-05
1.2203085583800953e-05   -1.5646721752858236e-06   -2.4039543653794866e-06
1.2203085583800953e-05   -1.5646721752858236e-06   -2.4039543653794866e-06
1.2203085583800953e-05   -1.5646721752858236e-06   -2.4039543653794866e-06
1.2203085583800953e-05   -1.5646721752858236e-06   -2.4039543653794866e-06
8.43246489219496e-06   -1.8020120463193125e-06   4.022817376583962e-06
8.43246489219496e-06   -1.8020120463193125e-06   4.022817376583962e-06
8.43246489219496e-06   -1.8020120463193125e-06   4.022817376583962e-06
8.43246489219496e-06   -1.8020120463193125e-06   4.022817376583962e-06
5.989747070467944e-06   -1.6100973169747707e-08   1.767479033732192e-05
5.989747070467944e-06   -1.6100973169747707e-08   1.767479033732192e-05
5.989747070467944e-06   -1.6100973169747707e-08   1.767479033732192e-05
5.989747070467944e-06   -1.6100973169747707e-08   1.767479033732192e-05
-1.914810518235721e-06   4.610183196263008e-07   4.786799265160137e-06
-1.914810518235721e-06   4.610183196263008e-07   4.786799265160137e-06
-1.914810518235721e-06   4.610183196263008e-07   4.786799265160137e-06
-1.914810518235721e-06   4.610183196263008e-07   4.786799265160137e-06
-2.2520467406805176e-06   -3.580674472996974e-07   1.7706013804396356e-05
-2.2520467406805176e-06   -3.580674472996974e-07   1.7706013804396356e-05
-2.2520467406805176e-06   -3.580674472996974e-07   1.7706013804396356e-05
-2.2520467406805176e-06   -3.580674472996974e-07   1.7706013804396356e-05
5.623092115084315e-06   1.0368664781260604e-07   4.3037299210543604e-06
5.623092115084315e-06   1.0368664781260604e-07   4.3037299210543604e-06
5.623092115084315e-06   1.0368664781260604e-07   4.3037299210543604e-06
5.623092115084315e-06   1.0368664781260604e-07   4.3037299210543604e-06
1.8048883634925917e-06   1.6607016219876217e-08   1.0719650619329859e-05
1.8048883634925917e-06   1.6607016219876217e-08   1.0719650619329859e-05
1.8048883634925917e-06   1.6607016219876217e-08   1.0719650619329859e-05
1.8048883634925917e-06   1.6607016219876217e-08   1.0719650619329859e-05
5.6230921150843305e-06   -3.580674472996974e-07   1.7428961347329104e-05
5.6230921150843305e-06   -3.580674472996974e-07   1.7428961347329104e-05
5.6230921150843305e-06   -3.580674472996974e-07   1.7428961347329104e-05
5.6230921150843305e-06   -3.580674472996974e-07   1.7428961347329104e-05
-2.2520467406805176e-06   1.0368664781260604e-07   4.580782378121721e-06
-2.2520467406805176e-06   1.0368664781260604e-07   4.580782378121721e-06
-2.2520467406805176e-06   1.0368664781260604e-07   4.580782378121721e-06
-2.2520467406805176e-06   1.0368664781260604e-07   4.580782378121721e-06
-2.597016453100874e-06   -6.265002960158684e-07   1.7488775518272504e-05
-2.597016453100874e-06   -6.265002960158684e-07   1.7488775518272504e-05
-2.597016453100874e-06   -6.265002960158684e-07   1.7488775518272504e-05
-2.597016453100874e-06   -6.265002960158684e-07   1.7488775518272504e-05
5.210526551783479e-06   -1.876532118003137e-07   4.21289559293601e-06
5.210526551783479e-06   -1.876532118003137e-07   4.21289559293601e-06
5.210526551783479e-06   -1.876532118003137e-07   4.21289559293601e-06
5.210526551783479e-06   -1.876532118003137e-07   4.21289559293601e-06
1.4333545065901885e-06   -2.210961614221513e-07   1.0528248104698561e-05
1.4333545065901885e-06   -2.210961614221513e-07   1.0528248104698561e-05
1.4333545065901885e-06   -2.210961614221513e-07   1.0528248104698561e-05
1.4333545065901885e-06   -2.210961614221513e-07   1.0528248104698561e-05
5.210526551783498e-06   -6.265002960158684e-07   1.7225467267743214e-05
5.210526551783498e-06   -6.265002960158684e-07   1.7225467267743214e-05
5.210526551783498e-06   -6.265002960158684e-07   1.7225467267743214e-05
5.210526551783498e-06   -6.265002960158684e-07   1.7225467267743214e-05
-2.5970164531008877e-06   -1.876532118003137e-07   4.47620384346533e-06
-2.5970164531008877e-06   -1.876532118003137e-07   4.47620384346533e-06
-2.5970164531008877e-06   -1.876532118003137e-07   4.47620384346533e-06
-2.5970164531008877e-06   -1.876532118003137e-07   4.47620384346533e-06
-2.939217284482826e-06   -8.737183699114928e-07   1.7642072428408003e-05
-2.939217284482826e-06   -8.737183699114928e-07   1.7642072428408003e-05
-2.939217284482826e-06   -8.737183699114928e-07   1.7642072428408003e-05
-2.939217284482826e-06   -8.737183699114928e-07   1.7642072428408003e-05
4.840383387437104e-06   -4.734194981580739e-07   4.435891985489635e-06
4.840383387437104e-06   -4.734194981580739e-07   4.435891985489635e-06
4.840383387437104e-06   -4.734194981580739e-07   4.435891985489635e-06
4.840383387437104e-06   -4.734194981580739e-07   4.435891985489635e-06
1.1410777322512343e-06   -4.1800252852325706e-07   1.0568151229018428e-05
1.1410777322512343e-06   -4.1800252852325706e-07   1.0568151229018428e-05
1.1410777322512343e-06   -4.1800252852325706e-07   1.0568151229018428e-05
1.1410777322512343e-06   -4.1800252852325706e-07   1.0568151229018428e-05
-1.9148105182357074e-06   1.7882659822997336e-06   1.916536300610339e-05
-1.9148105182357074e-06   1.7882659822997336e-06   1.916536300610339e-05
-1.9148105182357074e-06   1.7882659822997336e-06   1.916536300610339e-05
-1.9148105182357074e-06   1.7882659822997336e-06   1.916536300610339e-05
-9.686500089842965e-06   1.763396162349131e-06   6.197625161454283e-06
-9.686500089842965e-06   1.763396162349131e-06   6.197625161454283e-06
-9.686500089842965e-06   1.763396162349131e-06   6.197625161454283e-06
-9.686500089842965e-06   1.763396162349131e-06   6.197625161454283e-06
-1.001958203182985e-05   1.4890412112506923e-06   1.904054857602554e-05
-1.001958203182985e-05   1.4890412112506923e-06   1.904054857602554e-05
-1.001958203182985e-05   1.4890412112506923e-06   1.904054857602554e-05
-1.001958203182985e-05   1.4890412112506923e-06   1.904054857602554e-05
-2.2520467406805176e-06   1.4398634592103794e-06   6.124163075334321e-06
-2.2520467406805176e-06   1.4398634592103794e-06   6.124163075334321e-06
-2.2520467406805176e-06   1.4398634592103794e-06   6.124163075334321e-06
-2.2520467406805176e-06   1.4398634592103794e-06   6.124163075334321e-06
-5.983235977509038e-06   1.5791963008116852e-06   1.2259212098421433e-05
-5.983235977509038e-06   1.5791963008116852e-06   1.2259212098421433e-05
-5.983235977509038e-06   1.5791963008116852e-06   1.2259212098421433e-05
-5.983235977509038e-06   1.5791963008116852e-06   1.2259212098421433e-05
-2.2520467406805176e-06   1.4890412112506923e-06   1.9070055227249794e-05
-2.2520467406805176e-06   1.4890412112506923e-06   1.9070055227249794e-05
-2.2520467406805176e-06   1.4890412112506923e-06   1.9070055227249794e-05
-2.2520467406805176e-06   1.4890412112506923e-06   1.9070055227249794e-05
-1.001958203182985e-05   1.4398634592104878e-06   6.094656424110109e-06
-1.001958203182985e-05   1.4398634592104878e-06   6.094656424110109e-06
-1.001958203182985e-05   1.4398634592104878e-06   6.094656424110109e-06
-1.001958203182985e-05   1.4398634592104878e-06   6.094656424110109e-06
-1.0360525613517177e-05   1.1946241357098462e-06   1.9134931019515033e-05
-1.0360525613517177e-05   1.1946241357098462e-06   1.9134931019515033e-05
-1.0360525613517177e-05   1.1946241357098462e-06   1.9134931019515033e-05
-1.0360525613517177e-05   1.1946241357098462e-06   1.9134931019515033e-05
-2.597016453100874e-06   1.1200790774140669e-06   6.240476120465395e-06
-2.597016453100874e-06   1.1200790774140669e-06   6.240476120465395e-06
-2.597016453100874e-06   1.1200790774140669e-06   6.240476120465395e-06
-2.597016453100874e-06   1.1200790774140669e-06   6.240476120465395e-06
-6.287917167490443e-06   1.3448708070118052e-06   1.2257102273356316e-05
-6.287917167490443e-06   1.3448708070118052e-06   1.2257102273356316e-05
-6.287917167490443e-06   1.3448708070118052e-06   1.2257102273356316e-05
-6.287917167490443e-06   1.3448708070118052e-06   1.2257102273356316e-05
-2.5970164531008877e-06   1.1946241357098462e-06   1.9179658054492435e-05
-2.5970164531008877e-06   1.1946241357098462e-06   1.9179658054492435e-05
-2.5970164531008877e-06   1.1946241357098462e-06   1.9179658054492435e-05
-2.5970164531008877e-06   1.1946241357098462e-06   1.9179658054492435e-05
-1.0360525613517177e-05   1.1200790774139584e-06   6.195749085487938e-06
-1.0360525613517177e-05   1.1200790774139584e-06   6.195749085487938e-06
-1.0360525613517177e-05   1.1200790774139584e-06   6.195749085487938e-06
-1.0360525613517177e-05   1.1200790774139584e-06   6.195749085487938e-06
-1.0697351157551235e-05   9.153438721857046e-07   1.9387711754102104e-05
-1.0697351157551235e-05   9.153438721857046e-07   1.9387711754102104e-05
-1.0697351157551235e-05   9.153438721857046e-07   1.9387711754102104e-05
-1.0697351157551235e-05   9.153438721857046e-07   1.9387711754102104e-05
-2.9392172844828124e-06   8.123814525613695e-07   6.519266084095915e-06
-2.9392172844828124e-06   8.123814525613695e-07   6.519266084095915e-06
-2.9392172844828124e-06   8.123814525613695e-07   6.519266084095915e-06
-2.9392172844828124e-06   8.123814525613695e-07   6.519266084095915e-06
-6.606800434350566e-06   1.1161860564683082e-06   1.2449621904864672e-05
-6.606800434350566e-06   1.1161860564683082e-06   1.2449621904864672e-05
-6.606800434350566e-06   1.1161860564683082e-06   1.2449621904864672e-05
-6.606800434350566e-06   1.1161860564683082e-06   1.2449621904864672e-05
-9.686500089842965e-06   3.52644959834272e-06   1.6963099057302556e-05
-9.686500089842965e-06   3.52644959834272e-06   1.6963099057302556e-05
-9.686500089842965e-06   3.52644959834272e-06   1.6963099057302556e-05
-9.686500089842965e-06   3.52644959834272e-06   1.6963099057302556e-05
-1.733532071924364e-05   3.031297549479432e-06   3.9179734456502966e-06
-1.733532071924364e-05   3.031297549479432e-06   3.9179734456502966e-06
-1.733532071924364e-05   3.031297549479432e-06   3.9179734456502966e-06
-1.733532071924364e-05   3.031297549479432e-06   3.9179734456502966e-06
-1.7693048326169477e-05   3.2409659099083207e-06   1.6741997619595787e-05
-1.7693048326169477e-05   3.2409659099083207e-06   1.6741997619595787e-05
-1.7693048326169477e-05   3.2409659099083207e-06   1.6741997619595787e-05
-1.7693048326169477e-05   3.2409659099083207e-06   1.6741997619595787e-05
-1.001958203182981e-05   2.716055568231161e-06   4.267833334036073e-06
-1.001958203182981e-05   2.716055568231161e-06   4.267833334036073e-06
-1.001958203182981e-05   2.716055568231161e-06   4.267833334036073e-06
-1.001958203182981e-05   2.716055568231161e-06   4.267833334036073e-06
-1.3644692718860423e-05   3.07423019729866e-06   1.0094779701646904e-05
-1.3644692718860423e-05   3.07423019729866e-06   1.0094779701646904e-05
-1.3644692718860423e-05   3.07423019729866e-06   1.0094779701646904e-05
-1.3644692718860423e-05   3.07423019729866e-06   1.0094779701646904e-05
-1.001958203182985e-05   3.2409659099083207e-06   1.7056943824602126e-05
-1.001958203182985e-05   3.2409659099083207e-06   1.7056943824602126e-05
-1.001958203182985e-05   3.2409659099083207e-06   1.7056943824602126e-05
-1.001958203182985e-05   3.2409659099083207e-06   1.7056943824602126e-05
-1.7693048326169477e-05   2.7160555682310527e-06   3.9528871290297335e-06
-1.7693048326169477e-05   2.7160555682310527e-06   3.9528871290297335e-06
-1.7693048326169477e-05   2.7160555682310527e-06   3.9528871290297335e-06
-1.7693048326169477e-05   2.7160555682310527e-06   3.9528871290297335e-06
-1.8095242021669045e-05   2.9739555418410463e-06   1.731553513815672e-05
-1.8095242021669045e-05   2.9739555418410463e-06   1.731553513815672e-05
-1.8095242021669045e-05   2.9739555418410463e-06   1.731553513815672e-05
-1.8095242021669045e-05   2.9739555418410463e-06   1.731553513815672e-05
-1.0360525613517136e-05   2.4235010106665343e-06   4.75461384327519e-06
-1.0360525613517136e-05   2.4235010106665343e-06   4.75461384327519e-06
-1.0360525613517136e-05   2.4235010106665343e-06   4.75461384327519e-06
-1.0360525613517136e-05   2.4235010106665343e-06   4.75461384327519e-06
-1.389069854051002e-05   2.8598604698390657e-06   1.0376419712760109e-05
-1.389069854051002e-05   2.8598604698390657e-06   1.0376419712760109e-05
-1.389069854051002e-05   2.8598604698390657e-06   1.0376419712760109e-05
-1.389069854051002e-05   2.8598604698390657e-06   1.0376419712760109e-05
-1.0360525613517177e-05   2.9739555418410463e-06   1.764580785686143e-05
-1.0360525613517177e-05   2.9739555418410463e-06   1.764580785686143e-05
-1.0360525613517177e-05   2.9739555418410463e-06   1.764580785686143e-05
-1.0360525613517177e-05   2.9739555418410463e-06   1.764580785686143e-05
-1.8095242021669018e-05   2.4235010106665343e-06   4.42434112457032e-06
-1.8095242021669018e-05   2.4235010106665343e-06   4.42434112457032e-06
-1.8095242021669018e-05   2.4235010106665343e-06   4.42434112457032e-06
-1.8095242021669018e-05   2.4235010106665343e-06   4.42434112457032e-06
-1.8452186073924273e-05   2.6620916125600497e-06   1.77959231904023e-05
-1.8452186073924273e-05   2.6620916125600497e-06   1.77959231904023e-05
-1.8452186073924273e-05   2.6620916125600497e-06   1.77959231904023e-05
-1.8452186073924273e-05   2.6620916125600497e-06   1.77959231904023e-05
-1.0697351157551208e-05   2.0956126827927643e-06   5.2110856876409035e-06
-1.0697351157551208e-05   2.0956126827927643e-06   5.2110856876409035e-06
-1.0697351157551208e-05   2.0956126827927643e-06   5.2110856876409035e-06
-1.0697351157551208e-05   2.0956126827927643e-06   5.2110856876409035e-06
-1.4294805885700948e-05   2.633258693985328e-06   1.0884255961175174e-05
-1.4294805885700948e-05   2.633258693985328e-06   1.0884255961175174e-05
-1.4294805885700948e-05   2.633258693985328e-06   1.0884255961175174e-05
-1.4294805885700948e-05   2.633258693985328e-06   1.0884255961175174e-05
-1.733532071924364e-05   4.873241758576773e-06   8.166511887204488e-06
-1.733532071924364e-05   4.873241758576773e-06   8.166511887204488e-06
-1.733532071924364e-05   4.873241758576773e-06   8.166511887204488e-06
-1.733532071924364e-05   4.873241758576773e-06   8.166511887204488e-06
-2.453009343092257e-05   3.988731376709212e-06   -4.355482194714274e-06
-2.453009343092257e-05   3.988731376709212e-06   -4.355482194714274e-06
-2.453009343092257e-05   3.988731376709212e-06   -4.355482194714274e-06
-2.453009343092257e-05   3.988731376709212e-06   -4.355482194714274e-06
-2.5279700808907935e-05   4.852759896071916e-06   1.0492469233676512e-05
-2.5279700808907935e-05   4.852759896071916e-06   1.0492469233676512e-05
-2.5279700808907935e-05   4.852759896071916e-06   1.0492469233676512e-05
-2.5279700808907935e-05   4.852759896071916e-06   1.0492469233676512e-05
-1.769304832616945e-05   3.889789751979284e-06   -1.5741694844319232e-06
-1.769304832616945e-05   3.889789751979284e-06   -1.5741694844319232e-06
-1.769304832616945e-05   3.889789751979284e-06   -1.5741694844319232e-06
-1.769304832616945e-05   3.889789751979284e-06   -1.5741694844319232e-06
-2.041410438253503e-05   4.319614222882758e-06   2.703029260302356e-06
-2.041410438253503e-05   4.319614222882758e-06   2.703029260302356e-06
-2.041410438253503e-05   4.319614222882758e-06   2.703029260302356e-06
-2.041410438253503e-05   4.319614222882758e-06   2.703029260302356e-06
-1.7693048326169477e-05   4.852759896071916e-06   1.10702513201322e-05
-1.7693048326169477e-05   4.852759896071916e-06   1.10702513201322e-05
-1.7693048326169477e-05   4.852759896071916e-06   1.10702513201322e-05
-1.7693048326169477e-05   4.852759896071916e-06   1.10702513201322e-05
-2.527970080890799e-05   3.889789751979284e-06   -2.1519515708875027e-06
-2.527970080890799e-05   3.889789751979284e-06   -2.1519515708875027e-06
-2.527970080890799e-05   3.889789751979284e-06   -2.1519515708875027e-06
-2.527970080890799e-05   3.889789751979284e-06   -2.1519515708875027e-06
-2.593262305347762e-05   4.7551615464608375e-06   1.249827455570055e-05
-2.593262305347762e-05   4.7551615464608375e-06   1.249827455570055e-05
-2.593262305347762e-05   4.7551615464608375e-06   1.249827455570055e-05
-2.593262305347762e-05   4.7551615464608375e-06   1.249827455570055e-05
-1.809524202166899e-05   3.7655744969951983e-06   2.9725065698910265e-08
-1.809524202166899e-05   3.7655744969951983e-06   2.9725065698910265e-08
-1.809524202166899e-05   3.7655744969951983e-06   2.9725065698910265e-08
-1.809524202166899e-05   3.7655744969951983e-06   2.9725065698910265e-08
-2.121165081957805e-05   4.324022111336519e-06   4.888671160276537e-06
-2.121165081957805e-05   4.324022111336519e-06   4.888671160276537e-06
-2.121165081957805e-05   4.324022111336519e-06   4.888671160276537e-06
-2.121165081957805e-05   4.324022111336519e-06   4.888671160276537e-06
-1.8095242021669045e-05   4.7551615464608375e-06   1.3092026785379825e-05
-1.8095242021669045e-05   4.7551615464608375e-06   1.3092026785379825e-05
-1.8095242021669045e-05   4.7551615464608375e-06   1.3092026785379825e-05
-1.8095242021669045e-05   4.7551615464608375e-06   1.3092026785379825e-05
-2.593262305347762e-05   3.7655744969951983e-06   -5.64027163980419e-07
-2.593262305347762e-05   3.7655744969951983e-06   -5.64027163980419e-07
-2.593262305347762e-05   3.7655744969951983e-06   -5.64027163980419e-07
-2.593262305347762e-05   3.7655744969951983e-06   -5.64027163980419e-07
-2.6689054585704597e-05   4.321534903936304e-06   1.5979943488629838e-05
-2.6689054585704597e-05   4.321534903936304e-06   1.5979943488629838e-05
-2.6689054585704597e-05   4.321534903936304e-06   1.5979943488629838e-05
-2.6689054585704597e-05   4.321534903936304e-06   1.5979943488629838e-05
-1.845218607392419e-05   3.346184660363489e-06   2.837039448473134e-06
-1.845218607392419e-05   3.346184660363489e-06   2.837039448473134e-06
-1.845218607392419e-05   3.346184660363489e-06   2.837039448473134e-06
-1.845218607392419e-05   3.346184660363489e-06   2.837039448473134e-06
-2.1382776706522645e-05   4.141135485784199e-06   7.244386674217982e-06
-2.1382776706522645e-05   4.141135485784199e-06   7.244386674217982e-06
-2.1382776706522645e-05   4.141135485784199e-06   7.244386674217982e-06
-2.1382776706522645e-05   4.141135485784199e-06   7.244386674217982e-06
8.110094230134575e-06   -9.314541064872443e-07   1.1356219791239155e-05
8.110094230134575e-06   -9.314541064872443e-07   1.1356219791239155e-05
8.110094230134575e-06   -9.314541064872443e-07   1.1356219791239155e-05
8.110094230134575e-06   -9.314541064872443e-07   1.1356219791239155e-05
2.1600767424107335e-06   -1.0911520732098667e-09   1.997741751014453e-06
2.1600767424107335e-06   -1.0911520732098667e-09   1.997741751014453e-06
2.1600767424107335e-06   -1.0911520732098667e-09   1.997741751014453e-06
2.1600767424107335e-06   -1.0911520732098667e-09   1.997741751014453e-06
1.8841999974008367e-06   -1.285803944729106e-06   1.05745614035099e-05
1.8841999974008367e-06   -1.285803944729106e-06   1.05745614035099e-05
1.8841999974008367e-06   -1.285803944729106e-06   1.05745614035099e-05
1.8841999974008367e-06   -1.285803944729106e-06   1.05745614035099e-05
7.4270169534897885e-06   -3.195937368030309e-07   7.568070186061748e-07
7.4270169534897885e-06   -3.195937368030309e-07   7.568070186061748e-07
7.4270169534897885e-06   -3.195937368030309e-07   7.568070186061748e-07
7.4270169534897885e-06   -3.195937368030309e-07   7.568070186061748e-07
4.608180304448311e-06   -6.795476561612633e-07   5.670840451957098e-06
4.608180304448311e-06   -6.795476561612633e-07   5.670840451957098e-06
4.608180304448311e-06   -6.795476561612633e-07   5.670840451957098e-06
4.608180304448311e-06   -6.795476561612633e-07   5.670840451957098e-06
7.427016953489802e-06   -1.285803944729106e-06   9.99483527875419e-06
7.427016953489802e-06   -1.285803944729106e-06   9.99483527875419e-06
7.427016953489802e-06   -1.285803944729106e-06   9.99483527875419e-06
7.427016953489802e-06   -1.285803944729106e-06   9.99483527875419e-06
1.8841999974008316e-06   -3.195937368030309e-07   1.3365331433617088e-06
1.8841999974008316e-06   -3.195937368030309e-07   1.3365331433617088e-06
1.8841999974008316e-06   -3.195937368030309e-07   1.3365331433617088e-06
1.8841999974008316e-06   -3.195937368030309e-07   1.3365331433617088e-06
1.5619891511120614e-06   -1.4069989921804485e-06   9.915684794062102e-06
1.5619891511120614e-06   -1.4069989921804485e-06   9.915684794062102e-06
1.5619891511120614e-06   -1.4069989921804485e-06   9.915684794062102e-06
1.5619891511120614e-06   -1.4069989921804485e-06   9.915684794062102e-06
6.847859052731955e-06   -4.5580251378741967e-07   5.351837376597516e-07
6.847859052731955e-06   -4.5580251378741967e-07   5.351837376597516e-07
6.847859052731955e-06   -4.5580251378741967e-07   5.351837376597516e-07
6.847859052731955e-06   -4.5580251378741967e-07   5.351837376597516e-07
4.280780059979974e-06   -8.18685227029067e-07   5.031378353524712e-06
4.280780059979974e-06   -8.18685227029067e-07   5.031378353524712e-06
4.280780059979974e-06   -8.18685227029067e-07   5.031378353524712e-06
4.280780059979974e-06   -8.18685227029067e-07   5.031378353524712e-06
6.847859052731969e-06   -1.4069989921804485e-06   9.34496690702623e-06
6.847859052731969e-06   -1.4069989921804485e-06   9.34496690702623e-06
6.847859052731969e-06   -1.4069989921804485e-06   9.34496690702623e-06
6.847859052731969e-06   -1.4069989921804485e-06   9.34496690702623e-06
1.5619891511120563e-06   -4.5580251378741967e-07   1.1059016246956366e-06
1.5619891511120563e-06   -4.5580251378741967e-07   1.1059016246956366e-06
1.5619891511120563e-06   -4.5580251378741967e-07   1.1059016246956366e-06
1.5619891511120563e-06   -4.5580251378741967e-07   1.1059016246956366e-06
1.282457002629506e-06   -1.5646721752858236e-06   9.147391564063819e-06
1.282457002629506e-06   -1.5646721752858236e-06   9.147391564063819e-06
1.282457002629506e-06   -1.5646721752858236e-06   9.147391564063819e-06
1.282457002629506e-06   -1.5646721752858236e-06   9.147391564063819e-06
6.168511946133746e-06   -6.805756454877389e-07   4.7350874034464473e-07
6.168511946133746e-06   -6.805756454877389e-07   4.7350874034464473e-07
6.168511946133746e-06   -6.805756454877389e-07   4.7350874034464473e-07
6.168511946133746e-06   -6.805756454877389e-07   4.7350874034464473e-07
3.7908168520834657e-06   -8.88422881764649e-07   4.5610422388614284e-06
3.7908168520834657e-06   -8.88422881764649e-07   4.5610422388614284e-06
3.7908168520834657e-06   -8.88422881764649e-07   4.5610422388614284e-06
3.7908168520834657e-06   -8.88422881764649e-07   4.5610422388614284e-06
2.160076742410737e-06   4.610183196264092e-07   1.5545565289284296e-05
2.160076742410737e-06   4.610183196264092e-07   1.5545565289284296e-05
2.160076742410737e-06   4.610183196264092e-07   1.5545565289284296e-05
2.160076742410737e-06   4.610183196264092e-07   1.5545565289284296e-05
-3.2540065274205376e-06   8.845740211878284e-07   6.776226593835767e-06
-3.2540065274205376e-06   8.845740211878284e-07   6.776226593835767e-06
-3.2540065274205376e-06   8.845740211878284e-07   6.776226593835767e-06
-3.2540065274205376e-06   8.845740211878284e-07   6.776226593835767e-06
-3.4967379513723134e-06   1.0368664781260604e-07   1.55915486908134e-05
-3.4967379513723134e-06   1.0368664781260604e-07   1.55915486908134e-05
-3.4967379513723134e-06   1.0368664781260604e-07   1.55915486908134e-05
-3.4967379513723134e-06   1.0368664781260604e-07   1.55915486908134e-05
1.8841999974008316e-06   5.261505043923026e-07   6.3698404622438e-06
1.8841999974008316e-06   5.261505043923026e-07   6.3698404622438e-06
1.8841999974008316e-06   5.261505043923026e-07   6.3698404622438e-06
1.8841999974008316e-06   5.261505043923026e-07   6.3698404622438e-06
-7.175830394124988e-07   4.5748430424919634e-07   1.0747345243685715e-05
-7.175830394124988e-07   4.5748430424919634e-07   1.0747345243685715e-05
-7.175830394124988e-07   4.5748430424919634e-07   1.0747345243685715e-05
-7.175830394124988e-07   4.5748430424919634e-07   1.0747345243685715e-05
1.884199997400835e-06   1.0368664781249762e-07   1.5338070376865517e-05
1.884199997400835e-06   1.0368664781249762e-07   1.5338070376865517e-05
1.884199997400835e-06   1.0368664781249762e-07   1.5338070376865517e-05
1.884199997400835e-06   1.0368664781249762e-07   1.5338070376865517e-05
-3.4967379513723134e-06   5.261505043923026e-07   6.623318776191676e-06
-3.4967379513723134e-06   5.261505043923026e-07   6.623318776191676e-06
-3.4967379513723134e-06   5.261505043923026e-07   6.623318776191676e-06
-3.4967379513723134e-06   5.261505043923026e-07   6.623318776191676e-06
-3.7467171643925295e-06   -1.876532118003137e-07   1.548533824849061e-05
-3.7467171643925295e-06   -1.876532118003137e-07   1.548533824849061e-05
-3.7467171643925295e-06   -1.876532118003137e-07   1.548533824849061e-05
-3.7467171643925295e-06   -1.876532118003137e-07   1.548533824849061e-05
1.5619891511120563e-06   2.2348984910099384e-07   6.39080855277576e-06
1.5619891511120563e-06   2.2348984910099384e-07   6.39080855277576e-06
1.5619891511120563e-06   2.2348984910099384e-07   6.39080855277576e-06
1.5619891511120563e-06   2.2348984910099384e-07   6.39080855277576e-06
-9.77143982457137e-07   2.0819938591958107e-07   1.063187138663341e-05
-9.77143982457137e-07   2.0819938591958107e-07   1.063187138663341e-05
-9.77143982457137e-07   2.0819938591958107e-07   1.063187138663341e-05
-9.77143982457137e-07   2.0819938591958107e-07   1.063187138663341e-05
1.5619891511120614e-06   -1.876532118003137e-07   1.5238652411949977e-05
1.5619891511120614e-06   -1.876532118003137e-07   1.5238652411949977e-05
1.5619891511120614e-06   -1.876532118003137e-07   1.5238652411949977e-05
1.5619891511120614e-06   -1.876532118003137e-07   1.5238652411949977e-05
-3.7467171643925295e-06   2.2348984910099384e-07   6.63749438931647e-06
-3.7467171643925295e-06   2.2348984910099384e-07   6.63749438931647e-06
-3.7467171643925295e-06   2.2348984910099384e-07   6.63749438931647e-06
-3.7467171643925295e-06   2.2348984910099384e-07   6.63749438931647e-06
-3.993149331642552e-06   -4.7341949815818234e-07   1.5682855004964984e-05
-3.993149331642552e-06   -4.7341949815818234e-07   1.5682855004964984e-05
-3.993149331642552e-06   -4.7341949815818234e-07   1.5682855004964984e-05
-3.993149331642552e-06   -4.7341949815818234e-07   1.5682855004964984e-05
1.2824570026295027e-06   -8.445668580464583e-08   6.65680009376627e-06
1.2824570026295027e-06   -8.445668580464583e-08   6.65680009376627e-06
1.2824570026295027e-06   -8.445668580464583e-08   6.65680009376627e-06
1.2824570026295027e-06   -8.445668580464583e-08   6.65680009376627e-06
-1.1961858251821411e-06   -1.4240486030398652e-08   1.0745741753588015e-05
-1.1961858251821411e-06   -1.4240486030398652e-08   1.0745741753588015e-05
-1.1961858251821411e-06   -1.4240486030398652e-08   1.0745741753588015e-05
-1.1961858251821411e-06   -1.4240486030398652e-08   1.0745741753588015e-05
-3.2540065274205376e-06   1.763396162349131e-06   1.7225446498485807e-05
-3.2540065274205376e-06   1.763396162349131e-06   1.7225446498485807e-05
-3.2540065274205376e-06   1.763396162349131e-06   1.7225446498485807e-05
-3.2540065274205376e-06   1.763396162349131e-06   1.7225446498485807e-05
-8.572033067477994e-06   1.6658146164749482e-06   8.303520004198804e-06
-8.572033067477994e-06   1.6658146164749482e-06   8.303520004198804e-06
-8.572033067477994e-06   1.6658146164749482e-06   8.303520004198804e-06
-8.572033067477994e-06   1.6658146164749482e-06   8.303520004198804e-06
-8.805270213510172e-06   1.4398634592104878e-06   1.7072911035557895e-05
-8.805270213510172e-06   1.4398634592104878e-06   1.7072911035557895e-05
-8.805270213510172e-06   1.4398634592104878e-06   1.7072911035557895e-05
-8.805270213510172e-06   1.4398634592104878e-06   1.7072911035557895e-05
-3.4967379513722863e-06   1.3364995384302627e-06   8.287375617796426e-06
-3.4967379513722863e-06   1.3364995384302627e-06   8.287375617796426e-06
-3.4967379513722863e-06   1.3364995384302627e-06   8.287375617796426e-06
-3.4967379513722863e-06   1.3364995384302627e-06   8.287375617796426e-06
-6.043600932712645e-06   1.5133018201388387e-06   1.2426065884339115e-05
-6.043600932712645e-06   1.5133018201388387e-06   1.2426065884339115e-05
-6.043600932712645e-06   1.5133018201388387e-06   1.2426065884339115e-05
-6.043600932712645e-06   1.5133018201388387e-06   1.2426065884339115e-05
-3.4967379513723134e-06   1.4398634592103794e-06   1.7134929388026095e-05
-3.4967379513723134e-06   1.4398634592103794e-06   1.7134929388026095e-05
-3.4967379513723134e-06   1.4398634592103794e-06   1.7134929388026095e-05
-3.4967379513723134e-06   1.4398634592103794e-06   1.7134929388026095e-05
-8.805270213510158e-06   1.3364995384302627e-06   8.22535726532832e-06
-8.805270213510158e-06   1.3364995384302627e-06   8.22535726532832e-06
-8.805270213510158e-06   1.3364995384302627e-06   8.22535726532832e-06
-8.805270213510158e-06   1.3364995384302627e-06   8.22535726532832e-06
-9.046023646966663e-06   1.1200790774140669e-06   1.718290538290214e-05
-9.046023646966663e-06   1.1200790774140669e-06   1.718290538290214e-05
-9.046023646966663e-06   1.1200790774140669e-06   1.718290538290214e-05
-9.046023646966663e-06   1.1200790774140669e-06   1.718290538290214e-05
-3.746717164392516e-06   1.0089038397662021e-06   8.417433054533826e-06
-3.746717164392516e-06   1.0089038397662021e-06   8.417433054533826e-06
-3.746717164392516e-06   1.0089038397662021e-06   8.417433054533826e-06
-3.746717164392516e-06   1.0089038397662021e-06   8.417433054533826e-06
-6.2509987241945685e-06   1.2633343891119315e-06   1.2438577324596582e-05
-6.2509987241945685e-06   1.2633343891119315e-06   1.2438577324596582e-05
-6.2509987241945685e-06   1.2633343891119315e-06   1.2438577324596582e-05
-6.2509987241945685e-06   1.2633343891119315e-06   1.2438577324596582e-05
-3.7467171643925295e-06   1.1200790774140669e-06   1.724961052549073e-05
-3.7467171643925295e-06   1.1200790774140669e-06   1.724961052549073e-05
-3.7467171643925295e-06   1.1200790774140669e-06   1.724961052549073e-05
-3.7467171643925295e-06   1.1200790774140669e-06   1.724961052549073e-05
-9.046023646966649e-06   1.0089038397662021e-06   8.350727911945305e-06
-9.046023646966649e-06   1.0089038397662021e-06   8.350727911945305e-06
-9.046023646966649e-06   1.0089038397662021e-06   8.350727911945305e-06
-9.046023646966649e-06   1.0089038397662021e-06   8.350727911945305e-06
-9.28292769451818e-06   8.123814525613695e-07   1.7455929853155182e-05
-9.28292769451818e-06   8.123814525613695e-07   1.7455929853155182e-05
-9.28292769451818e-06   8.123814525613695e-07   1.7455929853155182e-05
-9.28292769451818e-06   8.123814525613695e-07   1.7455929853155182e-05
-3.993149331642565e-06   6.955149069543063e-07   8.709752509060192e-06
-3.993149331642565e-06   6.955149069543063e-07   8.709752509060192e-06
-3.993149331642565e-06   6.955149069543063e-07   8.709752509060192e-06
-3.993149331642565e-06   6.955149069543063e-07   8.709752509060192e-06
-6.471751414805926e-06   1.0185213306822738e-06   1.2646952126762578e-05
-6.471751414805926e-06   1.0185213306822738e-06   1.2646952126762578e-05
-6.471751414805926e-06   1.0185213306822738e-06   1.2646952126762578e-05
-6.471751414805926e-06   1.0185213306822738e-06   1.2646952126762578e-05
-8.572033067477994e-06   3.031297549479432e-06   1.518433708447525e-05
-8.572033067477994e-06   3.031297549479432e-06   1.518433708447525e-05
-8.572033067477994e-06   3.031297549479432e-06   1.518433708447525e-05
-8.572033067477994e-06   3.031297549479432e-06   1.518433708447525e-05
-1.379938311181649e-05   2.4821801350771505e-06   6.142616561936214e-06
-1.379938311181649e-05   2.4821801350771505e-06   6.142616561936214e-06
-1.379938311181649e-05   2.4821801350771505e-06   6.142616561936214e-06
-1.379938311181649e-05   2.4821801350771505e-06   6.142616561936214e-06
-1.4053978682323777e-05   2.7160555682310527e-06   1.4906803872549333e-05
-1.4053978682323777e-05   2.7160555682310527e-06   1.4906803872549333e-05
-1.4053978682323777e-05   2.7160555682310527e-06   1.4906803872549333e-05
-1.4053978682323777e-05   2.7160555682310527e-06   1.4906803872549333e-05
-8.805270213510145e-06   2.1505821133401947e-06   6.4982404974613735e-06
-8.805270213510145e-06   2.1505821133401947e-06   6.4982404974613735e-06
-8.805270213510145e-06   2.1505821133401947e-06   6.4982404974613735e-06
-8.805270213510145e-06   2.1505821133401947e-06   6.4982404974613735e-06
-1.128024721822455e-05   2.5514026137057715e-06   1.0382709871766536e-05
-1.128024721822455e-05   2.5514026137057715e-06   1.0382709871766536e-05
-1.128024721822455e-05   2.5514026137057715e-06   1.0382709871766536e-05
-1.128024721822455e-05   2.5514026137057715e-06   1.0382709871766536e-05
-8.805270213510172e-06   2.716055568231161e-06   1.5246087945483913e-05
-8.805270213510172e-06   2.716055568231161e-06   1.5246087945483913e-05
-8.805270213510172e-06   2.716055568231161e-06   1.5246087945483913e-05
-8.805270213510172e-06   2.716055568231161e-06   1.5246087945483913e-05
-1.4053978682323722e-05   2.1505821133401947e-06   6.158956424526821e-06
-1.4053978682323722e-05   2.1505821133401947e-06   6.158956424526821e-06
-1.4053978682323722e-05   2.1505821133401947e-06   6.158956424526821e-06
-1.4053978682323722e-05   2.1505821133401947e-06   6.158956424526821e-06
-1.4355046217235518e-05   2.4235010106665343e-06   1.5396699590853225e-05
-1.4355046217235518e-05   2.4235010106665343e-06   1.5396699590853225e-05
-1.4355046217235518e-05   2.4235010106665343e-06   1.5396699590853225e-05
-1.4355046217235518e-05   2.4235010106665343e-06   1.5396699590853225e-05
-9.046023646966636e-06   1.8483834276064376e-06   6.893399190241196e-06
-9.046023646966636e-06   1.8483834276064376e-06   6.893399190241196e-06
-9.046023646966636e-06   1.8483834276064376e-06   6.893399190241196e-06
-9.046023646966636e-06   1.8483834276064376e-06   6.893399190241196e-06
-1.144406978603953e-05   2.3172645791084577e-06   1.0608814064461407e-05
-1.144406978603953e-05   2.3172645791084577e-06   1.0608814064461407e-05
-1.144406978603953e-05   2.3172645791084577e-06   1.0608814064461407e-05
-1.144406978603953e-05   2.3172645791084577e-06   1.0608814064461407e-05
-9.046023646966649e-06   2.4235010106665343e-06   1.5741770140689174e-05
-9.046023646966649e-06   2.4235010106665343e-06   1.5741770140689174e-05
-9.046023646966649e-06   2.4235010106665343e-06   1.5741770140689174e-05
-9.046023646966649e-06   2.4235010106665343e-06   1.5741770140689174e-05
-1.4355046217235436e-05   1.8483834276064376e-06   6.548328640405165e-06
-1.4355046217235436e-05   1.8483834276064376e-06   6.548328640405165e-06
-1.4355046217235436e-05   1.8483834276064376e-06   6.548328640405165e-06
-1.4355046217235436e-05   1.8483834276064376e-06   6.548328640405165e-06
-1.461283757146645e-05   2.0956126827927643e-06   1.5866963582315515e-05
-1.461283757146645e-05   2.0956126827927643e-06   1.5866963582315515e-05
-1.461283757146645e-05   2.0956126827927643e-06   1.5866963582315515e-05
-1.461283757146645e-05   2.0956126827927643e-06   1.5866963582315515e-05
-9.282927694518139e-06   1.5246738058608596e-06   7.326343780227746e-06
-9.282927694518139e-06   1.5246738058608596e-06   7.326343780227746e-06
-9.282927694518139e-06   1.5246738058608596e-06   7.326343780227746e-06
-9.282927694518139e-06   1.5246738058608596e-06   7.326343780227746e-06
-1.1727939905307364e-05   2.0819660927820765e-06   1.1066988759390748e-05
-1.1727939905307364e-05   2.0819660927820765e-06   1.1066988759390748e-05
-1.1727939905307364e-05   2.0819660927820765e-06   1.1066988759390748e-05
-1.1727939905307364e-05   2.0819660927820765e-06   1.1066988759390748e-05
-1.3799383111816544e-05   3.988731376709212e-06   7.112117224589826e-06
-1.3799383111816544e-05   3.988731376709212e-06   7.112117224589826e-06
-1.3799383111816544e-05   3.988731376709212e-06   7.112117224589826e-06
-1.3799383111816544e-05   3.988731376709212e-06   7.112117224589826e-06
-1.8536666761956045e-05   3.0656610666574815e-06   -1.337197711673738e-06
-1.8536666761956045e-05   3.0656610666574815e-06   -1.337197711673738e-06
-1.8536666761956045e-05   3.0656610666574815e-06   -1.337197711673738e-06
-1.8536666761956045e-05   3.0656610666574815e-06   -1.337197711673738e-06
-1.9190342463576226e-05   3.889789751979284e-06   8.783990458654926e-06
-1.9190342463576226e-05   3.889789751979284e-06   8.783990458654926e-06
-1.9190342463576226e-05   3.889789751979284e-06   8.783990458654926e-06
-1.9190342463576226e-05   3.889789751979284e-06   8.783990458654926e-06
-1.4053978682323695e-05   2.896861751258196e-06   8.191409570001886e-07
-1.4053978682323695e-05   2.896861751258196e-06   8.191409570001886e-07
-1.4053978682323695e-05   2.896861751258196e-06   8.191409570001886e-07
-1.4053978682323695e-05   2.896861751258196e-06   8.191409570001886e-07
-1.579739629168538e-05   3.3950813260355366e-06   3.425905227737267e-06
-1.579739629168538e-05   3.3950813260355366e-06   3.425905227737267e-06
-1.579739629168538e-05   3.3950813260355366e-06   3.425905227737267e-06
-1.579739629168538e-05   3.3950813260355366e-06   3.425905227737267e-06
-1.4053978682323722e-05   3.889789751979284e-06   9.379747259087514e-06
-1.4053978682323722e-05   3.889789751979284e-06   9.379747259087514e-06
-1.4053978682323722e-05   3.889789751979284e-06   9.379747259087514e-06
-1.4053978682323722e-05   3.889789751979284e-06   9.379747259087514e-06
-1.9190342463576226e-05   2.896861751258196e-06   2.2338415656754677e-07
-1.9190342463576226e-05   2.896861751258196e-06   2.2338415656754677e-07
-1.9190342463576226e-05   2.896861751258196e-06   2.2338415656754677e-07
-1.9190342463576226e-05   2.896861751258196e-06   2.2338415656754677e-07
-1.9752126128193498e-05   3.7655744969951983e-06   1.0395353276038588e-05
-1.9752126128193498e-05   3.7655744969951983e-06   1.0395353276038588e-05
-1.9752126128193498e-05   3.7655744969951983e-06   1.0395353276038588e-05
-1.9752126128193498e-05   3.7655744969951983e-06   1.0395353276038588e-05
-1.4355046217235436e-05   2.754357403756758e-06   2.006950347051685e-06
-1.4355046217235436e-05   2.754357403756758e-06   2.006950347051685e-06
-1.4355046217235436e-05   2.754357403756758e-06   2.006950347051685e-06
-1.4355046217235436e-05   2.754357403756758e-06   2.006950347051685e-06
-1.642723180954817e-05   3.35229659497306e-06   5.101829486176663e-06
-1.642723180954817e-05   3.35229659497306e-06   5.101829486176663e-06
-1.642723180954817e-05   3.35229659497306e-06   5.101829486176663e-06
-1.642723180954817e-05   3.35229659497306e-06   5.101829486176663e-06
-1.435504621723549e-05   3.7655744969953067e-06   1.1002083531981761e-05
-1.435504621723549e-05   3.7655744969953067e-06   1.1002083531981761e-05
-1.435504621723549e-05   3.7655744969953067e-06   1.1002083531981761e-05
-1.435504621723549e-05   3.7655744969953067e-06   1.1002083531981761e-05
-1.9752126128193498e-05   2.754357403756758e-06   1.4002200911086208e-06
-1.9752126128193498e-05   2.754357403756758e-06   1.4002200911086208e-06
-1.9752126128193498e-05   2.754357403756758e-06   1.4002200911086208e-06
-1.9752126128193498e-05   2.754357403756758e-06   1.4002200911086208e-06
-2.0423356370306844e-05   3.346184660363489e-06   1.324371518741257e-05
-2.0423356370306844e-05   3.346184660363489e-06   1.324371518741257e-05
-2.0423356370306844e-05   3.346184660363489e-06   1.324371518741257e-05
-2.0423356370306844e-05   3.346184660363489e-06   1.324371518741257e-05
-1.4612837571466422e-05   2.3643688043711907e-06   4.148606702940696e-06
-1.4612837571466422e-05   2.3643688043711907e-06   4.148606702940696e-06
-1.4612837571466422e-05   2.3643688043711907e-06   4.148606702940696e-06
-1.4612837571466422e-05   2.3643688043711907e-06   4.148606702940696e-06
-1.6579573436592906e-05   3.17493968826567e-06   6.940157281148322e-06
-1.6579573436592906e-05   3.17493968826567e-06   6.940157281148322e-06
-1.6579573436592906e-05   3.17493968826567e-06   6.940157281148322e-06
-1.6579573436592906e-05   3.17493968826567e-06   6.940157281148322e-06
1.771346429561111e-06   -1.0911520732098667e-09   8.526719342190326e-06
1.771346429561111e-06   -1.0911520732098667e-09   8.526719342190326e-06
1.771346429561111e-06   -1.0911520732098667e-09   8.526719342190326e-06
1.771346429561111e-06   -1.0911520732098667e-09   8.526719342190326e-06
-1.6771270699255057e-06   8.957942232901053e-07   3.317394734930637e-06
-1.6771270699255057e-06   8.957942232901053e-07   3.317394734930637e-06
-1.6771270699255057e-06   8.957942232901053e-07   3.317394734930637e-06
-1.6771270699255057e-06   8.957942232901053e-07   3.317394734930637e-06
-1.8747451297773727e-06   -3.195937368030309e-07   8.39160794970491e-06
-1.8747451297773727e-06   -3.195937368030309e-07   8.39160794970491e-06
-1.8747451297773727e-06   -3.195937368030309e-07   8.39160794970491e-06
-1.8747451297773727e-06   -3.195937368030309e-07   8.39160794970491e-06
1.1717496274351512e-06   5.985192303092305e-07   2.7632489074166645e-06
1.1717496274351512e-06   5.985192303092305e-07   2.7632489074166645e-06
1.1717496274351512e-06   5.985192303092305e-07   2.7632489074166645e-06
1.1717496274351512e-06   5.985192303092305e-07   2.7632489074166645e-06
-2.3706589361008953e-07   2.419717937739239e-07   5.3252032377466266e-06
-2.3706589361008953e-07   2.419717937739239e-07   5.3252032377466266e-06
-2.3706589361008953e-07   2.419717937739239e-07   5.3252032377466266e-06
-2.3706589361008953e-07   2.419717937739239e-07   5.3252032377466266e-06
1.1717496274351512e-06   -3.195937368030309e-07   7.840740169437574e-06
1.1717496274351512e-06   -3.195937368030309e-07   7.840740169437574e-06
1.1717496274351512e-06   -3.195937368030309e-07   7.840740169437574e-06
1.1717496274351512e-06   -3.195937368030309e-07   7.840740169437574e-06
-1.8747451297773727e-06   5.985192303092305e-07   3.3141166876840674e-06
-1.8747451297773727e-06   5.985192303092305e-07   3.3141166876840674e-06
-1.8747451297773727e-06   5.985192303092305e-07   3.3141166876840674e-06
-1.8747451297773727e-06   5.985192303092305e-07   3.3141166876840674e-06
-2.119241327248576e-06   -4.5580251378731125e-07   8.160319893034266e-06
-2.119241327248576e-06   -4.5580251378731125e-07   8.160319893034266e-06
-2.119241327248576e-06   -4.5580251378731125e-07   8.160319893034266e-06
-2.119241327248576e-06   -4.5580251378731125e-07   8.160319893034266e-06
6.504732142542289e-07   4.3646117947886316e-07   3.0087707745698295e-06
6.504732142542289e-07   4.3646117947886316e-07   3.0087707745698295e-06
6.504732142542289e-07   4.3646117947886316e-07   3.0087707745698295e-06
6.504732142542289e-07   4.3646117947886316e-07   3.0087707745698295e-06
-5.589953149931392e-07   1.1542238071988575e-07   5.217174935904156e-06
-5.589953149931392e-07   1.1542238071988575e-07   5.217174935904156e-06
-5.589953149931392e-07   1.1542238071988575e-07   5.217174935904156e-06
-5.589953149931392e-07   1.1542238071988575e-07   5.217174935904156e-06
6.504732142542289e-07   -4.5580251378741967e-07   7.62496167707442e-06
6.504732142542289e-07   -4.5580251378741967e-07   7.62496167707442e-06
6.504732142542289e-07   -4.5580251378741967e-07   7.62496167707442e-06
6.504732142542289e-07   -4.5580251378741967e-07   7.62496167707442e-06
-2.1192413272485725e-06   4.3646117947886316e-07   3.5441289905295396e-06
-2.1192413272485725e-06   4.3646117947886316e-07   3.5441289905295396e-06
-2.1192413272485725e-06   4.3646117947886316e-07   3.5441289905295396e-06
-2.1192413272485725e-06   4.3646117947886316e-07   3.5441289905295396e-06
-2.3242154327254903e-06   -6.805756454877389e-07   8.06076239307879e-06
-2.3242154327254903e-06   -6.805756454877389e-07   8.06076239307879e-06
-2.3242154327254903e-06   -6.805756454877389e-07   8.06076239307879e-06
-2.3242154327254903e-06   -6.805756454877389e-07   8.06076239307879e-06
-4.274752382671702e-09   9.427344507036833e-08   3.7292851381726534e-06
-4.274752382671702e-09   9.427344507036833e-08   3.7292851381726534e-06
-4.274752382671702e-09   9.427344507036833e-08   3.7292851381726534e-06
-4.274752382671702e-09   9.427344507036833e-08   3.7292851381726534e-06
-9.113048057750729e-07   1.7384518645599187e-09   5.296522889750092e-06
-9.113048057750729e-07   1.7384518645599187e-09   5.296522889750092e-06
-9.113048057750729e-07   1.7384518645599187e-09   5.296522889750092e-06
-9.113048057750729e-07   1.7384518645599187e-09   5.296522889750092e-06
-1.6771270699255057e-06   8.845740211878284e-07   1.3589201989292745e-05
-1.6771270699255057e-06   8.845740211878284e-07   1.3589201989292745e-05
-1.6771270699255057e-06   8.845740211878284e-07   1.3589201989292745e-05
-1.6771270699255057e-06   8.845740211878284e-07   1.3589201989292745e-05
-4.560414361967654e-06   1.0645422399466848e-06   8.891704100477758e-06
-4.560414361967654e-06   1.0645422399466848e-06   8.891704100477758e-06
-4.560414361967654e-06   1.0645422399466848e-06   8.891704100477758e-06
-4.560414361967654e-06   1.0645422399466848e-06   8.891704100477758e-06
-4.71023535854823e-06   5.261505043923026e-07   1.3549274195106685e-05
-4.71023535854823e-06   5.261505043923026e-07   1.3549274195106685e-05
-4.71023535854823e-06   5.261505043923026e-07   1.3549274195106685e-05
-4.71023535854823e-06   5.261505043923026e-07   1.3549274195106685e-05
-1.8747451297773727e-06   7.334153819250856e-07   8.699098220635607e-06
-1.8747451297773727e-06   7.334153819250856e-07   8.699098220635607e-06
-1.8747451297773727e-06   7.334153819250856e-07   8.699098220635607e-06
-1.8747451297773727e-06   7.334153819250856e-07   8.699098220635607e-06
-3.2263609886395095e-06   7.628662520868437e-07   1.0934120796642099e-05
-3.2263609886395095e-06   7.628662520868437e-07   1.0934120796642099e-05
-3.2263609886395095e-06   7.628662520868437e-07   1.0934120796642099e-05
-3.2263609886395095e-06   7.628662520868437e-07   1.0934120796642099e-05
-1.8747451297773727e-06   5.261505043923026e-07   1.342491526858694e-05
-1.8747451297773727e-06   5.261505043923026e-07   1.342491526858694e-05
-1.8747451297773727e-06   5.261505043923026e-07   1.342491526858694e-05
-1.8747451297773727e-06   5.261505043923026e-07   1.342491526858694e-05
-4.710235358548217e-06   7.334153819250856e-07   8.823457147155234e-06
-4.710235358548217e-06   7.334153819250856e-07   8.823457147155234e-06
-4.710235358548217e-06   7.334153819250856e-07   8.823457147155234e-06
-4.710235358548217e-06   7.334153819250856e-07   8.823457147155234e-06
-4.8648800129625925e-06   2.2348984910099384e-07   1.356863571418945e-05
-4.8648800129625925e-06   2.2348984910099384e-07   1.356863571418945e-05
-4.8648800129625925e-06   2.2348984910099384e-07   1.356863571418945e-05
-4.8648800129625925e-06   2.2348984910099384e-07   1.356863571418945e-05
-2.1192413272485725e-06   4.291713375595158e-07   8.86916234492425e-06
-2.1192413272485725e-06   4.291713375595158e-07   8.86916234492425e-06
-2.1192413272485725e-06   4.291713375595158e-07   8.86916234492425e-06
-2.1192413272485725e-06   4.291713375595158e-07   8.86916234492425e-06
-3.3795821536970062e-06   5.21724943434998e-07   1.0914198225479946e-05
-3.3795821536970062e-06   5.21724943434998e-07   1.0914198225479946e-05
-3.3795821536970062e-06   5.21724943434998e-07   1.0914198225479946e-05
-3.3795821536970062e-06   5.21724943434998e-07   1.0914198225479946e-05
-2.119241327248576e-06   2.2348984910099384e-07   1.344522682111425e-05
-2.119241327248576e-06   2.2348984910099384e-07   1.344522682111425e-05
-2.119241327248576e-06   2.2348984910099384e-07   1.344522682111425e-05
-2.119241327248576e-06   2.2348984910099384e-07   1.344522682111425e-05
-4.8648800129625925e-06   4.291713375595158e-07   8.992571237999378e-06
-4.8648800129625925e-06   4.291713375595158e-07   8.992571237999378e-06
-4.8648800129625925e-06   4.291713375595158e-07   8.992571237999378e-06
-4.8648800129625925e-06   4.291713375595158e-07   8.992571237999378e-06
-5.016875473917219e-06   -8.445668580464583e-08   1.3824907708316343e-05
-5.016875473917219e-06   -8.445668580464583e-08   1.3824907708316343e-05
-5.016875473917219e-06   -8.445668580464583e-08   1.3824907708316343e-05
-5.016875473917219e-06   -8.445668580464583e-08   1.3824907708316343e-05
-2.3242154327254903e-06   1.0106311368665837e-07   9.225829093302084e-06
-2.3242154327254903e-06   1.0106311368665837e-07   9.225829093302084e-06
-2.3242154327254903e-06   1.0106311368665837e-07   9.225829093302084e-06
-2.3242154327254903e-06   1.0106311368665837e-07   9.225829093302084e-06
-3.5321141448835325e-06   2.860721662628239e-07   1.1127988182019764e-05
-3.5321141448835325e-06   2.860721662628239e-07   1.1127988182019764e-05
-3.5321141448835325e-06   2.860721662628239e-07   1.1127988182019764e-05
-3.5321141448835325e-06   2.860721662628239e-07   1.1127988182019764e-05
-4.560414361967654e-06   1.6658146164749482e-06   1.528302525843564e-05
-4.560414361967654e-06   1.6658146164749482e-06   1.528302525843564e-05
-4.560414361967654e-06   1.6658146164749482e-06   1.528302525843564e-05
-4.560414361967654e-06   1.6658146164749482e-06   1.528302525843564e-05
-7.4259061960239045e-06   1.2859623759239186e-06   1.0279294190677896e-05
-7.4259061960239045e-06   1.2859623759239186e-06   1.0279294190677896e-05
-7.4259061960239045e-06   1.2859623759239186e-06   1.0279294190677896e-05
-7.4259061960239045e-06   1.2859623759239186e-06   1.0279294190677896e-05
-7.5532258500738455e-06   1.3364995384302627e-06   1.4999569855877136e-05
-7.5532258500738455e-06   1.3364995384302627e-06   1.4999569855877136e-05
-7.5532258500738455e-06   1.3364995384302627e-06   1.4999569855877136e-05
-7.5532258500738455e-06   1.3364995384302627e-06   1.4999569855877136e-05
-4.710235358548217e-06   9.802309037063462e-07   1.0475013550835391e-05
-4.710235358548217e-06   9.802309037063462e-07   1.0475013550835391e-05
-4.710235358548217e-06   9.802309037063462e-07   1.0475013550835391e-05
-4.710235358548217e-06   9.802309037063462e-07   1.0475013550835391e-05
-6.066035529308248e-06   1.290542640007943e-06   1.2548493460321164e-05
-6.066035529308248e-06   1.290542640007943e-06   1.2548493460321164e-05
-6.066035529308248e-06   1.290542640007943e-06   1.2548493460321164e-05
-6.066035529308248e-06   1.290542640007943e-06   1.2548493460321164e-05
-4.710235358548217e-06   1.3364995384302627e-06   1.5213331036711421e-05
-4.710235358548217e-06   1.3364995384302627e-06   1.5213331036711421e-05
-4.710235358548217e-06   1.3364995384302627e-06   1.5213331036711421e-05
-4.710235358548217e-06   1.3364995384302627e-06   1.5213331036711421e-05
-7.5532258500738455e-06   9.802309037063462e-07   1.0261252370001052e-05
-7.5532258500738455e-06   9.802309037063462e-07   1.0261252370001052e-05
-7.5532258500738455e-06   9.802309037063462e-07   1.0261252370001052e-05
-7.5532258500738455e-06   9.802309037063462e-07   1.0261252370001052e-05
-7.68945619204837e-06   1.0089038397662021e-06   1.5145003271258744e-05
-7.68945619204837e-06   1.0089038397662021e-06   1.5145003271258744e-05
-7.68945619204837e-06   1.0089038397662021e-06   1.5145003271258744e-05
-7.68945619204837e-06   1.0089038397662021e-06   1.5145003271258744e-05
-4.8648800129625925e-06   6.696186595192468e-07   1.0640947414263977e-05
-4.8648800129625925e-06   6.696186595192468e-07   1.0640947414263977e-05
-4.8648800129625925e-06   6.696186595192468e-07   1.0640947414263977e-05
-4.8648800129625925e-06   6.696186595192468e-07   1.0640947414263977e-05
-6.174850810541518e-06   1.0463314268965504e-06   1.2598204416469107e-05
-6.174850810541518e-06   1.0463314268965504e-06   1.2598204416469107e-05
-6.174850810541518e-06   1.0463314268965504e-06   1.2598204416469107e-05
-6.174850810541518e-06   1.0463314268965504e-06   1.2598204416469107e-05
-4.8648800129625925e-06   1.0089038397663105e-06   1.534857437940682e-05
-4.8648800129625925e-06   1.0089038397663105e-06   1.534857437940682e-05
-4.8648800129625925e-06   1.0089038397663105e-06   1.534857437940682e-05
-4.8648800129625925e-06   1.0089038397663105e-06   1.534857437940682e-05
-7.689456192048344e-06   6.696186595191384e-07   1.0437376306115766e-05
-7.689456192048344e-06   6.696186595191384e-07   1.0437376306115766e-05
-7.689456192048344e-06   6.696186595191384e-07   1.0437376306115766e-05
-7.689456192048344e-06   6.696186595191384e-07   1.0437376306115766e-05
-7.822886122009937e-06   6.955149069543063e-07   1.545260463139866e-05
-7.822886122009937e-06   6.955149069543063e-07   1.545260463139866e-05
-7.822886122009937e-06   6.955149069543063e-07   1.545260463139866e-05
-7.822886122009937e-06   6.955149069543063e-07   1.545260463139866e-05
-5.016875473917205e-06   3.757185656217679e-07   1.0967798022710405e-05
-5.016875473917205e-06   3.757185656217679e-07   1.0967798022710405e-05
-5.016875473917205e-06   3.757185656217679e-07   1.0967798022710405e-05
-5.016875473917205e-06   3.757185656217679e-07   1.0967798022710405e-05
-6.296047992987584e-06   8.060260430793739e-07   1.284156773468642e-05
-6.296047992987584e-06   8.060260430793739e-07   1.284156773468642e-05
-6.296047992987584e-06   8.060260430793739e-07   1.284156773468642e-05
-6.296047992987584e-06   8.060260430793739e-07   1.284156773468642e-05
-7.4259061960239045e-06   2.4821801350771505e-06   1.3223680920483767e-05
-7.4259061960239045e-06   2.4821801350771505e-06   1.3223680920483767e-05
-7.4259061960239045e-06   2.4821801350771505e-06   1.3223680920483767e-05
-7.4259061960239045e-06   2.4821801350771505e-06   1.3223680920483767e-05
-1.024796637413673e-05   1.7445690827285615e-06   8.077680658886632e-06
-1.024796637413673e-05   1.7445690827285615e-06   8.077680658886632e-06
-1.024796637413673e-05   1.7445690827285615e-06   8.077680658886632e-06
-1.024796637413673e-05   1.7445690827285615e-06   8.077680658886632e-06
-1.0388039677638653e-05   2.1505821133401947e-06   1.283593408217727e-05
-1.0388039677638653e-05   2.1505821133401947e-06   1.283593408217727e-05
-1.0388039677638653e-05   2.1505821133401947e-06   1.283593408217727e-05
-1.0388039677638653e-05   2.1505821133401947e-06   1.283593408217727e-05
-7.5532258500738455e-06   1.4230504369521033e-06   8.54776337540225e-06
-7.5532258500738455e-06   1.4230504369521033e-06   8.54776337540225e-06
-7.5532258500738455e-06   1.4230504369521033e-06   8.54776337540225e-06
-7.5532258500738455e-06   1.4230504369521033e-06   8.54776337540225e-06
-8.884893492392491e-06   1.9319269688455876e-06   1.0461883526797155e-05
-8.884893492392491e-06   1.9319269688455876e-06   1.0461883526797155e-05
-8.884893492392491e-06   1.9319269688455876e-06   1.0461883526797155e-05
-8.884893492392491e-06   1.9319269688455876e-06   1.0461883526797155e-05
-7.5532258500738455e-06   2.1505821133401947e-06   1.327245308801019e-05
-7.5532258500738455e-06   2.1505821133401947e-06   1.327245308801019e-05
-7.5532258500738455e-06   2.1505821133401947e-06   1.327245308801019e-05
-7.5532258500738455e-06   2.1505821133401947e-06   1.327245308801019e-05
-1.0388039677638626e-05   1.423050436951995e-06   8.111244369569248e-06
-1.0388039677638626e-05   1.423050436951995e-06   8.111244369569248e-06
-1.0388039677638626e-05   1.423050436951995e-06   8.111244369569248e-06
-1.0388039677638626e-05   1.423050436951995e-06   8.111244369569248e-06
-1.0580545869979125e-05   1.8483834276063291e-06   1.3260519845964091e-05
-1.0580545869979125e-05   1.8483834276063291e-06   1.3260519845964091e-05
-1.0580545869979125e-05   1.8483834276063291e-06   1.3260519845964091e-05
-1.0580545869979125e-05   1.8483834276063291e-06   1.3260519845964091e-05
-7.68945619204837e-06   1.136458921621947e-06   8.869191753003395e-06
-7.68945619204837e-06   1.136458921621947e-06   8.869191753003395e-06
-7.68945619204837e-06   1.136458921621947e-06   8.869191753003395e-06
-7.68945619204837e-06   1.136458921621947e-06   8.869191753003395e-06
-8.960954481420844e-06   1.6952845726414013e-06   1.0653060178012592e-05
-8.960954481420844e-06   1.6952845726414013e-06   1.0653060178012592e-05
-8.960954481420844e-06   1.6952845726414013e-06   1.0653060178012592e-05
-8.960954481420844e-06   1.6952845726414013e-06   1.0653060178012592e-05
-7.689456192048344e-06   1.8483834276063291e-06   1.3687674549554471e-05
-7.689456192048344e-06   1.8483834276063291e-06   1.3687674549554471e-05
-7.689456192048344e-06   1.8483834276063291e-06   1.3687674549554471e-05
-7.689456192048344e-06   1.8483834276063291e-06   1.3687674549554471e-05
-1.0580545869979098e-05   1.1364589216220555e-06   8.442037049412825e-06
-1.0580545869979098e-05   1.1364589216220555e-06   8.442037049412825e-06
-1.0580545869979098e-05   1.1364589216220555e-06   8.442037049412825e-06
-1.0580545869979098e-05   1.1364589216220555e-06   8.442037049412825e-06
-1.0734624170285968e-05   1.5246738058608596e-06   1.3730858089475227e-05
-1.0734624170285968e-05   1.5246738058608596e-06   1.3730858089475227e-05
-1.0734624170285968e-05   1.5246738058608596e-06   1.3730858089475227e-05
-1.0734624170285968e-05   1.5246738058608596e-06   1.3730858089475227e-05
-7.822886122009937e-06   8.439109051022612e-07   9.286419082803676e-06
-7.822886122009937e-06   8.439109051022612e-07   9.286419082803676e-06
-7.822886122009937e-06   8.439109051022612e-07   9.286419082803676e-06
-7.822886122009937e-06   8.439109051022612e-07   9.286419082803676e-06
-9.120993130597678e-06   1.4696064261969467e-06   1.1074513451126854e-05
-9.120993130597678e-06   1.4696064261969467e-06   1.1074513451126854e-05
-9.120993130597678e-06   1.4696064261969467e-06   1.1074513451126854e-05
-9.120993130597678e-06   1.4696064261969467e-06   1.1074513451126854e-05
-1.024796637413673e-05   3.0656610666574815e-06   5.855142201495619e-06
-1.024796637413673e-05   3.0656610666574815e-06   5.855142201495619e-06
-1.024796637413673e-05   3.0656610666574815e-06   5.855142201495619e-06
-1.024796637413673e-05   3.0656610666574815e-06   5.855142201495619e-06
-1.2491078569971627e-05   2.0716976839552873e-06   1.5202438454827723e-06
-1.2491078569971627e-05   2.0716976839552873e-06   1.5202438454827723e-06
-1.2491078569971627e-05   2.0716976839552873e-06   1.5202438454827723e-06
-1.2491078569971627e-05   2.0716976839552873e-06   1.5202438454827723e-06
-1.3019043167500951e-05   2.896861751258196e-06   6.872746855611967e-06
-1.3019043167500951e-05   2.896861751258196e-06   6.872746855611967e-06
-1.3019043167500951e-05   2.896861751258196e-06   6.872746855611967e-06
-1.3019043167500951e-05   2.896861751258196e-06   6.872746855611967e-06
-1.0388039677638626e-05   1.8579088195271954e-06   3.111112798213347e-06
-1.0388039677638626e-05   1.8579088195271954e-06   3.111112798213347e-06
-1.0388039677638626e-05   1.8579088195271954e-06   3.111112798213347e-06
-1.0388039677638626e-05   1.8579088195271954e-06   3.111112798213347e-06
-1.1135578340364335e-05   2.446136313903548e-06   4.0040740727971015e-06
-1.1135578340364335e-05   2.446136313903548e-06   4.0040740727971015e-06
-1.1135578340364335e-05   2.446136313903548e-06   4.0040740727971015e-06
-1.1135578340364335e-05   2.446136313903548e-06   4.0040740727971015e-06
-1.0388039677638626e-05   2.896861751258196e-06   7.496118614650502e-06
-1.0388039677638626e-05   2.896861751258196e-06   7.496118614650502e-06
-1.0388039677638626e-05   2.896861751258196e-06   7.496118614650502e-06
-1.0388039677638626e-05   2.896861751258196e-06   7.496118614650502e-06
-1.3019043167501032e-05   1.8579088195273038e-06   2.4877410391748e-06
-1.3019043167501032e-05   1.8579088195273038e-06   2.4877410391748e-06
-1.3019043167501032e-05   1.8579088195273038e-06   2.4877410391748e-06
-1.3019043167501032e-05   1.8579088195273038e-06   2.4877410391748e-06
-1.347151604211096e-05   2.754357403756758e-06   8.092878956097592e-06
-1.347151604211096e-05   2.754357403756758e-06   8.092878956097592e-06
-1.347151604211096e-05   2.754357403756758e-06   8.092878956097592e-06
-1.347151604211096e-05   2.754357403756758e-06   8.092878956097592e-06
-1.0580545869979098e-05   1.7105864095682925e-06   3.900857932390752e-06
-1.0580545869979098e-05   1.7105864095682925e-06   3.900857932390752e-06
-1.0580545869979098e-05   1.7105864095682925e-06   3.900857932390752e-06
-1.0580545869979098e-05   1.7105864095682925e-06   3.900857932390752e-06
-1.1584315329017078e-05   2.363291720775375e-06   5.182183844063459e-06
-1.1584315329017078e-05   2.363291720775375e-06   5.182183844063459e-06
-1.1584315329017078e-05   2.363291720775375e-06   5.182183844063459e-06
-1.1584315329017078e-05   2.363291720775375e-06   5.182183844063459e-06
-1.0580545869979098e-05   2.754357403756758e-06   8.71914155261053e-06
-1.0580545869979098e-05   2.754357403756758e-06   8.71914155261053e-06
-1.0580545869979098e-05   2.754357403756758e-06   8.71914155261053e-06
-1.0580545869979098e-05   2.754357403756758e-06   8.71914155261053e-06
-1.3471516042111041e-05   1.7105864095682925e-06   3.2745953358776935e-06
-1.3471516042111041e-05   1.7105864095682925e-06   3.2745953358776935e-06
-1.3471516042111041e-05   1.7105864095682925e-06   3.2745953358776935e-06
-1.3471516042111041e-05   1.7105864095682925e-06   3.2745953358776935e-06
-1.4045882368910812e-05   2.3643688043711907e-06   1.0298964429604051e-05
-1.4045882368910812e-05   2.3643688043711907e-06   1.0298964429604051e-05
-1.4045882368910812e-05   2.3643688043711907e-06   1.0298964429604051e-05
-1.4045882368910812e-05   2.3643688043711907e-06   1.0298964429604051e-05
-1.0734624170285914e-05   1.3698356231323008e-06   5.376920673972577e-06
-1.0734624170285914e-05   1.3698356231323008e-06   5.376920673972577e-06
-1.0734624170285914e-05   1.3698356231323008e-06   5.376920673972577e-06
-1.0734624170285914e-05   1.3698356231323008e-06   5.376920673972577e-06
-1.1710305706207901e-05   2.2011365758999642e-06   6.504275995515237e-06
-1.1710305706207901e-05   2.2011365758999642e-06   6.504275995515237e-06
-1.1710305706207901e-05   2.2011365758999642e-06   6.504275995515237e-06
-1.1710305706207901e-05   2.2011365758999642e-06   6.504275995515237e-06
-4.868228215727289e-06   8.957942232901053e-07   6.132633079517196e-06
-4.868228215727289e-06   8.957942232901053e-07   6.132633079517196e-06
-4.868228215727289e-06   8.957942232901053e-07   6.132633079517196e-06
-4.868228215727289e-06   8.957942232901053e-07   6.132633079517196e-06
-5.430929609286254e-06   1.7114491749360672e-06   5.6841903945732035e-06
-5.430929609286254e-06   1.7114491749360672e-06   5.6841903945732035e-06
-5.430929609286254e-06   1.7114491749360672e-06   5.6841903945732035e-06
-5.430929609286254e-06   1.7114491749360672e-06   5.6841903945732035e-06
-5.575988416370498e-06   5.985192303092305e-07   6.558480307124193e-06
-5.575988416370498e-06   5.985192303092305e-07   6.558480307124193e-06
-5.575988416370498e-06   5.985192303092305e-07   6.558480307124193e-06
-5.575988416370498e-06   5.985192303092305e-07   6.558480307124193e-06
-5.468100099596386e-06   1.3332124829210784e-06   5.937850494266953e-06
-5.468100099596386e-06   1.3332124829210784e-06   5.937850494266953e-06
-5.468100099596386e-06   1.3332124829210784e-06   5.937850494266953e-06
-5.468100099596386e-06   1.3332124829210784e-06   5.937850494266953e-06
-5.206485488413806e-06   1.0586326730414137e-06   5.6665740282238084e-06
-5.206485488413806e-06   1.0586326730414137e-06   5.6665740282238084e-06
-5.206485488413806e-06   1.0586326730414137e-06   5.6665740282238084e-06
-5.206485488413806e-06   1.0586326730414137e-06   5.6665740282238084e-06
-5.468100099596393e-06   5.985192303092305e-07   6.1176643555570405e-06
-5.468100099596393e-06   5.985192303092305e-07   6.1176643555570405e-06
-5.468100099596393e-06   5.985192303092305e-07   6.1176643555570405e-06
-5.468100099596393e-06   5.985192303092305e-07   6.1176643555570405e-06
-5.575988416370498e-06   1.3332124829210784e-06   6.378666445833983e-06
-5.575988416370498e-06   1.3332124829210784e-06   6.378666445833983e-06
-5.575988416370498e-06   1.3332124829210784e-06   6.378666445833983e-06
-5.575988416370498e-06   1.3332124829210784e-06   6.378666445833983e-06
-5.764053389647691e-06   4.3646117947886316e-07   6.7489505957107595e-06
-5.764053389647691e-06   4.3646117947886316e-07   6.7489505957107595e-06
-5.764053389647691e-06   4.3646117947886316e-07   6.7489505957107595e-06
-5.764053389647691e-06   4.3646117947886316e-07   6.7489505957107595e-06
-6.0527747055693035e-06   1.073273841420278e-06   6.848065191748524e-06
-6.0527747055693035e-06   1.073273841420278e-06   6.848065191748524e-06
-6.0527747055693035e-06   1.073273841420278e-06   6.848065191748524e-06
-6.0527747055693035e-06   1.073273841420278e-06   6.848065191748524e-06
-5.562936101853615e-06   8.959491751093845e-07   6.138062318675354e-06
-5.562936101853615e-06   8.959491751093845e-07   6.138062318675354e-06
-5.562936101853615e-06   8.959491751093845e-07   6.138062318675354e-06
-5.562936101853615e-06   8.959491751093845e-07   6.138062318675354e-06
-6.05277470556931e-06   4.3646117947886316e-07   6.366862998545672e-06
-6.05277470556931e-06   4.3646117947886316e-07   6.366862998545672e-06
-6.05277470556931e-06   4.3646117947886316e-07   6.366862998545672e-06
-6.05277470556931e-06   4.3646117947886316e-07   6.366862998545672e-06
-5.764053389647691e-06   1.073273841420278e-06   7.230152788913408e-06
-5.764053389647691e-06   1.073273841420278e-06   7.230152788913408e-06
-5.764053389647691e-06   1.073273841420278e-06   7.230152788913408e-06
-5.764053389647691e-06   1.073273841420278e-06   7.230152788913408e-06
-5.885703923755096e-06   9.427344507036833e-08   7.387800867745089e-06
-5.885703923755096e-06   9.427344507036833e-08   7.387800867745089e-06
-5.885703923755096e-06   9.427344507036833e-08   7.387800867745089e-06
-5.885703923755096e-06   9.427344507036833e-08   7.387800867745089e-06
-6.6760784054773164e-06   4.3478053119957224e-07   8.500787418937877e-06
-6.6760784054773164e-06   4.3478053119957224e-07   8.500787418937877e-06
-6.6760784054773164e-06   4.3478053119957224e-07   8.500787418937877e-06
-6.6760784054773164e-06   4.3478053119957224e-07   8.500787418937877e-06
-5.818786080621649e-06   6.982232198276444e-07   6.9139012643347215e-06
-5.818786080621649e-06   6.982232198276444e-07   6.9139012643347215e-06
-5.818786080621649e-06   6.982232198276444e-07   6.9139012643347215e-06
-5.818786080621649e-06   6.982232198276444e-07   6.9139012643347215e-06
-5.430929609286246e-06   1.0645422399466848e-06   1.2088354484796656e-05
-5.430929609286246e-06   1.0645422399466848e-06   1.2088354484796656e-05
-5.430929609286246e-06   1.0645422399466848e-06   1.2088354484796656e-05
-5.430929609286246e-06   1.0645422399466848e-06   1.2088354484796656e-05
-5.570509247539702e-06   4.4398401055363145e-07   1.1483386816738347e-05
-5.570509247539702e-06   4.4398401055363145e-07   1.1483386816738347e-05
-5.570509247539702e-06   4.4398401055363145e-07   1.1483386816738347e-05
-5.570509247539702e-06   4.4398401055363145e-07   1.1483386816738347e-05
-5.618242901888557e-06   7.334153819249772e-07   1.1629309186720151e-05
-5.618242901888557e-06   7.334153819249772e-07   1.1629309186720151e-05
-5.618242901888557e-06   7.334153819249772e-07   1.1629309186720151e-05
-5.618242901888557e-06   7.334153819249772e-07   1.1629309186720151e-05
-5.575988416370498e-06   2.0982762633235978e-07   1.18730376975457e-05
-5.575988416370498e-06   2.0982762633235978e-07   1.18730376975457e-05
-5.575988416370498e-06   2.0982762633235978e-07   1.18730376975457e-05
-5.575988416370498e-06   2.0982762633235978e-07   1.18730376975457e-05
-5.533367498354406e-06   5.40833403558233e-07   1.1603399367850006e-05
-5.533367498354406e-06   5.40833403558233e-07   1.1603399367850006e-05
-5.533367498354406e-06   5.40833403558233e-07   1.1603399367850006e-05
-5.533367498354406e-06   5.40833403558233e-07   1.1603399367850006e-05
-5.575988416370495e-06   7.334153819250856e-07   1.194346184007556e-05
-5.575988416370495e-06   7.334153819250856e-07   1.194346184007556e-05
-5.575988416370495e-06   7.334153819250856e-07   1.194346184007556e-05
-5.575988416370495e-06   7.334153819250856e-07   1.194346184007556e-05
-5.618242901888557e-06   2.0982762633235978e-07   1.155888504419009e-05
-5.618242901888557e-06   2.0982762633235978e-07   1.155888504419009e-05
-5.618242901888557e-06   2.0982762633235978e-07   1.155888504419009e-05
-5.618242901888557e-06   2.0982762633235978e-07   1.155888504419009e-05
-5.67682275246493e-06   4.2917133755962424e-07   1.1781126369391393e-05
-5.67682275246493e-06   4.2917133755962424e-07   1.1781126369391393e-05
-5.67682275246493e-06   4.2917133755962424e-07   1.1781126369391393e-05
-5.67682275246493e-06   4.2917133755962424e-07   1.1781126369391393e-05
-5.764053389647691e-06   -5.8924630297232505e-08   1.2219368345409939e-05
-5.764053389647691e-06   -5.8924630297232505e-08   1.2219368345409939e-05
-5.764053389647691e-06   -5.8924630297232505e-08   1.2219368345409939e-05
-5.764053389647691e-06   -5.8924630297232505e-08   1.2219368345409939e-05
-5.591249395216312e-06   3.4835771972325895e-07   1.1686992278011856e-05
-5.591249395216312e-06   3.4835771972325895e-07   1.1686992278011856e-05
-5.591249395216312e-06   3.4835771972325895e-07   1.1686992278011856e-05
-5.591249395216312e-06   3.4835771972325895e-07   1.1686992278011856e-05
-5.764053389647691e-06   4.2917133755962424e-07   1.2073983950105236e-05
-5.764053389647691e-06   4.2917133755962424e-07   1.2073983950105236e-05
-5.764053389647691e-06   4.2917133755962424e-07   1.2073983950105236e-05
-5.764053389647691e-06   4.2917133755962424e-07   1.2073983950105236e-05
-5.676822752464903e-06   -5.8924630297286715e-08   1.1926510764695858e-05
-5.676822752464903e-06   -5.8924630297286715e-08   1.1926510764695858e-05
-5.676822752464903e-06   -5.8924630297286715e-08   1.1926510764695858e-05
-5.676822752464903e-06   -5.8924630297286715e-08   1.1926510764695858e-05
-5.721080492265747e-06   1.0106311368665837e-07   1.2112567022234987e-05
-5.721080492265747e-06   1.0106311368665837e-07   1.2112567022234987e-05
-5.721080492265747e-06   1.0106311368665837e-07   1.2112567022234987e-05
-5.721080492265747e-06   1.0106311368665837e-07   1.2112567022234987e-05
-5.885703923755089e-06   -4.103841301544473e-07   1.2693807754355138e-05
-5.885703923755089e-06   -4.103841301544473e-07   1.2693807754355138e-05
-5.885703923755089e-06   -4.103841301544473e-07   1.2693807754355138e-05
-5.885703923755089e-06   -4.103841301544473e-07   1.2693807754355138e-05
-5.680133362996204e-06   1.238431802848012e-07   1.2030653766826487e-05
-5.680133362996204e-06   1.238431802848012e-07   1.2030653766826487e-05
-5.680133362996204e-06   1.238431802848012e-07   1.2030653766826487e-05
-5.680133362996204e-06   1.238431802848012e-07   1.2030653766826487e-05
-5.5705092475397155e-06   1.2859623759239186e-06   1.3331520981691542e-05
-5.5705092475397155e-06   1.2859623759239186e-06   1.3331520981691542e-05
-5.5705092475397155e-06   1.2859623759239186e-06   1.3331520981691542e-05
-5.5705092475397155e-06   1.2859623759239186e-06   1.3331520981691542e-05
-6.051836627264564e-06   1.2494138722094405e-07   1.1832696088928351e-05
-6.051836627264564e-06   1.2494138722094405e-07   1.1832696088928351e-05
-6.051836627264564e-06   1.2494138722094405e-07   1.1832696088928351e-05
-6.051836627264564e-06   1.2494138722094405e-07   1.1832696088928351e-05
-6.070716063918285e-06   9.802309037063462e-07   1.2650044493023695e-05
-6.070716063918285e-06   9.802309037063462e-07   1.2650044493023695e-05
-6.070716063918285e-06   9.802309037063462e-07   1.2650044493023695e-05
-6.070716063918285e-06   9.802309037063462e-07   1.2650044493023695e-05
-5.618242901888557e-06   -7.113759192118024e-08   1.252674365368405e-05
-5.618242901888557e-06   -7.113759192118024e-08   1.252674365368405e-05
-5.618242901888557e-06   -7.113759192118024e-08   1.252674365368405e-05
-5.618242901888557e-06   -7.113759192118024e-08   1.252674365368405e-05
-5.818577407751187e-06   5.595460993202436e-07   1.2482224282043587e-05
-5.818577407751187e-06   5.595460993202436e-07   1.2482224282043587e-05
-5.818577407751187e-06   5.595460993202436e-07   1.2482224282043587e-05
-5.818577407751187e-06   5.595460993202436e-07   1.2482224282043587e-05
-5.618242901888557e-06   9.802309037064546e-07   1.32808655904002e-05
-5.618242901888557e-06   9.802309037064546e-07   1.32808655904002e-05
-5.618242901888557e-06   9.802309037064546e-07   1.32808655904002e-05
-5.618242901888557e-06   9.802309037064546e-07   1.32808655904002e-05
-6.070716063918258e-06   -7.113759192118024e-08   1.1895922556307492e-05
-6.070716063918258e-06   -7.113759192118024e-08   1.1895922556307492e-05
-6.070716063918258e-06   -7.113759192118024e-08   1.1895922556307492e-05
-6.070716063918258e-06   -7.113759192118024e-08   1.1895922556307492e-05
-6.101758640572835e-06   6.696186595192468e-07   1.28442474064853e-05
-6.101758640572835e-06   6.696186595192468e-07   1.28442474064853e-05
-6.101758640572835e-06   6.696186595192468e-07   1.28442474064853e-05
-6.101758640572835e-06   6.696186595192468e-07   1.28442474064853e-05
-5.67682275246493e-06   -3.0580657243186845e-07   1.272127606547597e-05
-5.67682275246493e-06   -3.0580657243186845e-07   1.272127606547597e-05
-5.67682275246493e-06   -3.0580657243186845e-07   1.272127606547597e-05
-5.67682275246493e-06   -3.0580657243186845e-07   1.272127606547597e-05
-5.825798650253982e-06   3.6607040341456003e-07   1.256644304294951e-05
-5.825798650253982e-06   3.6607040341456003e-07   1.256644304294951e-05
-5.825798650253982e-06   3.6607040341456003e-07   1.256644304294951e-05
-5.825798650253982e-06   3.6607040341456003e-07   1.256644304294951e-05
-5.67682275246493e-06   6.696186595191384e-07   1.3429502545655775e-05
-5.67682275246493e-06   6.696186595191384e-07   1.3429502545655775e-05
-5.67682275246493e-06   6.696186595191384e-07   1.3429502545655775e-05
-5.67682275246493e-06   6.696186595191384e-07   1.3429502545655775e-05
-6.101758640572808e-06   -3.0580657243186845e-07   1.2136020926305346e-05
-6.101758640572808e-06   -3.0580657243186845e-07   1.2136020926305346e-05
-6.101758640572808e-06   -3.0580657243186845e-07   1.2136020926305346e-05
-6.101758640572808e-06   -3.0580657243186845e-07   1.2136020926305346e-05
-6.12326035729453e-06   3.757185656217679e-07   1.319356773744982e-05
-6.12326035729453e-06   3.757185656217679e-07   1.319356773744982e-05
-6.12326035729453e-06   3.757185656217679e-07   1.319356773744982e-05
-6.12326035729453e-06   3.757185656217679e-07   1.319356773744982e-05
-5.721080492265734e-06   -5.403753252094341e-07   1.3072924296900478e-05
-5.721080492265734e-06   -5.403753252094341e-07   1.3072924296900478e-05
-5.721080492265734e-06   -5.403753252094341e-07   1.3072924296900478e-05
-5.721080492265734e-06   -5.403753252094341e-07   1.3072924296900478e-05
-5.842923714884512e-06   1.6739560574502172e-07   1.2851333776025376e-05
-5.842923714884512e-06   1.6739560574502172e-07   1.2851333776025376e-05
-5.842923714884512e-06   1.6739560574502172e-07   1.2851333776025376e-05
-5.842923714884512e-06   1.6739560574502172e-07   1.2851333776025376e-05
-6.051836627264564e-06   1.7445690827285615e-06   1.087586148808766e-05
-6.051836627264564e-06   1.7445690827285615e-06   1.087586148808766e-05
-6.051836627264564e-06   1.7445690827285615e-06   1.087586148808766e-05
-6.051836627264564e-06   1.7445690827285615e-06   1.087586148808766e-05
-6.7241041833358665e-06   5.758200363388012e-07   9.0541661334683e-06
-6.7241041833358665e-06   5.758200363388012e-07   9.0541661334683e-06
-6.7241041833358665e-06   5.758200363388012e-07   9.0541661334683e-06
-6.7241041833358665e-06   5.758200363388012e-07   9.0541661334683e-06
-6.739413260217487e-06   1.423050436951995e-06   1.0272868510589699e-05
-6.739413260217487e-06   1.423050436951995e-06   1.0272868510589699e-05
-6.739413260217487e-06   1.423050436951995e-06   1.0272868510589699e-05
-6.739413260217487e-06   1.423050436951995e-06   1.0272868510589699e-05
-6.070716063918285e-06   3.169054572265458e-07   9.82206017125951e-06
-6.070716063918285e-06   3.169054572265458e-07   9.82206017125951e-06
-6.070716063918285e-06   3.169054572265458e-07   9.82206017125951e-06
-6.070716063918285e-06   3.169054572265458e-07   9.82206017125951e-06
-6.379922324028229e-06   1.037697223834125e-06   9.904928878144898e-06
-6.379922324028229e-06   1.037697223834125e-06   9.904928878144898e-06
-6.379922324028229e-06   1.037697223834125e-06   9.904928878144898e-06
-6.379922324028229e-06   1.037697223834125e-06   9.904928878144898e-06
-6.070716063918285e-06   1.423050436951995e-06   1.093655549842473e-05
-6.070716063918285e-06   1.423050436951995e-06   1.093655549842473e-05
-6.070716063918285e-06   1.423050436951995e-06   1.093655549842473e-05
-6.070716063918285e-06   1.423050436951995e-06   1.093655549842473e-05
-6.739413260217487e-06   3.169054572265458e-07   9.158373183424263e-06
-6.739413260217487e-06   3.169054572265458e-07   9.158373183424263e-06
-6.739413260217487e-06   3.169054572265458e-07   9.158373183424263e-06
-6.739413260217487e-06   3.169054572265458e-07   9.158373183424263e-06
-6.815952146568073e-06   1.136458921621947e-06   1.0651113621996553e-05
-6.815952146568073e-06   1.136458921621947e-06   1.0651113621996553e-05
-6.815952146568073e-06   1.136458921621947e-06   1.0651113621996553e-05
-6.815952146568073e-06   1.136458921621947e-06   1.0651113621996553e-05
-6.101758640572808e-06   9.487686932792413e-08   1.008574034338074e-05
-6.101758640572808e-06   9.487686932792413e-08   1.008574034338074e-05
-6.101758640572808e-06   9.487686932792413e-08   1.008574034338074e-05
-6.101758640572808e-06   9.487686932792413e-08   1.008574034338074e-05
-6.365540651820498e-06   8.257935227556218e-07   1.0086827036736592e-05
-6.365540651820498e-06   8.257935227556218e-07   1.0086827036736592e-05
-6.365540651820498e-06   8.257935227556218e-07   1.0086827036736592e-05
-6.365540651820498e-06   8.257935227556218e-07   1.0086827036736592e-05
-6.101758640572808e-06   1.136458921621947e-06   1.1276062853372685e-05
-6.101758640572808e-06   1.136458921621947e-06   1.1276062853372685e-05
-6.101758640572808e-06   1.136458921621947e-06   1.1276062853372685e-05
-6.101758640572808e-06   1.136458921621947e-06   1.1276062853372685e-05
-6.815952146568073e-06   9.487686932792413e-08   9.46079111200441e-06
-6.815952146568073e-06   9.487686932792413e-08   9.46079111200441e-06
-6.815952146568073e-06   9.487686932792413e-08   9.46079111200441e-06
-6.815952146568073e-06   9.487686932792413e-08   9.46079111200441e-06
-6.862748161022775e-06   8.439109051022612e-07   1.112022698953241e-05
-6.862748161022775e-06   8.439109051022612e-07   1.112022698953241e-05
-6.862748161022775e-06   8.439109051022612e-07   1.112022698953241e-05
-6.862748161022775e-06   8.439109051022612e-07   1.112022698953241e-05
-6.123260357294503e-06   -1.2915511624826768e-07   1.047158692946216e-05
-6.123260357294503e-06   -1.2915511624826768e-07   1.047158692946216e-05
-6.123260357294503e-06   -1.2915511624826768e-07   1.047158692946216e-05
-6.123260357294503e-06   -1.2915511624826768e-07   1.047158692946216e-05
-6.401530535400952e-06   6.36091511836993e-07   1.0476222582788232e-05
-6.401530535400952e-06   6.36091511836993e-07   1.0476222582788232e-05
-6.401530535400952e-06   6.36091511836993e-07   1.0476222582788232e-05
-6.401530535400952e-06   6.36091511836993e-07   1.0476222582788232e-05
-6.724104183335839e-06   2.0716976839553957e-06   4.213553276471277e-06
-6.724104183335839e-06   2.0716976839553957e-06   4.213553276471277e-06
-6.724104183335839e-06   2.0716976839553957e-06   4.213553276471277e-06
-6.724104183335839e-06   2.0716976839553957e-06   4.213553276471277e-06
-6.701303120925566e-06   9.562274573938307e-07   3.5822729112182627e-06
-6.701303120925566e-06   9.562274573938307e-07   3.5822729112182627e-06
-6.701303120925566e-06   9.562274573938307e-07   3.5822729112182627e-06
-6.701303120925566e-06   9.562274573938307e-07   3.5822729112182627e-06
-7.046197171901554e-06   1.8579088195273038e-06   4.621243192168018e-06
-7.046197171901554e-06   1.8579088195273038e-06   4.621243192168018e-06
-7.046197171901554e-06   1.8579088195273038e-06   4.621243192168018e-06
-7.046197171901554e-06   1.8579088195273038e-06   4.621243192168018e-06
-6.739413260217487e-06   7.720859077511941e-07   4.761430419760154e-06
-6.739413260217487e-06   7.720859077511941e-07   4.761430419760154e-06
-6.739413260217487e-06   7.720859077511941e-07   4.761430419760154e-06
-6.739413260217487e-06   7.720859077511941e-07   4.761430419760154e-06
-6.581169894177946e-06   1.4601537830419677e-06   4.084850751186469e-06
-6.581169894177946e-06   1.4601537830419677e-06   4.084850751186469e-06
-6.581169894177946e-06   1.4601537830419677e-06   4.084850751186469e-06
-6.581169894177946e-06   1.4601537830419677e-06   4.084850751186469e-06
-6.73941326021746e-06   1.8579088195273038e-06   5.2727369392335e-06
-6.73941326021746e-06   1.8579088195273038e-06   5.2727369392335e-06
-6.73941326021746e-06   1.8579088195273038e-06   5.2727369392335e-06
-6.73941326021746e-06   1.8579088195273038e-06   5.2727369392335e-06
-7.046197171901554e-06   7.720859077511941e-07   4.10993667269451e-06
-7.046197171901554e-06   7.720859077511941e-07   4.10993667269451e-06
-7.046197171901554e-06   7.720859077511941e-07   4.10993667269451e-06
-7.046197171901554e-06   7.720859077511941e-07   4.10993667269451e-06
-7.348584768292774e-06   1.7105864095681841e-06   5.474727906025706e-06
-7.348584768292774e-06   1.7105864095681841e-06   5.474727906025706e-06
-7.348584768292774e-06   1.7105864095681841e-06   5.474727906025706e-06
-7.348584768292774e-06   1.7105864095681841e-06   5.474727906025706e-06
-6.815952146568073e-06   6.519087446535334e-07   5.222213468766574e-06
-6.815952146568073e-06   6.519087446535334e-07   5.222213468766574e-06
-6.815952146568073e-06   6.519087446535334e-07   5.222213468766574e-06
-6.815952146568073e-06   6.519087446535334e-07   5.222213468766574e-06
-6.828519824532184e-06   1.3540201154217126e-06   4.821892776245577e-06
-6.828519824532184e-06   1.3540201154217126e-06   4.821892776245577e-06
-6.828519824532184e-06   1.3540201154217126e-06   4.821892776245577e-06
-6.828519824532184e-06   1.3540201154217126e-06   4.821892776245577e-06
-6.815952146568046e-06   1.7105864095682925e-06   6.109934504974345e-06
-6.815952146568046e-06   1.7105864095682925e-06   6.109934504974345e-06
-6.815952146568046e-06   1.7105864095682925e-06   6.109934504974345e-06
-6.815952146568046e-06   1.7105864095682925e-06   6.109934504974345e-06
-7.348584768292774e-06   6.519087446535334e-07   4.5870068698177185e-06
-7.348584768292774e-06   6.519087446535334e-07   4.5870068698177185e-06
-7.348584768292774e-06   6.519087446535334e-07   4.5870068698177185e-06
-7.348584768292774e-06   6.519087446535334e-07   4.5870068698177185e-06
-7.794579774702626e-06   1.3698356231323008e-06   7.0418143493648e-06
-7.794579774702626e-06   1.3698356231323008e-06   7.0418143493648e-06
-7.794579774702626e-06   1.3698356231323008e-06   7.0418143493648e-06
-7.794579774702626e-06   1.3698356231323008e-06   7.0418143493648e-06
-6.862748161022775e-06   4.075490034797331e-07   6.066133631689799e-06
-6.862748161022775e-06   4.075490034797331e-07   6.066133631689799e-06
-6.862748161022775e-06   4.075490034797331e-07   6.066133631689799e-06
-6.862748161022775e-06   4.075490034797331e-07   6.066133631689799e-06
-6.9125015606448005e-06   1.225765331145886e-06   5.658126167792921e-06
-6.9125015606448005e-06   1.225765331145886e-06   5.658126167792921e-06
-6.9125015606448005e-06   1.225765331145886e-06   5.658126167792921e-06
-6.9125015606448005e-06   1.225765331145886e-06   5.658126167792921e-06
-1.2915063177916451e-05   1.7114491749360672e-06   5.16866556076083e-06
-1.2915063177916451e-05   1.7114491749360672e-06   5.16866556076083e-06
-1.2915063177916451e-05   1.7114491749360672e-06   5.16866556076083e-06
-1.2915063177916451e-05   1.7114491749360672e-06   5.16866556076083e-06
-8.767398237890756e-06   2.3638961562747753e-06   1.2472908649606863e-05
-8.767398237890756e-06   2.3638961562747753e-06   1.2472908649606863e-05
-8.767398237890756e-06   2.3638961562747753e-06   1.2472908649606863e-05
-8.767398237890756e-06   2.3638961562747753e-06   1.2472908649606863e-05
-8.766546515807348e-06   1.3332124829210784e-06   5.826326048169266e-06
-8.766546515807348e-06   1.3332124829210784e-06   5.826326048169266e-06
-8.766546515807348e-06   1.3332124829210784e-06   5.826326048169266e-06
-8.766546515807348e-06   1.3332124829210784e-06   5.826326048169266e-06
-1.4252849830744884e-05   9.339044979941077e-07   1.5209749697354777e-05
-1.4252849830744884e-05   9.339044979941077e-07   1.5209749697354777e-05
-1.4252849830744884e-05   9.339044979941077e-07   1.5209749697354777e-05
-1.4252849830744884e-05   9.339044979941077e-07   1.5209749697354777e-05
-1.0597775480834404e-05   1.3952996628037494e-06   8.84112201528483e-06
-1.0597775480834404e-05   1.3952996628037494e-06   8.84112201528483e-06
-1.0597775480834404e-05   1.3952996628037494e-06   8.84112201528483e-06
-1.0597775480834404e-05   1.3952996628037494e-06   8.84112201528483e-06
-1.4252849830744911e-05   1.3332124829211326e-06   6.065910839125454e-06
-1.4252849830744911e-05   1.3332124829211326e-06   6.065910839125454e-06
-1.4252849830744911e-05   1.3332124829211326e-06   6.065910839125454e-06
-1.4252849830744911e-05   1.3332124829211326e-06   6.065910839125454e-06
-8.766546515807348e-06   9.339044979941077e-07   1.4970164906398596e-05
-8.766546515807348e-06   9.339044979941077e-07   1.4970164906398596e-05
-8.766546515807348e-06   9.339044979941077e-07   1.4970164906398596e-05
-8.766546515807348e-06   9.339044979941077e-07   1.4970164906398596e-05
-8.894607924204117e-06   1.073273841420278e-06   6.495740254559661e-06
-8.894607924204117e-06   1.073273841420278e-06   6.495740254559661e-06
-8.894607924204117e-06   1.073273841420278e-06   6.495740254559661e-06
-8.894607924204117e-06   1.073273841420278e-06   6.495740254559661e-06
-1.4310696465883636e-05   6.617285313817597e-07   1.576948167671527e-05
-1.4310696465883636e-05   6.617285313817597e-07   1.576948167671527e-05
-1.4310696465883636e-05   6.617285313817597e-07   1.576948167671527e-05
-1.4310696465883636e-05   6.617285313817597e-07   1.576948167671527e-05
-1.132228341835822e-05   8.629747330425098e-07   1.0668045543176327e-05
-1.132228341835822e-05   8.629747330425098e-07   1.0668045543176327e-05
-1.132228341835822e-05   8.629747330425098e-07   1.0668045543176327e-05
-1.132228341835822e-05   8.629747330425098e-07   1.0668045543176327e-05
-1.4310696465883656e-05   1.073273841420278e-06   6.742667440582794e-06
-1.4310696465883656e-05   1.073273841420278e-06   6.742667440582794e-06
-1.4310696465883656e-05   1.073273841420278e-06   6.742667440582794e-06
-1.4310696465883656e-05   1.073273841420278e-06   6.742667440582794e-06
-8.894607924204103e-06   6.617285313817597e-07   1.5522554490692123e-05
-8.894607924204103e-06   6.617285313817597e-07   1.5522554490692123e-05
-8.894607924204103e-06   6.617285313817597e-07   1.5522554490692123e-05
-8.894607924204103e-06   6.617285313817597e-07   1.5522554490692123e-05
-8.808009168969685e-06   4.3478053119957224e-07   7.664964993257692e-06
-8.808009168969685e-06   4.3478053119957224e-07   7.664964993257692e-06
-8.808009168969685e-06   4.3478053119957224e-07   7.664964993257692e-06
-8.808009168969685e-06   4.3478053119957224e-07   7.664964993257692e-06
-1.4478830384516688e-05   -5.007107688361336e-07   1.76776284658574e-05
-1.4478830384516688e-05   -5.007107688361336e-07   1.76776284658574e-05
-1.4478830384516688e-05   -5.007107688361336e-07   1.76776284658574e-05
-1.4478830384516688e-05   -5.007107688361336e-07   1.76776284658574e-05
-1.1158073000485816e-05   4.0794232203671035e-07   1.1597840971282295e-05
-1.1158073000485816e-05   4.0794232203671035e-07   1.1597840971282295e-05
-1.1158073000485816e-05   4.0794232203671035e-07   1.1597840971282295e-05
-1.1158073000485816e-05   4.0794232203671035e-07   1.1597840971282295e-05
-8.767398237890773e-06   4.4398401055363145e-07   1.1731665109365085e-05
-8.767398237890773e-06   4.4398401055363145e-07   1.1731665109365085e-05
-8.767398237890773e-06   4.4398401055363145e-07   1.1731665109365085e-05
-8.767398237890773e-06   4.4398401055363145e-07   1.1731665109365085e-05
-5.402777980843904e-06   -2.7456519981070764e-06   1.54255839325801e-05
-5.402777980843904e-06   -2.7456519981070764e-06   1.54255839325801e-05
-5.402777980843904e-06   -2.7456519981070764e-06   1.54255839325801e-05
-5.402777980843904e-06   -2.7456519981070764e-06   1.54255839325801e-05
-5.4191744563190166e-06   2.0982762633235978e-07   9.841093583572331e-06
-5.4191744563190166e-06   2.0982762633235978e-07   9.841093583572331e-06
-5.4191744563190166e-06   2.0982762633235978e-07   9.841093583572331e-06
-5.4191744563190166e-06   2.0982762633235978e-07   9.841093583572331e-06
-8.766546515807348e-06   -2.2561785675153073e-06   1.689965073236158e-05
-8.766546515807348e-06   -2.2561785675153073e-06   1.689965073236158e-05
-8.766546515807348e-06   -2.2561785675153073e-06   1.689965073236158e-05
-8.766546515807348e-06   -2.2561785675153073e-06   1.689965073236158e-05
-7.05340501350419e-06   -1.3593519352749612e-06   1.3506318915845517e-05
-7.05340501350419e-06   -1.3593519352749612e-06   1.3506318915845517e-05
-7.05340501350419e-06   -1.3593519352749612e-06   1.3506318915845517e-05
-7.05340501350419e-06   -1.3593519352749612e-06   1.3506318915845517e-05
-8.766546515807355e-06   2.0982762633235978e-07   1.1320697299880834e-05
-8.766546515807355e-06   2.0982762633235978e-07   1.1320697299880834e-05
-8.766546515807355e-06   2.0982762633235978e-07   1.1320697299880834e-05
-8.766546515807355e-06   2.0982762633235978e-07   1.1320697299880834e-05
-5.4191744563190166e-06   -2.2561785675153073e-06   1.542004701605297e-05
-5.4191744563190166e-06   -2.2561785675153073e-06   1.542004701605297e-05
-5.4191744563190166e-06   -2.2561785675153073e-06   1.542004701605297e-05
-5.4191744563190166e-06   -2.2561785675153073e-06   1.542004701605297e-05
-5.448236777090914e-06   -5.8924630297232505e-08   1.0137508245561971e-05
-5.448236777090914e-06   -5.8924630297232505e-08   1.0137508245561971e-05
-5.448236777090914e-06   -5.8924630297232505e-08   1.0137508245561971e-05
-5.448236777090914e-06   -5.8924630297232505e-08   1.0137508245561971e-05
-8.894607924204103e-06   -2.304670572787792e-06   1.7228907722911483e-05
-8.894607924204103e-06   -2.304670572787792e-06   1.7228907722911483e-05
-8.894607924204103e-06   -2.304670572787792e-06   1.7228907722911483e-05
-8.894607924204103e-06   -2.304670572787792e-06   1.7228907722911483e-05
-7.007492895897328e-06   -1.1880359098924128e-06   1.3413735211329576e-05
-7.007492895897328e-06   -1.1880359098924128e-06   1.3413735211329576e-05
-7.007492895897328e-06   -1.1880359098924128e-06   1.3413735211329576e-05
-7.007492895897328e-06   -1.1880359098924128e-06   1.3413735211329576e-05
-8.894607924204117e-06   -5.8924630297232505e-08   1.1484955811056252e-05
-8.894607924204117e-06   -5.8924630297232505e-08   1.1484955811056252e-05
-8.894607924204117e-06   -5.8924630297232505e-08   1.1484955811056252e-05
-8.894607924204117e-06   -5.8924630297232505e-08   1.1484955811056252e-05
-5.448236777090914e-06   -2.304670572787792e-06   1.5881460157417168e-05
-5.448236777090914e-06   -2.304670572787792e-06   1.5881460157417168e-05
-5.448236777090914e-06   -2.304670572787792e-06   1.5881460157417168e-05
-5.448236777090914e-06   -2.304670572787792e-06   1.5881460157417168e-05
-5.404384065776867e-06   -4.103841301544473e-07   1.0509040391162546e-05
-5.404384065776867e-06   -4.103841301544473e-07   1.0509040391162546e-05
-5.404384065776867e-06   -4.103841301544473e-07   1.0509040391162546e-05
-5.404384065776867e-06   -4.103841301544473e-07   1.0509040391162546e-05
-8.808009168969662e-06   -2.318118606545931e-06   1.732638958231872e-05
-8.808009168969662e-06   -2.318118606545931e-06   1.732638958231872e-05
-8.808009168969662e-06   -2.318118606545931e-06   1.732638958231872e-05
-8.808009168969662e-06   -2.318118606545931e-06   1.732638958231872e-05
-7.048366019876682e-06   -1.3288338276756188e-06   1.3800080133174913e-05
-7.048366019876682e-06   -1.3288338276756188e-06   1.3800080133174913e-05
-7.048366019876682e-06   -1.3288338276756188e-06   1.3800080133174913e-05
-7.048366019876682e-06   -1.3288338276756188e-06   1.3800080133174913e-05
-5.402777980843904e-06   1.2494138722099826e-07   1.0863805369580414e-05
-5.402777980843904e-06   1.2494138722099826e-07   1.0863805369580414e-05
-5.402777980843904e-06   1.2494138722099826e-07   1.0863805369580414e-05
-5.402777980843904e-06   1.2494138722099826e-07   1.0863805369580414e-05
-4.003683257823646e-06   -2.145765841214529e-06   1.1833205570886282e-05
-4.003683257823646e-06   -2.145765841214529e-06   1.1833205570886282e-05
-4.003683257823646e-06   -2.145765841214529e-06   1.1833205570886282e-05
-4.003683257823646e-06   -2.145765841214529e-06   1.1833205570886282e-05
-3.974236901961142e-06   -7.113759192118024e-08   9.587177066657697e-06
-3.974236901961142e-06   -7.113759192118024e-08   9.587177066657697e-06
-3.974236901961142e-06   -7.113759192118024e-08   9.587177066657697e-06
-3.974236901961142e-06   -7.113759192118024e-08   9.587177066657697e-06
-5.4191744563190166e-06   -2.107429469268903e-06   1.3217181450329526e-05
-5.4191744563190166e-06   -2.107429469268903e-06   1.3217181450329526e-05
-5.4191744563190166e-06   -2.107429469268903e-06   1.3217181450329526e-05
-5.4191744563190166e-06   -2.107429469268903e-06   1.3217181450329526e-05
-4.67204508457715e-06   -1.082683790411623e-06   1.1357118423445481e-05
-4.67204508457715e-06   -1.082683790411623e-06   1.1357118423445481e-05
-4.67204508457715e-06   -1.082683790411623e-06   1.1357118423445481e-05
-4.67204508457715e-06   -1.082683790411623e-06   1.1357118423445481e-05
-5.4191744563190166e-06   -7.113759192118024e-08   1.080895219306632e-05
-5.4191744563190166e-06   -7.113759192118024e-08   1.080895219306632e-05
-5.4191744563190166e-06   -7.113759192118024e-08   1.080895219306632e-05
-5.4191744563190166e-06   -7.113759192118024e-08   1.080895219306632e-05
-3.974236901961142e-06   -2.107429469268903e-06   1.1995406323920896e-05
-3.974236901961142e-06   -2.107429469268903e-06   1.1995406323920896e-05
-3.974236901961142e-06   -2.107429469268903e-06   1.1995406323920896e-05
-3.974236901961142e-06   -2.107429469268903e-06   1.1995406323920896e-05
-3.951110212205874e-06   -3.0580657243186845e-07   9.813617276306739e-06
-3.951110212205874e-06   -3.0580657243186845e-07   9.813617276306739e-06
-3.951110212205874e-06   -3.0580657243186845e-07   9.813617276306739e-06
-3.951110212205874e-06   -3.0580657243186845e-07   9.813617276306739e-06
-5.448236777090914e-06   -2.1702336891574496e-06   1.3427484487817072e-05
-5.448236777090914e-06   -2.1702336891574496e-06   1.3427484487817072e-05
-5.448236777090914e-06   -2.1702336891574496e-06   1.3427484487817072e-05
-5.448236777090914e-06   -2.1702336891574496e-06   1.3427484487817072e-05
-4.63717157632482e-06   -1.1511699515254713e-06   1.1464270910627438e-05
-4.63717157632482e-06   -1.1511699515254713e-06   1.1464270910627438e-05
-4.63717157632482e-06   -1.1511699515254713e-06   1.1464270910627438e-05
-4.63717157632482e-06   -1.1511699515254713e-06   1.1464270910627438e-05
-5.448236777090914e-06   -3.0580657243186845e-07   1.0932273546342082e-05
-5.448236777090914e-06   -3.0580657243186845e-07   1.0932273546342082e-05
-5.448236777090914e-06   -3.0580657243186845e-07   1.0932273546342082e-05
-5.448236777090914e-06   -3.0580657243186845e-07   1.0932273546342082e-05
-3.951110212205901e-06   -2.1702336891574496e-06   1.2308828217781742e-05
-3.951110212205901e-06   -2.1702336891574496e-06   1.2308828217781742e-05
-3.951110212205901e-06   -2.1702336891574496e-06   1.2308828217781742e-05
-3.951110212205901e-06   -2.1702336891574496e-06   1.2308828217781742e-05
-3.882519277849345e-06   -5.403753252094341e-07   1.0165242544698432e-05
-3.882519277849345e-06   -5.403753252094341e-07   1.0165242544698432e-05
-3.882519277849345e-06   -5.403753252094341e-07   1.0165242544698432e-05
-3.882519277849345e-06   -5.403753252094341e-07   1.0165242544698432e-05
-5.404384065776867e-06   -2.256679884066296e-06   1.373146659322503e-05
-5.404384065776867e-06   -2.256679884066296e-06   1.373146659322503e-05
-5.404384065776867e-06   -2.256679884066296e-06   1.373146659322503e-05
-5.404384065776867e-06   -2.256679884066296e-06   1.373146659322503e-05
-4.596882175935371e-06   -1.2525497044535406e-06   1.1783152002388316e-05
-4.596882175935371e-06   -1.2525497044535406e-06   1.1783152002388316e-05
-4.596882175935371e-06   -1.2525497044535406e-06   1.1783152002388316e-05
-4.596882175935371e-06   -1.2525497044535406e-06   1.1783152002388316e-05
-4.003683257823619e-06   5.75820036338747e-07   7.424100504892944e-06
-4.003683257823619e-06   5.75820036338747e-07   7.424100504892944e-06
-4.003683257823619e-06   5.75820036338747e-07   7.424100504892944e-06
-4.003683257823619e-06   5.75820036338747e-07   7.424100504892944e-06
-3.3720168890967505e-06   -8.833950560687483e-07   7.601348730659893e-06
-3.3720168890967505e-06   -8.833950560687483e-07   7.601348730659893e-06
-3.3720168890967505e-06   -8.833950560687483e-07   7.601348730659893e-06
-3.3720168890967505e-06   -8.833950560687483e-07   7.601348730659893e-06
-3.3068715871387914e-06   3.169054572265458e-07   6.704349548993546e-06
-3.3068715871387914e-06   3.169054572265458e-07   6.704349548993546e-06
-3.3068715871387914e-06   3.169054572265458e-07   6.704349548993546e-06
-3.3068715871387914e-06   3.169054572265458e-07   6.704349548993546e-06
-3.974236901961142e-06   -1.0313697638003323e-06   8.625590206313733e-06
-3.974236901961142e-06   -1.0313697638003323e-06   8.625590206313733e-06
-3.974236901961142e-06   -1.0313697638003323e-06   8.625590206313733e-06
-3.974236901961142e-06   -1.0313697638003323e-06   8.625590206313733e-06
-3.637789622882372e-06   -2.0200693757452043e-07   7.5672270454470495e-06
-3.637789622882372e-06   -2.0200693757452043e-07   7.5672270454470495e-06
-3.637789622882372e-06   -2.0200693757452043e-07   7.5672270454470495e-06
-3.637789622882372e-06   -2.0200693757452043e-07   7.5672270454470495e-06
-3.974236901961142e-06   3.169054572265458e-07   7.513314681609689e-06
-3.974236901961142e-06   3.169054572265458e-07   7.513314681609689e-06
-3.974236901961142e-06   3.169054572265458e-07   7.513314681609689e-06
-3.974236901961142e-06   3.169054572265458e-07   7.513314681609689e-06
-3.3068715871387914e-06   -1.0313697638003323e-06   7.816625073697617e-06
-3.3068715871387914e-06   -1.0313697638003323e-06   7.816625073697617e-06
-3.3068715871387914e-06   -1.0313697638003323e-06   7.816625073697617e-06
-3.3068715871387914e-06   -1.0313697638003323e-06   7.816625073697617e-06
-3.281755561921159e-06   9.487686932792413e-08   7.019308767711196e-06
-3.281755561921159e-06   9.487686932792413e-08   7.019308767711196e-06
-3.281755561921159e-06   9.487686932792413e-08   7.019308767711196e-06
-3.281755561921159e-06   9.487686932792413e-08   7.019308767711196e-06
-3.951110212205874e-06   -1.145169673457037e-06   8.878927777189932e-06
-3.951110212205874e-06   -1.145169673457037e-06   8.878927777189932e-06
-3.951110212205874e-06   -1.145169673457037e-06   8.878927777189932e-06
-3.951110212205874e-06   -1.145169673457037e-06   8.878927777189932e-06
-3.5729509333665003e-06   -3.586840387903448e-07   7.776770931657245e-06
-3.5729509333665003e-06   -3.586840387903448e-07   7.776770931657245e-06
-3.5729509333665003e-06   -3.586840387903448e-07   7.776770931657245e-06
-3.5729509333665003e-06   -3.586840387903448e-07   7.776770931657245e-06
-3.951110212205901e-06   9.487686932792413e-08   7.763336693382064e-06
-3.951110212205901e-06   9.487686932792413e-08   7.763336693382064e-06
-3.951110212205901e-06   9.487686932792413e-08   7.763336693382064e-06
-3.951110212205901e-06   9.487686932792413e-08   7.763336693382064e-06
-3.281755561921159e-06   -1.145169673457037e-06   8.134899851519037e-06
-3.281755561921159e-06   -1.145169673457037e-06   8.134899851519037e-06
-3.281755561921159e-06   -1.145169673457037e-06   8.134899851519037e-06
-3.281755561921159e-06   -1.145169673457037e-06   8.134899851519037e-06
-3.2356460804780225e-06   -1.2915511624821347e-07   7.414813424459646e-06
-3.2356460804780225e-06   -1.2915511624821347e-07   7.414813424459646e-06
-3.2356460804780225e-06   -1.2915511624821347e-07   7.414813424459646e-06
-3.2356460804780225e-06   -1.2915511624821347e-07   7.414813424459646e-06
-3.882519277849345e-06   -1.2937352617469432e-06   9.191683507377732e-06
-3.882519277849345e-06   -1.2937352617469432e-06   9.191683507377732e-06
-3.882519277849345e-06   -1.2937352617469432e-06   9.191683507377732e-06
-3.882519277849345e-06   -1.2937352617469432e-06   9.191683507377732e-06
-3.525302429811599e-06   -4.966743934796489e-07   8.118085573021318e-06
-3.525302429811599e-06   -4.966743934796489e-07   8.118085573021318e-06
-3.525302429811599e-06   -4.966743934796489e-07   8.118085573021318e-06
-3.525302429811599e-06   -4.966743934796489e-07   8.118085573021318e-06
-3.3720168890967505e-06   9.562274573938307e-07   1.7459603631352527e-06
-3.3720168890967505e-06   9.562274573938307e-07   1.7459603631352527e-06
-3.3720168890967505e-06   9.562274573938307e-07   1.7459603631352527e-06
-3.3720168890967505e-06   9.562274573938307e-07   1.7459603631352527e-06
-2.002733129341386e-06   -9.414407214436774e-08   3.397877045004501e-06
-2.002733129341386e-06   -9.414407214436774e-08   3.397877045004501e-06
-2.002733129341386e-06   -9.414407214436774e-08   3.397877045004501e-06
-2.002733129341386e-06   -9.414407214436774e-08   3.397877045004501e-06
-2.122204173628814e-06   7.720859077511941e-07   1.7642160332821026e-06
-2.122204173628814e-06   7.720859077511941e-07   1.7642160332821026e-06
-2.122204173628814e-06   7.720859077511941e-07   1.7642160332821026e-06
-2.122204173628814e-06   7.720859077511941e-07   1.7642160332821026e-06
-3.3068715871387914e-06   -1.3323201232784106e-07   4.281852474512823e-06
-3.3068715871387914e-06   -1.3323201232784106e-07   4.281852474512823e-06
-3.3068715871387914e-06   -1.3323201232784106e-07   4.281852474512823e-06
-3.3068715871387914e-06   -1.3323201232784106e-07   4.281852474512823e-06
-2.6079222349692293e-06   4.927355843795892e-07   2.7413563295393406e-06
-2.6079222349692293e-06   4.927355843795892e-07   2.7413563295393406e-06
-2.6079222349692293e-06   4.927355843795892e-07   2.7413563295393406e-06
-2.6079222349692293e-06   4.927355843795892e-07   2.7413563295393406e-06
-3.3068715871387914e-06   7.720859077511941e-07   2.307406785329437e-06
-3.3068715871387914e-06   7.720859077511941e-07   2.307406785329437e-06
-3.3068715871387914e-06   7.720859077511941e-07   2.307406785329437e-06
-3.3068715871387914e-06   7.720859077511941e-07   2.307406785329437e-06
-2.122204173628868e-06   -1.3323201232784106e-07   3.7386617224654617e-06
-2.122204173628868e-06   -1.3323201232784106e-07   3.7386617224654617e-06
-2.122204173628868e-06   -1.3323201232784106e-07   3.7386617224654617e-06
-2.122204173628868e-06   -1.3323201232784106e-07   3.7386617224654617e-06
-2.2212049954847845e-06   6.519087446535334e-07   2.278290782820329e-06
-2.2212049954847845e-06   6.519087446535334e-07   2.278290782820329e-06
-2.2212049954847845e-06   6.519087446535334e-07   2.278290782820329e-06
-2.2212049954847845e-06   6.519087446535334e-07   2.278290782820329e-06
-3.281755561921159e-06   -1.8549182476807185e-07   4.548315401867165e-06
-3.281755561921159e-06   -1.8549182476807185e-07   4.548315401867165e-06
-3.281755561921159e-06   -1.8549182476807185e-07   4.548315401867165e-06
-3.281755561921159e-06   -1.8549182476807185e-07   4.548315401867165e-06
-2.661483456609158e-06   4.0285944993747463e-07   3.1615177948569645e-06
-2.661483456609158e-06   4.0285944993747463e-07   3.1615177948569645e-06
-2.661483456609158e-06   4.0285944993747463e-07   3.1615177948569645e-06
-2.661483456609158e-06   4.0285944993747463e-07   3.1615177948569645e-06
-3.281755561921159e-06   6.519087446535876e-07   2.780731124473433e-06
-3.281755561921159e-06   6.519087446535876e-07   2.780731124473433e-06
-3.281755561921159e-06   6.519087446535876e-07   2.780731124473433e-06
-3.281755561921159e-06   6.519087446535876e-07   2.780731124473433e-06
-2.2212049954848387e-06   -1.8549182476804474e-07   4.0458750602142776e-06
-2.2212049954848387e-06   -1.8549182476804474e-07   4.0458750602142776e-06
-2.2212049954848387e-06   -1.8549182476804474e-07   4.0458750602142776e-06
-2.2212049954848387e-06   -1.8549182476804474e-07   4.0458750602142776e-06
-2.4523394731925676e-06   4.075490034797331e-07   3.197991984185255e-06
-2.4523394731925676e-06   4.075490034797331e-07   3.197991984185255e-06
-2.4523394731925676e-06   4.075490034797331e-07   3.197991984185255e-06
-2.4523394731925676e-06   4.075490034797331e-07   3.197991984185255e-06
-3.2356460804780225e-06   -2.5113058870737713e-07   4.898710751639868e-06
-3.2356460804780225e-06   -2.5113058870737713e-07   4.898710751639868e-06
-3.2356460804780225e-06   -2.5113058870737713e-07   4.898710751639868e-06
-3.2356460804780225e-06   -2.5113058870737713e-07   4.898710751639868e-06
-2.6738826135438623e-06   3.4087707934604087e-07   3.6072337059176634e-06
-2.6738826135438623e-06   3.4087707934604087e-07   3.6072337059176634e-06
-2.6738826135438623e-06   3.4087707934604087e-07   3.6072337059176634e-06
-2.6738826135438623e-06   3.4087707934604087e-07   3.6072337059176634e-06
-3.0520976833044173e-05   2.3638961562747753e-06   1.3389542854866558e-05
-3.0520976833044173e-05   2.3638961562747753e-06   1.3389542854866558e-05
-3.0520976833044173e-05   2.3638961562747753e-06   1.3389542854866558e-05
-3.0520976833044173e-05   2.3638961562747753e-06   1.3389542854866558e-05
-7.1393924739853084e-06   -1.529473270802423e-05   4.176367280138527e-05
-7.1393924739853084e-06   -1.529473270802423e-05   4.176367280138527e-05
-7.1393924739853084e-06   -1.529473270802423e-05   4.176367280138527e-05
-7.1393924739853084e-06   -1.529473270802423e-05   4.176367280138527e-05
-8.404291337183114e-06   9.339044979941077e-07   7.318730233613107e-06
-8.404291337183114e-06   9.339044979941077e-07   7.318730233613107e-06
-8.404291337183114e-06   9.339044979941077e-07   7.318730233613107e-06
-8.404291337183114e-06   9.339044979941077e-07   7.318730233613107e-06
-2.7836264414888963e-05   -1.194530146000041e-05   4.7432875604586154e-05
-2.7836264414888963e-05   -1.194530146000041e-05   4.7432875604586154e-05
-2.7836264414888963e-05   -1.194530146000041e-05   4.7432875604586154e-05
-2.7836264414888963e-05   -1.194530146000041e-05   4.7432875604586154e-05
-1.8550285531630177e-05   -5.944411728030802e-06   2.8355710293306416e-05
-1.8550285531630177e-05   -5.944411728030802e-06   2.8355710293306416e-05
-1.8550285531630177e-05   -5.944411728030802e-06   2.8355710293306416e-05
-1.8550285531630177e-05   -5.944411728030802e-06   2.8355710293306416e-05
-2.7836264414888912e-05   9.339044979941077e-07   1.50462538084098e-05
-2.7836264414888912e-05   9.339044979941077e-07   1.50462538084098e-05
-2.7836264414888912e-05   9.339044979941077e-07   1.50462538084098e-05
-2.7836264414888912e-05   9.339044979941077e-07   1.50462538084098e-05
-8.404291337183134e-06   -1.194530146000041e-05   3.9705352029789454e-05
-8.404291337183134e-06   -1.194530146000041e-05   3.9705352029789454e-05
-8.404291337183134e-06   -1.194530146000041e-05   3.9705352029789454e-05
-8.404291337183134e-06   -1.194530146000041e-05   3.9705352029789454e-05
-8.60655906388741e-06   6.617285313817597e-07   8.044623880383491e-06
-8.60655906388741e-06   6.617285313817597e-07   8.044623880383491e-06
-8.60655906388741e-06   6.617285313817597e-07   8.044623880383491e-06
-8.60655906388741e-06   6.617285313817597e-07   8.044623880383491e-06
-2.6266982329300072e-05   -1.0339027929623655e-05   4.4079116532674457e-05
-2.6266982329300072e-05   -1.0339027929623655e-05   4.4079116532674457e-05
-2.6266982329300072e-05   -1.0339027929623655e-05   4.4079116532674457e-05
-2.6266982329300072e-05   -1.0339027929623655e-05   4.4079116532674457e-05
-1.800507366690087e-05   -5.6378141822431235e-06   2.7488540513580825e-05
-1.800507366690087e-05   -5.6378141822431235e-06   2.7488540513580825e-05
-1.800507366690087e-05   -5.6378141822431235e-06   2.7488540513580825e-05
-1.800507366690087e-05   -5.6378141822431235e-06   2.7488540513580825e-05
-2.626698232930003e-05   6.617285313817597e-07   1.4645077756986728e-05
-2.626698232930003e-05   6.617285313817597e-07   1.4645077756986728e-05
-2.626698232930003e-05   6.617285313817597e-07   1.4645077756986728e-05
-2.626698232930003e-05   6.617285313817597e-07   1.4645077756986728e-05
-8.606559063887424e-06   -1.0339027929623655e-05   3.747866265607121e-05
-8.606559063887424e-06   -1.0339027929623655e-05   3.747866265607121e-05
-8.606559063887424e-06   -1.0339027929623655e-05   3.747866265607121e-05
-8.606559063887424e-06   -1.0339027929623655e-05   3.747866265607121e-05
-9.452484844642316e-06   -5.007107688361336e-07   1.0062313585417093e-05
-9.452484844642316e-06   -5.007107688361336e-07   1.0062313585417093e-05
-9.452484844642316e-06   -5.007107688361336e-07   1.0062313585417093e-05
-9.452484844642316e-06   -5.007107688361336e-07   1.0062313585417093e-05
-2.4251322237581344e-05   -8.200989738005668e-06   3.934720995515045e-05
-2.4251322237581344e-05   -8.200989738005668e-06   3.934720995515045e-05
-2.4251322237581344e-05   -8.200989738005668e-06   3.934720995515045e-05
-2.4251322237581344e-05   -8.200989738005668e-06   3.934720995515045e-05
-1.7331087433096574e-05   -5.206922800242447e-06   2.601704511835127e-05
-1.7331087433096574e-05   -5.206922800242447e-06   2.601704511835127e-05
-1.7331087433096574e-05   -5.206922800242447e-06   2.601704511835127e-05
-1.7331087433096574e-05   -5.206922800242447e-06   2.601704511835127e-05
-7.139392473985295e-06   -2.7456519981070764e-06   7.660822424456761e-06
-7.139392473985295e-06   -2.7456519981070764e-06   7.660822424456761e-06
-7.139392473985295e-06   -2.7456519981070764e-06   7.660822424456761e-06
-7.139392473985295e-06   -2.7456519981070764e-06   7.660822424456761e-06
-2.4764831856785422e-06   -4.846465503001957e-06   1.4171849802031157e-05
-2.4764831856785422e-06   -4.846465503001957e-06   1.4171849802031157e-05
-2.4764831856785422e-06   -4.846465503001957e-06   1.4171849802031157e-05
-2.4764831856785422e-06   -4.846465503001957e-06   1.4171849802031157e-05
-2.7808705347971994e-06   -2.2561785675153073e-06   6.772934875350767e-06
-2.7808705347971994e-06   -2.2561785675153073e-06   6.772934875350767e-06
-2.7808705347971994e-06   -2.2561785675153073e-06   6.772934875350767e-06
-2.7808705347971994e-06   -2.2561785675153073e-06   6.772934875350767e-06
-8.404291337183134e-06   -6.381647207890869e-06   1.8620584063552576e-05
-8.404291337183134e-06   -6.381647207890869e-06   1.8620584063552576e-05
-8.404291337183134e-06   -6.381647207890869e-06   1.8620584063552576e-05
-8.404291337183134e-06   -6.381647207890869e-06   1.8620584063552576e-05
-4.9288742695698025e-06   -3.3276472260147165e-06   1.0995822295071321e-05
-4.9288742695698025e-06   -3.3276472260147165e-06   1.0995822295071321e-05
-4.9288742695698025e-06   -3.3276472260147165e-06   1.0995822295071321e-05
-4.9288742695698025e-06   -3.3276472260147165e-06   1.0995822295071321e-05
-8.404291337183107e-06   -2.2561785675153073e-06   9.248216059575996e-06
-8.404291337183107e-06   -2.2561785675153073e-06   9.248216059575996e-06
-8.404291337183107e-06   -2.2561785675153073e-06   9.248216059575996e-06
-8.404291337183107e-06   -2.2561785675153073e-06   9.248216059575996e-06
-2.780870534797213e-06   -6.381647207890869e-06   1.6145302879327245e-05
-2.780870534797213e-06   -6.381647207890869e-06   1.6145302879327245e-05
-2.780870534797213e-06   -6.381647207890869e-06   1.6145302879327245e-05
-2.780870534797213e-06   -6.381647207890869e-06   1.6145302879327245e-05
-3.0427593060217064e-06   -2.304670572787792e-06   7.617279314470497e-06
-3.0427593060217064e-06   -2.304670572787792e-06   7.617279314470497e-06
-3.0427593060217064e-06   -2.304670572787792e-06   7.617279314470497e-06
-3.0427593060217064e-06   -2.304670572787792e-06   7.617279314470497e-06
-8.606559063887424e-06   -5.860833569675075e-06   1.9023976709045643e-05
-8.606559063887424e-06   -5.860833569675075e-06   1.9023976709045643e-05
-8.606559063887424e-06   -5.860833569675075e-06   1.9023976709045643e-05
-8.606559063887424e-06   -5.860833569675075e-06   1.9023976709045643e-05
-5.574127027238171e-06   -4.054533786528988e-06   1.2886143444742682e-05
-5.574127027238171e-06   -4.054533786528988e-06   1.2886143444742682e-05
-5.574127027238171e-06   -4.054533786528988e-06   1.2886143444742682e-05
-5.574127027238171e-06   -4.054533786528988e-06   1.2886143444742682e-05
-8.60655906388741e-06   -2.304670572787792e-06   9.750977112602845e-06
-8.60655906388741e-06   -2.304670572787792e-06   9.750977112602845e-06
-8.60655906388741e-06   -2.304670572787792e-06   9.750977112602845e-06
-8.60655906388741e-06   -2.304670572787792e-06   9.750977112602845e-06
-3.04275930602172e-06   -5.860833569675075e-06   1.6890278910913275e-05
-3.04275930602172e-06   -5.860833569675075e-06   1.6890278910913275e-05
-3.04275930602172e-06   -5.860833569675075e-06   1.6890278910913275e-05
-3.04275930602172e-06   -5.860833569675075e-06   1.6890278910913275e-05
-3.4711725348644823e-06   -2.318118606545931e-06   8.34538790687935e-06
-3.4711725348644823e-06   -2.318118606545931e-06   8.34538790687935e-06
-3.4711725348644823e-06   -2.318118606545931e-06   8.34538790687935e-06
-3.4711725348644823e-06   -2.318118606545931e-06   8.34538790687935e-06
-9.452484844642323e-06   -5.529754564913486e-06   2.0241223331529578e-05
-9.452484844642323e-06   -5.529754564913486e-06   2.0241223331529578e-05
-9.452484844642323e-06   -5.529754564913486e-06   2.0241223331529578e-05
-9.452484844642323e-06   -5.529754564913486e-06   2.0241223331529578e-05
-5.959108846222324e-06   -3.7042660198632053e-06   1.3323636873799392e-05
-5.959108846222324e-06   -3.7042660198632053e-06   1.3323636873799392e-05
-5.959108846222324e-06   -3.7042660198632053e-06   1.3323636873799392e-05
-5.959108846222324e-06   -3.7042660198632053e-06   1.3323636873799392e-05
-2.4764831856785422e-06   -2.145765841214529e-06   4.170380296887306e-06
-2.4764831856785422e-06   -2.145765841214529e-06   4.170380296887306e-06
-2.4764831856785422e-06   -2.145765841214529e-06   4.170380296887306e-06
-2.4764831856785422e-06   -2.145765841214529e-06   4.170380296887306e-06
-1.3881650938997946e-06   -1.413465130429535e-06   6.423624209656243e-06
-1.3881650938997946e-06   -1.413465130429535e-06   6.423624209656243e-06
-1.3881650938997946e-06   -1.413465130429535e-06   6.423624209656243e-06
-1.3881650938997946e-06   -1.413465130429535e-06   6.423624209656243e-06
-1.3417924726711163e-06   -2.1074294692688758e-06   4.736140957743826e-06
-1.3417924726711163e-06   -2.1074294692688758e-06   4.736140957743826e-06
-1.3417924726711163e-06   -2.1074294692688758e-06   4.736140957743826e-06
-1.3417924726711163e-06   -2.1074294692688758e-06   4.736140957743826e-06
-2.780870534797213e-06   -1.8306433890747045e-06   6.968532746504048e-06
-2.780870534797213e-06   -1.8306433890747045e-06   6.968532746504048e-06
-2.780870534797213e-06   -1.8306433890747045e-06   6.968532746504048e-06
-2.780870534797213e-06   -1.8306433890747045e-06   6.968532746504048e-06
-1.869754056680661e-06   -1.764529805900708e-06   5.410337133071992e-06
-1.869754056680661e-06   -1.764529805900708e-06   5.410337133071992e-06
-1.869754056680661e-06   -1.764529805900708e-06   5.410337133071992e-06
-1.869754056680661e-06   -1.764529805900708e-06   5.410337133071992e-06
-2.7808705347971994e-06   -2.107429469268903e-06   4.5700693096273245e-06
-2.7808705347971994e-06   -2.107429469268903e-06   4.5700693096273245e-06
-2.7808705347971994e-06   -2.107429469268903e-06   4.5700693096273245e-06
-2.7808705347971994e-06   -2.107429469268903e-06   4.5700693096273245e-06
-1.3417924726711163e-06   -1.8306433890747045e-06   7.134604394620563e-06
-1.3417924726711163e-06   -1.8306433890747045e-06   7.134604394620563e-06
-1.3417924726711163e-06   -1.8306433890747045e-06   7.134604394620563e-06
-1.3417924726711163e-06   -1.8306433890747045e-06   7.134604394620563e-06
-1.351921861782895e-06   -2.1702336891574496e-06   5.068986509543705e-06
-1.351921861782895e-06   -2.1702336891574496e-06   5.068986509543705e-06
-1.351921861782895e-06   -2.1702336891574496e-06   5.068986509543705e-06
-1.351921861782895e-06   -2.1702336891574496e-06   5.068986509543705e-06
-3.04275930602172e-06   -2.327428914701834e-06   7.98136605193497e-06
-3.04275930602172e-06   -2.327428914701834e-06   7.98136605193497e-06
-3.04275930602172e-06   -2.327428914701834e-06   7.98136605193497e-06
-3.04275930602172e-06   -2.327428914701834e-06   7.98136605193497e-06
-1.9923309350888525e-06   -1.9288040881750305e-06   5.991477204464181e-06
-1.9923309350888525e-06   -1.9288040881750305e-06   5.991477204464181e-06
-1.9923309350888525e-06   -1.9288040881750305e-06   5.991477204464181e-06
-1.9923309350888525e-06   -1.9288040881750305e-06   5.991477204464181e-06
-3.0427593060217064e-06   -2.1702336891574496e-06   5.163303644870401e-06
-3.0427593060217064e-06   -2.1702336891574496e-06   5.163303644870401e-06
-3.0427593060217064e-06   -2.1702336891574496e-06   5.163303644870401e-06
-3.0427593060217064e-06   -2.1702336891574496e-06   5.163303644870401e-06
-1.351921861782895e-06   -2.327428914701834e-06   7.887048916608354e-06
-1.351921861782895e-06   -2.327428914701834e-06   7.887048916608354e-06
-1.351921861782895e-06   -2.327428914701834e-06   7.887048916608354e-06
-1.351921861782895e-06   -2.327428914701834e-06   7.887048916608354e-06
-1.3866780848706731e-06   -2.256679884066296e-06   5.570090142851777e-06
-1.3866780848706731e-06   -2.256679884066296e-06   5.570090142851777e-06
-1.3866780848706731e-06   -2.256679884066296e-06   5.570090142851777e-06
-1.3866780848706731e-06   -2.256679884066296e-06   5.570090142851777e-06
-3.4711725348644823e-06   -2.798372318680861e-06   9.36926302027674e-06
-3.4711725348644823e-06   -2.798372318680861e-06   9.36926302027674e-06
-3.4711725348644823e-06   -2.798372318680861e-06   9.36926302027674e-06
-3.4711725348644823e-06   -2.798372318680861e-06   9.36926302027674e-06
-2.133853732390197e-06   -2.0990929356718617e-06   6.720830719680887e-06
-2.133853732390197e-06   -2.0990929356718617e-06   6.720830719680887e-06
-2.133853732390197e-06   -2.0990929356718617e-06   6.720830719680887e-06
-2.133853732390197e-06   -2.0990929356718617e-06   6.720830719680887e-06
-1.3881650938997946e-06   -8.833950560687483e-07   1.2534329385764512e-06
-1.3881650938997946e-06   -8.833950560687483e-07   1.2534329385764512e-06
-1.3881650938997946e-06   -8.833950560687483e-07   1.2534329385764512e-06
-1.3881650938997946e-06   -8.833950560687483e-07   1.2534329385764512e-06
-1.0457651590727404e-06   1.7533801164835858e-07   2.4593393372518044e-06
-1.0457651590727404e-06   1.7533801164835858e-07   2.4593393372518044e-06
-1.0457651590727404e-06   1.7533801164835858e-07   2.4593393372518044e-06
-1.0457651590727404e-06   1.7533801164835858e-07   2.4593393372518044e-06
-8.528161150547385e-07   -1.0313697638003594e-06   1.9974485279456345e-06
-8.528161150547385e-07   -1.0313697638003594e-06   1.9974485279456345e-06
-8.528161150547385e-07   -1.0313697638003594e-06   1.9974485279456345e-06
-8.528161150547385e-07   -1.0313697638003594e-06   1.9974485279456345e-06
-1.3417924726711163e-06   2.050304921465975e-08   2.1812854361638525e-06
-1.3417924726711163e-06   2.050304921465975e-08   2.1812854361638525e-06
-1.3417924726711163e-06   2.050304921465975e-08   2.1812854361638525e-06
-1.3417924726711163e-06   2.050304921465975e-08   2.1812854361638525e-06
-1.0851533318306789e-06   -4.3552850947853664e-07   2.0271724699789852e-06
-1.0851533318306789e-06   -4.3552850947853664e-07   2.0271724699789852e-06
-1.0851533318306789e-06   -4.3552850947853664e-07   2.0271724699789852e-06
-1.0851533318306789e-06   -4.3552850947853664e-07   2.0271724699789852e-06
-1.3417924726711163e-06   -1.0313697638003594e-06   1.3663248401366284e-06
-1.3417924726711163e-06   -1.0313697638003594e-06   1.3663248401366284e-06
-1.3417924726711163e-06   -1.0313697638003594e-06   1.3663248401366284e-06
-1.3417924726711163e-06   -1.0313697638003594e-06   1.3663248401366284e-06
-8.528161150547385e-07   2.050304921465975e-08   2.8124091239728585e-06
-8.528161150547385e-07   2.050304921465975e-08   2.8124091239728585e-06
-8.528161150547385e-07   2.050304921465975e-08   2.8124091239728585e-06
-8.528161150547385e-07   2.050304921465975e-08   2.8124091239728585e-06
-7.49797609350504e-07   -1.1451696734570641e-06   2.1949974371197824e-06
-7.49797609350504e-07   -1.1451696734570641e-06   2.1949974371197824e-06
-7.49797609350504e-07   -1.1451696734570641e-06   2.1949974371197824e-06
-7.49797609350504e-07   -1.1451696734570641e-06   2.1949974371197824e-06
-1.351921861782895e-06   -2.1865072651087045e-07   2.642626489672659e-06
-1.351921861782895e-06   -2.1865072651087045e-07   2.642626489672659e-06
-1.351921861782895e-06   -2.1865072651087045e-07   2.642626489672659e-06
-1.351921861782895e-06   -2.1865072651087045e-07   2.642626489672659e-06
-9.897550747049776e-07   -5.533757942145599e-07   2.2398502184982697e-06
-9.897550747049776e-07   -5.533757942145599e-07   2.2398502184982697e-06
-9.897550747049776e-07   -5.533757942145599e-07   2.2398502184982697e-06
-9.897550747049776e-07   -5.533757942145599e-07   2.2398502184982697e-06
-1.351921861782922e-06   -1.1451696734570641e-06   1.6390860689519625e-06
-1.351921861782922e-06   -1.1451696734570641e-06   1.6390860689519625e-06
-1.351921861782922e-06   -1.1451696734570641e-06   1.6390860689519625e-06
-1.351921861782922e-06   -1.1451696734570641e-06   1.6390860689519625e-06
-7.49797609350504e-07   -2.1865072651087045e-07   3.1985378578403435e-06
-7.49797609350504e-07   -2.1865072651087045e-07   3.1985378578403435e-06
-7.49797609350504e-07   -2.1865072651087045e-07   3.1985378578403435e-06
-7.49797609350504e-07   -2.1865072651087045e-07   3.1985378578403435e-06
-5.921917762744368e-07   -1.2937352617469703e-06   2.415158111801778e-06
-5.921917762744368e-07   -1.2937352617469703e-06   2.415158111801778e-06
-5.921917762744368e-07   -1.2937352617469703e-06   2.415158111801778e-06
-5.921917762744368e-07   -1.2937352617469703e-06   2.415158111801778e-06
-1.3866780848706731e-06   -7.019547292749865e-07   3.384233639978939e-06
-1.3866780848706731e-06   -7.019547292749865e-07   3.384233639978939e-06
-1.3866780848706731e-06   -7.019547292749865e-07   3.384233639978939e-06
-1.3866780848706731e-06   -7.019547292749865e-07   3.384233639978939e-06
-9.152218289550264e-07   -7.306007376537831e-07   2.6156608184803136e-06
-9.152218289550264e-07   -7.306007376537831e-07   2.6156608184803136e-06
-9.152218289550264e-07   -7.306007376537831e-07   2.6156608184803136e-06
-9.152218289550264e-07   -7.306007376537831e-07   2.6156608184803136e-06
-1.0457651590727404e-06   -9.414407214436774e-08   -1.684575988725702e-06
-1.0457651590727404e-06   -9.414407214436774e-08   -1.684575988725702e-06
-1.0457651590727404e-06   -9.414407214436774e-08   -1.684575988725702e-06
-1.0457651590727404e-06   -9.414407214436774e-08   -1.684575988725702e-06
-2.10288935583087e-07   1.4340106794301526e-07   -1.495885321904991e-07
-2.10288935583087e-07   1.4340106794301526e-07   -1.495885321904991e-07
-2.10288935583087e-07   1.4340106794301526e-07   -1.495885321904991e-07
-2.10288935583087e-07   1.4340106794301526e-07   -1.495885321904991e-07
-2.139831299457183e-08   -1.3323201232784106e-07   -1.3100347037299336e-06
-2.139831299457183e-08   -1.3323201232784106e-07   -1.3100347037299336e-06
-2.139831299457183e-08   -1.3323201232784106e-07   -1.3100347037299336e-06
-2.139831299457183e-08   -1.3323201232784106e-07   -1.3100347037299336e-06
-8.528161150547385e-07   2.455836001873904e-07   -1.5162773447230512e-07
-8.528161150547385e-07   2.455836001873904e-07   -1.5162773447230512e-07
-8.528161150547385e-07   2.455836001873904e-07   -1.5162773447230512e-07
-8.528161150547385e-07   2.455836001873904e-07   -1.5162773447230512e-07
-4.867016127627966e-07   6.820713061895817e-08   -6.553926898846376e-07
-4.867016127627966e-07   6.820713061895817e-08   -6.553926898846376e-07
-4.867016127627966e-07   6.820713061895817e-08   -6.553926898846376e-07
-4.867016127627966e-07   6.820713061895817e-08   -6.553926898846376e-07
-8.528161150547385e-07   -1.3323201232781396e-07   -1.5373240712391592e-06
-8.528161150547385e-07   -1.3323201232781396e-07   -1.5373240712391592e-06
-8.528161150547385e-07   -1.3323201232781396e-07   -1.5373240712391592e-06
-8.528161150547385e-07   -1.3323201232781396e-07   -1.5373240712391592e-06
-2.139831299457183e-08   2.455836001873904e-07   7.566163303681208e-08
-2.139831299457183e-08   2.455836001873904e-07   7.566163303681208e-08
-2.139831299457183e-08   2.455836001873904e-07   7.566163303681208e-08
-2.139831299457183e-08   2.455836001873904e-07   7.566163303681208e-08
7.45522128524031e-08   -1.8549182476807185e-07   -1.1583323858607155e-06
7.45522128524031e-08   -1.8549182476807185e-07   -1.1583323858607155e-06
7.45522128524031e-08   -1.8549182476807185e-07   -1.1583323858607155e-06
7.45522128524031e-08   -1.8549182476807185e-07   -1.1583323858607155e-06
-7.49797609350504e-07   2.0326588635090833e-07   -1.767064219406443e-08
-7.49797609350504e-07   2.0326588635090833e-07   -1.767064219406443e-08
-7.49797609350504e-07   2.0326588635090833e-07   -1.767064219406443e-08
-7.49797609350504e-07   2.0326588635090833e-07   -1.767064219406443e-08
-3.486355399353664e-07   4.397445491816402e-08   -5.90699232359479e-07
-3.486355399353664e-07   4.397445491816402e-08   -5.90699232359479e-07
-3.486355399353664e-07   4.397445491816402e-08   -5.90699232359479e-07
-3.486355399353664e-07   4.397445491816402e-08   -5.90699232359479e-07
-7.49797609350504e-07   -1.8549182476807185e-07   -1.391587012532103e-06
-7.49797609350504e-07   -1.8549182476807185e-07   -1.391587012532103e-06
-7.49797609350504e-07   -1.8549182476807185e-07   -1.391587012532103e-06
-7.49797609350504e-07   -1.8549182476807185e-07   -1.391587012532103e-06
7.45522128524031e-08   2.0326588635090833e-07   2.1558398447728234e-07
7.45522128524031e-08   2.0326588635090833e-07   2.1558398447728234e-07
7.45522128524031e-08   2.0326588635090833e-07   2.1558398447728234e-07
7.45522128524031e-08   2.0326588635090833e-07   2.1558398447728234e-07
1.9197657885735783e-07   -2.5113058870735003e-07   -9.318455692202418e-07
1.9197657885735783e-07   -2.5113058870735003e-07   -9.318455692202418e-07
1.9197657885735783e-07   -2.5113058870735003e-07   -9.318455692202418e-07
1.9197657885735783e-07   -2.5113058870735003e-07   -9.318455692202418e-07
-5.921917762744368e-07   1.6090439032023738e-07   1.2788070191606556e-07
-5.921917762744368e-07   1.6090439032023738e-07   1.2788070191606556e-07
-5.921917762744368e-07   1.6090439032023738e-07   1.2788070191606556e-07
-5.921917762744368e-07   1.6090439032023738e-07   1.2788070191606556e-07
-2.2436759080904551e-07   1.3298539251196343e-08   -3.9659609655146076e-07
-2.2436759080904551e-07   1.3298539251196343e-08   -3.9659609655146076e-07
-2.2436759080904551e-07   1.3298539251196343e-08   -3.9659609655146076e-07
-2.2436759080904551e-07   1.3298539251196343e-08   -3.9659609655146076e-07
              </DataArray>   
             <DataArray type="Float64" NumberOfComponents="3" Name="Stress" format="ascii">   
-1.589929792968167   -0.39748244824204176   -0.39748244824204176
-1.589929792968167   -0.39748244824204176   -0.39748244824204176
-1.589929792968167   -0.39748244824204176   -0.39748244824204176
-1.589929792968167   -0.39748244824204176   -0.39748244824204176
-0.9198453352214875   -0.02963315345424955   -0.018634735687194107
-0.9198453352214875   -0.02963315345424955   -0.018634735687194107
-0.9198453352214875   -0.02963315345424955   -0.018634735687194107
-0.9198453352214875   -0.02963315345424955   -0.018634735687194107
-0.9910641818186333   -0.24776604545465833   -0.24776604545465833
-0.9910641818186333   -0.24776604545465833   -0.24776604545465833
-0.9910641818186333   -0.24776604545465833   -0.24776604545465833
-0.9910641818186333   -0.24776604545465833   -0.24776604545465833
-1.532174300067429   -0.12621071421426022   -0.048388088341757646
-1.532174300067429   -0.12621071421426022   -0.048388088341757646
-1.532174300067429   -0.12621071421426022   -0.048388088341757646
-1.532174300067429   -0.12621071421426022   -0.048388088341757646
-1.2015597223450094   -0.19721752976630147   -0.0033446386884543357
-1.2015597223450094   -0.19721752976630147   -0.0033446386884543357
-1.2015597223450094   -0.19721752976630147   -0.0033446386884543357
-1.2015597223450094   -0.19721752976630147   -0.0033446386884543357
-1.6636161550624757   -0.41590403876561893   -0.41590403876561893
-1.6636161550624757   -0.41590403876561893   -0.41590403876561893
-1.6636161550624757   -0.41590403876561893   -0.41590403876561893
-1.6636161550624757   -0.41590403876561893   -0.41590403876561893
-0.8908337028217349   0.010715903098554552   -0.005095599023379055
-0.8908337028217349   0.010715903098554552   -0.005095599023379055
-0.8908337028217349   0.010715903098554552   -0.005095599023379055
-0.8908337028217349   0.010715903098554552   -0.005095599023379055
-0.9935787982481871   -0.24839469956204677   -0.24839469956204677
-0.9935787982481871   -0.24839469956204677   -0.24839469956204677
-0.9935787982481871   -0.24839469956204677   -0.24839469956204677
-0.9935787982481871   -0.24839469956204677   -0.24839469956204677
-1.5833528825957228   -0.12733325114075061   -0.07086620315291667
-1.5833528825957228   -0.12733325114075061   -0.07086620315291667
-1.5833528825957228   -0.12733325114075061   -0.07086620315291667
-1.5833528825957228   -0.12733325114075061   -0.07086620315291667
-1.2460743568110024   -0.18558216890081378   -0.06610097020521724
-1.2460743568110024   -0.18558216890081378   -0.06610097020521724
-1.2460743568110024   -0.18558216890081378   -0.06610097020521724
-1.2460743568110024   -0.18558216890081378   -0.06610097020521724
-1.7152366574855467   -0.42880916437138666   -0.42880916437138666
-1.7152366574855467   -0.42880916437138666   -0.42880916437138666
-1.7152366574855467   -0.42880916437138666   -0.42880916437138666
-1.7152366574855467   -0.42880916437138666   -0.42880916437138666
-0.8879830414989771   0.02679319552797793   0.004396189093978452
-0.8879830414989771   0.02679319552797793   0.004396189093978452
-0.8879830414989771   0.02679319552797793   0.004396189093978452
-0.8879830414989771   0.02679319552797793   0.004396189093978452
-0.9927405073341761   -0.24818512683354402   -0.24818512683354402
-0.9927405073341761   -0.24818512683354402   -0.24818512683354402
-0.9927405073341761   -0.24818512683354402   -0.24818512683354402
-0.9927405073341761   -0.24818512683354402   -0.24818512683354402
-1.6748773654024343   -0.1114827121688326   -0.04266561161767013
-1.6748773654024343   -0.1114827121688326   -0.04266561161767013
-1.6748773654024343   -0.1114827121688326   -0.04266561161767013
-1.6748773654024343   -0.1114827121688326   -0.04266561161767013
-1.2789931469893632   -0.18260865582385327   -0.11940845827859728
-1.2789931469893632   -0.18260865582385327   -0.11940845827859728
-1.2789931469893632   -0.18260865582385327   -0.11940845827859728
-1.2789931469893632   -0.18260865582385327   -0.11940845827859728
-1.0113241748813337   -0.25283104372033344   -0.25283104372033344
-1.0113241748813337   -0.25283104372033344   -0.25283104372033344
-1.0113241748813337   -0.25283104372033344   -0.25283104372033344
-1.0113241748813337   -0.25283104372033344   -0.25283104372033344
-0.42232428230647184   -0.028423437762794324   -0.009207761262602632
-0.42232428230647184   -0.028423437762794324   -0.009207761262602632
-0.42232428230647184   -0.028423437762794324   -0.009207761262602632
-0.42232428230647184   -0.028423437762794324   -0.009207761262602632
-0.4430010715960049   -0.11075026789900122   -0.11075026789900122
-0.4430010715960049   -0.11075026789900122   -0.11075026789900122
-0.4430010715960049   -0.11075026789900122   -0.11075026789900122
-0.4430010715960049   -0.11075026789900122   -0.11075026789900122
-0.9205588778014872   -0.10846229775936841   -0.0345432730642174
-0.9205588778014872   -0.10846229775936841   -0.0345432730642174
-0.9205588778014872   -0.10846229775936841   -0.0345432730642174
-0.9205588778014872   -0.10846229775936841   -0.0345432730642174
-0.6791477045685883   -0.12876658856997547   0.005259870301039899
-0.6791477045685883   -0.12876658856997547   0.005259870301039899
-0.6791477045685883   -0.12876658856997547   0.005259870301039899
-0.6791477045685883   -0.12876658856997547   0.005259870301039899
-0.9910641818186324   -0.2477660454546581   -0.2477660454546581
-0.9910641818186324   -0.2477660454546581   -0.2477660454546581
-0.9910641818186324   -0.2477660454546581   -0.2477660454546581
-0.9910641818186324   -0.2477660454546581   -0.2477660454546581
-0.3981951974755583   0.002854049899589095   -0.00032521509535873155
-0.3981951974755583   0.002854049899589095   -0.00032521509535873155
-0.3981951974755583   0.002854049899589095   -0.00032521509535873155
-0.3981951974755583   0.002854049899589095   -0.00032521509535873155
-0.43284134009969305   -0.10821033502492326   -0.10821033502492326
-0.43284134009969305   -0.10821033502492326   -0.10821033502492326
-0.43284134009969305   -0.10821033502492326   -0.10821033502492326
-0.43284134009969305   -0.10821033502492326   -0.10821033502492326
-0.9179720465953952   -0.08840766038525996   -0.030347980474874012
-0.9179720465953952   -0.08840766038525996   -0.030347980474874012
-0.9179720465953952   -0.08840766038525996   -0.030347980474874012
-0.9179720465953952   -0.08840766038525996   -0.030347980474874012
-0.669421110293125   -0.10834805017122154   -0.034970076978175765
-0.669421110293125   -0.10834805017122154   -0.034970076978175765
-0.669421110293125   -0.10834805017122154   -0.034970076978175765
-0.669421110293125   -0.10834805017122154   -0.034970076978175765
-0.9935787982481871   -0.24839469956204677   -0.24839469956204677
-0.9935787982481871   -0.24839469956204677   -0.24839469956204677
-0.9935787982481871   -0.24839469956204677   -0.24839469956204677
-0.9935787982481871   -0.24839469956204677   -0.24839469956204677
-0.38212643425719905   0.026884858341565662   0.010269000821058
-0.38212643425719905   0.026884858341565662   0.010269000821058
-0.38212643425719905   0.026884858341565662   0.010269000821058
-0.38212643425719905   0.026884858341565662   0.010269000821058
-0.4235437948938271   -0.10588594872345677   -0.10588594872345677
-0.4235437948938271   -0.10588594872345677   -0.10588594872345677
-0.4235437948938271   -0.10588594872345677   -0.10588594872345677
-0.4235437948938271   -0.10588594872345677   -0.10588594872345677
-0.9109300672417093   -0.06813849837050157   -0.019179554834264194
-0.9109300672417093   -0.06813849837050157   -0.019179554834264194
-0.9109300672417093   -0.06813849837050157   -0.019179554834264194
-0.9109300672417093   -0.06813849837050157   -0.019179554834264194
-0.672440038819964   -0.09580398701871148   -0.07787037251157738
-0.672440038819964   -0.09580398701871148   -0.07787037251157738
-0.672440038819964   -0.09580398701871148   -0.07787037251157738
-0.672440038819964   -0.09580398701871148   -0.07787037251157738
-0.4608867138904369   -0.11522167847260922   -0.11522167847260922
-0.4608867138904369   -0.11522167847260922   -0.11522167847260922
-0.4608867138904369   -0.11522167847260922   -0.11522167847260922
-0.4608867138904369   -0.11522167847260922   -0.11522167847260922
0.05380490475116575   0.003369565210436895   0.00045340290022674373
0.05380490475116575   0.003369565210436895   0.00045340290022674373
0.05380490475116575   0.003369565210436895   0.00045340290022674373
0.05380490475116575   0.003369565210436895   0.00045340290022674373
0.0704800175238952   0.0176200043809738   0.0176200043809738
0.0704800175238952   0.0176200043809738   0.0176200043809738
0.0704800175238952   0.0176200043809738   0.0176200043809738
0.0704800175238952   0.0176200043809738   0.0176200043809738
-0.41644348143390364   -0.07197139287663844   -0.01674119211085771
-0.41644348143390364   -0.07197139287663844   -0.01674119211085771
-0.41644348143390364   -0.07197139287663844   -0.01674119211085771
-0.41644348143390364   -0.07197139287663844   -0.01674119211085771
-0.17872404609354411   -0.045319648519274024   0.030114484876270213
-0.17872404609354411   -0.045319648519274024   0.030114484876270213
-0.17872404609354411   -0.045319648519274024   0.030114484876270213
-0.17872404609354411   -0.045319648519274024   0.030114484876270213
-0.4430010715960049   -0.11075026789900122   -0.11075026789900122
-0.4430010715960049   -0.11075026789900122   -0.11075026789900122
-0.4430010715960049   -0.11075026789900122   -0.11075026789900122
-0.4430010715960049   -0.11075026789900122   -0.11075026789900122
0.07177799702351646   0.031139268740856346   0.010590637519197109
0.07177799702351646   0.031139268740856346   0.010590637519197109
0.07177799702351646   0.031139268740856346   0.010590637519197109
0.07177799702351646   0.031139268740856346   0.010590637519197109
0.07963017615493108   0.01990754403873277   0.01990754403873277
0.07963017615493108   0.01990754403873277   0.01990754403873277
0.07963017615493108   0.01990754403873277   0.01990754403873277
0.07963017615493108   0.01990754403873277   0.01990754403873277
-0.4014741771725528   -0.04836086199956098   -0.011223993414587834
-0.4014741771725528   -0.04836086199956098   -0.011223993414587834
-0.4014741771725528   -0.04836086199956098   -0.011223993414587834
-0.4014741771725528   -0.04836086199956098   -0.011223993414587834
-0.17118643890346577   -0.027971930500491533   -0.010375749274421545
-0.17118643890346577   -0.027971930500491533   -0.010375749274421545
-0.17118643890346577   -0.027971930500491533   -0.010375749274421545
-0.17118643890346577   -0.027971930500491533   -0.010375749274421545
-0.43284134009969305   -0.10821033502492326   -0.10821033502492326
-0.43284134009969305   -0.10821033502492326   -0.10821033502492326
-0.43284134009969305   -0.10821033502492326   -0.10821033502492326
-0.43284134009969305   -0.10821033502492326   -0.10821033502492326
0.08624677899192573   0.05500645697395011   0.017891645288488148
0.08624677899192573   0.05500645697395011   0.017891645288488148
0.08624677899192573   0.05500645697395011   0.017891645288488148
0.08624677899192573   0.05500645697395011   0.017891645288488148
0.09184869111727077   0.022962172779317693   0.022962172779317693
0.09184869111727077   0.022962172779317693   0.022962172779317693
0.09184869111727077   0.022962172779317693   0.022962172779317693
0.09184869111727077   0.022962172779317693   0.022962172779317693
-0.38518757831881223   -0.02022551242688589   0.0002346978550449609
-0.38518757831881223   -0.02022551242688589   0.0002346978550449609
-0.38518757831881223   -0.02022551242688589   0.0002346978550449609
-0.38518757831881223   -0.02022551242688589   0.0002346978550449609
-0.16579705476614343   -0.011247765925957422   -0.05050404769431133
-0.16579705476614343   -0.011247765925957422   -0.05050404769431133
-0.16579705476614343   -0.011247765925957422   -0.05050404769431133
-0.16579705476614343   -0.011247765925957422   -0.05050404769431133
0.05893367903225902   0.014733419758064754   0.014733419758064754
0.05893367903225902   0.014733419758064754   0.014733419758064754
0.05893367903225902   0.014733419758064754   0.014733419758064754
0.05893367903225902   0.014733419758064754   0.014733419758064754
0.5752284603006064   0.05281389890651911   0.01789622161476391
0.5752284603006064   0.05281389890651911   0.01789622161476391
0.5752284603006064   0.05281389890651911   0.01789622161476391
0.5752284603006064   0.05281389890651911   0.01789622161476391
0.6248805939121675   0.1562201484780419   0.1562201484780419
0.6248805939121675   0.1562201484780419   0.1562201484780419
0.6248805939121675   0.1562201484780419   0.1562201484780419
0.6248805939121675   0.1562201484780419   0.1562201484780419
0.05366802262676851   -0.04047673263078903   -0.00834323309289789
0.05366802262676851   -0.04047673263078903   -0.00834323309289789
0.05366802262676851   -0.04047673263078903   -0.00834323309289789
0.05366802262676851   -0.04047673263078903   -0.00834323309289789
0.32777774042863106   0.04082444358723768   0.05948214443095745
0.32777774042863106   0.04082444358723768   0.05948214443095745
0.32777774042863106   0.04082444358723768   0.05948214443095745
0.32777774042863106   0.04082444358723768   0.05948214443095745
0.07048001752389543   0.017620004380973858   0.017620004380973858
0.07048001752389543   0.017620004380973858   0.017620004380973858
0.07048001752389543   0.017620004380973858   0.017620004380973858
0.07048001752389543   0.017620004380973858   0.017620004380973858
0.5823857954828681   0.07244060793410645   0.027525696875479844
0.5823857954828681   0.07244060793410645   0.027525696875479844
0.5823857954828681   0.07244060793410645   0.027525696875479844
0.5823857954828681   0.07244060793410645   0.027525696875479844
0.6224996171476905   0.15562490428692263   0.15562490428692263
0.6224996171476905   0.15562490428692263   0.15562490428692263
0.6224996171476905   0.15562490428692263   0.15562490428692263
0.6224996171476905   0.15562490428692263   0.15562490428692263
0.06822692177586707   -0.017378127116125817   0.00017694329827079754
0.06822692177586707   -0.017378127116125817   0.00017694329827079754
0.06822692177586707   -0.017378127116125817   0.00017694329827079754
0.06822692177586707   -0.017378127116125817   0.00017694329827079754
0.32565952495338335   0.053690733746082214   0.015402713009766103
0.32565952495338335   0.053690733746082214   0.015402713009766103
0.32565952495338335   0.053690733746082214   0.015402713009766103
0.32565952495338335   0.053690733746082214   0.015402713009766103
0.07963017615493113   0.019907544038732784   0.019907544038732784
0.07963017615493113   0.019907544038732784   0.019907544038732784
0.07963017615493113   0.019907544038732784   0.019907544038732784
0.07963017615493113   0.019907544038732784   0.019907544038732784
0.5856620548461414   0.09290492520957903   0.03415707185652066
0.5856620548461414   0.09290492520957903   0.03415707185652066
0.5856620548461414   0.09290492520957903   0.03415707185652066
0.5856620548461414   0.09290492520957903   0.03415707185652066
0.6348393020371509   0.15870982550928772   0.15870982550928772
0.6348393020371509   0.15870982550928772   0.15870982550928772
0.6348393020371509   0.15870982550928772   0.15870982550928772
0.6348393020371509   0.15870982550928772   0.15870982550928772
0.08723831501045712   0.013153169939301709   0.009719295085264744
0.08723831501045712   0.013153169939301709   0.009719295085264744
0.08723831501045712   0.013153169939301709   0.009719295085264744
0.08723831501045712   0.013153169939301709   0.009719295085264744
0.330999961172896   0.07291048390693088   -0.025467003974634733
0.330999961172896   0.07291048390693088   -0.025467003974634733
0.330999961172896   0.07291048390693088   -0.025467003974634733
0.330999961172896   0.07291048390693088   -0.025467003974634733
0.6234293735514997   0.15585734338787494   0.15585734338787494
0.6234293735514997   0.15585734338787494   0.15585734338787494
0.6234293735514997   0.15585734338787494   0.15585734338787494
0.6234293735514997   0.15585734338787494   0.15585734338787494
1.294973234506104   0.09880533071612416   0.03424413664041447
1.294973234506104   0.09880533071612416   0.03424413664041447
1.294973234506104   0.09880533071612416   0.03424413664041447
1.294973234506104   0.09880533071612416   0.03424413664041447
1.3239982699966082   0.33099956749915205   0.33099956749915205
1.3239982699966082   0.33099956749915205   0.33099956749915205
1.3239982699966082   0.33099956749915205   0.33099956749915205
1.3239982699966082   0.33099956749915205   0.33099956749915205
0.5555271924280881   -0.03143324893605817   -0.0028934615282553006
0.5555271924280881   -0.03143324893605817   -0.0028934615282553006
0.5555271924280881   -0.03143324893605817   -0.0028934615282553006
0.5555271924280881   -0.03143324893605817   -0.0028934615282553006
0.9233217729028969   0.13078472973534397   0.10411193679589756
0.9233217729028969   0.13078472973534397   0.10411193679589756
0.9233217729028969   0.13078472973534397   0.10411193679589756
0.9233217729028969   0.13078472973534397   0.10411193679589756
0.624880593912167   0.15622014847804175   0.15622014847804175
0.624880593912167   0.15622014847804175   0.15622014847804175
0.624880593912167   0.15622014847804175   0.15622014847804175
0.624880593912167   0.15622014847804175   0.15622014847804175
1.227105953988798   0.11580725556132518   0.06173029939794868
1.227105953988798   0.11580725556132518   0.06173029939794868
1.227105953988798   0.11580725556132518   0.06173029939794868
1.227105953988798   0.11580725556132518   0.06173029939794868
1.2847990257541613   0.3211997564385403   0.3211997564385403
1.2847990257541613   0.3211997564385403   0.3211997564385403
1.2847990257541613   0.3211997564385403   0.3211997564385403
1.2847990257541613   0.3211997564385403   0.3211997564385403
0.5577492626224522   -0.017176860640768482   0.00467489658842158
0.5577492626224522   -0.017176860640768482   0.00467489658842158
0.5577492626224522   -0.017176860640768482   0.00467489658842158
0.5577492626224522   -0.017176860640768482   0.00467489658842158
0.896267275196026   0.13465265547178829   0.04990457625910451
0.896267275196026   0.13465265547178829   0.04990457625910451
0.896267275196026   0.13465265547178829   0.04990457625910451
0.896267275196026   0.13465265547178829   0.04990457625910451
0.6224996171476905   0.15562490428692263   0.15562490428692263
0.6224996171476905   0.15562490428692263   0.15562490428692263
0.6224996171476905   0.15562490428692263   0.15562490428692263
0.6224996171476905   0.15562490428692263   0.15562490428692263
1.1879247123236725   0.11627403260560265   0.04175391311905509
1.1879247123236725   0.11627403260560265   0.04175391311905509
1.1879247123236725   0.11627403260560265   0.04175391311905509
1.1879247123236725   0.11627403260560265   0.04175391311905509
1.2262359816875246   0.30655899542188114   0.30655899542188114
1.2262359816875246   0.30655899542188114   0.30655899542188114
1.2262359816875246   0.30655899542188114   0.30655899542188114
1.2262359816875246   0.30655899542188114   0.30655899542188114
0.5786890071272826   0.01873891599866742   0.017929260470566574
0.5786890071272826   0.01873891599866742   0.017929260470566574
0.5786890071272826   0.01873891599866742   0.017929260470566574
0.5786890071272826   0.01873891599866742   0.017929260470566574
0.858517365492165   0.14610899407254518   -0.013177263990959072
0.858517365492165   0.14610899407254518   -0.013177263990959072
0.858517365492165   0.14610899407254518   -0.013177263990959072
0.858517365492165   0.14610899407254518   -0.013177263990959072
-1.2540562487503395   -0.0898467250725822   0.014508319749995495
-1.2540562487503395   -0.0898467250725822   0.014508319749995495
-1.2540562487503395   -0.0898467250725822   0.014508319749995495
-1.2540562487503395   -0.0898467250725822   0.014508319749995495
-0.7986106891618107   -0.018793802688579914   -0.005301727087682034
-0.7986106891618107   -0.018793802688579914   -0.005301727087682034
-0.7986106891618107   -0.018793802688579914   -0.005301727087682034
-0.7986106891618107   -0.018793802688579914   -0.005301727087682034
-0.803710658554944   0.03256603939998026   0.01703203821696056
-0.803710658554944   0.03256603939998026   0.01703203821696056
-0.803710658554944   0.03256603939998026   0.01703203821696056
-0.803710658554944   0.03256603939998026   0.01703203821696056
-1.272570172267893   -0.08700300726295998   -0.015241433400227967
-1.272570172267893   -0.08700300726295998   -0.015241433400227967
-1.272570172267893   -0.08700300726295998   -0.015241433400227967
-1.272570172267893   -0.08700300726295998   -0.015241433400227967
-0.9916565533786303   -0.033983249055327236   -0.004131712530698696
-0.9916565533786303   -0.033983249055327236   -0.004131712530698696
-0.9916565533786303   -0.033983249055327236   -0.004131712530698696
-0.9916565533786303   -0.033983249055327236   -0.004131712530698696
-1.2631423192997409   -0.06145644629738062   0.00635127047495318
-1.2631423192997409   -0.06145644629738062   0.00635127047495318
-1.2631423192997409   -0.06145644629738062   0.00635127047495318
-1.2631423192997409   -0.06145644629738062   0.00635127047495318
-0.8144549955396073   0.005702994417892099   -0.009826601724253266
-0.8144549955396073   0.005702994417892099   -0.009826601724253266
-0.8144549955396073   0.005702994417892099   -0.009826601724253266
-0.8144549955396073   0.005702994417892099   -0.009826601724253266
-0.8044842707910189   0.04647909708685821   0.019326926180424475
-0.8044842707910189   0.04647909708685821   0.019326926180424475
-0.8044842707910189   0.04647909708685821   0.019326926180424475
-0.8044842707910189   0.04647909708685821   0.019326926180424475
-1.2800255967192846   -0.07656601124738688   -0.020101781976063923
-1.2800255967192846   -0.07656601124738688   -0.020101781976063923
-1.2800255967192846   -0.07656601124738688   -0.020101781976063923
-1.2800255967192846   -0.07656601124738688   -0.020101781976063923
-1.0192734317681558   -0.022675328124670435   -0.009763175252186923
-1.0192734317681558   -0.022675328124670435   -0.009763175252186923
-1.0192734317681558   -0.022675328124670435   -0.009763175252186923
-1.0192734317681558   -0.022675328124670435   -0.009763175252186923
-1.2568475506646692   -0.03667871392836147   0.055901150977976516
-1.2568475506646692   -0.03667871392836147   0.055901150977976516
-1.2568475506646692   -0.03667871392836147   0.055901150977976516
-1.2568475506646692   -0.03667871392836147   0.055901150977976516
-0.8180545518061743   0.016199564807292066   -0.018244946615779425
-0.8180545518061743   0.016199564807292066   -0.018244946615779425
-0.8180545518061743   0.016199564807292066   -0.018244946615779425
-0.8180545518061743   0.016199564807292066   -0.018244946615779425
-0.78964387063318   0.08108144368839645   0.03492167289922107
-0.78964387063318   0.08108144368839645   0.03492167289922107
-0.78964387063318   0.08108144368839645   0.03492167289922107
-0.78964387063318   0.08108144368839645   0.03492167289922107
-1.244263313873257   -0.06161856273004668   -0.03279327845470094
-1.244263313873257   -0.06161856273004668   -0.03279327845470094
-1.244263313873257   -0.06161856273004668   -0.03279327845470094
-1.244263313873257   -0.06161856273004668   -0.03279327845470094
-0.9800047067814652   0.009312714073270001   0.02178215525576587
-0.9800047067814652   0.009312714073270001   0.02178215525576587
-0.9800047067814652   0.009312714073270001   0.02178215525576587
-0.9800047067814652   0.009312714073270001   0.02178215525576587
-0.818339555507572   -0.10861076037625629   -0.014129101128812358
-0.818339555507572   -0.10861076037625629   -0.014129101128812358
-0.818339555507572   -0.10861076037625629   -0.014129101128812358
-0.818339555507572   -0.10861076037625629   -0.014129101128812358
-0.3774900322804316   -0.008633852266973177   0.003948922086323626
-0.3774900322804316   -0.008633852266973177   0.003948922086323626
-0.3774900322804316   -0.008633852266973177   0.003948922086323626
-0.3774900322804316   -0.008633852266973177   0.003948922086323626
-0.38281388310280856   0.007157455228487902   0.00581049717638648
-0.38281388310280856   0.007157455228487902   0.00581049717638648
-0.38281388310280856   0.007157455228487902   0.00581049717638648
-0.38281388310280856   0.007157455228487902   0.00581049717638648
-0.8344439751175151   -0.07946573454567325   -0.02460277065024159
-0.8344439751175151   -0.07946573454567325   -0.02460277065024159
-0.8344439751175151   -0.07946573454567325   -0.02460277065024159
-0.8344439751175151   -0.07946573454567325   -0.02460277065024159
-0.6032731813799822   -0.04909779710295466   -0.013928178592492155
-0.6032731813799822   -0.04909779710295466   -0.013928178592492155
-0.6032731813799822   -0.04909779710295466   -0.013928178592492155
-0.6032731813799822   -0.04909779710295466   -0.013928178592492155
-0.833620834160638   -0.08679716208388488   -0.013155638327647969
-0.833620834160638   -0.08679716208388488   -0.013155638327647969
-0.833620834160638   -0.08679716208388488   -0.013155638327647969
-0.833620834160638   -0.08679716208388488   -0.013155638327647969
-0.3821539689121877   0.015971937914197334   0.0002955854437839446
-0.3821539689121877   0.015971937914197334   0.0002955854437839446
-0.3821539689121877   0.015971937914197334   0.0002955854437839446
-0.3821539689121877   0.015971937914197334   0.0002955854437839446
-0.38120715973179614   0.026578364142843328   0.00781725530204436
-0.38120715973179614   0.026578364142843328   0.00781725530204436
-0.38120715973179614   0.026578364142843328   0.00781725530204436
-0.38120715973179614   0.026578364142843328   0.00781725530204436
-0.834598200611338   -0.058139820176778795   -0.02662380565753398
-0.834598200611338   -0.058139820176778795   -0.02662380565753398
-0.834598200611338   -0.058139820176778795   -0.02662380565753398
-0.834598200611338   -0.058139820176778795   -0.02662380565753398
-0.60193760074364   -0.027284907103743955   -0.006628985199885543
-0.60193760074364   -0.027284907103743955   -0.006628985199885543
-0.60193760074364   -0.027284907103743955   -0.006628985199885543
-0.60193760074364   -0.027284907103743955   -0.006628985199885543
-0.8313031662391472   -0.06555164917808971   -0.00273680479526962
-0.8313031662391472   -0.06555164917808971   -0.00273680479526962
-0.8313031662391472   -0.06555164917808971   -0.00273680479526962
-0.8313031662391472   -0.06555164917808971   -0.00273680479526962
-0.38174604678721785   0.036746340460924454   -0.005045156293137988
-0.38174604678721785   0.036746340460924454   -0.005045156293137988
-0.38174604678721785   0.036746340460924454   -0.005045156293137988
-0.38174604678721785   0.036746340460924454   -0.005045156293137988
-0.3746667150766046   0.04606966419494249   0.01559790582785224
-0.3746667150766046   0.04606966419494249   0.01559790582785224
-0.3746667150766046   0.04606966419494249   0.01559790582785224
-0.3746667150766046   0.04606966419494249   0.01559790582785224
-0.8254775107165783   -0.033496360391714664   -0.029668723437661984
-0.8254775107165783   -0.033496360391714664   -0.029668723437661984
-0.8254775107165783   -0.033496360391714664   -0.029668723437661984
-0.8254775107165783   -0.033496360391714664   -0.029668723437661984
-0.5992441676492295   -0.0066397059155429705   0.002999806826823645
-0.5992441676492295   -0.0066397059155429705   0.002999806826823645
-0.5992441676492295   -0.0066397059155429705   0.002999806826823645
-0.5992441676492295   -0.0066397059155429705   0.002999806826823645
-0.3979868051516098   -0.09042768021456046   -0.016741114321983535
-0.3979868051516098   -0.09042768021456046   -0.016741114321983535
-0.3979868051516098   -0.09042768021456046   -0.016741114321983535
-0.3979868051516098   -0.09042768021456046   -0.016741114321983535
0.04033012856085066   0.009157806282141523   0.015502998849782942
0.04033012856085066   0.009157806282141523   0.015502998849782942
0.04033012856085066   0.009157806282141523   0.015502998849782942
0.04033012856085066   0.009157806282141523   0.015502998849782942
0.03861918596214679   0.02264359192167719   0.0012710644846710114
0.03861918596214679   0.02264359192167719   0.0012710644846710114
0.03861918596214679   0.02264359192167719   0.0012710644846710114
0.03861918596214679   0.02264359192167719   0.0012710644846710114
-0.3995149613586934   -0.059840121332179974   -0.010697317542370095
-0.3995149613586934   -0.059840121332179974   -0.010697317542370095
-0.3995149613586934   -0.059840121332179974   -0.010697317542370095
-0.3995149613586934   -0.059840121332179974   -0.010697317542370095
-0.18137841912152336   -0.030047231325027707   -0.0057894518177392905
-0.18137841912152336   -0.030047231325027707   -0.0057894518177392905
-0.18137841912152336   -0.030047231325027707   -0.0057894518177392905
-0.18137841912152336   -0.030047231325027707   -0.0057894518177392905
-0.40228370502305144   -0.06888952550963724   -0.015491631686702905
-0.40228370502305144   -0.06888952550963724   -0.015491631686702905
-0.40228370502305144   -0.06888952550963724   -0.015491631686702905
-0.40228370502305144   -0.06888952550963724   -0.015491631686702905
0.04291230427219986   0.0332173707448295   0.012162877211784016
0.04291230427219986   0.0332173707448295   0.012162877211784016
0.04291230427219986   0.0332173707448295   0.012162877211784016
0.04291230427219986   0.0332173707448295   0.012162877211784016
0.041911985632105686   0.04399904744045523   0.007189390980834726
0.041911985632105686   0.04399904744045523   0.007189390980834726
0.041911985632105686   0.04399904744045523   0.007189390980834726
0.041911985632105686   0.04399904744045523   0.007189390980834726
-0.39804158763584974   -0.0364168284929938   -0.013359691582386691
-0.39804158763584974   -0.0364168284929938   -0.013359691582386691
-0.39804158763584974   -0.0364168284929938   -0.013359691582386691
-0.39804158763584974   -0.0364168284929938   -0.013359691582386691
-0.1783753097048439   -0.00736380098363526   0.0020917304961262824
-0.1783753097048439   -0.00736380098363526   0.0020917304961262824
-0.1783753097048439   -0.00736380098363526   0.0020917304961262824
-0.1783753097048439   -0.00736380098363526   0.0020917304961262824
-0.39912473510028973   -0.047237188651422374   -0.007955068746157836
-0.39912473510028973   -0.047237188651422374   -0.007955068746157836
-0.39912473510028973   -0.047237188651422374   -0.007955068746157836
-0.39912473510028973   -0.047237188651422374   -0.007955068746157836
0.04463710962458638   0.0564613841269245   0.008352674256768632
0.04463710962458638   0.0564613841269245   0.008352674256768632
0.04463710962458638   0.0564613841269245   0.008352674256768632
0.04463710962458638   0.0564613841269245   0.008352674256768632
0.04307090952506688   0.06773987663640231   0.011803155327606816
0.04307090952506688   0.06773987663640231   0.011803155327606816
0.04307090952506688   0.06773987663640231   0.011803155327606816
0.04307090952506688   0.06773987663640231   0.011803155327606816
-0.39264890538708375   -0.011390321186918947   -0.016853060342680044
-0.39264890538708375   -0.011390321186918947   -0.016853060342680044
-0.39264890538708375   -0.011390321186918947   -0.016853060342680044
-0.39264890538708375   -0.011390321186918947   -0.016853060342680044
-0.17373208897347897   0.016357193176841894   0.010720131224968019
-0.17373208897347897   0.016357193176841894   0.010720131224968019
-0.17373208897347897   0.016357193176841894   0.010720131224968019
-0.17373208897347897   0.016357193176841894   0.010720131224968019
0.017999817102559587   -0.06634102040662417   -0.0206497317529067
0.017999817102559587   -0.06634102040662417   -0.0206497317529067
0.017999817102559587   -0.06634102040662417   -0.0206497317529067
0.017999817102559587   -0.06634102040662417   -0.0206497317529067
0.47211089257917704   0.03247671860166432   0.02851276704780152
0.47211089257917704   0.03247671860166432   0.02851276704780152
0.47211089257917704   0.03247671860166432   0.02851276704780152
0.47211089257917704   0.03247671860166432   0.02851276704780152
0.4717004382080037   0.043879129778151976   -0.004596336629429952
0.4717004382080037   0.043879129778151976   -0.004596336629429952
0.4717004382080037   0.043879129778151976   -0.004596336629429952
0.4717004382080037   0.043879129778151976   -0.004596336629429952
0.026480373426102686   -0.0397340773668978   0.0029546710930254856
0.026480373426102686   -0.0397340773668978   0.0029546710930254856
0.026480373426102686   -0.0397340773668978   0.0029546710930254856
0.026480373426102686   -0.0397340773668978   0.0029546710930254856
0.24401692559066382   -0.00576324167967384   0.00045726764585753664
0.24401692559066382   -0.00576324167967384   0.00045726764585753664
0.24401692559066382   -0.00576324167967384   0.00045726764585753664
0.24401692559066382   -0.00576324167967384   0.00045726764585753664
0.021058475708963315   -0.04842314530640339   -0.01546574955316547
0.021058475708963315   -0.04842314530640339   -0.01546574955316547
0.021058475708963315   -0.04842314530640339   -0.01546574955316547
0.021058475708963315   -0.04842314530640339   -0.01546574955316547
0.47987314331463377   0.05531900510714767   0.024827313574721756
0.47987314331463377   0.05531900510714767   0.024827313574721756
0.47987314331463377   0.05531900510714767   0.024827313574721756
0.47987314331463377   0.05531900510714767   0.024827313574721756
0.4756614980883162   0.06501244025902053   0.004695203861552396
0.4756614980883162   0.06501244025902053   0.004695203861552396
0.4756614980883162   0.06501244025902053   0.004695203861552396
0.4756614980883162   0.06501244025902053   0.004695203861552396
0.027658768889428382   -0.018788617731966994   -0.0012890275601295754
0.027658768889428382   -0.018788617731966994   -0.0012890275601295754
0.027658768889428382   -0.018788617731966994   -0.0012890275601295754
0.027658768889428382   -0.018788617731966994   -0.0012890275601295754
0.24750406156956703   0.014430005121987326   0.010144797503052755
0.24750406156956703   0.014430005121987326   0.010144797503052755
0.24750406156956703   0.014430005121987326   0.010144797503052755
0.24750406156956703   0.014430005121987326   0.010144797503052755
0.023688691598819568   -0.028588973466847818   -0.011339058278292673
0.023688691598819568   -0.028588973466847818   -0.011339058278292673
0.023688691598819568   -0.028588973466847818   -0.011339058278292673
0.023688691598819568   -0.028588973466847818   -0.011339058278292673
0.48162399759286895   0.07680521820784393   0.022714923435484525
0.48162399759286895   0.07680521820784393   0.022714923435484525
0.48162399759286895   0.07680521820784393   0.022714923435484525
0.48162399759286895   0.07680521820784393   0.022714923435484525
0.4682143284257732   0.0893977311577273   0.00996608776207667
0.4682143284257732   0.0893977311577273   0.00996608776207667
0.4682143284257732   0.0893977311577273   0.00996608776207667
0.4682143284257732   0.0893977311577273   0.00996608776207667
0.027600681241779966   0.007115648993959911   -0.004923758446385376
0.027600681241779966   0.007115648993959911   -0.004923758446385376
0.027600681241779966   0.007115648993959911   -0.004923758446385376
0.027600681241779966   0.007115648993959911   -0.004923758446385376
0.2513889434911734   0.03750857983135074   0.019123848814342585
0.2513889434911734   0.03750857983135074   0.019123848814342585
0.2513889434911734   0.03750857983135074   0.019123848814342585
0.2513889434911734   0.03750857983135074   0.019123848814342585
0.43469488557147085   -0.08776439689724869   -0.03832615249181657
0.43469488557147085   -0.08776439689724869   -0.03832615249181657
0.43469488557147085   -0.08776439689724869   -0.03832615249181657
0.43469488557147085   -0.08776439689724869   -0.03832615249181657
0.8960190066481719   0.05919473067635814   0.027957712752891266
0.8960190066481719   0.05919473067635814   0.027957712752891266
0.8960190066481719   0.05919473067635814   0.027957712752891266
0.8960190066481719   0.05919473067635814   0.027957712752891266
0.9064027172841598   0.027785772657674457   -0.05767387841566474
0.9064027172841598   0.027785772657674457   -0.05767387841566474
0.9064027172841598   0.027785772657674457   -0.05767387841566474
0.9064027172841598   0.027785772657674457   -0.05767387841566474
0.4636553604662222   -0.017724093720891704   0.016781498160699154
0.4636553604662222   -0.017724093720891704   0.016781498160699154
0.4636553604662222   -0.017724093720891704   0.016781498160699154
0.4636553604662222   -0.017724093720891704   0.016781498160699154
0.6415882891422712   -0.011411045555522581   -0.016203352539591084
0.6415882891422712   -0.011411045555522581   -0.016203352539591084
0.6415882891422712   -0.011411045555522581   -0.016203352539591084
0.6415882891422712   -0.011411045555522581   -0.016203352539591084
0.44721553871919417   -0.05762102352604222   -0.025520680769284466
0.44721553871919417   -0.05762102352604222   -0.025520680769284466
0.44721553871919417   -0.05762102352604222   -0.025520680769284466
0.44721553871919417   -0.05762102352604222   -0.025520680769284466
0.9311135118538264   0.07595367528546501   0.01771219180487839
0.9311135118538264   0.07595367528546501   0.01771219180487839
0.9311135118538264   0.07595367528546501   0.01771219180487839
0.9311135118538264   0.07595367528546501   0.01771219180487839
0.9167406929696129   0.05102667221598814   -0.0132988694749561
0.9167406929696129   0.05102667221598814   -0.0132988694749561
0.9167406929696129   0.05102667221598814   -0.0132988694749561
0.9167406929696129   0.05102667221598814   -0.0132988694749561
0.4620166720733466   -0.00725725354943163   0.008740767595148462
0.4620166720733466   -0.00725725354943163   0.008740767595148462
0.4620166720733466   -0.00725725354943163   0.008740767595148462
0.4620166720733466   -0.00725725354943163   0.008740767595148462
0.6755583196032001   0.01689546341484846   0.01113970642742071
0.6755583196032001   0.01689546341484846   0.01113970642742071
0.6755583196032001   0.01689546341484846   0.01113970642742071
0.6755583196032001   0.01689546341484846   0.01113970642742071
0.4487949612275677   -0.04402309022838673   -0.020601949954787036
0.4487949612275677   -0.04402309022838673   -0.020601949954787036
0.4487949612275677   -0.04402309022838673   -0.020601949954787036
0.4487949612275677   -0.04402309022838673   -0.020601949954787036
0.9288897585093849   0.08671986358893724   0.011753266850954548
0.9288897585093849   0.08671986358893724   0.011753266850954548
0.9288897585093849   0.08671986358893724   0.011753266850954548
0.9288897585093849   0.08671986358893724   0.011753266850954548
0.9156069022098912   0.07848307482928271   -0.02026784045896554
0.9156069022098912   0.07848307482928271   -0.02026784045896554
0.9156069022098912   0.07848307482928271   -0.02026784045896554
0.9156069022098912   0.07848307482928271   -0.02026784045896554
0.4526846269633146   0.016791088282915922   0.004924223324588053
0.4526846269633146   0.016791088282915922   0.004924223324588053
0.4526846269633146   0.016791088282915922   0.004924223324588053
0.4526846269633146   0.016791088282915922   0.004924223324588053
0.6585614496201028   0.02974862379552415   0.008380202956125397
0.6585614496201028   0.02974862379552415   0.008380202956125397
0.6585614496201028   0.02974862379552415   0.008380202956125397
0.6585614496201028   0.02974862379552415   0.008380202956125397
-0.9835572643856038   -0.04451085665628923   0.051059578297564245
-0.9835572643856038   -0.04451085665628923   0.051059578297564245
-0.9835572643856038   -0.04451085665628923   0.051059578297564245
-0.9835572643856038   -0.04451085665628923   0.051059578297564245
-0.6538579763611545   -0.025117331053949588   -0.013285655937220683
-0.6538579763611545   -0.025117331053949588   -0.013285655937220683
-0.6538579763611545   -0.025117331053949588   -0.013285655937220683
-0.6538579763611545   -0.025117331053949588   -0.013285655937220683
-0.6300435714656437   0.05310905309936345   0.04279226760914003
-0.6300435714656437   0.05310905309936345   0.04279226760914003
-0.6300435714656437   0.05310905309936345   0.04279226760914003
-0.6300435714656437   0.05310905309936345   0.04279226760914003
-0.9880021742191323   -0.07063419946685717   -0.020791178840406724
-0.9880021742191323   -0.07063419946685717   -0.020791178840406724
-0.9880021742191323   -0.07063419946685717   -0.020791178840406724
-0.9880021742191323   -0.07063419946685717   -0.020791178840406724
-0.7808627003029899   -0.012068075891216334   -0.0016326778681364992
-0.7808627003029899   -0.012068075891216334   -0.0016326778681364992
-0.7808627003029899   -0.012068075891216334   -0.0016326778681364992
-0.7808627003029899   -0.012068075891216334   -0.0016326778681364992
-0.9603034835396622   -0.010073139849375717   0.05714121493946258
-0.9603034835396622   -0.010073139849375717   0.05714121493946258
-0.9603034835396622   -0.010073139849375717   0.05714121493946258
-0.9603034835396622   -0.010073139849375717   0.05714121493946258
-0.6533839854938536   -0.0030937298668576863   -0.017707019565688056
-0.6533839854938536   -0.0030937298668576863   -0.017707019565688056
-0.6533839854938536   -0.0030937298668576863   -0.017707019565688056
-0.6533839854938536   -0.0030937298668576863   -0.017707019565688056
-0.6273755056526141   0.06591052378653464   0.039630802126873296
-0.6273755056526141   0.06591052378653464   0.039630802126873296
-0.6273755056526141   0.06591052378653464   0.039630802126873296
-0.6273755056526141   0.06591052378653464   0.039630802126873296
-0.9724846077719447   -0.05901930842444106   -0.02843609761158334
-0.9724846077719447   -0.05901930842444106   -0.02843609761158334
-0.9724846077719447   -0.05901930842444106   -0.02843609761158334
-0.9724846077719447   -0.05901930842444106   -0.02843609761158334
-0.782346465967635   0.00296969714701642   0.008923021578849291
-0.782346465967635   0.00296969714701642   0.008923021578849291
-0.782346465967635   0.00296969714701642   0.008923021578849291
-0.782346465967635   0.00296969714701642   0.008923021578849291
-0.9467032069170325   0.002007618963319746   0.03944397927521705
-0.9467032069170325   0.002007618963319746   0.03944397927521705
-0.9467032069170325   0.002007618963319746   0.03944397927521705
-0.9467032069170325   0.002007618963319746   0.03944397927521705
-0.6517217583194646   0.006318744586836678   -0.022508682007674773
-0.6517217583194646   0.006318744586836678   -0.022508682007674773
-0.6517217583194646   0.006318744586836678   -0.022508682007674773
-0.6517217583194646   0.006318744586836678   -0.022508682007674773
-0.6278935565756283   0.0745036586606182   0.031448071200994784
-0.6278935565756283   0.0745036586606182   0.031448071200994784
-0.6278935565756283   0.0745036586606182   0.031448071200994784
-0.6278935565756283   0.0745036586606182   0.031448071200994784
-0.9524007728891484   -0.0466228785232401   -0.03623521996810446
-0.9524007728891484   -0.0466228785232401   -0.03623521996810446
-0.9524007728891484   -0.0466228785232401   -0.03623521996810446
-0.9524007728891484   -0.0466228785232401   -0.03623521996810446
-0.7597103424369365   0.016462197947789525   0.01873201318365733
-0.7597103424369365   0.016462197947789525   0.01873201318365733
-0.7597103424369365   0.016462197947789525   0.01873201318365733
-0.7597103424369365   0.016462197947789525   0.01873201318365733
-0.6556822152215106   -0.0621390912758705   0.014614909982919866
-0.6556822152215106   -0.0621390912758705   0.014614909982919866
-0.6556822152215106   -0.0621390912758705   0.014614909982919866
-0.6556822152215106   -0.0621390912758705   0.014614909982919866
-0.331741152302748   -0.01215067639577233   0.0006060596097166512
-0.331741152302748   -0.01215067639577233   0.0006060596097166512
-0.331741152302748   -0.01215067639577233   0.0006060596097166512
-0.331741152302748   -0.01215067639577233   0.0006060596097166512
-0.32221225120678215   0.03254938970563673   0.02324112669557531
-0.32221225120678215   0.03254938970563673   0.02324112669557531
-0.32221225120678215   0.03254938970563673   0.02324112669557531
-0.32221225120678215   0.03254938970563673   0.02324112669557531
-0.6660717847500244   -0.061278995257667015   -0.022960750455738133
-0.6660717847500244   -0.061278995257667015   -0.022960750455738133
-0.6660717847500244   -0.061278995257667015   -0.022960750455738133
-0.6660717847500244   -0.061278995257667015   -0.022960750455738133
-0.49219429278491955   -0.024155310545730987   -0.01006518935612925
-0.49219429278491955   -0.024155310545730987   -0.01006518935612925
-0.49219429278491955   -0.024155310545730987   -0.01006518935612925
-0.49219429278491955   -0.024155310545730987   -0.01006518935612925
-0.6535077581448354   -0.03553488296548392   0.014115270278025328
-0.6535077581448354   -0.03553488296548392   0.014115270278025328
-0.6535077581448354   -0.03553488296548392   0.014115270278025328
-0.6535077581448354   -0.03553488296548392   0.014115270278025328
-0.3322374528557704   0.009344102369655105   -0.0036795942133814076
-0.3322374528557704   0.009344102369655105   -0.0036795942133814076
-0.3322374528557704   0.009344102369655105   -0.0036795942133814076
-0.3322374528557704   0.009344102369655105   -0.0036795942133814076
-0.32110361620182043   0.0539021994971199   0.02009170830244191
-0.32110361620182043   0.0539021994971199   0.02009170830244191
-0.32110361620182043   0.0539021994971199   0.02009170830244191
-0.32110361620182043   0.0539021994971199   0.02009170830244191
-0.6621808774405848   -0.04136490087065238   -0.027120632155793255
-0.6621808774405848   -0.04136490087065238   -0.027120632155793255
-0.6621808774405848   -0.04136490087065238   -0.027120632155793255
-0.6621808774405848   -0.04136490087065238   -0.027120632155793255
-0.4867248098742965   -0.0025803178009788513   -8.640930389105378e-05
-0.4867248098742965   -0.0025803178009788513   -8.640930389105378e-05
-0.4867248098742965   -0.0025803178009788513   -8.640930389105378e-05
-0.4867248098742965   -0.0025803178009788513   -8.640930389105378e-05
-0.6493623476333863   -0.013872054373143455   0.009479170382690853
-0.6493623476333863   -0.013872054373143455   0.009479170382690853
-0.6493623476333863   -0.013872054373143455   0.009479170382690853
-0.6493623476333863   -0.013872054373143455   0.009479170382690853
-0.3318554335129624   0.028476065495669833   -0.008241244251812309
-0.3318554335129624   0.028476065495669833   -0.008241244251812309
-0.3318554335129624   0.028476065495669833   -0.008241244251812309
-0.3318554335129624   0.028476065495669833   -0.008241244251812309
-0.32092257130029006   0.07635669408488482   0.01504160952903965
-0.32092257130029006   0.07635669408488482   0.01504160952903965
-0.32092257130029006   0.07635669408488482   0.01504160952903965
-0.32092257130029006   0.07635669408488482   0.01504160952903965
-0.6588900735014126   -0.019853967338232525   -0.029176887429078223
-0.6588900735014126   -0.019853967338232525   -0.029176887429078223
-0.6588900735014126   -0.019853967338232525   -0.029176887429078223
-0.6588900735014126   -0.019853967338232525   -0.029176887429078223
-0.4869359529468571   0.0172347745880614   0.007554463052307961
-0.4869359529468571   0.0172347745880614   0.007554463052307961
-0.4869359529468571   0.0172347745880614   0.007554463052307961
-0.4869359529468571   0.0172347745880614   0.007554463052307961
-0.34404556555175697   -0.0711927240971312   -0.0018739589339730564
-0.34404556555175697   -0.0711927240971312   -0.0018739589339730564
-0.34404556555175697   -0.0711927240971312   -0.0018739589339730564
-0.34404556555175697   -0.0711927240971312   -0.0018739589339730564
-0.012562337293893753   0.003317153824480205   0.014685337180348545
-0.012562337293893753   0.003317153824480205   0.014685337180348545
-0.012562337293893753   0.003317153824480205   0.014685337180348545
-0.012562337293893753   0.003317153824480205   0.014685337180348545
-0.013736388249350397   0.020861128796275795   0.007030359990569588
-0.013736388249350397   0.020861128796275795   0.007030359990569588
-0.013736388249350397   0.020861128796275795   0.007030359990569588
-0.013736388249350397   0.020861128796275795   0.007030359990569588
-0.34419012073450234   -0.04553769369992445   -0.00856113753746464
-0.34419012073450234   -0.04553769369992445   -0.00856113753746464
-0.34419012073450234   -0.04553769369992445   -0.00856113753746464
-0.34419012073450234   -0.04553769369992445   -0.00856113753746464
-0.1791863632493081   -0.022379476725305034   -0.005653404799040279
-0.1791863632493081   -0.022379476725305034   -0.005653404799040279
-0.1791863632493081   -0.022379476725305034   -0.005653404799040279
-0.1791863632493081   -0.022379476725305034   -0.005653404799040279
-0.3438186366268565   -0.047508062514308794   -0.004733348184851039
-0.3438186366268565   -0.047508062514308794   -0.004733348184851039
-0.3438186366268565   -0.047508062514308794   -0.004733348184851039
-0.3438186366268565   -0.047508062514308794   -0.004733348184851039
-0.012216838321875992   0.024722531645782343   0.010766706778435244
-0.012216838321875992   0.024722531645782343   0.010766706778435244
-0.012216838321875992   0.024722531645782343   0.010766706778435244
-0.012216838321875992   0.024722531645782343   0.010766706778435244
-0.012077918313823717   0.044116786871886915   0.0033447159199907865
-0.012077918313823717   0.044116786871886915   0.0033447159199907865
-0.012077918313823717   0.044116786871886915   0.0033447159199907865
-0.012077918313823717   0.044116786871886915   0.0033447159199907865
-0.3432338376119574   -0.024091256343808792   -0.012565942907311594
-0.3432338376119574   -0.024091256343808792   -0.012565942907311594
-0.3432338376119574   -0.024091256343808792   -0.012565942907311594
-0.3432338376119574   -0.024091256343808792   -0.012565942907311594
-0.17736101391679687   -0.0008880434789119429   0.002413812979956062
-0.17736101391679687   -0.0008880434789119429   0.002413812979956062
-0.17736101391679687   -0.0008880434789119429   0.002413812979956062
-0.17736101391679687   -0.0008880434789119429   0.002413812979956062
-0.34271982742337764   -0.024581639829721905   -0.00950550847849942
-0.34271982742337764   -0.024581639829721905   -0.00950550847849942
-0.34271982742337764   -0.024581639829721905   -0.00950550847849942
-0.34271982742337764   -0.024581639829721905   -0.00950550847849942
-0.011031166458291972   0.046167932401911624   0.006527329667624978
-0.011031166458291972   0.046167932401911624   0.006527329667624978
-0.011031166458291972   0.046167932401911624   0.006527329667624978
-0.011031166458291972   0.046167932401911624   0.006527329667624978
-0.011654777454846624   0.06806200049079579   -0.0005855798863435187
-0.011654777454846624   0.06806200049079579   -0.0005855798863435187
-0.011654777454846624   0.06806200049079579   -0.0005855798863435187
-0.011654777454846624   0.06806200049079579   -0.0005855798863435187
-0.3429830414751945   -0.002285056931005447   -0.016618990329593783
-0.3429830414751945   -0.002285056931005447   -0.016618990329593783
-0.3429830414751945   -0.002285056931005447   -0.016618990329593783
-0.3429830414751945   -0.002285056931005447   -0.016618990329593783
-0.17592332179771641   0.02062429084337753   0.009813189947630818
-0.17592332179771641   0.02062429084337753   0.009813189947630818
-0.17592332179771641   0.02062429084337753   0.009813189947630818
-0.17592332179771641   0.02062429084337753   0.009813189947630818
-0.03519276206166245   -0.07809707691905567   -0.017052555914958925
-0.03519276206166245   -0.07809707691905567   -0.017052555914958925
-0.03519276206166245   -0.07809707691905567   -0.017052555914958925
-0.03519276206166245   -0.07809707691905567   -0.017052555914958925
0.3052622745167784   0.021397383369239756   0.027930910863861246
0.3052622745167784   0.021397383369239756   0.027930910863861246
0.3052622745167784   0.021397383369239756   0.027930910863861246
0.3052622745167784   0.021397383369239756   0.027930910863861246
0.2952513568344117   0.01120655034568957   -0.011113173752346679
0.2952513568344117   0.01120655034568957   -0.011113173752346679
0.2952513568344117   0.01120655034568957   -0.011113173752346679
0.2952513568344117   0.01120655034568957   -0.011113173752346679
-0.02379476801897308   -0.02847985860975375   0.006079448548485886
-0.02379476801897308   -0.02847985860975375   0.006079448548485886
-0.02379476801897308   -0.02847985860975375   0.006079448548485886
-0.02379476801897308   -0.02847985860975375   0.006079448548485886
0.13345574056326218   -0.01820241745817841   -0.0032109714394513225
0.13345574056326218   -0.01820241745817841   -0.0032109714394513225
0.13345574056326218   -0.01820241745817841   -0.0032109714394513225
0.13345574056326218   -0.01820241745817841   -0.0032109714394513225
-0.03498413558033982   -0.05690613580034309   -0.021441112067758433
-0.03498413558033982   -0.05690613580034309   -0.021441112067758433
-0.03498413558033982   -0.05690613580034309   -0.021441112067758433
-0.03498413558033982   -0.05690613580034309   -0.021441112067758433
0.3085921306329648   0.041784233773465296   0.025013011812643166
0.3085921306329648   0.041784233773465296   0.025013011812643166
0.3085921306329648   0.041784233773465296   0.025013011812643166
0.3085921306329648   0.041784233773465296   0.025013011812643166
0.3001718063915537   0.0328504628273117   -0.015606662265861448
0.3001718063915537   0.0328504628273117   -0.015606662265861448
0.3001718063915537   0.0328504628273117   -0.015606662265861448
0.3001718063915537   0.0328504628273117   -0.015606662265861448
-0.023062471953754826   -0.009261949275567035   0.001800683867789601
-0.023062471953754826   -0.009261949275567035   0.001800683867789601
-0.023062471953754826   -0.009261949275567035   0.001800683867789601
-0.023062471953754826   -0.009261949275567035   0.001800683867789601
0.13474881386914495   0.0012603744304526612   0.004812732826387025
0.13474881386914495   0.0012603744304526612   0.004812732826387025
0.13474881386914495   0.0012603744304526612   0.004812732826387025
0.13474881386914495   0.0012603744304526612   0.004812732826387025
-0.033947351661154826   -0.036024307599177734   -0.025861356345600054
-0.033947351661154826   -0.036024307599177734   -0.025861356345600054
-0.033947351661154826   -0.036024307599177734   -0.025861356345600054
-0.033947351661154826   -0.036024307599177734   -0.025861356345600054
0.31340188983813566   0.06195802489010429   0.02143619290425572
0.31340188983813566   0.06195802489010429   0.02143619290425572
0.31340188983813566   0.06195802489010429   0.02143619290425572
0.31340188983813566   0.06195802489010429   0.02143619290425572
0.30324348312169236   0.05996303795745374   -0.016329615508828627
0.30324348312169236   0.05996303795745374   -0.016329615508828627
0.30324348312169236   0.05996303795745374   -0.016329615508828627
0.30324348312169236   0.05996303795745374   -0.016329615508828627
-0.023010040591582973   0.013168447133488748   -0.0024683422127179883
-0.023010040591582973   0.013168447133488748   -0.0024683422127179883
-0.023010040591582973   0.013168447133488748   -0.0024683422127179883
-0.023010040591582973   0.013168447133488748   -0.0024683422127179883
0.1395467827427361   0.022932698374763624   0.014328158120494629
0.1395467827427361   0.022932698374763624   0.014328158120494629
0.1395467827427361   0.022932698374763624   0.014328158120494629
0.1395467827427361   0.022932698374763624   0.014328158120494629
0.2732169706356692   -0.07761405342600838   -0.03328417174643478
0.2732169706356692   -0.07761405342600838   -0.03328417174643478
0.2732169706356692   -0.07761405342600838   -0.03328417174643478
0.2732169706356692   -0.07761405342600838   -0.03328417174643478
0.6017913397889846   0.04472756105788221   0.031192776221417053
0.6017913397889846   0.04472756105788221   0.031192776221417053
0.6017913397889846   0.04472756105788221   0.031192776221417053
0.6017913397889846   0.04472756105788221   0.031192776221417053
0.5971303333721137   -0.0032470753951777953   -0.04430838311662679
0.5971303333721137   -0.0032470753951777953   -0.04430838311662679
0.5971303333721137   -0.0032470753951777953   -0.04430838311662679
0.5971303333721137   -0.0032470753951777953   -0.04430838311662679
0.29816843518249286   -0.006294914991170603   0.020973683324922075
0.29816843518249286   -0.006294914991170603   0.020973683324922075
0.29816843518249286   -0.006294914991170603   0.020973683324922075
0.29816843518249286   -0.006294914991170603   0.020973683324922075
0.42108658665419685   -0.015243553017225214   -0.013893465528384531
0.42108658665419685   -0.015243553017225214   -0.013893465528384531
0.42108658665419685   -0.015243553017225214   -0.013893465528384531
0.42108658665419685   -0.015243553017225214   -0.013893465528384531
0.2735855956964054   -0.06728452677194327   -0.040950902324741925
0.2735855956964054   -0.06728452677194327   -0.040950902324741925
0.2735855956964054   -0.06728452677194327   -0.040950902324741925
0.2735855956964054   -0.06728452677194327   -0.040950902324741925
0.6234763610613474   0.05950572458874169   0.024668955345621486
0.6234763610613474   0.05950572458874169   0.024668955345621486
0.6234763610613474   0.05950572458874169   0.024668955345621486
0.6234763610613474   0.05950572458874169   0.024668955345621486
0.612013749561425   0.009098238840641037   -0.05947884794256652
0.612013749561425   0.009098238840641037   -0.05947884794256652
0.612013749561425   0.009098238840641037   -0.05947884794256652
0.612013749561425   0.009098238840641037   -0.05947884794256652
0.30048005362622904   0.003126072565191207   0.015658964169641375
0.30048005362622904   0.003126072565191207   0.015658964169641375
0.30048005362622904   0.003126072565191207   0.015658964169641375
0.30048005362622904   0.003126072565191207   0.015658964169641375
0.440347901853336   -0.0018781489846505933   -0.004194382916378924
0.440347901853336   -0.0018781489846505933   -0.004194382916378924
0.440347901853336   -0.0018781489846505933   -0.004194382916378924
0.440347901853336   -0.0018781489846505933   -0.004194382916378924
0.27680903441924004   -0.05496745538275481   -0.04460260391736081
0.27680903441924004   -0.05496745538275481   -0.04460260391736081
0.27680903441924004   -0.05496745538275481   -0.04460260391736081
0.27680903441924004   -0.05496745538275481   -0.04460260391736081
0.6395829237730838   0.07108992179325732   0.01637534016311718
0.6395829237730838   0.07108992179325732   0.01637534016311718
0.6395829237730838   0.07108992179325732   0.01637534016311718
0.6395829237730838   0.07108992179325732   0.01637534016311718
0.6356333401490405   0.04119540452850336   -0.05600290863320073
0.6356333401490405   0.04119540452850336   -0.05600290863320073
0.6356333401490405   0.04119540452850336   -0.05600290863320073
0.6356333401490405   0.04119540452850336   -0.05600290863320073
0.3015819851993411   0.023871104865331186   0.011454827971542375
0.3015819851993411   0.023871104865331186   0.011454827971542375
0.3015819851993411   0.023871104865331186   0.011454827971542375
0.3015819851993411   0.023871104865331186   0.011454827971542375
0.4438148158770286   0.013376144897937647   0.006566537673284072
0.4438148158770286   0.013376144897937647   0.006566537673284072
0.4438148158770286   0.013376144897937647   0.006566537673284072
0.4438148158770286   0.013376144897937647   0.006566537673284072
-0.7012439399592812   -0.02270826146369148   0.04614565561219662
-0.7012439399592812   -0.02270826146369148   0.04614565561219662
-0.7012439399592812   -0.02270826146369148   0.04614565561219662
-0.7012439399592812   -0.02270826146369148   0.04614565561219662
-0.49145752116976354   -0.03303941388564434   -0.017378632967083318
-0.49145752116976354   -0.03303941388564434   -0.017378632967083318
-0.49145752116976354   -0.03303941388564434   -0.017378632967083318
-0.49145752116976354   -0.03303941388564434   -0.017378632967083318
-0.46244365722594716   0.046499869291649315   0.039320647958940566
-0.46244365722594716   0.046499869291649315   0.039320647958940566
-0.46244365722594716   0.046499869291649315   0.039320647958940566
-0.46244365722594716   0.046499869291649315   0.039320647958940566
-0.701289066774426   -0.057772368807401955   -0.02543143645294366
-0.701289066774426   -0.057772368807401955   -0.02543143645294366
-0.701289066774426   -0.057772368807401955   -0.02543143645294366
-0.701289066774426   -0.057772368807401955   -0.02543143645294366
-0.5650192712467338   -0.008957304076275652   -0.0014145495406858374
-0.5650192712467338   -0.008957304076275652   -0.0014145495406858374
-0.5650192712467338   -0.008957304076275652   -0.0014145495406858374
-0.5650192712467338   -0.008957304076275652   -0.0014145495406858374
-0.6748900183657452   0.004920629023760947   0.04387080775929693
-0.6748900183657452   0.004920629023760947   0.04387080775929693
-0.6748900183657452   0.004920629023760947   0.04387080775929693
-0.6748900183657452   0.004920629023760947   0.04387080775929693
-0.4866909825738531   -0.014041405478737765   -0.021374704010195717
-0.4866909825738531   -0.014041405478737765   -0.021374704010195717
-0.4866909825738531   -0.014041405478737765   -0.021374704010195717
-0.4866909825738531   -0.014041405478737765   -0.021374704010195717
-0.45808086878700677   0.05619075921320185   0.03321050159169322
-0.45808086878700677   0.05619075921320185   0.03321050159169322
-0.45808086878700677   0.05619075921320185   0.03321050159169322
-0.45808086878700677   0.05619075921320185   0.03321050159169322
-0.6845863215204125   -0.046965669440793306   -0.03212360796809233
-0.6845863215204125   -0.046965669440793306   -0.03212360796809233
-0.6845863215204125   -0.046965669440793306   -0.03212360796809233
-0.6845863215204125   -0.046965669440793306   -0.03212360796809233
-0.5609946969477873   0.0038139978558319465   0.005817727214922255
-0.5609946969477873   0.0038139978558319465   0.005817727214922255
-0.5609946969477873   0.0038139978558319465   0.005817727214922255
-0.5609946969477873   0.0038139978558319465   0.005817727214922255
-0.6584276447744178   0.016516770801332126   0.03518733551975572
-0.6584276447744178   0.016516770801332126   0.03518733551975572
-0.6584276447744178   0.016516770801332126   0.03518733551975572
-0.6584276447744178   0.016516770801332126   0.03518733551975572
-0.4822979100441861   -0.005350045540107623   -0.026333899940890318
-0.4822979100441861   -0.005350045540107623   -0.026333899940890318
-0.4822979100441861   -0.005350045540107623   -0.026333899940890318
-0.4822979100441861   -0.005350045540107623   -0.026333899940890318
-0.455668665353444   0.06568565053245057   0.028575317774652102
-0.455668665353444   0.06568565053245057   0.028575317774652102
-0.455668665353444   0.06568565053245057   0.028575317774652102
-0.455668665353444   0.06568565053245057   0.028575317774652102
-0.6622452193827993   -0.032652186556663826   -0.03844529950028678
-0.6622452193827993   -0.032652186556663826   -0.03844529950028678
-0.6622452193827993   -0.032652186556663826   -0.03844529950028678
-0.6622452193827993   -0.032652186556663826   -0.03844529950028678
-0.5398899874248773   0.015805146109876572   0.015931842650181924
-0.5398899874248773   0.015805146109876572   0.015931842650181924
-0.5398899874248773   0.015805146109876572   0.015931842650181924
-0.5398899874248773   0.015805146109876572   0.015931842650181924
-0.4858083054189537   -0.03959976046724311   0.017427792368560777
-0.4858083054189537   -0.03959976046724311   0.017427792368560777
-0.4858083054189537   -0.03959976046724311   0.017427792368560777
-0.4858083054189537   -0.03959976046724311   0.017427792368560777
-0.28245556578675207   -0.021403828676701035   -0.0028080211574344864
-0.28245556578675207   -0.021403828676701035   -0.0028080211574344864
-0.28245556578675207   -0.021403828676701035   -0.0028080211574344864
-0.28245556578675207   -0.021403828676701035   -0.0028080211574344864
-0.26808543808359137   0.02714988720136057   0.02119731517297456
-0.26808543808359137   0.02714988720136057   0.02119731517297456
-0.26808543808359137   0.02714988720136057   0.02119731517297456
-0.26808543808359137   0.02714988720136057   0.02119731517297456
-0.4931528802781425   -0.047179813332297225   -0.020545784678089693
-0.4931528802781425   -0.047179813332297225   -0.020545784678089693
-0.4931528802781425   -0.047179813332297225   -0.020545784678089693
-0.4931528802781425   -0.047179813332297225   -0.020545784678089693
-0.38086032334256975   -0.01852032113785511   -0.007848517040265953
-0.38086032334256975   -0.01852032113785511   -0.007848517040265953
-0.38086032334256975   -0.01852032113785511   -0.007848517040265953
-0.38086032334256975   -0.01852032113785511   -0.007848517040265953
-0.4800875020595336   -0.016641441676574734   0.014242734759232527
-0.4800875020595336   -0.016641441676574734   0.014242734759232527
-0.4800875020595336   -0.016641441676574734   0.014242734759232527
-0.4800875020595336   -0.016641441676574734   0.014242734759232527
-0.2794736932541735   -0.0017113614063337876   -0.0068827120722415504
-0.2794736932541735   -0.0017113614063337876   -0.0068827120722415504
-0.2794736932541735   -0.0017113614063337876   -0.0068827120722415504
-0.2794736932541735   -0.0017113614063337876   -0.0068827120722415504
-0.26467860972589113   0.047033697803311694   0.017370093499325764
-0.26467860972589113   0.047033697803311694   0.017370093499325764
-0.26467860972589113   0.047033697803311694   0.017370093499325764
-0.26467860972589113   0.047033697803311694   0.017370093499325764
-0.4864917739970016   -0.028438903371667337   -0.024214361873411718
-0.4864917739970016   -0.028438903371667337   -0.024214361873411718
-0.4864917739970016   -0.028438903371667337   -0.024214361873411718
-0.4864917739970016   -0.028438903371667337   -0.024214361873411718
-0.3735415010558791   0.0009951601721124304   0.0005371651655132689
-0.3735415010558791   0.0009951601721124304   0.0005371651655132689
-0.3735415010558791   0.0009951601721124304   0.0005371651655132689
-0.3735415010558791   0.0009951601721124304   0.0005371651655132689
-0.47243810055679647   0.004609001107045596   0.013006100848900623
-0.47243810055679647   0.004609001107045596   0.013006100848900623
-0.47243810055679647   0.004609001107045596   0.013006100848900623
-0.47243810055679647   0.004609001107045596   0.013006100848900623
-0.2766496731420348   0.016068403348661733   -0.011519929126740769
-0.2766496731420348   0.016068403348661733   -0.011519929126740769
-0.2766496731420348   0.016068403348661733   -0.011519929126740769
-0.2766496731420348   0.016068403348661733   -0.011519929126740769
-0.26138610403223256   0.06824342265672978   0.013806093076545643
-0.26138610403223256   0.06824342265672978   0.013806093076545643
-0.26138610403223256   0.06824342265672978   0.013806093076545643
-0.26138610403223256   0.06824342265672978   0.013806093076545643
-0.4815149068291775   -0.008219124068078454   -0.02675111500348277
-0.4815149068291775   -0.008219124068078454   -0.02675111500348277
-0.4815149068291775   -0.008219124068078454   -0.02675111500348277
-0.4815149068291775   -0.008219124068078454   -0.02675111500348277
-0.3706945912952026   0.019389085262565164   0.008534030179049572
-0.3706945912952026   0.019389085262565164   0.008534030179049572
-0.3706945912952026   0.019389085262565164   0.008534030179049572
-0.3706945912952026   0.019389085262565164   0.008534030179049572
-0.28838216780085824   -0.054627376411598046   0.0007825165069294647
-0.28838216780085824   -0.054627376411598046   0.0007825165069294647
-0.28838216780085824   -0.054627376411598046   0.0007825165069294647
-0.28838216780085824   -0.054627376411598046   0.0007825165069294647
-0.07553838437499394   -0.006549466664418232   0.011740936870921828
-0.07553838437499394   -0.006549466664418232   0.011740936870921828
-0.07553838437499394   -0.006549466664418232   0.011740936870921828
-0.07553838437499394   -0.006549466664418232   0.011740936870921828
-0.07371873049686854   0.01106972646881954   0.004004573068621451
-0.07371873049686854   0.01106972646881954   0.004004573068621451
-0.07371873049686854   0.01106972646881954   0.004004573068621451
-0.07371873049686854   0.01106972646881954   0.004004573068621451
-0.28522242717839486   -0.03188092949938395   -0.005456813600300023
-0.28522242717839486   -0.03188092949938395   -0.005456813600300023
-0.28522242717839486   -0.03188092949938395   -0.005456813600300023
-0.28522242717839486   -0.03188092949938395   -0.005456813600300023
-0.1810272370750173   -0.019615930401424918   -0.00558732964547372
-0.1810272370750173   -0.019615930401424918   -0.00558732964547372
-0.1810272370750173   -0.019615930401424918   -0.00558732964547372
-0.1810272370750173   -0.019615930401424918   -0.00558732964547372
-0.284752188998756   -0.03244599190465016   -0.0025405602968395797
-0.284752188998756   -0.03244599190465016   -0.0025405602968395797
-0.284752188998756   -0.03244599190465016   -0.0025405602968395797
-0.284752188998756   -0.03244599190465016   -0.0025405602968395797
-0.0725074678770603   0.013316289673532843   0.007814322962949406
-0.0725074678770603   0.013316289673532843   0.007814322962949406
-0.0725074678770603   0.013316289673532843   0.007814322962949406
-0.0725074678770603   0.013316289673532843   0.007814322962949406
-0.06960283628426331   0.03335117986932565   0.0010152368306664428
-0.06960283628426331   0.03335117986932565   0.0010152368306664428
-0.06960283628426331   0.03335117986932565   0.0010152368306664428
-0.06960283628426331   0.03335117986932565   0.0010152368306664428
-0.2818107975645247   -0.011874406031237988   -0.009382741859292245
-0.2818107975645247   -0.011874406031237988   -0.009382741859292245
-0.2818107975645247   -0.011874406031237988   -0.009382741859292245
-0.2818107975645247   -0.011874406031237988   -0.009382741859292245
-0.176629916085372   0.00039501885174238194   0.002321025842093578
-0.176629916085372   0.00039501885174238194   0.002321025842093578
-0.176629916085372   0.00039501885174238194   0.002321025842093578
-0.176629916085372   0.00039501885174238194   0.002321025842093578
-0.28075948412055096   -0.010236094331831272   -0.0057644863388304456
-0.28075948412055096   -0.010236094331831272   -0.0057644863388304456
-0.28075948412055096   -0.010236094331831272   -0.0057644863388304456
-0.28075948412055096   -0.010236094331831272   -0.0057644863388304456
-0.0691014779750737   0.033265539923082336   0.003607668322858396
-0.0691014779750737   0.033265539923082336   0.003607668322858396
-0.0691014779750737   0.033265539923082336   0.003607668322858396
-0.0691014779750737   0.033265539923082336   0.003607668322858396
-0.06590692413479796   0.055955919722271735   -0.0024902244036043852
-0.06590692413479796   0.055955919722271735   -0.0024902244036043852
-0.06590692413479796   0.055955919722271735   -0.0024902244036043852
-0.06590692413479796   0.055955919722271735   -0.0024902244036043852
-0.27882290026488676   0.00836149149253923   -0.01349595692253604
-0.27882290026488676   0.00836149149253923   -0.01349595692253604
-0.27882290026488676   0.00836149149253923   -0.01349595692253604
-0.27882290026488676   0.00836149149253923   -0.01349595692253604
-0.17261586484800584   0.020502145657365675   0.009940070606385774
-0.17261586484800584   0.020502145657365675   0.009940070606385774
-0.17261586484800584   0.020502145657365675   0.009940070606385774
-0.17261586484800584   0.020502145657365675   0.009940070606385774
-0.0930593315271764   -0.06694647760267111   -0.01546678795173825
-0.0930593315271764   -0.06694647760267111   -0.01546678795173825
-0.0930593315271764   -0.06694647760267111   -0.01546678795173825
-0.0930593315271764   -0.06694647760267111   -0.01546678795173825
0.1284766115288918   0.010092728313612246   0.025450993948594562
0.1284766115288918   0.010092728313612246   0.025450993948594562
0.1284766115288918   0.010092728313612246   0.025450993948594562
0.1284766115288918   0.010092728313612246   0.025450993948594562
0.11932627824967466   -0.003936137581669656   -0.014322992579741383
0.11932627824967466   -0.003936137581669656   -0.014322992579741383
0.11932627824967466   -0.003936137581669656   -0.014322992579741383
0.11932627824967466   -0.003936137581669656   -0.014322992579741383
-0.07793396735524988   -0.015477998635183619   0.00947611388071795
-0.07793396735524988   -0.015477998635183619   0.00947611388071795
-0.07793396735524988   -0.015477998635183619   0.00947611388071795
-0.07793396735524988   -0.015477998635183619   0.00947611388071795
0.01839419103126509   -0.01853607123560216   -0.003983805827573596
0.01839419103126509   -0.01853607123560216   -0.003983805827573596
0.01839419103126509   -0.01853607123560216   -0.003983805827573596
0.01839419103126509   -0.01853607123560216   -0.003983805827573596
-0.08989044117206371   -0.046726444764813344   -0.019057809073721434
-0.08989044117206371   -0.046726444764813344   -0.019057809073721434
-0.08989044117206371   -0.046726444764813344   -0.019057809073721434
-0.08989044117206371   -0.046726444764813344   -0.019057809073721434
0.13328310483236103   0.02931266131383102   0.022212341438187906
0.13328310483236103   0.02931266131383102   0.022212341438187906
0.13328310483236103   0.02931266131383102   0.022212341438187906
0.13328310483236103   0.02931266131383102   0.022212341438187906
0.12699680319011183   0.01714290509742116   -0.016234319411136074
0.12699680319011183   0.01714290509742116   -0.016234319411136074
0.12699680319011183   0.01714290509742116   -0.016234319411136074
0.12699680319011183   0.01714290509742116   -0.016234319411136074
-0.07496496950333101   0.0024134882513879227   0.005142262353266282
-0.07496496950333101   0.0024134882513879227   0.005142262353266282
-0.07496496950333101   0.0024134882513879227   0.005142262353266282
-0.07496496950333101   0.0024134882513879227   0.005142262353266282
0.022482123902208703   -0.00037462921877935273   0.004066704128550577
0.022482123902208703   -0.00037462921877935273   0.004066704128550577
0.022482123902208703   -0.00037462921877935273   0.004066704128550577
0.022482123902208703   -0.00037462921877935273   0.004066704128550577
-0.08650391491014453   -0.02694847493857136   -0.02319050149084232
-0.08650391491014453   -0.02694847493857136   -0.02319050149084232
-0.08650391491014453   -0.02694847493857136   -0.02319050149084232
-0.08650391491014453   -0.02694847493857136   -0.02319050149084232
0.14027106778887066   0.048240187479325375   0.01903972120075185
0.14027106778887066   0.048240187479325375   0.01903972120075185
0.14027106778887066   0.048240187479325375   0.01903972120075185
0.14027106778887066   0.048240187479325375   0.01903972120075185
0.13317857894174678   0.041145650658428415   -0.018770944121357044
0.13317857894174678   0.041145650658428415   -0.018770944121357044
0.13317857894174678   0.041145650658428415   -0.018770944121357044
0.13317857894174678   0.041145650658428415   -0.018770944121357044
-0.07179315357459934   0.023015269084435748   0.001019279035223952
-0.07179315357459934   0.023015269084435748   0.001019279035223952
-0.07179315357459934   0.023015269084435748   0.001019279035223952
-0.07179315357459934   0.023015269084435748   0.001019279035223952
0.028770554765586064   0.01935041054388773   0.012392972799259912
0.028770554765586064   0.01935041054388773   0.012392972799259912
0.028770554765586064   0.01935041054388773   0.012392972799259912
0.028770554765586064   0.01935041054388773   0.012392972799259912
0.10172255151340573   -0.06764172283713463   -0.030584854978088164
0.10172255151340573   -0.06764172283713463   -0.030584854978088164
0.10172255151340573   -0.06764172283713463   -0.030584854978088164
0.10172255151340573   -0.06764172283713463   -0.030584854978088164
0.30927765668838125   0.030593597127274476   0.03306641441051412
0.30927765668838125   0.030593597127274476   0.03306641441051412
0.30927765668838125   0.030593597127274476   0.03306641441051412
0.30927765668838125   0.030593597127274476   0.03306641441051412
0.30612960171993564   -0.016952536530687914   -0.04027559091010716
0.30612960171993564   -0.016952536530687914   -0.04027559091010716
0.30612960171993564   -0.016952536530687914   -0.04027559091010716
0.30612960171993564   -0.016952536530687914   -0.04027559091010716
0.12905937087684283   0.0057144440158054845   0.02469188895862342
0.12905937087684283   0.0057144440158054845   0.02469188895862342
0.12905937087684283   0.0057144440158054845   0.02469188895862342
0.12905937087684283   0.0057144440158054845   0.02469188895862342
0.20050862517874588   -0.01409258328497913   -0.010692093727077795
0.20050862517874588   -0.01409258328497913   -0.010692093727077795
0.20050862517874588   -0.01409258328497913   -0.010692093727077795
0.20050862517874588   -0.01409258328497913   -0.010692093727077795
0.10464633815737001   -0.0562715309881389   -0.035387299634796456
0.10464633815737001   -0.0562715309881389   -0.035387299634796456
0.10464633815737001   -0.0562715309881389   -0.035387299634796456
0.10464633815737001   -0.0562715309881389   -0.035387299634796456
0.3325820477147245   0.04707285174857377   0.027961250784583135
0.3325820477147245   0.04707285174857377   0.027961250784583135
0.3325820477147245   0.04707285174857377   0.027961250784583135
0.3325820477147245   0.04707285174857377   0.027961250784583135
0.32309121967677173   -0.005151386071288455   -0.048339495063299674
0.32309121967677173   -0.005151386071288455   -0.048339495063299674
0.32309121967677173   -0.005151386071288455   -0.048339495063299674
0.32309121967677173   -0.005151386071288455   -0.048339495063299674
0.1335421089448266   0.014361253718285082   0.019273860741571835
0.1335421089448266   0.014361253718285082   0.019273860741571835
0.1335421089448266   0.014361253718285082   0.019273860741571835
0.1335421089448266   0.014361253718285082   0.019273860741571835
0.21758397441841457   -0.0021768148573547766   -0.0012229262980475927
0.21758397441841457   -0.0021768148573547766   -0.0012229262980475927
0.21758397441841457   -0.0021768148573547766   -0.0012229262980475927
0.21758397441841457   -0.0021768148573547766   -0.0012229262980475927
0.1093118953266792   -0.04645211887901904   -0.04106383475186005
0.1093118953266792   -0.04645211887901904   -0.04106383475186005
0.1093118953266792   -0.04645211887901904   -0.04106383475186005
0.1093118953266792   -0.04645211887901904   -0.04106383475186005
0.34944971449493173   0.057790267726031005   0.020511325230188674
0.34944971449493173   0.057790267726031005   0.020511325230188674
0.34944971449493173   0.057790267726031005   0.020511325230188674
0.34944971449493173   0.057790267726031005   0.020511325230188674
0.34916896534349284   0.020742133462044246   -0.05177700918904401
0.34916896534349284   0.020742133462044246   -0.05177700918904401
0.34916896534349284   0.020742133462044246   -0.05177700918904401
0.34916896534349284   0.020742133462044246   -0.05177700918904401
0.13812755636135152   0.031797176846425926   0.01532241678866813
0.13812755636135152   0.031797176846425926   0.01532241678866813
0.13812755636135152   0.031797176846425926   0.01532241678866813
0.13812755636135152   0.031797176846425926   0.01532241678866813
0.22619437011419655   0.010928450387107769   0.006951112050026364
0.22619437011419655   0.010928450387107769   0.006951112050026364
0.22619437011419655   0.010928450387107769   0.006951112050026364
0.22619437011419655   0.010928450387107769   0.006951112050026364
-0.41880310210666344   -0.0067799556574893866   0.041264239110591364
-0.41880310210666344   -0.0067799556574893866   0.041264239110591364
-0.41880310210666344   -0.0067799556574893866   0.041264239110591364
-0.41880310210666344   -0.0067799556574893866   0.041264239110591364
-0.32771736376889626   -0.041770206517723896   -0.020334466455234335
-0.32771736376889626   -0.041770206517723896   -0.020334466455234335
-0.32771736376889626   -0.041770206517723896   -0.020334466455234335
-0.32771736376889626   -0.041770206517723896   -0.020334466455234335
-0.29659965219582735   0.0353041313748665   0.03526164987980762
-0.29659965219582735   0.0353041313748665   0.03526164987980762
-0.29659965219582735   0.0353041313748665   0.03526164987980762
-0.29659965219582735   0.0353041313748665   0.03526164987980762
-0.41708586307145906   -0.04547356136145018   -0.02770993694534031
-0.41708586307145906   -0.04547356136145018   -0.02770993694534031
-0.41708586307145906   -0.04547356136145018   -0.02770993694534031
-0.41708586307145906   -0.04547356136145018   -0.02770993694534031
-0.35112883518440896   -0.009610849190818213   -0.005332449808335225
-0.35112883518440896   -0.009610849190818213   -0.005332449808335225
-0.35112883518440896   -0.009610849190818213   -0.005332449808335225
-0.35112883518440896   -0.009610849190818213   -0.005332449808335225
-0.3911217032161625   0.017229042823980356   0.03940825814571201
-0.3911217032161625   0.017229042823980356   0.03940825814571201
-0.3911217032161625   0.017229042823980356   0.03940825814571201
-0.3911217032161625   0.017229042823980356   0.03940825814571201
-0.3207504301546378   -0.025585090914077256   -0.024603017625296944
-0.3207504301546378   -0.025585090914077256   -0.024603017625296944
-0.3207504301546378   -0.025585090914077256   -0.024603017625296944
-0.3207504301546378   -0.025585090914077256   -0.024603017625296944
-0.2892970779545566   0.04447851298737382   0.029808060606887427
-0.2892970779545566   0.04447851298737382   0.029808060606887427
-0.2892970779545566   0.04447851298737382   0.029808060606887427
-0.2892970779545566   0.04447851298737382   0.029808060606887427
-0.39788475358622516   -0.03507484738478836   -0.0345936644446847
-0.39788475358622516   -0.03507484738478836   -0.0345936644446847
-0.39788475358622516   -0.03507484738478836   -0.0345936644446847
-0.39788475358622516   -0.03507484738478836   -0.0345936644446847
-0.34108980360073404   0.00238575122316792   0.0023387640048743476
-0.34108980360073404   0.00238575122316792   0.0023387640048743476
-0.34108980360073404   0.00238575122316792   0.0023387640048743476
-0.34108980360073404   0.00238575122316792   0.0023387640048743476
-0.3719149185380015   0.028357887859696396   0.03182277555194521
-0.3719149185380015   0.028357887859696396   0.03182277555194521
-0.3719149185380015   0.028357887859696396   0.03182277555194521
-0.3719149185380015   0.028357887859696396   0.03182277555194521
-0.3135539934610233   -0.017241302715354262   -0.02975670122271607
-0.3135539934610233   -0.017241302715354262   -0.02975670122271607
-0.3135539934610233   -0.017241302715354262   -0.02975670122271607
-0.3135539934610233   -0.017241302715354262   -0.02975670122271607
-0.2833990563810568   0.055947168670512804   0.02570531363386155
-0.2833990563810568   0.055947168670512804   0.02570531363386155
-0.2833990563810568   0.055947168670512804   0.02570531363386155
-0.2833990563810568   0.055947168670512804   0.02570531363386155
-0.3720965085827368   -0.01841844326648545   -0.04002347028153221
-0.3720965085827368   -0.01841844326648545   -0.04002347028153221
-0.3720965085827368   -0.01841844326648545   -0.04002347028153221
-0.3720965085827368   -0.01841844326648545   -0.04002347028153221
-0.32086914711458603   0.014238827030042714   0.011836765638641524
-0.32086914711458603   0.014238827030042714   0.011836765638641524
-0.32086914711458603   0.014238827030042714   0.011836765638641524
-0.32086914711458603   0.014238827030042714   0.011836765638641524
-0.31611557609474605   -0.023661144522713284   0.019565409920506004
-0.31611557609474605   -0.023661144522713284   0.019565409920506004
-0.31611557609474605   -0.023661144522713284   0.019565409920506004
-0.31611557609474605   -0.023661144522713284   0.019565409920506004
-0.23300734442736767   -0.031656981975428745   -0.006014564432365496
-0.23300734442736767   -0.031656981975428745   -0.006014564432365496
-0.23300734442736767   -0.031656981975428745   -0.006014564432365496
-0.23300734442736767   -0.031656981975428745   -0.006014564432365496
-0.21569776827883527   0.01602627793654164   0.018029559666797396
-0.21569776827883527   0.01602627793654164   0.018029559666797396
-0.21569776827883527   0.01602627793654164   0.018029559666797396
-0.21569776827883527   0.01602627793654164   0.018029559666797396
-0.32088451696603454   -0.03353723900436558   -0.017321303591990328
-0.32088451696603454   -0.03353723900436558   -0.017321303591990328
-0.32088451696603454   -0.03353723900436558   -0.017321303591990328
-0.32088451696603454   -0.03353723900436558   -0.017321303591990328
-0.2706995386048484   -0.016757347787611024   -0.007346545507359673
-0.2706995386048484   -0.016757347787611024   -0.007346545507359673
-0.2706995386048484   -0.016757347787611024   -0.007346545507359673
-0.2706995386048484   -0.016757347787611024   -0.007346545507359673
-0.30792209459104886   -0.002694821169623017   0.01664839044818768
-0.30792209459104886   -0.002694821169623017   0.01664839044818768
-0.30792209459104886   -0.002694821169623017   0.01664839044818768
-0.30792209459104886   -0.002694821169623017   0.01664839044818768
-0.22719793161297325   -0.013353880857354512   -0.010091098209996254
-0.22719793161297325   -0.013353880857354512   -0.010091098209996254
-0.22719793161297325   -0.013353880857354512   -0.010091098209996254
-0.22719793161297325   -0.013353880857354512   -0.010091098209996254
-0.20940681383841414   0.034703696097049895   0.014413675311587052
-0.20940681383841414   0.034703696097049895   0.014413675311587052
-0.20940681383841414   0.034703696097049895   0.014413675311587052
-0.20940681383841414   0.034703696097049895   0.014413675311587052
-0.31142425037080285   -0.015607104167710037   -0.020742184319256132
-0.31142425037080285   -0.015607104167710037   -0.020742184319256132
-0.31142425037080285   -0.015607104167710037   -0.020742184319256132
-0.31142425037080285   -0.015607104167710037   -0.020742184319256132
-0.26157530771175747   0.001224331839234545   0.0007067028701507761
-0.26157530771175747   0.001224331839234545   0.0007067028701507761
-0.26157530771175747   0.001224331839234545   0.0007067028701507761
-0.26157530771175747   0.001224331839234545   0.0007067028701507761
-0.2976998765875699   0.017180720475616904   0.01509185995357783
-0.2976998765875699   0.017180720475616904   0.01509185995357783
-0.2976998765875699   0.017180720475616904   0.01509185995357783
-0.2976998765875699   0.017180720475616904   0.01509185995357783
-0.22144322557908946   0.0036038334962794835   -0.014668520791021919
-0.22144322557908946   0.0036038334962794835   -0.014668520791021919
-0.22144322557908946   0.0036038334962794835   -0.014668520791021919
-0.22144322557908946   0.0036038334962794835   -0.014668520791021919
-0.20313486716955592   0.05500101785848642   0.010969554969719957
-0.20313486716955592   0.05500101785848642   0.010969554969719957
-0.20313486716955592   0.05500101785848642   0.010969554969719957
-0.20313486716955592   0.05500101785848642   0.010969554969719957
-0.3036342772648303   0.004000729438262532   -0.02352435155275411
-0.3036342772648303   0.004000729438262532   -0.02352435155275411
-0.3036342772648303   0.004000729438262532   -0.02352435155275411
-0.3036342772648303   0.004000729438262532   -0.02352435155275411
-0.2549857240335654   0.018881029461303954   0.008594290806803958
-0.2549857240335654   0.018881029461303954   0.008594290806803958
-0.2549857240335654   0.018881029461303954   0.008594290806803958
-0.2549857240335654   0.018881029461303954   0.008594290806803958
-0.2326995166698831   -0.03963030168471305   0.0034978940643368983
-0.2326995166698831   -0.03963030168471305   0.0034978940643368983
-0.2326995166698831   -0.03963030168471305   0.0034978940643368983
-0.2326995166698831   -0.03963030168471305   0.0034978940643368983
-0.1395058142959137   -0.016834010200320222   0.008520406175606248
-0.1395058142959137   -0.016834010200320222   0.008520406175606248
-0.1395058142959137   -0.016834010200320222   0.008520406175606248
-0.1395058142959137   -0.016834010200320222   0.008520406175606248
-0.1348443211689611   -0.0004958510504529112   0.0010904726349214577
-0.1348443211689611   -0.0004958510504529112   0.0010904726349214577
-0.1348443211689611   -0.0004958510504529112   0.0010904726349214577
-0.1348443211689611   -0.0004958510504529112   0.0010904726349214577
-0.22651019146032525   -0.018018784050198865   -0.0019874942539117963
-0.22651019146032525   -0.018018784050198865   -0.0019874942539117963
-0.22651019146032525   -0.018018784050198865   -0.0019874942539117963
-0.22651019146032525   -0.018018784050198865   -0.0019874942539117963
-0.18368362673651076   -0.017864839931748328   -0.005358559280339387
-0.18368362673651076   -0.017864839931748328   -0.005358559280339387
-0.18368362673651076   -0.017864839931748328   -0.005358559280339387
-0.18368362673651076   -0.017864839931748328   -0.005358559280339387
-0.22622959046716534   -0.018926378420615782   0.0003231050823036775
-0.22622959046716534   -0.018926378420615782   0.0003231050823036775
-0.22622959046716534   -0.018926378420615782   0.0003231050823036775
-0.22622959046716534   -0.018926378420615782   0.0003231050823036775
-0.13367002166709213   0.0018666438149965506   0.00459947527881684
-0.13367002166709213   0.0018666438149965506   0.00459947527881684
-0.13367002166709213   0.0018666438149965506   0.00459947527881684
-0.13367002166709213   0.0018666438149965506   0.00459947527881684
-0.12800310273817714   0.02038965512197278   -0.001870130919585971
-0.12800310273817714   0.02038965512197278   -0.001870130919585971
-0.12800310273817714   0.02038965512197278   -0.001870130919585971
-0.12800310273817714   0.02038965512197278   -0.001870130919585971
-0.22020674793012918   0.000949821876679531   -0.005832120926620632
-0.22020674793012918   0.000949821876679531   -0.005832120926620632
-0.22020674793012918   0.000949821876679531   -0.005832120926620632
-0.22020674793012918   0.000949821876679531   -0.005832120926620632
-0.17646314711723288   0.000900022068393673   0.002457329934593489
-0.17646314711723288   0.000900022068393673   0.002457329934593489
-0.17646314711723288   0.000900022068393673   0.002457329934593489
-0.17646314711723288   0.000900022068393673   0.002457329934593489
-0.21943347938752927   0.0018953455905246011   -0.0029113019274670787
-0.21943347938752927   0.0018953455905246011   -0.0029113019274670787
-0.21943347938752927   0.0018953455905246011   -0.0029113019274670787
-0.21943347938752927   0.0018953455905246011   -0.0029113019274670787
-0.12746016440213062   0.020760338286775478   0.0004738775958451867
-0.12746016440213062   0.020760338286775478   0.0004738775958451867
-0.12746016440213062   0.020760338286775478   0.0004738775958451867
-0.12746016440213062   0.020760338286775478   0.0004738775958451867
-0.12154018188924226   0.041469365065892695   -0.0052393074314132475
-0.12154018188924226   0.041469365065892695   -0.0052393074314132475
-0.12154018188924226   0.041469365065892695   -0.0052393074314132475
-0.12154018188924226   0.041469365065892695   -0.0052393074314132475
-0.21430604617558435   0.020063774506367822   -0.009949096708303615
-0.21430604617558435   0.020063774506367822   -0.009949096708303615
-0.21430604617558435   0.020063774506367822   -0.009949096708303615
-0.21430604617558435   0.020063774506367822   -0.009949096708303615
-0.1696383548618736   0.019732663894739474   0.009957989132497253
-0.1696383548618736   0.019732663894739474   0.009957989132497253
-0.1696383548618736   0.019732663894739474   0.009957989132497253
-0.1696383548618736   0.019732663894739474   0.009957989132497253
-0.15108518324082293   -0.05345993264991841   -0.012750516099344009
-0.15108518324082293   -0.05345993264991841   -0.012750516099344009
-0.15108518324082293   -0.05345993264991841   -0.012750516099344009
-0.15108518324082293   -0.05345993264991841   -0.012750516099344009
-0.04881212355849069   -0.0010996697935441394   0.022325420875918694
-0.04881212355849069   -0.0010996697935441394   0.022325420875918694
-0.04881212355849069   -0.0010996697935441394   0.022325420875918694
-0.04881212355849069   -0.0010996697935441394   0.022325420875918694
-0.05525317247842868   -0.016145587644876346   -0.016542626044566872
-0.05525317247842868   -0.016145587644876346   -0.016542626044566872
-0.05525317247842868   -0.016145587644876346   -0.016542626044566872
-0.05525317247842868   -0.016145587644876346   -0.016542626044566872
-0.13280587006168923   -0.0020335999514069676   0.012820477072233792
-0.13280587006168923   -0.0020335999514069676   0.012820477072233792
-0.13280587006168923   -0.0020335999514069676   0.012820477072233792
-0.13280587006168923   -0.0020335999514069676   0.012820477072233792
-0.09695103025389495   -0.01739417302741772   -0.0038695607025476756
-0.09695103025389495   -0.01739417302741772   -0.0038695607025476756
-0.09695103025389495   -0.01739417302741772   -0.0038695607025476756
-0.09695103025389495   -0.01739417302741772   -0.0038695607025476756
-0.14499634757778923   -0.034015666289809586   -0.01614984416986487
-0.14499634757778923   -0.034015666289809586   -0.01614984416986487
-0.14499634757778923   -0.034015666289809586   -0.01614984416986487
-0.14499634757778923   -0.034015666289809586   -0.01614984416986487
-0.04143371829887939   0.017465455356971686   0.01894360185133257
-0.04143371829887939   0.017465455356971686   0.01894360185133257
-0.04143371829887939   0.017465455356971686   0.01894360185133257
-0.04143371829887939   0.017465455356971686   0.01894360185133257
-0.0452093098154596   0.003610867674458817   -0.01862650021925066
-0.0452093098154596   0.003610867674458817   -0.01862650021925066
-0.0452093098154596   0.003610867674458817   -0.01862650021925066
-0.0452093098154596   0.003610867674458817   -0.01862650021925066
-0.12699575321931317   0.014996059659444394   0.008560212137262204
-0.12699575321931317   0.014996059659444394   0.008560212137262204
-0.12699575321931317   0.014996059659444394   0.008560212137262204
-0.12699575321931317   0.014996059659444394   0.008560212137262204
-0.08925259035320458   9.659781712273094e-05   0.004100439440709605
-0.08925259035320458   9.659781712273094e-05   0.004100439440709605
-0.08925259035320458   9.659781712273094e-05   0.004100439440709605
-0.08925259035320458   9.659781712273094e-05   0.004100439440709605
-0.1387986513055442   -0.015394453588831673   -0.020063765045618506
-0.1387986513055442   -0.015394453588831673   -0.020063765045618506
-0.1387986513055442   -0.015394453588831673   -0.020063765045618506
-0.1387986513055442   -0.015394453588831673   -0.020063765045618506
-0.03188959468965631   0.03551819796230431   0.016064745121920278
-0.03188959468965631   0.03551819796230431   0.016064745121920278
-0.03188959468965631   0.03551819796230431   0.016064745121920278
-0.03188959468965631   0.03551819796230431   0.016064745121920278
-0.03671688755699576   0.025651546883389966   -0.020875597987608515
-0.03671688755699576   0.025651546883389966   -0.020875597987608515
-0.03671688755699576   0.025651546883389966   -0.020875597987608515
-0.03671688755699576   0.025651546883389966   -0.020875597987608515
-0.12104726833664314   0.0342418635382396   0.004452761859235505
-0.12104726833664314   0.0342418635382396   0.004452761859235505
-0.12104726833664314   0.0342418635382396   0.004452761859235505
-0.12104726833664314   0.0342418635382396   0.004452761859235505
-0.08130335820059091   0.018298209130041064   0.012060878805046952
-0.08130335820059091   0.018298209130041064   0.012060878805046952
-0.08130335820059091   0.018298209130041064   0.012060878805046952
-0.08130335820059091   0.018298209130041064   0.012060878805046952
-0.07010199617007558   -0.0574502822680249   -0.02777332970752596
-0.07010199617007558   -0.0574502822680249   -0.02777332970752596
-0.07010199617007558   -0.0574502822680249   -0.02777332970752596
-0.07010199617007558   -0.0574502822680249   -0.02777332970752596
0.019012195797445293   0.016670921276398486   0.03414609540277657
0.019012195797445293   0.016670921276398486   0.03414609540277657
0.019012195797445293   0.016670921276398486   0.03414609540277657
0.019012195797445293   0.016670921276398486   0.03414609540277657
0.019090363661874304   -0.028578841607249796   -0.03680553194169212
0.019090363661874304   -0.028578841607249796   -0.03680553194169212
0.019090363661874304   -0.028578841607249796   -0.03680553194169212
0.019090363661874304   -0.028578841607249796   -0.03680553194169212
-0.03956822788800387   0.017785312744963314   0.027951196517717547
-0.03956822788800387   0.017785312744963314   0.027951196517717547
-0.03956822788800387   0.017785312744963314   0.027951196517717547
-0.03956822788800387   0.017785312744963314   0.027951196517717547
-0.018484598550229825   -0.012299255902175368   -0.006417054589550764
-0.018484598550229825   -0.012299255902175368   -0.006417054589550764
-0.018484598550229825   -0.012299255902175368   -0.006417054589550764
-0.018484598550229825   -0.012299255902175368   -0.006417054589550764
-0.06394576075124914   -0.044212659260204304   -0.031938495793341196
-0.06394576075124914   -0.044212659260204304   -0.031938495793341196
-0.06394576075124914   -0.044212659260204304   -0.031938495793341196
-0.06394576075124914   -0.044212659260204304   -0.031938495793341196
0.04520788857571667   0.03515912244851491   0.03004412857175498
0.04520788857571667   0.03515912244851491   0.03004412857175498
0.04520788857571667   0.03515912244851491   0.03004412857175498
0.04520788857571667   0.03515912244851491   0.03004412857175498
0.03838439374109973   -0.017274616190360394   -0.04374777359792866
0.03838439374109973   -0.017274616190360394   -0.04374777359792866
0.03838439374109973   -0.017274616190360394   -0.04374777359792866
0.03838439374109973   -0.017274616190360394   -0.04374777359792866
-0.032522312906152935   0.025988800119381643   0.022430551882359855
-0.032522312906152935   0.025988800119381643   0.022430551882359855
-0.032522312906152935   0.025988800119381643   0.022430551882359855
-0.032522312906152935   0.025988800119381643   0.022430551882359855
-0.0026846122203805175   -0.0006541880337318126   0.0022039419411825686
-0.0026846122203805175   -0.0006541880337318126   0.0022039419411825686
-0.0026846122203805175   -0.0006541880337318126   0.0022039419411825686
-0.0026846122203805175   -0.0006541880337318126   0.0022039419411825686
-0.05658033424941302   -0.03491013167649083   -0.03696062303806813
-0.05658033424941302   -0.03491013167649083   -0.03696062303806813
-0.05658033424941302   -0.03491013167649083   -0.03696062303806813
-0.05658033424941302   -0.03491013167649083   -0.03696062303806813
0.06418658931046052   0.045368489831612784   0.022620098226902106
0.06418658931046052   0.045368489831612784   0.022620098226902106
0.06418658931046052   0.045368489831612784   0.022620098226902106
0.06418658931046052   0.045368489831612784   0.022620098226902106
0.0654818486564184   0.004828637136626705   -0.04687457405539486
0.0654818486564184   0.004828637136626705   -0.04687457405539486
0.0654818486564184   0.004828637136626705   -0.04687457405539486
0.0654818486564184   0.004828637136626705   -0.04687457405539486
-0.02594487856308563   0.04040495425879878   0.018231039606533307
-0.02594487856308563   0.04040495425879878   0.018231039606533307
-0.02594487856308563   0.04040495425879878   0.018231039606533307
-0.02594487856308563   0.04040495425879878   0.018231039606533307
0.011656020691107142   0.011554872996131112   0.010653394336433744
0.011656020691107142   0.011554872996131112   0.010653394336433744
0.011656020691107142   0.011554872996131112   0.010653394336433744
0.011656020691107142   0.011554872996131112   0.010653394336433744
-0.1371084524652503   0.008223458878844223   0.039024949223960326
-0.1371084524652503   0.008223458878844223   0.039024949223960326
-0.1371084524652503   0.008223458878844223   0.039024949223960326
-0.1371084524652503   0.008223458878844223   0.039024949223960326
-0.16494783114583408   -0.050775586016595306   -0.022907958953371256
-0.16494783114583408   -0.050775586016595306   -0.022907958953371256
-0.16494783114583408   -0.050775586016595306   -0.022907958953371256
-0.16494783114583408   -0.050775586016595306   -0.022907958953371256
-0.13169233839413227   0.02353338223722809   0.031931256370708865
-0.13169233839413227   0.02353338223722809   0.031931256370708865
-0.13169233839413227   0.02353338223722809   0.031931256370708865
-0.13169233839413227   0.02353338223722809   0.031931256370708865
-0.13319767837428514   -0.03313294613487578   -0.02956218554508077
-0.13319767837428514   -0.03313294613487578   -0.02956218554508077
-0.13319767837428514   -0.03313294613487578   -0.02956218554508077
-0.13319767837428514   -0.03313294613487578   -0.02956218554508077
-0.13821595140229656   -0.01062056963576238   -0.010763791410019853
-0.13821595140229656   -0.01062056963576238   -0.010763791410019853
-0.13821595140229656   -0.01062056963576238   -0.010763791410019853
-0.13821595140229656   -0.01062056963576238   -0.010763791410019853
-0.10754187604492904   0.029244999521909794   0.036338880444914165
-0.10754187604492904   0.029244999521909794   0.036338880444914165
-0.10754187604492904   0.029244999521909794   0.036338880444914165
-0.10754187604492904   0.029244999521909794   0.036338880444914165
-0.15572680019448146   -0.0372232228905506   -0.027484447503258517
-0.15572680019448146   -0.0372232228905506   -0.027484447503258517
-0.15572680019448146   -0.0372232228905506   -0.027484447503258517
-0.15572680019448146   -0.0372232228905506   -0.027484447503258517
-0.12152934485583694   0.03248605288924884   0.026855428195128442
-0.12152934485583694   0.03248605288924884   0.026855428195128442
-0.12152934485583694   0.03248605288924884   0.026855428195128442
-0.12152934485583694   0.03248605288924884   0.026855428195128442
-0.11125949087835961   -0.023015263421923293   -0.03679161536973603
-0.11125949087835961   -0.023015263421923293   -0.03679161536973603
-0.11125949087835961   -0.023015263421923293   -0.03679161536973603
-0.11125949087835961   -0.023015263421923293   -0.03679161536973603
-0.12203500076077539   0.0008039061999733504   -0.0023242931623562637
-0.12203500076077539   0.0008039061999733504   -0.0023242931623562637
-0.12203500076077539   0.0008039061999733504   -0.0023242931623562637
-0.12203500076077539   0.0008039061999733504   -0.0023242931623562637
-0.08547002893622449   0.04012909718162407   0.02901133373739215
-0.08547002893622449   0.04012909718162407   0.02901133373739215
-0.08547002893622449   0.04012909718162407   0.02901133373739215
-0.08547002893622449   0.04012909718162407   0.02901133373739215
-0.14579405518866023   -0.02913355610498415   -0.03284851447475504
-0.14579405518866023   -0.02913355610498415   -0.03284851447475504
-0.14579405518866023   -0.02913355610498415   -0.03284851447475504
-0.14579405518866023   -0.02913355610498415   -0.03284851447475504
-0.1122454156874483   0.04619492119155484   0.023192259113380756
-0.1122454156874483   0.04619492119155484   0.023192259113380756
-0.1122454156874483   0.04619492119155484   0.023192259113380756
-0.1122454156874483   0.04619492119155484   0.023192259113380756
-0.0819691845498349   -0.0037863712851731457   -0.04143637268403192
-0.0819691845498349   -0.0037863712851731457   -0.04143637268403192
-0.0819691845498349   -0.0037863712851731457   -0.04143637268403192
-0.0819691845498349   -0.0037863712851731457   -0.04143637268403192
-0.10262167894282527   0.012764092895242184   0.006694961437047451
-0.10262167894282527   0.012764092895242184   0.006694961437047451
-0.10262167894282527   0.012764092895242184   0.006694961437047451
-0.10262167894282527   0.012764092895242184   0.006694961437047451
-0.14753723366909832   -0.008905132045466418   0.02227457445917675
-0.14753723366909832   -0.008905132045466418   0.02227457445917675
-0.14753723366909832   -0.008905132045466418   0.02227457445917675
-0.14753723366909832   -0.008905132045466418   0.02227457445917675
-0.1844520838205367   -0.041425956372838385   -0.008947323941468261
-0.1844520838205367   -0.041425956372838385   -0.008947323941468261
-0.1844520838205367   -0.041425956372838385   -0.008947323941468261
-0.1844520838205367   -0.041425956372838385   -0.008947323941468261
-0.1646218263280365   0.004144111414738784   0.014822757865533479
-0.1646218263280365   0.004144111414738784   0.014822757865533479
-0.1646218263280365   0.004144111414738784   0.014822757865533479
-0.1646218263280365   0.004144111414738784   0.014822757865533479
-0.1493611182503657   -0.01936980125189299   -0.013509459421337109
-0.1493611182503657   -0.01936980125189299   -0.013509459421337109
-0.1493611182503657   -0.01936980125189299   -0.013509459421337109
-0.1493611182503657   -0.01936980125189299   -0.013509459421337109
-0.1616293383839654   -0.01512129674968309   -0.00753039858247193
-0.1616293383839654   -0.01512129674968309   -0.00753039858247193
-0.1616293383839654   -0.01512129674968309   -0.00753039858247193
-0.1616293383839654   -0.01512129674968309   -0.00753039858247193
-0.136770292435331   0.01063736691713454   0.019437501484806767
-0.136770292435331   0.01063736691713454   0.019437501484806767
-0.136770292435331   0.01063736691713454   0.019437501484806767
-0.136770292435331   0.01063736691713454   0.019437501484806767
-0.1759412107638496   -0.02459161537506766   -0.013038437523726538
-0.1759412107638496   -0.02459161537506766   -0.013038437523726538
-0.1759412107638496   -0.02459161537506766   -0.013038437523726538
-0.1759412107638496   -0.02459161537506766   -0.013038437523726538
-0.15555502649789751   0.021975863820437723   0.011303431748577342
-0.15555502649789751   0.021975863820437723   0.011303431748577342
-0.15555502649789751   0.021975863820437723   0.011303431748577342
-0.15555502649789751   0.021975863820437723   0.011303431748577342
-0.13719470566995157   -0.0022099491382930048   -0.01677537384790102
-0.13719470566995157   -0.0022099491382930048   -0.01677537384790102
-0.13719470566995157   -0.0022099491382930048   -0.01677537384790102
-0.13719470566995157   -0.0022099491382930048   -0.01677537384790102
-0.15077876464195344   0.0014943651635066918   0.0002514430311660893
-0.15077876464195344   0.0014943651635066918   0.0002514430311660893
-0.15077876464195344   0.0014943651635066918   0.0002514430311660893
-0.15077876464195344   0.0014943651635066918   0.0002514430311660893
-0.12398945097444036   0.02953040222807398   0.01751054826328617
-0.12398945097444036   0.02953040222807398   0.01751054826328617
-0.12398945097444036   0.02953040222807398   0.01751054826328617
-0.12398945097444036   0.02953040222807398   0.01751054826328617
-0.16740450481398061   -0.008408711166499383   -0.017559384844903905
-0.16740450481398061   -0.008408711166499383   -0.017559384844903905
-0.16740450481398061   -0.008408711166499383   -0.017559384844903905
-0.16740450481398061   -0.008408711166499383   -0.017559384844903905
-0.14644196598591078   0.041735682177366576   0.007958100863831235
-0.14644196598591078   0.041735682177366576   0.007958100863831235
-0.14644196598591078   0.041735682177366576   0.007958100863831235
-0.14644196598591078   0.041735682177366576   0.007958100863831235
-0.12671794035089004   0.016859281061610838   -0.01983472407388201
-0.12671794035089004   0.016859281061610838   -0.01983472407388201
-0.12671794035089004   0.016859281061610838   -0.01983472407388201
-0.12671794035089004   0.016859281061610838   -0.01983472407388201
-0.14051786048908574   0.018679830367064137   0.008181114385418287
-0.14051786048908574   0.018679830367064137   0.008181114385418287
-0.14051786048908574   0.018679830367064137   0.008181114385418287
-0.14051786048908574   0.018679830367064137   0.008181114385418287
-0.1781189829885451   -0.0250019003373623   0.00629412418301193
-0.1781189829885451   -0.0250019003373623   0.00629412418301193
-0.1781189829885451   -0.0250019003373623   0.00629412418301193
-0.1781189829885451   -0.0250019003373623   0.00629412418301193
-0.2038279764716535   -0.026300304676343762   0.005395546385916706
-0.2038279764716535   -0.026300304676343762   0.005395546385916706
-0.2038279764716535   -0.026300304676343762   0.005395546385916706
-0.2038279764716535   -0.026300304676343762   0.005395546385916706
-0.19658800909512014   -0.012023640495006892   -0.0019339588431723752
-0.19658800909512014   -0.012023640495006892   -0.0019339588431723752
-0.19658800909512014   -0.012023640495006892   -0.0019339588431723752
-0.19658800909512014   -0.012023640495006892   -0.0019339588431723752
-0.16875847093130728   -0.0034941197058554127   0.0017777659697738434
-0.16875847093130728   -0.0034941197058554127   0.0017777659697738434
-0.16875847093130728   -0.0034941197058554127   0.0017777659697738434
-0.16875847093130728   -0.0034941197058554127   0.0017777659697738434
-0.18710394552207457   -0.015758810024792576   -0.0050114638784018815
-0.18710394552207457   -0.015758810024792576   -0.0050114638784018815
-0.18710394552207457   -0.015758810024792576   -0.0050114638784018815
-0.18710394552207457   -0.015758810024792576   -0.0050114638784018815
-0.16887799537767795   -0.005464700980392957   0.003150725012455117
-0.16887799537767795   -0.005464700980392957   0.003150725012455117
-0.16887799537767795   -0.005464700980392957   0.003150725012455117
-0.16887799537767795   -0.005464700980392957   0.003150725012455117
-0.19526790178333117   -0.008852476355048725   0.0014954135758158786
-0.19526790178333117   -0.008852476355048725   0.0014954135758158786
-0.19526790178333117   -0.008852476355048725   0.0014954135758158786
-0.19526790178333117   -0.008852476355048725   0.0014954135758158786
-0.18705569963392535   0.007766935318476657   -0.004897602013854165
-0.18705569963392535   0.007766935318476657   -0.004897602013854165
-0.18705569963392535   0.007766935318476657   -0.004897602013854165
-0.18705569963392535   0.007766935318476657   -0.004897602013854165
-0.1597220019634835   0.014433909108103798   -0.001989490867018639
-0.1597220019634835   0.014433909108103798   -0.001989490867018639
-0.1597220019634835   0.014433909108103798   -0.001989490867018639
-0.1597220019634835   0.014433909108103798   -0.001989490867018639
-0.1771404828016032   0.0019205966125803928   0.002678159150918043
-0.1771404828016032   0.0019205966125803928   0.002678159150918043
-0.1771404828016032   0.0019205966125803928   0.002678159150918043
-0.1771404828016032   0.0019205966125803928   0.002678159150918043
-0.15938516365923072   0.01425523739054381   -0.0001266276281976942
-0.15938516365923072   0.01425523739054381   -0.0001266276281976942
-0.15938516365923072   0.01425523739054381   -0.0001266276281976942
-0.15938516365923072   0.01425523739054381   -0.0001266276281976942
-0.18634408816017686   0.008994056814034854   -0.00256666614066999
-0.18634408816017686   0.008994056814034854   -0.00256666614066999
-0.18634408816017686   0.008994056814034854   -0.00256666614066999
-0.18634408816017686   0.008994056814034854   -0.00256666614066999
-0.1779274206080359   0.027682281980208376   -0.00823518490664929
-0.1779274206080359   0.027682281980208376   -0.00823518490664929
-0.1779274206080359   0.027682281980208376   -0.00823518490664929
-0.1779274206080359   0.027682281980208376   -0.00823518490664929
-0.1511203932889692   0.03243538902709048   -0.00613374250118404
-0.1511203932889692   0.03243538902709048   -0.00613374250118404
-0.1511203932889692   0.03243538902709048   -0.00613374250118404
-0.1511203932889692   0.03243538902709048   -0.00613374250118404
-0.16764423444458548   0.01963341401246775   0.010007181902701874
-0.16764423444458548   0.01963341401246775   0.010007181902701874
-0.16764423444458548   0.01963341401246775   0.010007181902701874
-0.16764423444458548   0.01963341401246775   0.010007181902701874
-0.20961168262123603   -0.03974110299079055   -0.010082186047552668
-0.20961168262123603   -0.03974110299079055   -0.010082186047552668
-0.20961168262123603   -0.03974110299079055   -0.010082186047552668
-0.20961168262123603   -0.03974110299079055   -0.010082186047552668
-0.22493461466665557   -0.011480822647805887   0.01908685446263264
-0.22493461466665557   -0.011480822647805887   0.01908685446263264
-0.22493461466665557   -0.011480822647805887   0.01908685446263264
-0.22493461466665557   -0.011480822647805887   0.01908685446263264
-0.22864727984233152   -0.027552408965013944   -0.018932158215143435
-0.22864727984233152   -0.027552408965013944   -0.018932158215143435
-0.22864727984233152   -0.027552408965013944   -0.018932158215143435
-0.22864727984233152   -0.027552408965013944   -0.018932158215143435
-0.18819129756051964   0.011869179359509499   0.016156778975313743
-0.18819129756051964   0.011869179359509499   0.016156778975313743
-0.18819129756051964   0.011869179359509499   0.016156778975313743
-0.18819129756051964   0.011869179359509499   0.016156778975313743
-0.21194842200167918   -0.01565308780521126   -0.0031554247660549603
-0.21194842200167918   -0.01565308780521126   -0.0031554247660549603
-0.21194842200167918   -0.01565308780521126   -0.0031554247660549603
-0.21194842200167918   -0.01565308780521126   -0.0031554247660549603
-0.20062842428172742   -0.02082845105342327   -0.013331224217794181
-0.20062842428172742   -0.02082845105342327   -0.013331224217794181
-0.20062842428172742   -0.02082845105342327   -0.013331224217794181
-0.20062842428172742   -0.02082845105342327   -0.013331224217794181
-0.2149516311193377   0.0064037434497045895   0.015589932985107241
-0.2149516311193377   0.0064037434497045895   0.015589932985107241
-0.2149516311193377   0.0064037434497045895   0.015589932985107241
-0.2149516311193377   0.0064037434497045895   0.015589932985107241
-0.21611344787395587   -0.008788134089533411   -0.021243061952984123
-0.21611344787395587   -0.008788134089533411   -0.021243061952984123
-0.21611344787395587   -0.008788134089533411   -0.021243061952984123
-0.21611344787395587   -0.008788134089533411   -0.021243061952984123
-0.17962213137041216   0.02803509307731422   0.01200208154487227
-0.17962213137041216   0.02803509307731422   0.01200208154487227
-0.17962213137041216   0.02803509307731422   0.01200208154487227
-0.17962213137041216   0.02803509307731422   0.01200208154487227
-0.20059876440225158   0.00138217044072151   0.004786898006231116
-0.20059876440225158   0.00138217044072151   0.004786898006231116
-0.20059876440225158   0.00138217044072151   0.004786898006231116
-0.20059876440225158   0.00138217044072151   0.004786898006231116
-0.19167257069017452   -0.0030786255479240895   -0.01713639642870351
-0.19167257069017452   -0.0030786255479240895   -0.01713639642870351
-0.19167257069017452   -0.0030786255479240895   -0.01713639642870351
-0.19167257069017452   -0.0030786255479240895   -0.01713639642870351
-0.20279122433505478   0.02359736875484357   0.01298255289714624
-0.20279122433505478   0.02359736875484357   0.01298255289714624
-0.20279122433505478   0.02359736875484357   0.01298255289714624
-0.20279122433505478   0.02359736875484357   0.01298255289714624
-0.20515143303031075   0.011866901874918352   -0.023317881763687803
-0.20515143303031075   0.011866901874918352   -0.023317881763687803
-0.20515143303031075   0.011866901874918352   -0.023317881763687803
-0.20515143303031075   0.011866901874918352   -0.023317881763687803
-0.17102981667009737   0.046031449973927246   0.007903666789324387
-0.17102981667009737   0.046031449973927246   0.007903666789324387
-0.17102981667009737   0.046031449973927246   0.007903666789324387
-0.17102981667009737   0.046031449973927246   0.007903666789324387
-0.19099802359773407   0.01826000319820731   0.012371824313081327
-0.19099802359773407   0.01826000319820731   0.012371824313081327
-0.19099802359773407   0.01826000319820731   0.012371824313081327
-0.19099802359773407   0.01826000319820731   0.012371824313081327
-0.24096562264883353   -0.04721971926052167   -0.02532928883554538
-0.24096562264883353   -0.04721971926052167   -0.02532928883554538
-0.24096562264883353   -0.04721971926052167   -0.02532928883554538
-0.24096562264883353   -0.04721971926052167   -0.02532928883554538
-0.26783463195948776   0.0033334738227290273   0.03446426438624464
-0.26783463195948776   0.0033334738227290273   0.03446426438624464
-0.26783463195948776   0.0033334738227290273   0.03446426438624464
-0.26783463195948776   0.0033334738227290273   0.03446426438624464
-0.26443075010158057   -0.039534131883083606   -0.03378350440892502
-0.26443075010158057   -0.039534131883083606   -0.03378350440892502
-0.26443075010158057   -0.039534131883083606   -0.03378350440892502
-0.26443075010158057   -0.039534131883083606   -0.03378350440892502
-0.20721098881194283   0.02980761984054104   0.030889268131244194
-0.20721098881194283   0.02980761984054104   0.030889268131244194
-0.20721098881194283   0.02980761984054104   0.030889268131244194
-0.20721098881194283   0.02980761984054104   0.030889268131244194
-0.23526001667082466   -0.010246116017550093   -0.001456518592476112
-0.23526001667082466   -0.010246116017550093   -0.001456518592476112
-0.23526001667082466   -0.010246116017550093   -0.001456518592476112
-0.23526001667082466   -0.010246116017550093   -0.001456518592476112
-0.2315431922684618   -0.03199395441402857   -0.02897017489678396
-0.2315431922684618   -0.03199395441402857   -0.02897017489678396
-0.2315431922684618   -0.03199395441402857   -0.02897017489678396
-0.2315431922684618   -0.03199395441402857   -0.02897017489678396
-0.23876883915937186   0.023597149857177466   0.0313947685618554
-0.23876883915937186   0.023597149857177466   0.0313947685618554
-0.23876883915937186   0.023597149857177466   0.0313947685618554
-0.23876883915937186   0.023597149857177466   0.0313947685618554
-0.24269872390183447   -0.02858999597803987   -0.0402870176090662
-0.24269872390183447   -0.02858999597803987   -0.0402870176090662
-0.24269872390183447   -0.02858999597803987   -0.0402870176090662
-0.24269872390183447   -0.02858999597803987   -0.0402870176090662
-0.19754505789579438   0.03751687909034576   0.025293874757944142
-0.19754505789579438   0.03751687909034576   0.025293874757944142
-0.19754505789579438   0.03751687909034576   0.025293874757944142
-0.19754505789579438   0.03751687909034576   0.025293874757944142
-0.2206407556354448   0.0012048859828905148   0.0061510074889261895
-0.2206407556354448   0.0012048859828905148   0.0061510074889261895
-0.2206407556354448   0.0012048859828905148   0.0061510074889261895
-0.2206407556354448   0.0012048859828905148   0.0061510074889261895
-0.22141184940841027   -0.022983215250416737   -0.03353998846437472
-0.22141184940841027   -0.022983215250416737   -0.03353998846437472
-0.22141184940841027   -0.022983215250416737   -0.03353998846437472
-0.22141184940841027   -0.022983215250416737   -0.03353998846437472
-0.2174371850984265   0.03330484565351439   0.024125834776419375
-0.2174371850984265   0.03330484565351439   0.024125834776419375
-0.2174371850984265   0.03330484565351439   0.024125834776419375
-0.2174371850984265   0.03330484565351439   0.024125834776419375
-0.21411116528116078   -0.009684522018408179   -0.04405005506142635
-0.21411116528116078   -0.009684522018408179   -0.04405005506142635
-0.21411116528116078   -0.009684522018408179   -0.04405005506142635
-0.21411116528116078   -0.009684522018408179   -0.04405005506142635
-0.18890155540192255   0.04896449610030479   0.020833912152864936
-0.18890155540192255   0.04896449610030479   0.020833912152864936
-0.18890155540192255   0.04896449610030479   0.020833912152864936
-0.18890155540192255   0.04896449610030479   0.020833912152864936
-0.2004590035252971   0.012622377204891226   0.014981401278780834
-0.2004590035252971   0.012622377204891226   0.014981401278780834
-0.2004590035252971   0.012622377204891226   0.014981401278780834
-0.2004590035252971   0.012622377204891226   0.014981401278780834
0.14606055893132414   0.023532181268871778   0.037622487396790597
0.14606055893132414   0.023532181268871778   0.037622487396790597
0.14606055893132414   0.023532181268871778   0.037622487396790597
0.14606055893132414   0.023532181268871778   0.037622487396790597
-0.002988805444195783   -0.06037784620211557   -0.02477497390290182
-0.002988805444195783   -0.06037784620211557   -0.02477497390290182
-0.002988805444195783   -0.06037784620211557   -0.02477497390290182
-0.002988805444195783   -0.06037784620211557   -0.02477497390290182
0.032347785117555206   0.011697749971909973   0.02904583149700766
0.032347785117555206   0.011697749971909973   0.02904583149700766
0.032347785117555206   0.011697749971909973   0.02904583149700766
0.032347785117555206   0.011697749971909973   0.02904583149700766
0.15214064604285113   -0.02087716552482856   -0.031046962595140684
0.15214064604285113   -0.02087716552482856   -0.031046962595140684
0.15214064604285113   -0.02087716552482856   -0.031046962595140684
0.15214064604285113   -0.02087716552482856   -0.031046962595140684
0.07458997811565637   -0.011625782343771375   -0.017975101642488105
0.07458997811565637   -0.011625782343771375   -0.017975101642488105
0.07458997811565637   -0.011625782343771375   -0.017975101642488105
0.07458997811565637   -0.011625782343771375   -0.017975101642488105
0.17766229133519557   0.041740253820321295   0.03394384452142391
0.17766229133519557   0.041740253820321295   0.03394384452142391
0.17766229133519557   0.041740253820321295   0.03394384452142391
0.17766229133519557   0.041740253820321295   0.03394384452142391
0.00840948444018362   -0.049336324758265764   -0.02961159715967455
0.00840948444018362   -0.049336324758265764   -0.02961159715967455
0.00840948444018362   -0.049336324758265764   -0.02961159715967455
0.00840948444018362   -0.049336324758265764   -0.02961159715967455
0.045128908715117974   0.02046563264799355   0.024224465386370585
0.045128908715117974   0.02046563264799355   0.024224465386370585
0.045128908715117974   0.02046563264799355   0.024224465386370585
0.045128908715117974   0.02046563264799355   0.024224465386370585
0.1767655263086907   -0.010975997251643145   -0.03880011411527687
0.1767655263086907   -0.010975997251643145   -0.03880011411527687
0.1767655263086907   -0.010975997251643145   -0.03880011411527687
0.1767655263086907   -0.010975997251643145   -0.03880011411527687
0.09682790400569416   -0.0007107320569568441   -0.008494486100171141
0.09682790400569416   -0.0007107320569568441   -0.008494486100171141
0.09682790400569416   -0.0007107320569568441   -0.008494486100171141
0.09682790400569416   -0.0007107320569568441   -0.008494486100171141
0.20255352517749092   0.05244869954884125   0.026715183428236127
0.20255352517749092   0.05244869954884125   0.026715183428236127
0.20255352517749092   0.05244869954884125   0.026715183428236127
0.20255352517749092   0.05244869954884125   0.026715183428236127
0.0208836604072013   -0.04141631359160792   -0.035119829913611345
0.0208836604072013   -0.04141631359160792   -0.035119829913611345
0.0208836604072013   -0.04141631359160792   -0.035119829913611345
0.0208836604072013   -0.04141631359160792   -0.035119829913611345
0.05752673213855252   0.03659224732463283   0.020960803676610514
0.05752673213855252   0.03659224732463283   0.020960803676610514
0.05752673213855252   0.03659224732463283   0.020960803676610514
0.05752673213855252   0.03659224732463283   0.020960803676610514
0.2094703791276231   0.011176003389681582   -0.04277690658541135
0.2094703791276231   0.011176003389681582   -0.04277690658541135
0.2094703791276231   0.011176003389681582   -0.04277690658541135
0.2094703791276231   0.011176003389681582   -0.04277690658541135
0.1154151095031744   0.011544229807725674   0.00045089838185029697
0.1154151095031744   0.011544229807725674   0.00045089838185029697
0.1154151095031744   0.011544229807725674   0.00045089838185029697
0.1154151095031744   0.011544229807725674   0.00045089838185029697
0.020460467768306928   0.00647060660393347   0.0256229393535627
0.020460467768306928   0.00647060660393347   0.0256229393535627
0.020460467768306928   0.00647060660393347   0.0256229393535627
0.020460467768306928   0.00647060660393347   0.0256229393535627
-0.13753455951662064   -0.05130084242947982   -0.011373027232750443
-0.13753455951662064   -0.05130084242947982   -0.011373027232750443
-0.13753455951662064   -0.05130084242947982   -0.011373027232750443
-0.13753455951662064   -0.05130084242947982   -0.011373027232750443
-0.11529644933233045   -0.007522059101948328   0.011664582410351003
-0.11529644933233045   -0.007522059101948328   0.011664582410351003
-0.11529644933233045   -0.007522059101948328   0.011664582410351003
-0.11529644933233045   -0.007522059101948328   0.011664582410351003
0.021266251143207373   -0.0056797458815195465   -0.008984342521301987
0.021266251143207373   -0.0056797458815195465   -0.008984342521301987
0.021266251143207373   -0.0056797458815195465   -0.008984342521301987
0.021266251143207373   -0.0056797458815195465   -0.008984342521301987
-0.05392199697808075   -0.013194977744988609   -0.008618756698223389
-0.05392199697808075   -0.013194977744988609   -0.008618756698223389
-0.05392199697808075   -0.013194977744988609   -0.008618756698223389
-0.05392199697808075   -0.013194977744988609   -0.008618756698223389
0.03364059630313405   0.024478300852030614   0.022729336544781212
0.03364059630313405   0.024478300852030614   0.022729336544781212
0.03364059630313405   0.024478300852030614   0.022729336544781212
0.03364059630313405   0.024478300852030614   0.022729336544781212
-0.126514028731392   -0.036523340074635896   -0.015422033612269044
-0.126514028731392   -0.036523340074635896   -0.015422033612269044
-0.126514028731392   -0.036523340074635896   -0.015422033612269044
-0.126514028731392   -0.036523340074635896   -0.015422033612269044
-0.10364998746833262   0.009501765951759448   0.008238483400742281
-0.10364998746833262   0.009501765951759448   0.008238483400742281
-0.10364998746833262   0.009501765951759448   0.008238483400742281
-0.10364998746833262   0.009501765951759448   0.008238483400742281
0.0358483253900278   0.0104531211891385   -0.012165939780225243
0.0358483253900278   0.0104531211891385   -0.012165939780225243
0.0358483253900278   0.0104531211891385   -0.012165939780225243
0.0358483253900278   0.0104531211891385   -0.012165939780225243
-0.04157322424834212   0.0018055471184113686   -0.0010667188100370577
-0.04157322424834212   0.0018055471184113686   -0.0010667188100370577
-0.04157322424834212   0.0018055471184113686   -0.0010667188100370577
-0.04157322424834212   0.0018055471184113686   -0.0010667188100370577
0.04874573082839766   0.04240671220925796   0.02036749639150457
0.04874573082839766   0.04240671220925796   0.02036749639150457
0.04874573082839766   0.04240671220925796   0.02036749639150457
0.04874573082839766   0.04240671220925796   0.02036749639150457
-0.11543250712489565   -0.021336939286550647   -0.01983540964376285
-0.11543250712489565   -0.021336939286550647   -0.01983540964376285
-0.11543250712489565   -0.021336939286550647   -0.01983540964376285
-0.11543250712489565   -0.021336939286550647   -0.01983540964376285
-0.09193066729069956   0.02877823486149552   0.004972771865350903
-0.09193066729069956   0.02877823486149552   0.004972771865350903
-0.09193066729069956   0.02877823486149552   0.004972771865350903
-0.09193066729069956   0.02877823486149552   0.004972771865350903
0.04866526184351443   0.028771622028400036   -0.015525922502347125
0.04866526184351443   0.028771622028400036   -0.015525922502347125
0.04866526184351443   0.028771622028400036   -0.015525922502347125
0.04866526184351443   0.028771622028400036   -0.015525922502347125
-0.027890822947972075   0.018392742869719574   0.006993995007549506
-0.027890822947972075   0.018392742869719574   0.006993995007549506
-0.027890822947972075   0.018392742869719574   0.006993995007549506
-0.027890822947972075   0.018392742869719574   0.006993995007549506
-0.1251068546940801   -0.00978521558993161   0.009249870040404038
-0.1251068546940801   -0.00978521558993161   0.009249870040404038
-0.1251068546940801   -0.00978521558993161   0.009249870040404038
-0.1251068546940801   -0.00978521558993161   0.009249870040404038
-0.26962362920534544   -0.03659556603730014   0.002325507192994772
-0.26962362920534544   -0.03659556603730014   0.002325507192994772
-0.26962362920534544   -0.03659556603730014   0.002325507192994772
-0.26962362920534544   -0.03659556603730014   0.002325507192994772
-0.2594541931232794   -0.023002858895867312   -0.005070207788313562
-0.2594541931232794   -0.023002858895867312   -0.005070207788313562
-0.2594541931232794   -0.023002858895867312   -0.005070207788313562
-0.2594541931232794   -0.023002858895867312   -0.005070207788313562
-0.1130704171534587   0.009577262064153033   0.005695422138608517
-0.1130704171534587   0.009577262064153033   0.005695422138608517
-0.1130704171534587   0.009577262064153033   0.005695422138608517
-0.1130704171534587   0.009577262064153033   0.005695422138608517
-0.1920929895678597   -0.013736022467248758   -0.00503662073247227
-0.1920929895678597   -0.013736022467248758   -0.00503662073247227
-0.1920929895678597   -0.013736022467248758   -0.00503662073247227
-0.1920929895678597   -0.013736022467248758   -0.00503662073247227
-0.11320268527375985   0.008486460793292051   0.006124882807963741
-0.11320268527375985   0.008486460793292051   0.006124882807963741
-0.11320268527375985   0.008486460793292051   0.006124882807963741
-0.11320268527375985   0.008486460793292051   0.006124882807963741
-0.2583259739555088   -0.02091610657753694   -0.0015158642677912029
-0.2583259739555088   -0.02091610657753694   -0.0015158642677912029
-0.2583259739555088   -0.02091610657753694   -0.0015158642677912029
-0.2583259739555088   -0.02091610657753694   -0.0015158642677912029
-0.24720106983536758   -0.0042584908808183525   -0.007972422939745321
-0.24720106983536758   -0.0042584908808183525   -0.007972422939745321
-0.24720106983536758   -0.0042584908808183525   -0.007972422939745321
-0.24720106983536758   -0.0042584908808183525   -0.007972422939745321
-0.10154056825254563   0.026175015777509344   0.0021123296539292766
-0.10154056825254563   0.026175015777509344   0.0021123296539292766
-0.10154056825254563   0.026175015777509344   0.0021123296539292766
-0.10154056825254563   0.026175015777509344   0.0021123296539292766
-0.1794369628242046   0.0027191835171166204   0.0025783376985765386
-0.1794369628242046   0.0027191835171166204   0.0025783376985765386
-0.1794369628242046   0.0027191835171166204   0.0025783376985765386
-0.1794369628242046   0.0027191835171166204   0.0025783376985765386
-0.10122574536942708   0.027086125474770906   0.002775334372260475
-0.10122574536942708   0.027086125474770906   0.002775334372260475
-0.10122574536942708   0.027086125474770906   0.002775334372260475
-0.10122574536942708   0.027086125474770906   0.002775334372260475
-0.24671716359864038   -0.004370871458237058   -0.005440511178692681
-0.24671716359864038   -0.004370871458237058   -0.005440511178692681
-0.24671716359864038   -0.004370871458237058   -0.005440511178692681
-0.24671716359864038   -0.004370871458237058   -0.005440511178692681
-0.23544092408918119   0.014542773363988883   -0.011276290016480051
-0.23544092408918119   0.014542773363988883   -0.011276290016480051
-0.23544092408918119   0.014542773363988883   -0.011276290016480051
-0.23544092408918119   0.014542773363988883   -0.011276290016480051
-0.09052084969952982   0.04282148748673044   -0.0020213928040334617
-0.09052084969952982   0.04282148748673044   -0.0020213928040334617
-0.09052084969952982   0.04282148748673044   -0.0020213928040334617
-0.09052084969952982   0.04282148748673044   -0.0020213928040334617
-0.1674477210194557   0.01913168690856837   0.009696399153539923
-0.1674477210194557   0.01913168690856837   0.009696399153539923
-0.1674477210194557   0.01913168690856837   0.009696399153539923
-0.1674477210194557   0.01913168690856837   0.009696399153539923
-0.2694357049270616   -0.025720415902489434   -0.007610021550394433
-0.2694357049270616   -0.025720415902489434   -0.007610021550394433
-0.2694357049270616   -0.025720415902489434   -0.007610021550394433
-0.2694357049270616   -0.025720415902489434   -0.007610021550394433
-0.4005514700523699   -0.022767657533941846   0.015758421409906583
-0.4005514700523699   -0.022767657533941846   0.015758421409906583
-0.4005514700523699   -0.022767657533941846   0.015758421409906583
-0.4005514700523699   -0.022767657533941846   0.015758421409906583
-0.4008500130079677   -0.03818117881276736   -0.02143629643862246
-0.4008500130079677   -0.03818117881276736   -0.02143629643862246
-0.4008500130079677   -0.03818117881276736   -0.02143629643862246
-0.4008500130079677   -0.03818117881276736   -0.02143629643862246
-0.2451253376721504   0.02418910988697555   0.019382100684488538
-0.2451253376721504   0.02418910988697555   0.019382100684488538
-0.2451253376721504   0.02418910988697555   0.019382100684488538
-0.2451253376721504   0.02418910988697555   0.019382100684488538
-0.3271427870699768   -0.014035507768542933   -0.0021352673015394615
-0.3271427870699768   -0.014035507768542933   -0.0021352673015394615
-0.3271427870699768   -0.014035507768542933   -0.0021352673015394615
-0.3271427870699768   -0.014035507768542933   -0.0021352673015394615
-0.25743409635159215   -0.007337710632430272   -0.010634872193312618
-0.25743409635159215   -0.007337710632430272   -0.010634872193312618
-0.25743409635159215   -0.007337710632430272   -0.010634872193312618
-0.25743409635159215   -0.007337710632430272   -0.010634872193312618
-0.38771308299554613   -0.005826186960380758   0.011893361771102746
-0.38771308299554613   -0.005826186960380758   0.011893361771102746
-0.38771308299554613   -0.005826186960380758   0.011893361771102746
-0.38771308299554613   -0.005826186960380758   0.011893361771102746
-0.38546290536530053   -0.020304262647333413   -0.023853923083492927
-0.38546290536530053   -0.020304262647333413   -0.023853923083492927
-0.38546290536530053   -0.020304262647333413   -0.023853923083492927
-0.38546290536530053   -0.020304262647333413   -0.023853923083492927
-0.23381139197036427   0.03928933504975649   0.015428140454696398
-0.23381139197036427   0.03928933504975649   0.015428140454696398
-0.23381139197036427   0.03928933504975649   0.015428140454696398
-0.23381139197036427   0.03928933504975649   0.015428140454696398
-0.31192314847877634   0.002556638296356023   0.0057177980290463795
-0.31192314847877634   0.002556638296356023   0.0057177980290463795
-0.31192314847877634   0.002556638296356023   0.0057177980290463795
-0.31192314847877634   0.002556638296356023   0.0057177980290463795
-0.24571030697612076   0.009551351451945807   -0.01432845097627658
-0.24571030697612076   0.009551351451945807   -0.01432845097627658
-0.24571030697612076   0.009551351451945807   -0.01432845097627658
-0.24571030697612076   0.009551351451945807   -0.01432845097627658
-0.37263374304930785   0.010363968260715825   0.009623657588421278
-0.37263374304930785   0.010363968260715825   0.009623657588421278
-0.37263374304930785   0.010363968260715825   0.009623657588421278
-0.37263374304930785   0.010363968260715825   0.009623657588421278
-0.3717027095852584   -0.0008205266122317534   -0.02568332322630955
-0.3717027095852584   -0.0008205266122317534   -0.02568332322630955
-0.3717027095852584   -0.0008205266122317534   -0.02568332322630955
-0.3717027095852584   -0.0008205266122317534   -0.02568332322630955
-0.22261648221213481   0.05594574445207083   0.01144294828067001
-0.22261648221213481   0.05594574445207083   0.01144294828067001
-0.22261648221213481   0.05594574445207083   0.01144294828067001
-0.22261648221213481   0.05594574445207083   0.01144294828067001
-0.30058868849895903   0.018010533735426756   0.01274991427124694
-0.30058868849895903   0.018010533735426756   0.01274991427124694
-0.30058868849895903   0.018010533735426756   0.01274991427124694
-0.30058868849895903   0.018010533735426756   0.01274991427124694
-0.411172500568708   -0.03687485876459093   -0.023239529941134856
-0.411172500568708   -0.03687485876459093   -0.023239529941134856
-0.411172500568708   -0.03687485876459093   -0.023239529941134856
-0.411172500568708   -0.03687485876459093   -0.023239529941134856
-0.549977545511172   -0.009919947403360524   0.03430211823415666
-0.549977545511172   -0.009919947403360524   0.03430211823415666
-0.549977545511172   -0.009919947403360524   0.03430211823415666
-0.549977545511172   -0.009919947403360524   0.03430211823415666
-0.5425626453012664   -0.04965642884677479   -0.031079318816011448
-0.5425626453012664   -0.04965642884677479   -0.031079318816011448
-0.5425626453012664   -0.04965642884677479   -0.031079318816011448
-0.5425626453012664   -0.04965642884677479   -0.031079318816011448
-0.3739766144083226   0.04093549475110976   0.033814022995726
-0.3739766144083226   0.04093549475110976   0.033814022995726
-0.3739766144083226   0.04093549475110976   0.033814022995726
-0.3739766144083226   0.04093549475110976   0.033814022995726
-0.4491673867495242   -0.007997268667126897   0.0038092151353251343
-0.4491673867495242   -0.007997268667126897   0.0038092151353251343
-0.4491673867495242   -0.007997268667126897   0.0038092151353251343
-0.4491673867495242   -0.007997268667126897   0.0038092151353251343
-0.39814849925973483   -0.019816430981092523   -0.02629347552913161
-0.39814849925973483   -0.019816430981092523   -0.02629347552913161
-0.39814849925973483   -0.019816430981092523   -0.02629347552913161
-0.39814849925973483   -0.019816430981092523   -0.02629347552913161
-0.5176357694887342   0.011850487846545618   0.03204814355331702
-0.5176357694887342   0.011850487846545618   0.03204814355331702
-0.5176357694887342   0.011850487846545618   0.03204814355331702
-0.5176357694887342   0.011850487846545618   0.03204814355331702
-0.5181267375075737   -0.03905987499941972   -0.037008216079104025
-0.5181267375075737   -0.03905987499941972   -0.037008216079104025
-0.5181267375075737   -0.03905987499941972   -0.037008216079104025
-0.5181267375075737   -0.03905987499941972   -0.037008216079104025
-0.361472901180408   0.04790433305618905   0.02788750213744396
-0.361472901180408   0.04790433305618905   0.02788750213744396
-0.361472901180408   0.04790433305618905   0.02788750213744396
-0.361472901180408   0.04790433305618905   0.02788750213744396
-0.43543918116912633   0.003136238700737745   0.010140541454989094
-0.43543918116912633   0.003136238700737745   0.010140541454989094
-0.43543918116912633   0.003136238700737745   0.010140541454989094
-0.43543918116912633   0.003136238700737745   0.010140541454989094
-0.38492684254039905   -0.011094855926189875   -0.03038301568012931
-0.38492684254039905   -0.011094855926189875   -0.03038301568012931
-0.38492684254039905   -0.011094855926189875   -0.03038301568012931
-0.38492684254039905   -0.011094855926189875   -0.03038301568012931
-0.49375270110662794   0.020859409023914144   0.02494268190228937
-0.49375270110662794   0.020859409023914144   0.02494268190228937
-0.49375270110662794   0.020859409023914144   0.02494268190228937
-0.49375270110662794   0.020859409023914144   0.02494268190228937
-0.48796129224927837   -0.02327315089232615   -0.04129458596291872
-0.48796129224927837   -0.02327315089232615   -0.04129458596291872
-0.48796129224927837   -0.02327315089232615   -0.04129458596291872
-0.48796129224927837   -0.02327315089232615   -0.04129458596291872
-0.3505051152444884   0.056256276973388794   0.02322784489191975
-0.3505051152444884   0.056256276973388794   0.02322784489191975
-0.3505051152444884   0.056256276973388794   0.02322784489191975
-0.3505051152444884   0.056256276973388794   0.02322784489191975
-0.4094011850767032   0.013543286558814982   0.01908572131880827
-0.4094011850767032   0.013543286558814982   0.01908572131880827
-0.4094011850767032   0.013543286558814982   0.01908572131880827
-0.4094011850767032   0.013543286558814982   0.01908572131880827
0.43418850771492074   0.03950022893659662   0.0374380886315579
0.43418850771492074   0.03950022893659662   0.0374380886315579
0.43418850771492074   0.03950022893659662   0.0374380886315579
0.43418850771492074   0.03950022893659662   0.0374380886315579
0.15874897210616792   -0.07171862374869502   -0.024631311072512315
0.15874897210616792   -0.07171862374869502   -0.024631311072512315
0.15874897210616792   -0.07171862374869502   -0.024631311072512315
0.15874897210616792   -0.07171862374869502   -0.024631311072512315
0.19565685063474675   -0.0005818612257909792   0.026913354308151602
0.19565685063474675   -0.0005818612257909792   0.026913354308151602
0.19565685063474675   -0.0005818612257909792   0.026913354308151602
0.19565685063474675   -0.0005818612257909792   0.026913354308151602
0.44185108860857536   -0.009607700409870662   -0.03146253763827333
0.44185108860857536   -0.009607700409870662   -0.03146253763827333
0.44185108860857536   -0.009607700409870662   -0.03146253763827333
0.44185108860857536   -0.009607700409870662   -0.03146253763827333
0.28869467722547065   -0.012872202007846265   -0.027765601369121384
0.28869467722547065   -0.012872202007846265   -0.027765601369121384
0.28869467722547065   -0.012872202007846265   -0.027765601369121384
0.28869467722547065   -0.012872202007846265   -0.027765601369121384
0.46755739520326645   0.0549231965094541   0.03253809841585734
0.46755739520326645   0.0549231965094541   0.03253809841585734
0.46755739520326645   0.0549231965094541   0.03253809841585734
0.46755739520326645   0.0549231965094541   0.03253809841585734
0.17178118014367538   -0.06328212204149058   -0.02976473733150376
0.17178118014367538   -0.06328212204149058   -0.02976473733150376
0.17178118014367538   -0.06328212204149058   -0.02976473733150376
0.17178118014367538   -0.06328212204149058   -0.02976473733150376
0.21012207971958277   0.00789059752413055   0.02217630635268416
0.21012207971958277   0.00789059752413055   0.02217630635268416
0.21012207971958277   0.00789059752413055   0.02217630635268416
0.21012207971958277   0.00789059752413055   0.02217630635268416
0.4683621797103799   1.3776490567468658e-05   -0.0395830048136201
0.4683621797103799   1.3776490567468658e-05   -0.0395830048136201
0.4683621797103799   1.3776490567468658e-05   -0.0395830048136201
0.4683621797103799   1.3776490567468658e-05   -0.0395830048136201
0.3164276897595821   -0.002493266920763307   -0.016848066858368944
0.3164276897595821   -0.002493266920763307   -0.016848066858368944
0.3164276897595821   -0.002493266920763307   -0.016848066858368944
0.3164276897595821   -0.002493266920763307   -0.016848066858368944
0.4943413440891019   0.06530375653467413   0.02502283703588292
0.4943413440891019   0.06530375653467413   0.02502283703588292
0.4943413440891019   0.06530375653467413   0.02502283703588292
0.4943413440891019   0.06530375653467413   0.02502283703588292
0.18608064138189032   -0.05546165647895174   -0.0346786313326958
0.18608064138189032   -0.05546165647895174   -0.0346786313326958
0.18608064138189032   -0.05546165647895174   -0.0346786313326958
0.18608064138189032   -0.05546165647895174   -0.0346786313326958
0.22456957680885695   0.02659515360418635   0.019219646805878638
0.22456957680885695   0.02659515360418635   0.019219646805878638
0.22456957680885695   0.02659515360418635   0.019219646805878638
0.22456957680885695   0.02659515360418635   0.019219646805878638
0.5032007975066457   0.025100038005424943   -0.042682625381665076
0.5032007975066457   0.025100038005424943   -0.042682625381665076
0.5032007975066457   0.025100038005424943   -0.042682625381665076
0.5032007975066457   0.025100038005424943   -0.042682625381665076
0.3334117270745424   0.010158276763943153   -0.007433043784579457
0.3334117270745424   0.010158276763943153   -0.007433043784579457
0.3334117270745424   0.010158276763943153   -0.007433043784579457
0.3334117270745424   0.010158276763943153   -0.007433043784579457
0.18845968545233166   0.022177781993985506   0.030025849915623883
0.18845968545233166   0.022177781993985506   0.030025849915623883
0.18845968545233166   0.022177781993985506   0.030025849915623883
0.18845968545233166   0.022177781993985506   0.030025849915623883
-0.09233365699968246   -0.06693615873093331   -0.012921391961064448
-0.09233365699968246   -0.06693615873093331   -0.012921391961064448
-0.09233365699968246   -0.06693615873093331   -0.012921391961064448
-0.09233365699968246   -0.06693615873093331   -0.012921391961064448
-0.06701833784261964   -0.019730956309203546   0.009044194326105013
-0.06701833784261964   -0.019730956309203546   0.009044194326105013
-0.06701833784261964   -0.019730956309203546   0.009044194326105013
-0.06701833784261964   -0.019730956309203546   0.009044194326105013
0.189790242020496   0.0008981519591788473   -0.0038997019480719285
0.189790242020496   0.0008981519591788473   -0.0038997019480719285
0.189790242020496   0.0008981519591788473   -0.0038997019480719285
0.189790242020496   0.0008981519591788473   -0.0038997019480719285
0.0522417976669957   -0.014048805470208146   -0.011792681709653557
0.0522417976669957   -0.014048805470208146   -0.011792681709653557
0.0522417976669957   -0.014048805470208146   -0.011792681709653557
0.0522417976669957   -0.014048805470208146   -0.011792681709653557
0.20333329204753872   0.037894392360726004   0.02681930778559444
0.20333329204753872   0.037894392360726004   0.02681930778559444
0.20333329204753872   0.037894392360726004   0.02681930778559444
0.20333329204753872   0.037894392360726004   0.02681930778559444
-0.07944968454534551   -0.055615493386434206   -0.017228002110295654
-0.07944968454534551   -0.055615493386434206   -0.017228002110295654
-0.07944968454534551   -0.055615493386434206   -0.017228002110295654
-0.07944968454534551   -0.055615493386434206   -0.017228002110295654
-0.05354933265391715   -0.003852195562470578   0.005705134505658987
-0.05354933265391715   -0.003852195562470578   0.005705134505658987
-0.05354933265391715   -0.003852195562470578   0.005705134505658987
-0.05354933265391715   -0.003852195562470578   0.005705134505658987
0.2056732583295446   0.015127245177212739   -0.0073044482505888715
0.2056732583295446   0.015127245177212739   -0.0073044482505888715
0.2056732583295446   0.015127245177212739   -0.0073044482505888715
0.2056732583295446   0.015127245177212739   -0.0073044482505888715
0.06524220848376273   -0.0015116472636064627   -0.004684101921210108
0.06524220848376273   -0.0015116472636064627   -0.004684101921210108
0.06524220848376273   -0.0015116472636064627   -0.004684101921210108
0.06524220848376273   -0.0015116472636064627   -0.004684101921210108
0.21976059460203534   0.05443388220450048   0.02382559608457715
0.21976059460203534   0.05443388220450048   0.02382559608457715
0.21976059460203534   0.05443388220450048   0.02382559608457715
0.21976059460203534   0.05443388220450048   0.02382559608457715
-0.0665239704860093   -0.04204613414935718   -0.020974116067915202
-0.0665239704860093   -0.04204613414935718   -0.020974116067915202
-0.0665239704860093   -0.04204613414935718   -0.020974116067915202
-0.0665239704860093   -0.04204613414935718   -0.020974116067915202
-0.04024372847878913   0.01457182838850257   0.002384099620469102
-0.04024372847878913   0.01457182838850257   0.002384099620469102
-0.04024372847878913   0.01457182838850257   0.002384099620469102
-0.04024372847878913   0.01457182838850257   0.002384099620469102
0.21973844121716446   0.03209488543454428   -0.010435762982941778
0.21973844121716446   0.03209488543454428   -0.010435762982941778
0.21973844121716446   0.03209488543454428   -0.010435762982941778
0.21973844121716446   0.03209488543454428   -0.010435762982941778
0.0813616036942391   0.013887213884659154   0.003622406543254039
0.0813616036942391   0.013887213884659154   0.003622406543254039
0.0813616036942391   0.013887213884659154   0.003622406543254039
0.0813616036942391   0.013887213884659154   0.003622406543254039
-0.07283068775652607   0.004857816598851657   0.01279947892493438
-0.07283068775652607   0.004857816598851657   0.01279947892493438
-0.07283068775652607   0.004857816598851657   0.01279947892493438
-0.07283068775652607   0.004857816598851657   0.01279947892493438
-0.3384439418256012   -0.05916764898190742   -0.0017490155382405633
-0.3384439418256012   -0.05916764898190742   -0.0017490155382405633
-0.3384439418256012   -0.05916764898190742   -0.0017490155382405633
-0.3384439418256012   -0.05916764898190742   -0.0017490155382405633
-0.32250147555348724   -0.03503564980980114   -0.007938078831133786
-0.32250147555348724   -0.03503564980980114   -0.007938078831133786
-0.32250147555348724   -0.03503564980980114   -0.007938078831133786
-0.32250147555348724   -0.03503564980980114   -0.007938078831133786
-0.06136456880396578   0.009102021488252683   0.008480061721916086
-0.06136456880396578   0.009102021488252683   0.008480061721916086
-0.06136456880396578   0.009102021488252683   0.008480061721916086
-0.06136456880396578   0.009102021488252683   0.008480061721916086
-0.199131176385131   -0.018156914883839012   -0.007370899262020107
-0.199131176385131   -0.018156914883839012   -0.007370899262020107
-0.199131176385131   -0.018156914883839012   -0.007370899262020107
-0.199131176385131   -0.018156914883839012   -0.007370899262020107
-0.05869062237998336   0.0212537497142858   0.009698065615797022
-0.05869062237998336   0.0212537497142858   0.009698065615797022
-0.05869062237998336   0.0212537497142858   0.009698065615797022
-0.05869062237998336   0.0212537497142858   0.009698065615797022
-0.3244243505607415   -0.04643630661910579   -0.006151797058100549
-0.3244243505607415   -0.04643630661910579   -0.006151797058100549
-0.3244243505607415   -0.04643630661910579   -0.006151797058100549
-0.3244243505607415   -0.04643630661910579   -0.006151797058100549
-0.30765108352814363   -0.017613631439331513   -0.010720391154677074
-0.30765108352814363   -0.017613631439331513   -0.010720391154677074
-0.30765108352814363   -0.017613631439331513   -0.010720391154677074
-0.30765108352814363   -0.017613631439331513   -0.010720391154677074
-0.048258039534074794   0.023479982477629086   0.004829422064771148
-0.048258039534074794   0.023479982477629086   0.004829422064771148
-0.048258039534074794   0.023479982477629086   0.004829422064771148
-0.048258039534074794   0.023479982477629086   0.004829422064771148
-0.18414865123621177   -0.003583933178186234   -0.00010786934099427797
-0.18414865123621177   -0.003583933178186234   -0.00010786934099427797
-0.18414865123621177   -0.003583933178186234   -0.00010786934099427797
-0.18414865123621177   -0.003583933178186234   -0.00010786934099427797
-0.04502792739846109   0.03828922588469512   0.006170739335773601
-0.04502792739846109   0.03828922588469512   0.006170739335773601
-0.04502792739846109   0.03828922588469512   0.006170739335773601
-0.04502792739846109   0.03828922588469512   0.006170739335773601
-0.31018535400229813   -0.03172703318493838   -0.009278341779842809
-0.31018535400229813   -0.03172703318493838   -0.009278341779842809
-0.31018535400229813   -0.03172703318493838   -0.009278341779842809
-0.31018535400229813   -0.03172703318493838   -0.009278341779842809
-0.293824133193946   -0.00024212167975767862   -0.01403615514205793
-0.293824133193946   -0.00024212167975767862   -0.01403615514205793
-0.293824133193946   -0.00024212167975767862   -0.01403615514205793
-0.293824133193946   -0.00024212167975767862   -0.01403615514205793
-0.03575968736516383   0.03815680515914375   0.0012193284179544649
-0.03575968736516383   0.03815680515914375   0.0012193284179544649
-0.03575968736516383   0.03815680515914375   0.0012193284179544649
-0.03575968736516383   0.03815680515914375   0.0012193284179544649
-0.1703924755903749   0.010936043504258253   0.006799876115288329
-0.1703924755903749   0.010936043504258253   0.006799876115288329
-0.1703924755903749   0.010936043504258253   0.006799876115288329
-0.1703924755903749   0.010936043504258253   0.006799876115288329
-0.32980059368061493   -0.012757626083845813   -0.004942297711368261
-0.32980059368061493   -0.012757626083845813   -0.004942297711368261
-0.32980059368061493   -0.012757626083845813   -0.004942297711368261
-0.32980059368061493   -0.012757626083845813   -0.004942297711368261
-0.5792452986965064   -0.04805622970371805   0.010980657695945216
-0.5792452986965064   -0.04805622970371805   0.010980657695945216
-0.5792452986965064   -0.04805622970371805   0.010980657695945216
-0.5792452986965064   -0.04805622970371805   0.010980657695945216
-0.5716454581869997   -0.049763232598894105   -0.023859491230010226
-0.5716454581869997   -0.049763232598894105   -0.023859491230010226
-0.5716454581869997   -0.049763232598894105   -0.023859491230010226
-0.5716454581869997   -0.049763232598894105   -0.023859491230010226
-0.3051578935523214   0.02250204787675003   0.021242133488146887
-0.3051578935523214   0.02250204787675003   0.021242133488146887
-0.3051578935523214   0.02250204787675003   0.021242133488146887
-0.3051578935523214   0.02250204787675003   0.021242133488146887
-0.44337463765025836   -0.019270665626080763   -0.0025785630234425247
-0.44337463765025836   -0.019270665626080763   -0.0025785630234425247
-0.44337463765025836   -0.019270665626080763   -0.0025785630234425247
-0.44337463765025836   -0.019270665626080763   -0.0025785630234425247
-0.31443239171607706   0.0049380142087635664   -0.007566323662644748
-0.31443239171607706   0.0049380142087635664   -0.007566323662644748
-0.31443239171607706   0.0049380142087635664   -0.007566323662644748
-0.31443239171607706   0.0049380142087635664   -0.007566323662644748
-0.5623074689848281   -0.03213570789249069   0.005202930074449975
-0.5623074689848281   -0.03213570789249069   0.005202930074449975
-0.5623074689848281   -0.03213570789249069   0.005202930074449975
-0.5623074689848281   -0.03213570789249069   0.005202930074449975
-0.5522104893806977   -0.03275446765210392   -0.026391775644272204
-0.5522104893806977   -0.03275446765210392   -0.026391775644272204
-0.5522104893806977   -0.03275446765210392   -0.026391775644272204
-0.5522104893806977   -0.03275446765210392   -0.026391775644272204
-0.29134683019445495   0.03619689644621579   0.016990347628221082
-0.29134683019445495   0.03619689644621579   0.016990347628221082
-0.29134683019445495   0.03619689644621579   0.016990347628221082
-0.29134683019445495   0.03619689644621579   0.016990347628221082
-0.42357220545880964   -0.0031706459912776014   0.004716211210958637
-0.42357220545880964   -0.0031706459912776014   0.004716211210958637
-0.42357220545880964   -0.0031706459912776014   0.004716211210958637
-0.42357220545880964   -0.0031706459912776014   0.004716211210958637
-0.30005389856994324   0.020737988398583596   -0.011086086201589122
-0.30005389856994324   0.020737988398583596   -0.011086086201589122
-0.30005389856994324   0.020737988398583596   -0.011086086201589122
-0.30005389856994324   0.020737988398583596   -0.011086086201589122
-0.5430172241922603   -0.0168093627915228   0.0036294454373335047
-0.5430172241922603   -0.0168093627915228   0.0036294454373335047
-0.5430172241922603   -0.0168093627915228   0.0036294454373335047
-0.5430172241922603   -0.0168093627915228   0.0036294454373335047
-0.5348352652620709   -0.014338010328443021   -0.02775704257196311
-0.5348352652620709   -0.014338010328443021   -0.02775704257196311
-0.5348352652620709   -0.014338010328443021   -0.02775704257196311
-0.5348352652620709   -0.014338010328443021   -0.02775704257196311
-0.27797085542641825   0.051231789536253666   0.013756322479571568
-0.27797085542641825   0.051231789536253666   0.013756322479571568
-0.27797085542641825   0.051231789536253666   0.013756322479571568
-0.27797085542641825   0.051231789536253666   0.013756322479571568
-0.41026282858468255   0.010574991095412087   0.01100236826643013
-0.41026282858468255   0.010574991095412087   0.01100236826643013
-0.41026282858468255   0.010574991095412087   0.01100236826643013
-0.41026282858468255   0.010574991095412087   0.01100236826643013
-0.5815787089446104   -0.027374273655450962   -0.02136834959284178
-0.5815787089446104   -0.027374273655450962   -0.02136834959284178
-0.5815787089446104   -0.027374273655450962   -0.02136834959284178
-0.5815787089446104   -0.027374273655450962   -0.02136834959284178
-0.8295051964292832   -0.029999669240147186   0.0369931387671613
-0.8295051964292832   -0.029999669240147186   0.0369931387671613
-0.8295051964292832   -0.029999669240147186   0.0369931387671613
-0.8295051964292832   -0.029999669240147186   0.0369931387671613
-0.81394888564716   -0.059503537664871486   -0.02840886784534276
-0.81394888564716   -0.059503537664871486   -0.02840886784534276
-0.81394888564716   -0.059503537664871486   -0.02840886784534276
-0.81394888564716   -0.059503537664871486   -0.02840886784534276
-0.5401519180603601   0.04619533086698037   0.03764964593731415
-0.5401519180603601   0.04619533086698037   0.03764964593731415
-0.5401519180603601   0.04619533086698037   0.03764964593731415
-0.5401519180603601   0.04619533086698037   0.03764964593731415
-0.6606125648563078   -0.008157539909888656   0.007783823856780683
-0.6606125648563078   -0.008157539909888656   0.007783823856780683
-0.6606125648563078   -0.008157539909888656   0.007783823856780683
-0.6606125648563078   -0.008157539909888656   0.007783823856780683
-0.563365118024711   -0.008457679312337124   -0.02376334370511997
-0.563365118024711   -0.008457679312337124   -0.02376334370511997
-0.563365118024711   -0.008457679312337124   -0.02376334370511997
-0.563365118024711   -0.008457679312337124   -0.02376334370511997
-0.7903320995932366   -0.004446941395982118   0.03461846615537828
-0.7903320995932366   -0.004446941395982118   0.03461846615537828
-0.7903320995932366   -0.004446941395982118   0.03461846615537828
-0.7903320995932366   -0.004446941395982118   0.03461846615537828
-0.7844389249404476   -0.04896134285893192   -0.033474853678121176
-0.7844389249404476   -0.04896134285893192   -0.033474853678121176
-0.7844389249404476   -0.04896134285893192   -0.033474853678121176
-0.7844389249404476   -0.04896134285893192   -0.033474853678121176
-0.5238710320710851   0.05269473684665872   0.029856306405028475
-0.5238710320710851   0.05269473684665872   0.029856306405028475
-0.5238710320710851   0.05269473684665872   0.029856306405028475
-0.5238710320710851   0.05269473684665872   0.029856306405028475
-0.6455715865052402   0.0033577988924934077   0.013821542248699255
-0.6455715865052402   0.0033577988924934077   0.013821542248699255
-0.6455715865052402   0.0033577988924934077   0.013821542248699255
-0.6455715865052402   0.0033577988924934077   0.013821542248699255
-0.5457849826318797   5.056202329059567e-05   -0.0270692715755766
-0.5457849826318797   5.056202329059567e-05   -0.0270692715755766
-0.5457849826318797   5.056202329059567e-05   -0.0270692715755766
-0.5457849826318797   5.056202329059567e-05   -0.0270692715755766
-0.7621183591500184   0.004089447194068646   0.025077185221011454
-0.7621183591500184   0.004089447194068646   0.025077185221011454
-0.7621183591500184   0.004089447194068646   0.025077185221011454
-0.7621183591500184   0.004089447194068646   0.025077185221011454
-0.7521273048214212   -0.036348493801533405   -0.03817381940575842
-0.7521273048214212   -0.036348493801533405   -0.03817381940575842
-0.7521273048214212   -0.036348493801533405   -0.03817381940575842
-0.7521273048214212   -0.036348493801533405   -0.03817381940575842
-0.5095902565465616   0.058711065960302   0.025418924716838195
-0.5095902565465616   0.058711065960302   0.025418924716838195
-0.5095902565465616   0.058711065960302   0.025418924716838195
-0.5095902565465616   0.058711065960302   0.025418924716838195
-0.6128899038201622   0.012908123099738905   0.022999851040499945
-0.6128899038201622   0.012908123099738905   0.022999851040499945
-0.6128899038201622   0.012908123099738905   0.022999851040499945
-0.6128899038201622   0.012908123099738905   0.022999851040499945
0.7263071887320159   0.0543638815465218   0.038222998777693265
0.7263071887320159   0.0543638815465218   0.038222998777693265
0.7263071887320159   0.0543638815465218   0.038222998777693265
0.7263071887320159   0.0543638815465218   0.038222998777693265
0.31995966472555437   -0.08505718133011503   -0.017673836888382102
0.31995966472555437   -0.08505718133011503   -0.017673836888382102
0.31995966472555437   -0.08505718133011503   -0.017673836888382102
0.31995966472555437   -0.08505718133011503   -0.017673836888382102
0.3564108628083702   -0.015160707998663994   0.026212650217934348
0.3564108628083702   -0.015160707998663994   0.026212650217934348
0.3564108628083702   -0.015160707998663994   0.026212650217934348
0.3564108628083702   -0.015160707998663994   0.026212650217934348
0.7341173797021471   -0.0008646813827772881   -0.027626184106119125
0.7341173797021471   -0.0008646813827772881   -0.027626184106119125
0.7341173797021471   -0.0008646813827772881   -0.027626184106119125
0.7341173797021471   -0.0008646813827772881   -0.027626184106119125
0.5029313610626549   -0.015053998334930638   -0.03916586521380212
0.5029313610626549   -0.015053998334930638   -0.03916586521380212
0.5029313610626549   -0.015053998334930638   -0.03916586521380212
0.5029313610626549   -0.015053998334930638   -0.03916586521380212
0.7595329457061039   0.06661547620289385   0.031971488327989954
0.7595329457061039   0.06661547620289385   0.031971488327989954
0.7595329457061039   0.06661547620289385   0.031971488327989954
0.7595329457061039   0.06661547620289385   0.031971488327989954
0.33344039005781906   -0.08019577233092944   -0.023604649202551925
0.33344039005781906   -0.08019577233092944   -0.023604649202551925
0.33344039005781906   -0.08019577233092944   -0.023604649202551925
0.33344039005781906   -0.08019577233092944   -0.023604649202551925
0.37058701870691546   -0.007389670614082369   0.021174920666625897
0.37058701870691546   -0.007389670614082369   0.021174920666625897
0.37058701870691546   -0.007389670614082369   0.021174920666625897
0.37058701870691546   -0.007389670614082369   0.021174920666625897
0.7590078003330292   0.0076963373562290716   -0.034467843490358085
0.7590078003330292   0.0076963373562290716   -0.034467843490358085
0.7590078003330292   0.0076963373562290716   -0.034467843490358085
0.7590078003330292   0.0076963373562290716   -0.034467843490358085
0.5342668549111792   -0.005921724464864414   -0.026671143813954135
0.5342668549111792   -0.005921724464864414   -0.026671143813954135
0.5342668549111792   -0.005921724464864414   -0.026671143813954135
0.5342668549111792   -0.005921724464864414   -0.026671143813954135
0.7842676542407082   0.07584752086683698   0.02368024253742985
0.7842676542407082   0.07584752086683698   0.02368024253742985
0.7842676542407082   0.07584752086683698   0.02368024253742985
0.7842676542407082   0.07584752086683698   0.02368024253742985
0.3474627194450039   -0.07340529947892266   -0.028430946778091576
0.3474627194450039   -0.07340529947892266   -0.028430946778091576
0.3474627194450039   -0.07340529947892266   -0.028430946778091576
0.3474627194450039   -0.07340529947892266   -0.028430946778091576
0.3834395896908287   0.013397311920386457   0.01856495200895951
0.3834395896908287   0.013397311920386457   0.01856495200895951
0.3834395896908287   0.013397311920386457   0.01856495200895951
0.3834395896908287   0.013397311920386457   0.01856495200895951
0.7896685366855948   0.032761649656361   -0.03607723979941028
0.7896685366855948   0.032761649656361   -0.03607723979941028
0.7896685366855948   0.032761649656361   -0.03607723979941028
0.7896685366855948   0.032761649656361   -0.03607723979941028
0.5458288879377546   0.006402808251630102   -0.01804983230295844
0.5458288879377546   0.006402808251630102   -0.01804983230295844
0.5458288879377546   0.006402808251630102   -0.01804983230295844
0.5458288879377546   0.006402808251630102   -0.01804983230295844
0.35391692883172987   0.03192441440836445   0.03513088790401197
0.35391692883172987   0.03192441440836445   0.03513088790401197
0.35391692883172987   0.03192441440836445   0.03513088790401197
0.35391692883172987   0.03192441440836445   0.03513088790401197
-0.044599760084687794   -0.1046077498866869   -0.010093234272153782
-0.044599760084687794   -0.1046077498866869   -0.010093234272153782
-0.044599760084687794   -0.1046077498866869   -0.010093234272153782
-0.044599760084687794   -0.1046077498866869   -0.010093234272153782
-0.01329100804242856   -0.03717008723800336   0.00884035212897232
-0.01329100804242856   -0.03717008723800336   0.00884035212897232
-0.01329100804242856   -0.03717008723800336   0.00884035212897232
-0.01329100804242856   -0.03717008723800336   0.00884035212897232
0.3508473572291548   -0.01856726962930655   0.0018016839524996747
0.3508473572291548   -0.01856726962930655   0.0018016839524996747
0.3508473572291548   -0.01856726962930655   0.0018016839524996747
0.3508473572291548   -0.01856726962930655   0.0018016839524996747
0.1573318228632721   -0.02894703409920215   -0.018575332578378807
0.1573318228632721   -0.02894703409920215   -0.018575332578378807
0.1573318228632721   -0.02894703409920215   -0.018575332578378807
0.1573318228632721   -0.02894703409920215   -0.018575332578378807
0.3691826090141139   0.043782250330924054   0.031128422917066884
0.3691826090141139   0.043782250330924054   0.031128422917066884
0.3691826090141139   0.043782250330924054   0.031128422917066884
0.3691826090141139   0.043782250330924054   0.031128422917066884
-0.030328975832130282   -0.09822232320297619   -0.015297250854563453
-0.030328975832130282   -0.09822232320297619   -0.015297250854563453
-0.030328975832130282   -0.09822232320297619   -0.015297250854563453
-0.030328975832130282   -0.09822232320297619   -0.015297250854563453
0.001160172675352707   -0.023240696563828715   0.005368928698365088
0.001160172675352707   -0.023240696563828715   0.005368928698365088
0.001160172675352707   -0.023240696563828715   0.005368928698365088
0.001160172675352707   -0.023240696563828715   0.005368928698365088
0.36567139650274244   -0.008061306267450136   -0.0027315547008713963
0.36567139650274244   -0.008061306267450136   -0.0027315547008713963
0.36567139650274244   -0.008061306267450136   -0.0027315547008713963
0.36567139650274244   -0.008061306267450136   -0.0027315547008713963
0.1698527321783817   -0.020387263162103014   -0.012024085336472864
0.1698527321783817   -0.020387263162103014   -0.012024085336472864
0.1698527321783817   -0.020387263162103014   -0.012024085336472864
0.1698527321783817   -0.020387263162103014   -0.012024085336472864
0.3849919248982698   0.05801152028578725   0.02779826072352788
0.3849919248982698   0.05801152028578725   0.02779826072352788
0.3849919248982698   0.05801152028578725   0.02779826072352788
0.3849919248982698   0.05801152028578725   0.02779826072352788
-0.01738097540393333   -0.0885341428008248   -0.02204336546106902
-0.01738097540393333   -0.0885341428008248   -0.02204336546106902
-0.01738097540393333   -0.0885341428008248   -0.02204336546106902
-0.01738097540393333   -0.0885341428008248   -0.02204336546106902
0.012508998271894656   -0.006891155890847744   0.001863473335367862
0.012508998271894656   -0.006891155890847744   0.001863473335367862
0.012508998271894656   -0.006891155890847744   0.001863473335367862
0.012508998271894656   -0.006891155890847744   0.001863473335367862
0.3767558773184319   0.005362464479148385   -0.0068187624117921515
0.3767558773184319   0.005362464479148385   -0.0068187624117921515
0.3767558773184319   0.005362464479148385   -0.0068187624117921515
0.3767558773184319   0.005362464479148385   -0.0068187624117921515
0.18528025636793605   -0.00756949241205554   -0.004972141779317981
0.18528025636793605   -0.00756949241205554   -0.004972141779317981
0.18528025636793605   -0.00756949241205554   -0.004972141779317981
0.18528025636793605   -0.00756949241205554   -0.004972141779317981
-0.016342983148821943   0.009099104970995218   0.01748379554949336
-0.016342983148821943   0.009099104970995218   0.01748379554949336
-0.016342983148821943   0.009099104970995218   0.01748379554949336
-0.016342983148821943   0.009099104970995218   0.01748379554949336
-0.40630701116265416   -0.13108246098987159   -0.008062441301005223
-0.40630701116265416   -0.13108246098987159   -0.008062441301005223
-0.40630701116265416   -0.13108246098987159   -0.008062441301005223
-0.40630701116265416   -0.13108246098987159   -0.008062441301005223
-0.374741884480854   -0.056983821714677196   -0.008571838615845078
-0.374741884480854   -0.056983821714677196   -0.008571838615845078
-0.374741884480854   -0.056983821714677196   -0.008571838615845078
-0.374741884480854   -0.056983821714677196   -0.008571838615845078
-0.014873894865874492   -0.044181381646005796   0.007937212419745099
-0.014873894865874492   -0.044181381646005796   0.007937212419745099
-0.014873894865874492   -0.044181381646005796   0.007937212419745099
-0.014873894865874492   -0.044181381646005796   0.007937212419745099
-0.20397238512150712   -0.05279351491134952   -0.01656853966614647
-0.20397238512150712   -0.05279351491134952   -0.01656853966614647
-0.20397238512150712   -0.05279351491134952   -0.01656853966614647
-0.20397238512150712   -0.05279351491134952   -0.01656853966614647
-0.00028785769493343445   0.02246546224280916   0.014220554385635435
-0.00028785769493343445   0.02246546224280916   0.014220554385635435
-0.00028785769493343445   0.02246546224280916   0.014220554385635435
-0.00028785769493343445   0.02246546224280916   0.014220554385635435
-0.38838771165895414   -0.12269045561065119   -0.011094340610371543
-0.38838771165895414   -0.12269045561065119   -0.011094340610371543
-0.38838771165895414   -0.12269045561065119   -0.011094340610371543
-0.38838771165895414   -0.12269045561065119   -0.011094340610371543
-0.3568097296572683   -0.041525585698625835   -0.011646728693309917
-0.3568097296572683   -0.041525585698625835   -0.011646728693309917
-0.3568097296572683   -0.041525585698625835   -0.011646728693309917
-0.3568097296572683   -0.041525585698625835   -0.011646728693309917
-0.0014184757214415339   -0.03407860304800364   0.0033135931985688073
-0.0014184757214415339   -0.03407860304800364   0.0033135931985688073
-0.0014184757214415339   -0.03407860304800364   0.0033135931985688073
-0.0014184757214415339   -0.03407860304800364   0.0033135931985688073
-0.18656445740639566   -0.04166730532269838   -0.009169334218280404
-0.18656445740639566   -0.04166730532269838   -0.009169334218280404
-0.18656445740639566   -0.04166730532269838   -0.009169334218280404
-0.18656445740639566   -0.04166730532269838   -0.009169334218280404
0.014401032173452677   0.037260348609322994   0.01107218101571323
0.014401032173452677   0.037260348609322994   0.01107218101571323
0.014401032173452677   0.037260348609322994   0.01107218101571323
0.014401032173452677   0.037260348609322994   0.01107218101571323
-0.37261562473006843   -0.11285092453386295   -0.0193508652220701
-0.37261562473006843   -0.11285092453386295   -0.0193508652220701
-0.37261562473006843   -0.11285092453386295   -0.0193508652220701
-0.37261562473006843   -0.11285092453386295   -0.0193508652220701
-0.34413325084607793   -0.026777370961408517   -0.015077988703892802
-0.34413325084607793   -0.026777370961408517   -0.015077988703892802
-0.34413325084607793   -0.026777370961408517   -0.015077988703892802
-0.34413325084607793   -0.026777370961408517   -0.015077988703892802
0.007405169692787846   -0.025972931307878422   -0.004573894143135506
0.007405169692787846   -0.025972931307878422   -0.004573894143135506
0.007405169692787846   -0.025972931307878422   -0.004573894143135506
0.007405169692787846   -0.025972931307878422   -0.004573894143135506
-0.1738012302588864   -0.03127331678494129   -0.004513388001453382
-0.1738012302588864   -0.03127331678494129   -0.004513388001453382
-0.1738012302588864   -0.03127331678494129   -0.004513388001453382
-0.1738012302588864   -0.03127331678494129   -0.004513388001453382
-0.38070614491618077   -0.010643870582115453   -0.0004967004763980834
-0.38070614491618077   -0.010643870582115453   -0.0004967004763980834
-0.38070614491618077   -0.010643870582115453   -0.0004967004763980834
-0.38070614491618077   -0.010643870582115453   -0.0004967004763980834
-0.7698728572368507   -0.1409292366300673   -0.006430628137914933
-0.7698728572368507   -0.1409292366300673   -0.006430628137914933
-0.7698728572368507   -0.1409292366300673   -0.006430628137914933
-0.7698728572368507   -0.1409292366300673   -0.006430628137914933
-0.7360832990959693   -0.07300687418568311   -0.02537707128034037
-0.7360832990959693   -0.07300687418568311   -0.02537707128034037
-0.7360832990959693   -0.07300687418568311   -0.02537707128034037
-0.7360832990959693   -0.07300687418568311   -0.02537707128034037
-0.3674705305299008   -0.045933531332732216   0.01673464075697333
-0.3674705305299008   -0.045933531332732216   0.01673464075697333
-0.3674705305299008   -0.045933531332732216   0.01673464075697333
-0.3674705305299008   -0.045933531332732216   0.01673464075697333
-0.5586261358861662   -0.06357340954000863   -0.011664243821578924
-0.5586261358861662   -0.06357340954000863   -0.011664243821578924
-0.5586261358861662   -0.06357340954000863   -0.011664243821578924
-0.5586261358861662   -0.06357340954000863   -0.011664243821578924
-0.360893743164319   0.006536217089287519   -0.0028511708371373803
-0.360893743164319   0.006536217089287519   -0.0028511708371373803
-0.360893743164319   0.006536217089287519   -0.0028511708371373803
-0.360893743164319   0.006536217089287519   -0.0028511708371373803
-0.7429250416006212   -0.1257415777467722   -0.006851080242506118
-0.7429250416006212   -0.1257415777467722   -0.006851080242506118
-0.7429250416006212   -0.1257415777467722   -0.006851080242506118
-0.7429250416006212   -0.1257415777467722   -0.006851080242506118
-0.7104195858817046   -0.056889786002253945   -0.029370308926877982
-0.7104195858817046   -0.056889786002253945   -0.029370308926877982
-0.7104195858817046   -0.056889786002253945   -0.029370308926877982
-0.7104195858817046   -0.056889786002253945   -0.029370308926877982
-0.3500784704357026   -0.033851347533760866   0.014335329249656819
-0.3500784704357026   -0.033851347533760866   0.014335329249656819
-0.3500784704357026   -0.033851347533760866   0.014335329249656819
-0.3500784704357026   -0.033851347533760866   0.014335329249656819
-0.5322021996851064   -0.048108245656625706   -0.0037633430550146375
-0.5322021996851064   -0.048108245656625706   -0.0037633430550146375
-0.5322021996851064   -0.048108245656625706   -0.0037633430550146375
-0.5322021996851064   -0.048108245656625706   -0.0037633430550146375
-0.3429246495829047   0.021444900199048267   -0.005191814219166792
-0.3429246495829047   0.021444900199048267   -0.005191814219166792
-0.3429246495829047   0.021444900199048267   -0.005191814219166792
-0.3429246495829047   0.021444900199048267   -0.005191814219166792
-0.7187828294498986   -0.11339545645045379   -0.014680856319642513
-0.7187828294498986   -0.11339545645045379   -0.014680856319642513
-0.7187828294498986   -0.11339545645045379   -0.014680856319642513
-0.7187828294498986   -0.11339545645045379   -0.014680856319642513
-0.6896504404576939   -0.039919226059797405   -0.030319170469408126
-0.6896504404576939   -0.039919226059797405   -0.030319170469408126
-0.6896504404576939   -0.039919226059797405   -0.030319170469408126
-0.6896504404576939   -0.039919226059797405   -0.030319170469408126
-0.34009839125886326   -0.026169856756806935   0.00448879502758213
-0.34009839125886326   -0.026169856756806935   0.00448879502758213
-0.34009839125886326   -0.026169856756806935   0.00448879502758213
-0.34009839125886326   -0.026169856756806935   0.00448879502758213
-0.5177644239091773   -0.03869062012924468   -0.0011692236820678055
-0.5177644239091773   -0.03869062012924468   -0.0011692236820678055
-0.5177644239091773   -0.03869062012924468   -0.0011692236820678055
-0.5177644239091773   -0.03869062012924468   -0.0011692236820678055
-0.7490721754068739   -0.024985819927264313   -0.018370635690833706
-0.7490721754068739   -0.024985819927264313   -0.018370635690833706
-0.7490721754068739   -0.024985819927264313   -0.018370635690833706
-0.7490721754068739   -0.024985819927264313   -0.018370635690833706
-1.1296273977773277   -0.0957660641287037   0.0421802920261949
-1.1296273977773277   -0.0957660641287037   0.0421802920261949
-1.1296273977773277   -0.0957660641287037   0.0421802920261949
-1.1296273977773277   -0.0957660641287037   0.0421802920261949
-1.0914759863669126   -0.07654128026693738   -0.024709341425722203
-1.0914759863669126   -0.07654128026693738   -0.024709341425722203
-1.0914759863669126   -0.07654128026693738   -0.024709341425722203
-1.0914759863669126   -0.07654128026693738   -0.024709341425722203
-0.7045445319209079   0.020407505131657455   0.038902385277618204
-0.7045445319209079   0.020407505131657455   0.038902385277618204
-0.7045445319209079   0.020407505131657455   0.038902385277618204
-0.7045445319209079   0.020407505131657455   0.038902385277618204
-0.877522077273118   -0.029910020994655534   0.004493599246818393
-0.877522077273118   -0.029910020994655534   0.004493599246818393
-0.877522077273118   -0.029910020994655534   0.004493599246818393
-0.877522077273118   -0.029910020994655534   0.004493599246818393
-0.7207885247970981   -0.001536612051802666   -0.020373461919862973
-0.7207885247970981   -0.001536612051802666   -0.020373461919862973
-0.7207885247970981   -0.001536612051802666   -0.020373461919862973
-0.7207885247970981   -0.001536612051802666   -0.020373461919862973
-1.072614285653461   -0.051979455246214445   0.04503733712081166
-1.072614285653461   -0.051979455246214445   0.04503733712081166
-1.072614285653461   -0.051979455246214445   0.04503733712081166
-1.072614285653461   -0.051979455246214445   0.04503733712081166
-1.050512867808293   -0.06449015773278727   -0.02942633075499363
-1.050512867808293   -0.06449015773278727   -0.02942633075499363
-1.050512867808293   -0.06449015773278727   -0.02942633075499363
-1.050512867808293   -0.06449015773278727   -0.02942633075499363
-0.6791881349110236   0.032377119399587845   0.037520040524685425
-0.6791881349110236   0.032377119399587845   0.037520040524685425
-0.6791881349110236   0.032377119399587845   0.037520040524685425
-0.6791881349110236   0.032377119399587845   0.037520040524685425
-0.8536021085376164   -0.012061377669343454   0.01755919576605293
-0.8536021085376164   -0.012061377669343454   0.01755919576605293
-0.8536021085376164   -0.012061377669343454   0.01755919576605293
-0.8536021085376164   -0.012061377669343454   0.01755919576605293
-0.6959938396582077   0.007893867738255123   -0.02202523154989733
-0.6959938396582077   0.007893867738255123   -0.02202523154989733
-0.6959938396582077   0.007893867738255123   -0.02202523154989733
-0.6959938396582077   0.007893867738255123   -0.02202523154989733
-1.0331600807683348   -0.03945982377868143   0.03230727049068078
-1.0331600807683348   -0.03945982377868143   0.03230727049068078
-1.0331600807683348   -0.03945982377868143   0.03230727049068078
-1.0331600807683348   -0.03945982377868143   0.03230727049068078
-1.0081210779699845   -0.053194930066780444   -0.035580233995151186
-1.0081210779699845   -0.053194930066780444   -0.035580233995151186
-1.0081210779699845   -0.053194930066780444   -0.035580233995151186
-1.0081210779699845   -0.053194930066780444   -0.035580233995151186
-0.6604972686770105   0.046560096040988236   0.02896736633322313
-0.6604972686770105   0.046560096040988236   0.02896736633322313
-0.6604972686770105   0.046560096040988236   0.02896736633322313
-0.6604972686770105   0.046560096040988236   0.02896736633322313
-0.8078746379766768   0.003163974303917766   0.030734508399883016
-0.8078746379766768   0.003163974303917766   0.030734508399883016
-0.8078746379766768   0.003163974303917766   0.030734508399883016
-0.8078746379766768   0.003163974303917766   0.030734508399883016
0.9897901317394908   0.05956243746451009   0.03559379007080711
0.9897901317394908   0.05956243746451009   0.03559379007080711
0.9897901317394908   0.05956243746451009   0.03559379007080711
0.9897901317394908   0.05956243746451009   0.03559379007080711
0.4712812160800866   -0.0879254377105575   0.007670914763782295
0.4712812160800866   -0.0879254377105575   0.007670914763782295
0.4712812160800866   -0.0879254377105575   0.007670914763782295
0.4712812160800866   -0.0879254377105575   0.007670914763782295
0.4970283680199437   -0.037298936344469125   0.027291552767624946
0.4970283680199437   -0.037298936344469125   0.027291552767624946
0.4970283680199437   -0.037298936344469125   0.027291552767624946
0.4970283680199437   -0.037298936344469125   0.027291552767624946
0.9948487418290521   0.009022414849219756   -0.008167407150897893
0.9948487418290521   0.009022414849219756   -0.008167407150897893
0.9948487418290521   0.009022414849219756   -0.008167407150897893
0.9948487418290521   0.009022414849219756   -0.008167407150897893
0.6955594329324492   -0.018721861455418543   -0.04602591724074079
0.6955594329324492   -0.018721861455418543   -0.04602591724074079
0.6955594329324492   -0.018721861455418543   -0.04602591724074079
0.6955594329324492   -0.018721861455418543   -0.04602591724074079
1.0135387137853775   0.06617149645923526   0.028133371020713213
1.0135387137853775   0.06617149645923526   0.028133371020713213
1.0135387137853775   0.06617149645923526   0.028133371020713213
1.0135387137853775   0.06617149645923526   0.028133371020713213
0.48280347987371647   -0.0899829341443866   0.008851109836405996
0.48280347987371647   -0.0899829341443866   0.008851109836405996
0.48280347987371647   -0.0899829341443866   0.008851109836405996
0.48280347987371647   -0.0899829341443866   0.008851109836405996
0.5067178749025134   -0.031718831859674876   0.020746235860637854
0.5067178749025134   -0.031718831859674876   0.020746235860637854
0.5067178749025134   -0.031718831859674876   0.020746235860637854
0.5067178749025134   -0.031718831859674876   0.020746235860637854
1.0120776311969335   0.015302696650103587   -0.0027291060955306756
1.0120776311969335   0.015302696650103587   -0.0027291060955306756
1.0120776311969335   0.015302696650103587   -0.0027291060955306756
1.0120776311969335   0.015302696650103587   -0.0027291060955306756
0.7240465627811354   -0.014763547479698907   -0.03149967761768315
0.7240465627811354   -0.014763547479698907   -0.03149967761768315
0.7240465627811354   -0.014763547479698907   -0.03149967761768315
0.7240465627811354   -0.014763547479698907   -0.03149967761768315
1.0279102003511025   0.07226472776916582   0.019471708556252243
1.0279102003511025   0.07226472776916582   0.019471708556252243
1.0279102003511025   0.07226472776916582   0.019471708556252243
1.0279102003511025   0.07226472776916582   0.019471708556252243
0.4939907626296772   -0.08557540609740427   0.01096724873418628
0.4939907626296772   -0.08557540609740427   0.01096724873418628
0.4939907626296772   -0.08557540609740427   0.01096724873418628
0.4939907626296772   -0.08557540609740427   0.01096724873418628
0.5210076314032444   -0.009961733685784097   0.018966748772183843
0.5210076314032444   -0.009961733685784097   0.018966748772183843
0.5210076314032444   -0.009961733685784097   0.018966748772183843
0.5210076314032444   -0.009961733685784097   0.018966748772183843
1.030041989308751   0.02979894302099234   -0.0006999651018276126
1.030041989308751   0.02979894302099234   -0.0006999651018276126
1.030041989308751   0.02979894302099234   -0.0006999651018276126
1.030041989308751   0.02979894302099234   -0.0006999651018276126
0.7273998569747997   -0.0066879059357649595   -0.02362406808376439
0.7273998569747997   -0.0066879059357649595   -0.02362406808376439
0.7273998569747997   -0.0066879059357649595   -0.02362406808376439
0.7273998569747997   -0.0066879059357649595   -0.02362406808376439
0.4975013883597161   0.013333661955749254   0.03751267649562309
0.4975013883597161   0.013333661955749254   0.03751267649562309
0.4975013883597161   0.013333661955749254   0.03751267649562309
0.4975013883597161   0.013333661955749254   0.03751267649562309
0.024799176378095707   -0.17431969870638894   0.01761984724138691
0.024799176378095707   -0.17431969870638894   0.01761984724138691
0.024799176378095707   -0.17431969870638894   0.01761984724138691
0.024799176378095707   -0.17431969870638894   0.01761984724138691
0.05823959784194427   -0.07413533420744436   0.01656912044902114
0.05823959784194427   -0.07413533420744436   0.01656912044902114
0.05823959784194427   -0.07413533420744436   0.01656912044902114
0.05823959784194427   -0.07413533420744436   0.01656912044902114
0.4848155509635068   -0.08252861511800859   0.011457146258975731
0.4848155509635068   -0.08252861511800859   0.011457146258975731
0.4848155509635068   -0.08252861511800859   0.011457146258975731
0.4848155509635068   -0.08252861511800859   0.011457146258975731
0.2577201550855489   -0.07771621696989864   -0.029224613974982397
0.2577201550855489   -0.07771621696989864   -0.029224613974982397
0.2577201550855489   -0.07771621696989864   -0.029224613974982397
0.2577201550855489   -0.07771621696989864   -0.029224613974982397
0.5091024245354671   0.01899665570134236   0.03136624329943202
0.5091024245354671   0.01899665570134236   0.03136624329943202
0.5091024245354671   0.01899665570134236   0.03136624329943202
0.5091024245354671   0.01899665570134236   0.03136624329943202
0.04036757980590683   -0.16924574949086607   0.02231944555225754
0.04036757980590683   -0.16924574949086607   0.02231944555225754
0.04036757980590683   -0.16924574949086607   0.02231944555225754
0.04036757980590683   -0.16924574949086607   0.02231944555225754
0.07164429739529021   -0.06392920985672602   0.011956026460170681
0.07164429739529021   -0.06392920985672602   0.011956026460170681
0.07164429739529021   -0.06392920985672602   0.011956026460170681
0.07164429739529021   -0.06392920985672602   0.011956026460170681
0.4963068766826721   -0.07714663593776562   0.01411904883952169
0.4963068766826721   -0.07714663593776562   0.01411904883952169
0.4963068766826721   -0.07714663593776562   0.01411904883952169
0.4963068766826721   -0.07714663593776562   0.01411904883952169
0.26908735200840206   -0.07378061329335714   -0.014617313890442511
0.26908735200840206   -0.07378061329335714   -0.014617313890442511
0.26908735200840206   -0.07378061329335714   -0.014617313890442511
0.26908735200840206   -0.07378061329335714   -0.014617313890442511
0.519932741947264   0.0286313513388098   0.026470387885906572
0.519932741947264   0.0286313513388098   0.026470387885906572
0.519932741947264   0.0286313513388098   0.026470387885906572
0.519932741947264   0.0286313513388098   0.026470387885906572
0.054186386289443854   -0.16353924297456085   0.02427650404877372
0.054186386289443854   -0.16353924297456085   0.02427650404877372
0.054186386289443854   -0.16353924297456085   0.02427650404877372
0.054186386289443854   -0.16353924297456085   0.02427650404877372
0.09224572412389809   -0.04860213862132032   0.007868375280398163
0.09224572412389809   -0.04860213862132032   0.007868375280398163
0.09224572412389809   -0.04860213862132032   0.007868375280398163
0.09224572412389809   -0.04860213862132032   0.007868375280398163
0.5088622027082145   -0.06898228863176853   0.017260160243020878
0.5088622027082145   -0.06898228863176853   0.017260160243020878
0.5088622027082145   -0.06898228863176853   0.017260160243020878
0.5088622027082145   -0.06898228863176853   0.017260160243020878
0.28917086987938057   -0.06429534651234613   0.0023987605257013017
0.28917086987938057   -0.06429534651234613   0.0023987605257013017
0.28917086987938057   -0.06429534651234613   0.0023987605257013017
0.28917086987938057   -0.06429534651234613   0.0023987605257013017
0.05447118997482557   -0.03248524099869915   0.02414545751734644
0.05447118997482557   -0.03248524099869915   0.02414545751734644
0.05447118997482557   -0.03248524099869915   0.02414545751734644
0.05447118997482557   -0.03248524099869915   0.02414545751734644
-0.42514138635291787   -0.2988136891823162   0.025732613957063638
-0.42514138635291787   -0.2988136891823162   0.025732613957063638
-0.42514138635291787   -0.2988136891823162   0.025732613957063638
-0.42514138635291787   -0.2988136891823162   0.025732613957063638
-0.3723839578878492   -0.11696156710829557   0.0015463481302709706
-0.3723839578878492   -0.11696156710829557   0.0015463481302709706
-0.3723839578878492   -0.11696156710829557   0.0015463481302709706
-0.3723839578878492   -0.11696156710829557   0.0015463481302709706
0.028579792186127544   -0.21592096015148005   0.010055718113975064
0.028579792186127544   -0.21592096015148005   0.010055718113975064
0.028579792186127544   -0.21592096015148005   0.010055718113975064
0.028579792186127544   -0.21592096015148005   0.010055718113975064
-0.1840847997236825   -0.1672214987606264   -0.03505593958762702
-0.1840847997236825   -0.1672214987606264   -0.03505593958762702
-0.1840847997236825   -0.1672214987606264   -0.03505593958762702
-0.1840847997236825   -0.1672214987606264   -0.03505593958762702
0.06850842393616446   -0.025280647522509244   0.01905856423518889
0.06850842393616446   -0.025280647522509244   0.01905856423518889
0.06850842393616446   -0.025280647522509244   0.01905856423518889
0.06850842393616446   -0.025280647522509244   0.01905856423518889
-0.40299517339786634   -0.2982844634972409   0.029813166969133914
-0.40299517339786634   -0.2982844634972409   0.029813166969133914
-0.40299517339786634   -0.2982844634972409   0.029813166969133914
-0.40299517339786634   -0.2982844634972409   0.029813166969133914
-0.35202728986580384   -0.1049165807734502   -0.00026748128430167765
-0.35202728986580384   -0.1049165807734502   -0.00026748128430167765
-0.35202728986580384   -0.1049165807734502   -0.00026748128430167765
-0.35202728986580384   -0.1049165807734502   -0.00026748128430167765
0.0427223801549967   -0.21101860426522634   0.014435834667203468
0.0427223801549967   -0.21101860426522634   0.014435834667203468
0.0427223801549967   -0.21101860426522634   0.014435834667203468
0.0427223801549967   -0.21101860426522634   0.014435834667203468
-0.1634375618208858   -0.16136482654559642   -0.012983808332028217
-0.1634375618208858   -0.16136482654559642   -0.012983808332028217
-0.1634375618208858   -0.16136482654559642   -0.012983808332028217
-0.1634375618208858   -0.16136482654559642   -0.012983808332028217
0.0813438244263495   -0.015736642755342468   0.012261094514083635
0.0813438244263495   -0.015736642755342468   0.012261094514083635
0.0813438244263495   -0.015736642755342468   0.012261094514083635
0.0813438244263495   -0.015736642755342468   0.012261094514083635
-0.3822696632802434   -0.2918194714264199   0.035423542296475874
-0.3822696632802434   -0.2918194714264199   0.035423542296475874
-0.3822696632802434   -0.2918194714264199   0.035423542296475874
-0.3822696632802434   -0.2918194714264199   0.035423542296475874
-0.3184269766804221   -0.09105538739059066   -0.004154028183486758
-0.3184269766804221   -0.09105538739059066   -0.004154028183486758
-0.3184269766804221   -0.09105538739059066   -0.004154028183486758
-0.3184269766804221   -0.09105538739059066   -0.004154028183486758
0.06479014659013871   -0.19759729642795362   0.01958564541823451
0.06479014659013871   -0.19759729642795362   0.01958564541823451
0.06479014659013871   -0.19759729642795362   0.01958564541823451
0.06479014659013871   -0.19759729642795362   0.01958564541823451
-0.13667592745018034   -0.1484753611656278   0.010028739160552726
-0.13667592745018034   -0.1484753611656278   0.010028739160552726
-0.13667592745018034   -0.1484753611656278   0.010028739160552726
-0.13667592745018034   -0.1484753611656278   0.010028739160552726
-0.3800982699047465   -0.05938441011079111   0.011518917126392407
-0.3800982699047465   -0.05938441011079111   0.011518917126392407
-0.3800982699047465   -0.05938441011079111   0.011518917126392407
-0.3800982699047465   -0.05938441011079111   0.011518917126392407
-0.9429981061531179   -0.4642619865798734   -0.02121500396453338
-0.9429981061531179   -0.4642619865798734   -0.02121500396453338
-0.9429981061531179   -0.4642619865798734   -0.02121500396453338
-0.9429981061531179   -0.4642619865798734   -0.02121500396453338
-0.8560519653604833   -0.1521800697266344   -0.02591661638195487
-0.8560519653604833   -0.1521800697266344   -0.02591661638195487
-0.8560519653604833   -0.1521800697266344   -0.02591661638195487
-0.8560519653604833   -0.1521800697266344   -0.02591661638195487
-0.425106118123967   -0.3871070213316083   0.008081001172995025
-0.425106118123967   -0.3871070213316083   0.008081001172995025
-0.425106118123967   -0.3871070213316083   0.008081001172995025
-0.425106118123967   -0.3871070213316083   0.008081001172995025
-0.6503530934248959   -0.27466471269865067   -0.03689232148501313
-0.6503530934248959   -0.27466471269865067   -0.03689232148501313
-0.6503530934248959   -0.27466471269865067   -0.03689232148501313
-0.6503530934248959   -0.27466471269865067   -0.03689232148501313
-0.3560746435843264   -0.044812509655911686   0.01094386219550152
-0.3560746435843264   -0.044812509655911686   0.01094386219550152
-0.3560746435843264   -0.044812509655911686   0.01094386219550152
-0.3560746435843264   -0.044812509655911686   0.01094386219550152
-0.9228115527969203   -0.49220269429912733   -0.01969192899164668
-0.9228115527969203   -0.49220269429912733   -0.01969192899164668
-0.9228115527969203   -0.49220269429912733   -0.01969192899164668
-0.9228115527969203   -0.49220269429912733   -0.01969192899164668
-0.8288733945688739   -0.13776654715384062   -0.02644574471757072
-0.8288733945688739   -0.13776654715384062   -0.02644574471757072
-0.8288733945688739   -0.13776654715384062   -0.02644574471757072
-0.8288733945688739   -0.13776654715384062   -0.02644574471757072
-0.4053155408443678   -0.3838594192748753   0.012234102324306328
-0.4053155408443678   -0.3838594192748753   0.012234102324306328
-0.4053155408443678   -0.3838594192748753   0.012234102324306328
-0.4053155408443678   -0.3838594192748753   0.012234102324306328
-0.6217093024633576   -0.2669922457272603   -0.025539673112660442
-0.6217093024633576   -0.2669922457272603   -0.025539673112660442
-0.6217093024633576   -0.2669922457272603   -0.025539673112660442
-0.6217093024633576   -0.2669922457272603   -0.025539673112660442
-0.3369228290230139   -0.03334969722492897   0.0036879393811275907
-0.3369228290230139   -0.03334969722492897   0.0036879393811275907
-0.3369228290230139   -0.03334969722492897   0.0036879393811275907
-0.3369228290230139   -0.03334969722492897   0.0036879393811275907
-0.8971022653084542   -0.4881124281220125   -0.017244217447293098
-0.8971022653084542   -0.4881124281220125   -0.017244217447293098
-0.8971022653084542   -0.4881124281220125   -0.017244217447293098
-0.8971022653084542   -0.4881124281220125   -0.017244217447293098
-0.7864026827737072   -0.12232668875432798   -0.02999107344517924
-0.7864026827737072   -0.12232668875432798   -0.02999107344517924
-0.7864026827737072   -0.12232668875432798   -0.02999107344517924
-0.7864026827737072   -0.12232668875432798   -0.02999107344517924
-0.3624869677643311   -0.3443777888988002   0.02886841790518227
-0.3624869677643311   -0.3443777888988002   0.02886841790518227
-0.3624869677643311   -0.3443777888988002   0.02886841790518227
-0.3624869677643311   -0.3443777888988002   0.02886841790518227
-0.5898621110747388   -0.24155979412410175   -0.013788830567110548
-0.5898621110747388   -0.24155979412410175   -0.013788830567110548
-0.5898621110747388   -0.24155979412410175   -0.013788830567110548
-0.5898621110747388   -0.24155979412410175   -0.013788830567110548
-0.8572660234777651   -0.05091096925629901   -0.00590560791134416
-0.8572660234777651   -0.05091096925629901   -0.00590560791134416
-0.8572660234777651   -0.05091096925629901   -0.00590560791134416
-0.8572660234777651   -0.05091096925629901   -0.00590560791134416
-1.5096004861139496   -0.29882984289421205   0.01545127164288923
-1.5096004861139496   -0.29882984289421205   0.01545127164288923
-1.5096004861139496   -0.29882984289421205   0.01545127164288923
-1.5096004861139496   -0.29882984289421205   0.01545127164288923
-1.4506357323139079   -0.14288004626411271   -0.031444171308202123
-1.4506357323139079   -0.14288004626411271   -0.031444171308202123
-1.4506357323139079   -0.14288004626411271   -0.031444171308202123
-1.4506357323139079   -0.14288004626411271   -0.031444171308202123
-0.839303749436942   -0.15560989265463865   0.061254286163748756
-0.839303749436942   -0.15560989265463865   0.061254286163748756
-0.839303749436942   -0.15560989265463865   0.061254286163748756
-0.839303749436942   -0.15560989265463865   0.061254286163748756
-1.1171157069364503   -0.173060604914007   0.015568143559728019
-1.1171157069364503   -0.173060604914007   0.015568143559728019
-1.1171157069364503   -0.173060604914007   0.015568143559728019
-1.1171157069364503   -0.173060604914007   0.015568143559728019
-0.8225867595743825   -0.01094629074182088   0.0001756335637318751
-0.8225867595743825   -0.01094629074182088   0.0001756335637318751
-0.8225867595743825   -0.01094629074182088   0.0001756335637318751
-0.8225867595743825   -0.01094629074182088   0.0001756335637318751
-1.472872635007334   -0.2930635610077989   0.007554829968339671
-1.472872635007334   -0.2930635610077989   0.007554829968339671
-1.472872635007334   -0.2930635610077989   0.007554829968339671
-1.472872635007334   -0.2930635610077989   0.007554829968339671
-1.418445333618408   -0.13096346326188862   -0.03992567407531257
-1.418445333618408   -0.13096346326188862   -0.03992567407531257
-1.418445333618408   -0.13096346326188862   -0.03992567407531257
-1.418445333618408   -0.13096346326188862   -0.03992567407531257
-0.8113368956530026   -0.1479777821575084   0.07144798486546064
-0.8113368956530026   -0.1479777821575084   0.07144798486546064
-0.8113368956530026   -0.1479777821575084   0.07144798486546064
-0.8113368956530026   -0.1479777821575084   0.07144798486546064
-1.1003679614687307   -0.1426322114047473   0.015067528259559999
-1.1003679614687307   -0.1426322114047473   0.015067528259559999
-1.1003679614687307   -0.1426322114047473   0.015067528259559999
-1.1003679614687307   -0.1426322114047473   0.015067528259559999
-0.7976828349003041   -0.0003981061741021308   -0.00786138735445329
-0.7976828349003041   -0.0003981061741021308   -0.00786138735445329
-0.7976828349003041   -0.0003981061741021308   -0.00786138735445329
-0.7976828349003041   -0.0003981061741021308   -0.00786138735445329
-1.4340408996142304   -0.28048464448842614   0.0316176771720999
-1.4340408996142304   -0.28048464448842614   0.0316176771720999
-1.4340408996142304   -0.28048464448842614   0.0316176771720999
-1.4340408996142304   -0.28048464448842614   0.0316176771720999
-1.3515699358092825   -0.10640047687965118   -0.04476283113770197
-1.3515699358092825   -0.10640047687965118   -0.04476283113770197
-1.3515699358092825   -0.10640047687965118   -0.04476283113770197
-1.3515699358092825   -0.10640047687965118   -0.04476283113770197
-0.767766055582341   -0.1378167803041685   0.07868215406149853
-0.767766055582341   -0.1378167803041685   0.07868215406149853
-0.767766055582341   -0.1378167803041685   0.07868215406149853
-0.767766055582341   -0.1378167803041685   0.07868215406149853
-1.0352347069625942   -0.10911506365446948   0.031302899273217735
-1.0352347069625942   -0.10911506365446948   0.031302899273217735
-1.0352347069625942   -0.10911506365446948   0.031302899273217735
-1.0352347069625942   -0.10911506365446948   0.031302899273217735
1.0841902103998482   0.036147353040960284   0.015125874201609442
1.0841902103998482   0.036147353040960284   0.015125874201609442
1.0841902103998482   0.036147353040960284   0.015125874201609442
1.0841902103998482   0.036147353040960284   0.015125874201609442
0.5526517779559312   -0.029495080294287435   0.010878861231707941
0.5526517779559312   -0.029495080294287435   0.010878861231707941
0.5526517779559312   -0.029495080294287435   0.010878861231707941
0.5526517779559312   -0.029495080294287435   0.010878861231707941
0.5313518013839162   -0.07769736243364159   0.021730646879931398
0.5313518013839162   -0.07769736243364159   0.021730646879931398
0.5313518013839162   -0.07769736243364159   0.021730646879931398
0.5313518013839162   -0.07769736243364159   0.021730646879931398
1.0763576019342562   0.06060125595319926   0.007781346626162325
1.0763576019342562   0.06060125595319926   0.007781346626162325
1.0763576019342562   0.06060125595319926   0.007781346626162325
1.0763576019342562   0.06060125595319926   0.007781346626162325
0.7679134000272811   -0.010743680507819126   -0.02841138393208812
0.7679134000272811   -0.010743680507819126   -0.02841138393208812
0.7679134000272811   -0.010743680507819126   -0.02841138393208812
0.7679134000272811   -0.010743680507819126   -0.02841138393208812
1.070612583867274   0.02811680594661148   0.011540706297838987
1.070612583867274   0.02811680594661148   0.011540706297838987
1.070612583867274   0.02811680594661148   0.011540706297838987
1.070612583867274   0.02811680594661148   0.011540706297838987
0.5353704411483415   -0.046939290729610644   0.01106577399802737
0.5353704411483415   -0.046939290729610644   0.01106577399802737
0.5353704411483415   -0.046939290729610644   0.01106577399802737
0.5353704411483415   -0.046939290729610644   0.01106577399802737
0.5177206784975547   -0.07943400561734984   0.017944335266580985
0.5177206784975547   -0.07943400561734984   0.017944335266580985
0.5177206784975547   -0.07943400561734984   0.017944335266580985
0.5177206784975547   -0.07943400561734984   0.017944335266580985
1.0639396344131795   0.05804505107902039   0.013629935882410592
1.0639396344131795   0.05804505107902039   0.013629935882410592
1.0639396344131795   0.05804505107902039   0.013629935882410592
1.0639396344131795   0.05804505107902039   0.013629935882410592
0.7658416182069085   -0.014809002701013957   -0.0327462856794039
0.7658416182069085   -0.014809002701013957   -0.0327462856794039
0.7658416182069085   -0.014809002701013957   -0.0327462856794039
0.7658416182069085   -0.014809002701013957   -0.0327462856794039
1.055328718929339   0.025185681103440632   0.003434728438779698
1.055328718929339   0.025185681103440632   0.003434728438779698
1.055328718929339   0.025185681103440632   0.003434728438779698
1.055328718929339   0.025185681103440632   0.003434728438779698
0.5232103131092161   -0.04969591651395555   0.015654419221494263
0.5232103131092161   -0.04969591651395555   0.015654419221494263
0.5232103131092161   -0.04969591651395555   0.015654419221494263
0.5232103131092161   -0.04969591651395555   0.015654419221494263
0.5033678995639272   -0.07229617754114943   0.015498521832286866
0.5033678995639272   -0.07229617754114943   0.015498521832286866
0.5033678995639272   -0.07229617754114943   0.015498521832286866
0.5033678995639272   -0.07229617754114943   0.015498521832286866
1.044835940280029   0.058894511213758494   0.019732105452833285
1.044835940280029   0.058894511213758494   0.019732105452833285
1.044835940280029   0.058894511213758494   0.019732105452833285
1.044835940280029   0.058894511213758494   0.019732105452833285
0.7372745459288461   -0.014846686527457353   -0.04408554247022723
0.7372745459288461   -0.014846686527457353   -0.04408554247022723
0.7372745459288461   -0.014846686527457353   -0.04408554247022723
0.7372745459288461   -0.014846686527457353   -0.04408554247022723
0.5482489840926054   -0.06773312023967185   0.027102931860462802
0.5482489840926054   -0.06773312023967185   0.027102931860462802
0.5482489840926054   -0.06773312023967185   0.027102931860462802
0.5482489840926054   -0.06773312023967185   0.027102931860462802
0.10424874104116091   -0.06524417981202574   0.0055277552748488785
0.10424874104116091   -0.06524417981202574   0.0055277552748488785
0.10424874104116091   -0.06524417981202574   0.0055277552748488785
0.10424874104116091   -0.06524417981202574   0.0055277552748488785
0.06749254289611221   -0.16258349367294053   0.0285057615516799
0.06749254289611221   -0.16258349367294053   0.0285057615516799
0.06749254289611221   -0.16258349367294053   0.0285057615516799
0.06749254289611221   -0.16258349367294053   0.0285057615516799
0.5511087503896391   0.021957298081331636   0.02086073139357334
0.5511087503896391   0.021957298081331636   0.02086073139357334
0.5511087503896391   0.021957298081331636   0.02086073139357334
0.5511087503896391   0.021957298081331636   0.02086073139357334
0.3128799809379343   -0.06868000705062083   -0.0012469938383402462
0.3128799809379343   -0.06868000705062083   -0.0012469938383402462
0.3128799809379343   -0.06868000705062083   -0.0012469938383402462
0.3128799809379343   -0.06868000705062083   -0.0012469938383402462
0.532967895585186   -0.07063902029578381   0.022752775748420453
0.532967895585186   -0.07063902029578381   0.022752775748420453
0.532967895585186   -0.07063902029578381   0.022752775748420453
0.532967895585186   -0.07063902029578381   0.022752775748420453
0.0810465043557386   -0.07457406864065742   0.00826614381752866
0.0810465043557386   -0.07457406864065742   0.00826614381752866
0.0810465043557386   -0.07457406864065742   0.00826614381752866
0.0810465043557386   -0.07457406864065742   0.00826614381752866
0.05099184271339046   -0.163932044680355   0.02550703909585649
0.05099184271339046   -0.163932044680355   0.02550703909585649
0.05099184271339046   -0.163932044680355   0.02550703909585649
0.05099184271339046   -0.163932044680355   0.02550703909585649
0.5385425462246632   0.017943012604633393   0.0246766556801405
0.5385425462246632   0.017943012604633393   0.0246766556801405
0.5385425462246632   0.017943012604633393   0.0246766556801405
0.5385425462246632   0.017943012604633393   0.0246766556801405
0.29043460308076513   -0.07316423322845264   -0.014889322666026383
0.29043460308076513   -0.07316423322845264   -0.014889322666026383
0.29043460308076513   -0.07316423322845264   -0.014889322666026383
0.29043460308076513   -0.07316423322845264   -0.014889322666026383
0.5194796685156589   -0.0715623594925977   0.018867639232343913
0.5194796685156589   -0.0715623594925977   0.018867639232343913
0.5194796685156589   -0.0715623594925977   0.018867639232343913
0.5194796685156589   -0.0715623594925977   0.018867639232343913
0.06506540426862244   -0.07941598873689215   0.011358790928553544
0.06506540426862244   -0.07941598873689215   0.011358790928553544
0.06506540426862244   -0.07941598873689215   0.011358790928553544
0.06506540426862244   -0.07941598873689215   0.011358790928553544
0.03253800428931952   -0.16371690116189522   0.01991129601128236
0.03253800428931952   -0.16371690116189522   0.01991129601128236
0.03253800428931952   -0.16371690116189522   0.01991129601128236
0.03253800428931952   -0.16371690116189522   0.01991129601128236
0.5242807541101601   0.018299105248190603   0.02946751177411228
0.5242807541101601   0.018299105248190603   0.02946751177411228
0.5242807541101601   0.018299105248190603   0.02946751177411228
0.5242807541101601   0.018299105248190603   0.02946751177411228
0.276795673372877   -0.07248998003909762   -0.026463027046528913
0.276795673372877   -0.07248998003909762   -0.026463027046528913
0.276795673372877   -0.07248998003909762   -0.026463027046528913
0.276795673372877   -0.07248998003909762   -0.026463027046528913
0.08148892244396858   -0.19778104476581648   0.024265527242675985
0.08148892244396858   -0.19778104476581648   0.024265527242675985
0.08148892244396858   -0.19778104476581648   0.024265527242675985
0.08148892244396858   -0.19778104476581648   0.024265527242675985
-0.326983186541574   -0.10091687141110886   0.00012754821719426247
-0.326983186541574   -0.10091687141110886   0.00012754821719426247
-0.326983186541574   -0.10091687141110886   0.00012754821719426247
-0.326983186541574   -0.10091687141110886   0.00012754821719426247
-0.39347804417790083   -0.2958104864597589   0.03266592293657851
-0.39347804417790083   -0.2958104864597589   0.03266592293657851
-0.39347804417790083   -0.2958104864597589   0.03266592293657851
-0.39347804417790083   -0.2958104864597589   0.03266592293657851
0.09373902115998452   -0.01609999005243187   0.013254649250532758
0.09373902115998452   -0.01609999005243187   0.013254649250532758
0.09373902115998452   -0.01609999005243187   0.013254649250532758
0.09373902115998452   -0.01609999005243187   0.013254649250532758
-0.13452858201723586   -0.15049434669329176   0.0057099339033450935
-0.13452858201723586   -0.15049434669329176   0.0057099339033450935
-0.13452858201723586   -0.15049434669329176   0.0057099339033450935
-0.13452858201723586   -0.15049434669329176   0.0057099339033450935
0.05602204848866838   -0.20894141112121903   0.017511206962739258
0.05602204848866838   -0.20894141112121903   0.017511206962739258
0.05602204848866838   -0.20894141112121903   0.017511206962739258
0.05602204848866838   -0.20894141112121903   0.017511206962739258
-0.36220104966914585   -0.10940904355353863   0.002649452574129272
-0.36220104966914585   -0.10940904355353863   0.002649452574129272
-0.36220104966914585   -0.10940904355353863   0.002649452574129272
-0.36220104966914585   -0.10940904355353863   0.002649452574129272
-0.4164249656791477   -0.300394187628157   0.026705263686694417
-0.4164249656791477   -0.300394187628157   0.026705263686694417
-0.4164249656791477   -0.300394187628157   0.026705263686694417
-0.4164249656791477   -0.300394187628157   0.026705263686694417
0.07826967958765921   -0.020551178170999128   0.018515356957844446
0.07826967958765921   -0.020551178170999128   0.018515356957844446
0.07826967958765921   -0.020551178170999128   0.018515356957844446
0.07826967958765921   -0.020551178170999128   0.018515356957844446
-0.1632222797313153   -0.1595479571285283   -0.013431488419126482
-0.1632222797313153   -0.1595479571285283   -0.013431488419126482
-0.1632222797313153   -0.1595479571285283   -0.013431488419126482
-0.1632222797313153   -0.1595479571285283   -0.013431488419126482
0.03844561207702496   -0.2124936304729385   0.011337471706614408
0.03844561207702496   -0.2124936304729385   0.011337471706614408
0.03844561207702496   -0.2124936304729385   0.011337471706614408
0.03844561207702496   -0.2124936304729385   0.011337471706614408
-0.38429243694572524   -0.11614327410342978   0.0031169938290755636
-0.38429243694572524   -0.11614327410342978   0.0031169938290755636
-0.38429243694572524   -0.11614327410342978   0.0031169938290755636
-0.38429243694572524   -0.11614327410342978   0.0031169938290755636
-0.44133657822531275   -0.29827599974598085   0.022318853643549817
-0.44133657822531275   -0.29827599974598085   0.022318853643549817
-0.44133657822531275   -0.29827599974598085   0.022318853643549817
-0.44133657822531275   -0.29827599974598085   0.022318853643549817
0.06106808247794462   -0.022998115437736485   0.021842901230249116
0.06106808247794462   -0.022998115437736485   0.021842901230249116
0.06106808247794462   -0.022998115437736485   0.021842901230249116
0.06106808247794462   -0.022998115437736485   0.021842901230249116
-0.18653534071590228   -0.16294887338621258   -0.03261905366656259
-0.18653534071590228   -0.16294887338621258   -0.03261905366656259
-0.18653534071590228   -0.16294887338621258   -0.03261905366656259
-0.18653534071590228   -0.16294887338621258   -0.03261905366656259
-0.36894361752872207   -0.3394386530733483   0.028847174943696388
-0.36894361752872207   -0.3394386530733483   0.028847174943696388
-0.36894361752872207   -0.3394386530733483   0.028847174943696388
-0.36894361752872207   -0.3394386530733483   0.028847174943696388
-0.81612425211637   -0.1255415642522185   -0.01873639609148605
-0.81612425211637   -0.1255415642522185   -0.01873639609148605
-0.81612425211637   -0.1255415642522185   -0.01873639609148605
-0.81612425211637   -0.1255415642522185   -0.01873639609148605
-0.9324212580146606   -0.4952455176547078   -0.025296340551808794
-0.9324212580146606   -0.4952455176547078   -0.025296340551808794
-0.9324212580146606   -0.4952455176547078   -0.025296340551808794
-0.9324212580146606   -0.4952455176547078   -0.025296340551808794
-0.34401132820589736   -0.027263564858098728   0.011452581194931625
-0.34401132820589736   -0.027263564858098728   0.011452581194931625
-0.34401132820589736   -0.027263564858098728   0.011452581194931625
-0.34401132820589736   -0.027263564858098728   0.011452581194931625
-0.6094213771527353   -0.2370966475192207   -0.019965339954466053
-0.6094213771527353   -0.2370966475192207   -0.019965339954466053
-0.6094213771527353   -0.2370966475192207   -0.019965339954466053
-0.6094213771527353   -0.2370966475192207   -0.019965339954466053
-0.41584150819064375   -0.38488556358076803   0.009923679993873002
-0.41584150819064375   -0.38488556358076803   0.009923679993873002
-0.41584150819064375   -0.38488556358076803   0.009923679993873002
-0.41584150819064375   -0.38488556358076803   0.009923679993873002
-0.8588370340658033   -0.13586947496792684   -0.01675126349430301
-0.8588370340658033   -0.13586947496792684   -0.01675126349430301
-0.8588370340658033   -0.13586947496792684   -0.01675126349430301
-0.8588370340658033   -0.13586947496792684   -0.01675126349430301
-0.9597570382054059   -0.5030444131819248   -0.02924936984990331
-0.9597570382054059   -0.5030444131819248   -0.02924936984990331
-0.9597570382054059   -0.5030444131819248   -0.02924936984990331
-0.9597570382054059   -0.5030444131819248   -0.02924936984990331
-0.3652094548076439   -0.034617458200903915   0.017006088616956606
-0.3652094548076439   -0.034617458200903915   0.017006088616956606
-0.3652094548076439   -0.034617458200903915   0.017006088616956606
-0.3652094548076439   -0.034617458200903915   0.017006088616956606
-0.6428741263592137   -0.26288832372039417   -0.028656945900595525
-0.6428741263592137   -0.26288832372039417   -0.028656945900595525
-0.6428741263592137   -0.26288832372039417   -0.028656945900595525
-0.6428741263592137   -0.26288832372039417   -0.028656945900595525
-0.43937513497124214   -0.3923384272045828   0.0038986568026431606
-0.43937513497124214   -0.3923384272045828   0.0038986568026431606
-0.43937513497124214   -0.3923384272045828   0.0038986568026431606
-0.43937513497124214   -0.3923384272045828   0.0038986568026431606
-0.8858490984359868   -0.14558118457242644   -0.017172899612313088
-0.8858490984359868   -0.14558118457242644   -0.017172899612313088
-0.8858490984359868   -0.14558118457242644   -0.017172899612313088
-0.8858490984359868   -0.14558118457242644   -0.017172899612313088
-0.9830212471698546   -0.4808535770833078   -0.032976243611832254
-0.9830212471698546   -0.4808535770833078   -0.032976243611832254
-0.9830212471698546   -0.4808535770833078   -0.032976243611832254
-0.9830212471698546   -0.4808535770833078   -0.032976243611832254
-0.39198974774516504   -0.04502431682631062   0.01580132312461143
-0.39198974774516504   -0.04502431682631062   0.01580132312461143
-0.39198974774516504   -0.04502431682631062   0.01580132312461143
-0.39198974774516504   -0.04502431682631062   0.01580132312461143
-0.6737870437651452   -0.27160950449359644   -0.03704769824594786
-0.6737870437651452   -0.27160950449359644   -0.03704769824594786
-0.6737870437651452   -0.27160950449359644   -0.03704769824594786
-0.6737870437651452   -0.27160950449359644   -0.03704769824594786
-0.8024548960023449   -0.14639767929598946   0.07046649952239761
-0.8024548960023449   -0.14639767929598946   0.07046649952239761
-0.8024548960023449   -0.14639767929598946   0.07046649952239761
-0.8024548960023449   -0.14639767929598946   0.07046649952239761
-1.4086934862641427   -0.10490345927056338   -0.024544407241132563
-1.4086934862641427   -0.10490345927056338   -0.024544407241132563
-1.4086934862641427   -0.10490345927056338   -0.024544407241132563
-1.4086934862641427   -0.10490345927056338   -0.024544407241132563
-1.494250223337307   -0.2949922772000514   0.01928883733704989
-1.494250223337307   -0.2949922772000514   0.01928883733704989
-1.494250223337307   -0.2949922772000514   0.01928883733704989
-1.494250223337307   -0.2949922772000514   0.01928883733704989
-0.8244125623896528   0.01232280434517874   0.00717881557333646
-0.8244125623896528   0.01232280434517874   0.00717881557333646
-0.8244125623896528   0.01232280434517874   0.00717881557333646
-0.8244125623896528   0.01232280434517874   0.00717881557333646
-1.0785310995381987   -0.1035904317023561   0.021572995864047248
-1.0785310995381987   -0.1035904317023561   0.021572995864047248
-1.0785310995381987   -0.1035904317023561   0.021572995864047248
-1.0785310995381987   -0.1035904317023561   0.021572995864047248
-0.8472057291849602   -0.1569449905404978   0.062480776482471245
-0.8472057291849602   -0.1569449905404978   0.062480776482471245
-0.8472057291849602   -0.1569449905404978   0.062480776482471245
-0.8472057291849602   -0.1569449905404978   0.062480776482471245
-1.4677974771841558   -0.12206490295653002   -0.021374806140704285
-1.4677974771841558   -0.12206490295653002   -0.021374806140704285
-1.4677974771841558   -0.12206490295653002   -0.021374806140704285
-1.4677974771841558   -0.12206490295653002   -0.021374806140704285
-1.5302717991146433   -0.3074133520346262   -0.006794961058487647
-1.5302717991146433   -0.3074133520346262   -0.006794961058487647
-1.5302717991146433   -0.3074133520346262   -0.006794961058487647
-1.5302717991146433   -0.3074133520346262   -0.006794961058487647
-0.849891225902142   0.004019571127058974   0.013015707357426028
-0.849891225902142   0.004019571127058974   0.013015707357426028
-0.849891225902142   0.004019571127058974   0.013015707357426028
-0.849891225902142   0.004019571127058974   0.013015707357426028
-1.14239034680284   -0.13660840893590898   0.008784793808529895
-1.14239034680284   -0.13660840893590898   0.008784793808529895
-1.14239034680284   -0.13660840893590898   0.008784793808529895
-1.14239034680284   -0.13660840893590898   0.008784793808529895
-0.8759428903214878   -0.16486098898895535   0.05163794537671107
-0.8759428903214878   -0.16486098898895535   0.05163794537671107
-0.8759428903214878   -0.16486098898895535   0.05163794537671107
-0.8759428903214878   -0.16486098898895535   0.05163794537671107
-1.4967797444348627   -0.1310924016581728   -0.015655638036011797
-1.4967797444348627   -0.1310924016581728   -0.015655638036011797
-1.4967797444348627   -0.1310924016581728   -0.015655638036011797
-1.4967797444348627   -0.1310924016581728   -0.015655638036011797
-1.5613284434989525   -0.31230653045960666   -0.0002042087990806185
-1.5613284434989525   -0.31230653045960666   -0.0002042087990806185
-1.5613284434989525   -0.31230653045960666   -0.0002042087990806185
-1.5613284434989525   -0.31230653045960666   -0.0002042087990806185
-0.8857269621296927   -0.03277180004813454   0.005413404553804117
-0.8857269621296927   -0.03277180004813454   0.005413404553804117
-0.8857269621296927   -0.03277180004813454   0.005413404553804117
-0.8857269621296927   -0.03277180004813454   0.005413404553804117
-1.1558414996822972   -0.16488351963722592   0.013832243561167759
-1.1558414996822972   -0.16488351963722592   0.013832243561167759
-1.1558414996822972   -0.16488351963722592   0.013832243561167759
-1.1558414996822972   -0.16488351963722592   0.013832243561167759
0.9521036993557933   0.044147494503447154   -0.020360186179481037
0.9521036993557933   0.044147494503447154   -0.020360186179481037
0.9521036993557933   0.044147494503447154   -0.020360186179481037
0.9521036993557933   0.044147494503447154   -0.020360186179481037
0.4785123352168346   -0.010088897936413849   0.009886964589468902
0.4785123352168346   -0.010088897936413849   0.009886964589468902
0.4785123352168346   -0.010088897936413849   0.009886964589468902
0.4785123352168346   -0.010088897936413849   0.009886964589468902
0.4484336565173074   -0.07015932484880068   -0.018097611966919308
0.4484336565173074   -0.07015932484880068   -0.018097611966919308
0.4484336565173074   -0.07015932484880068   -0.018097611966919308
0.4484336565173074   -0.07015932484880068   -0.018097611966919308
0.9411800995714825   0.06854534599065654   0.011567556065907147
0.9411800995714825   0.06854534599065654   0.011567556065907147
0.9411800995714825   0.06854534599065654   0.011567556065907147
0.9411800995714825   0.06854534599065654   0.011567556065907147
0.6681023616356948   0.001647831229167701   -0.025796033588560516
0.6681023616356948   0.001647831229167701   -0.025796033588560516
0.6681023616356948   0.001647831229167701   -0.025796033588560516
0.6681023616356948   0.001647831229167701   -0.025796033588560516
0.9260101504627126   0.024856773030173862   -0.020593616517451896
0.9260101504627126   0.024856773030173862   -0.020593616517451896
0.9260101504627126   0.024856773030173862   -0.020593616517451896
0.9260101504627126   0.024856773030173862   -0.020593616517451896
0.4627716560701451   -0.027302701444249594   0.010735762392713871
0.4627716560701451   -0.027302701444249594   0.010735762392713871
0.4627716560701451   -0.027302701444249594   0.010735762392713871
0.4627716560701451   -0.027302701444249594   0.010735762392713871
0.4322227795066757   -0.07402029907879087   -0.014979960000141852
0.4322227795066757   -0.07402029907879087   -0.014979960000141852
0.4322227795066757   -0.07402029907879087   -0.014979960000141852
0.4322227795066757   -0.07402029907879087   -0.014979960000141852
0.918691877264587   0.06304996248976172   0.016991524292071007
0.918691877264587   0.06304996248976172   0.016991524292071007
0.918691877264587   0.06304996248976172   0.016991524292071007
0.918691877264587   0.06304996248976172   0.016991524292071007
0.6594194537219421   -0.006569035504269627   -0.03067349771867487
0.6594194537219421   -0.006569035504269627   -0.03067349771867487
0.6594194537219421   -0.006569035504269627   -0.03067349771867487
0.6594194537219421   -0.006569035504269627   -0.03067349771867487
0.9034031866130166   0.01994281753941826   -0.016344784015437187
0.9034031866130166   0.01994281753941826   -0.016344784015437187
0.9034031866130166   0.01994281753941826   -0.016344784015437187
0.9034031866130166   0.01994281753941826   -0.016344784015437187
0.44634482229411754   -0.032079801992575846   0.013689756850852587
0.44634482229411754   -0.032079801992575846   0.013689756850852587
0.44634482229411754   -0.032079801992575846   0.013689756850852587
0.44634482229411754   -0.032079801992575846   0.013689756850852587
0.4165462367007624   -0.07276843035847541   -0.010292898829100443
0.4165462367007624   -0.07276843035847541   -0.010292898829100443
0.4165462367007624   -0.07276843035847541   -0.010292898829100443
0.4165462367007624   -0.07276843035847541   -0.010292898829100443
0.8908696328232223   0.05945779870297599   0.02218603019414756
0.8908696328232223   0.05945779870297599   0.02218603019414756
0.8908696328232223   0.05945779870297599   0.02218603019414756
0.8908696328232223   0.05945779870297599   0.02218603019414756
0.6270892498698607   -0.01142928673262289   -0.04021155489019301
0.6270892498698607   -0.01142928673262289   -0.04021155489019301
0.6270892498698607   -0.01142928673262289   -0.04021155489019301
0.6270892498698607   -0.01142928673262289   -0.04021155489019301
0.48146081393584683   0.010000646467970192   0.004539813780142583
0.48146081393584683   0.010000646467970192   0.004539813780142583
0.48146081393584683   0.010000646467970192   0.004539813780142583
0.48146081393584683   0.010000646467970192   0.004539813780142583
0.04500594236143101   -0.029090584005798004   -0.0012392769281036001
0.04500594236143101   -0.029090584005798004   -0.0012392769281036001
0.04500594236143101   -0.029090584005798004   -0.0012392769281036001
0.04500594236143101   -0.029090584005798004   -0.0012392769281036001
0.016658772998383996   -0.09259700432280653   -0.017460803235862278
0.016658772998383996   -0.09259700432280653   -0.017460803235862278
0.016658772998383996   -0.09259700432280653   -0.017460803235862278
0.016658772998383996   -0.09259700432280653   -0.017460803235862278
0.481967089180194   0.055678776274404256   0.023731450224304396
0.481967089180194   0.055678776274404256   0.023731450224304396
0.481967089180194   0.055678776274404256   0.023731450224304396
0.481967089180194   0.055678776274404256   0.023731450224304396
0.25157279497521723   -0.012805803345705719   -0.009871842239554975
0.25157279497521723   -0.012805803345705719   -0.009871842239554975
0.25157279497521723   -0.012805803345705719   -0.009871842239554975
0.25157279497521723   -0.012805803345705719   -0.009871842239554975
0.46813420032243813   0.0026994985259692905   0.007546283683962672
0.46813420032243813   0.0026994985259692905   0.007546283683962672
0.46813420032243813   0.0026994985259692905   0.007546283683962672
0.46813420032243813   0.0026994985259692905   0.007546283683962672
0.0310253354769158   -0.03908405295359517   0.0008590577875853909
0.0310253354769158   -0.03908405295359517   0.0008590577875853909
0.0310253354769158   -0.03908405295359517   0.0008590577875853909
0.0310253354769158   -0.03908405295359517   0.0008590577875853909
0.0010273870276250666   -0.09693742036958435   -0.012210349993879429
0.0010273870276250666   -0.09693742036958435   -0.012210349993879429
0.0010273870276250666   -0.09693742036958435   -0.012210349993879429
0.0010273870276250666   -0.09693742036958435   -0.012210349993879429
0.4648118415608702   0.04778392617694252   0.026161125015097313
0.4648118415608702   0.04778392617694252   0.026161125015097313
0.4648118415608702   0.04778392617694252   0.026161125015097313
0.4648118415608702   0.04778392617694252   0.026161125015097313
0.23353940550631164   -0.020092503793077005   -0.013975247705412877
0.23353940550631164   -0.020092503793077005   -0.013975247705412877
0.23353940550631164   -0.020092503793077005   -0.013975247705412877
0.23353940550631164   -0.020092503793077005   -0.013975247705412877
0.451761677059989   -0.002174705522334869   0.010868934209973351
0.451761677059989   -0.002174705522334869   0.010868934209973351
0.451761677059989   -0.002174705522334869   0.010868934209973351
0.451761677059989   -0.002174705522334869   0.010868934209973351
0.01400871391304006   -0.04704762628576728   0.0028064903493784515
0.01400871391304006   -0.04704762628576728   0.0028064903493784515
0.01400871391304006   -0.04704762628576728   0.0028064903493784515
0.01400871391304006   -0.04704762628576728   0.0028064903493784515
-0.015739240941509743   -0.09727310853144881   -0.008373562072384225
-0.015739240941509743   -0.09727310853144881   -0.008373562072384225
-0.015739240941509743   -0.09727310853144881   -0.008373562072384225
-0.015739240941509743   -0.09727310853144881   -0.008373562072384225
0.44750144482029725   0.042814724712913296   0.028899986697186537
0.44750144482029725   0.042814724712913296   0.028899986697186537
0.44750144482029725   0.042814724712913296   0.028899986697186537
0.44750144482029725   0.042814724712913296   0.028899986697186537
0.21951076411131404   -0.022927329478437473   -0.017471848829325082
0.21951076411131404   -0.022927329478437473   -0.017471848829325082
0.21951076411131404   -0.022927329478437473   -0.017471848829325082
0.21951076411131404   -0.022927329478437473   -0.017471848829325082
0.046241321521009196   -0.025940060391027357   0.0017870952550185972
0.046241321521009196   -0.025940060391027357   0.0017870952550185972
0.046241321521009196   -0.025940060391027357   0.0017870952550185972
0.046241321521009196   -0.025940060391027357   0.0017870952550185972
-0.3741791667964143   -0.043157227569546666   -0.011748098642843218
-0.3741791667964143   -0.043157227569546666   -0.011748098642843218
-0.3741791667964143   -0.043157227569546666   -0.011748098642843218
-0.3741791667964143   -0.043157227569546666   -0.011748098642843218
-0.40569516828620567   -0.12262922141841512   -0.019957318133193316
-0.40569516828620567   -0.12262922141841512   -0.019957318133193316
-0.40569516828620567   -0.12262922141841512   -0.019957318133193316
-0.40569516828620567   -0.12262922141841512   -0.019957318133193316
0.049588150100229135   0.040911497108117714   0.013677580842439169
0.049588150100229135   0.040911497108117714   0.013677580842439169
0.049588150100229135   0.040911497108117714   0.013677580842439169
0.049588150100229135   0.040911497108117714   0.013677580842439169
-0.17150012730341666   -0.0359029410870886   -0.009767415020649232
-0.17150012730341666   -0.0359029410870886   -0.009767415020649232
-0.17150012730341666   -0.0359029410870886   -0.009767415020649232
-0.17150012730341666   -0.0359029410870886   -0.009767415020649232
0.03448729738345781   -0.028986918153753087   0.00807173252045337
0.03448729738345781   -0.028986918153753087   0.00807173252045337
0.03448729738345781   -0.028986918153753087   0.00807173252045337
0.03448729738345781   -0.028986918153753087   0.00807173252045337
-0.38943036684857657   -0.05156685743568145   -0.00969567492778158
-0.38943036684857657   -0.05156685743568145   -0.00969567492778158
-0.38943036684857657   -0.05156685743568145   -0.00969567492778158
-0.38943036684857657   -0.05156685743568145   -0.00969567492778158
-0.42401559405206773   -0.12737253521755904   -0.013306154635258813
-0.42401559405206773   -0.12737253521755904   -0.013306154635258813
-0.42401559405206773   -0.12737253521755904   -0.013306154635258813
-0.42401559405206773   -0.12737253521755904   -0.013306154635258813
0.03244064255700921   0.032466314574278204   0.015452192709178749
0.03244064255700921   0.032466314574278204   0.015452192709178749
0.03244064255700921   0.032466314574278204   0.015452192709178749
0.03244064255700921   0.032466314574278204   0.015452192709178749
-0.1866671299882089   -0.040904576973703255   -0.0117060350373897
-0.1866671299882089   -0.040904576973703255   -0.0117060350373897
-0.1866671299882089   -0.040904576973703255   -0.0117060350373897
-0.1866671299882089   -0.040904576973703255   -0.0117060350373897
0.01826346853982748   -0.03404080361052059   0.011073440808068866
0.01826346853982748   -0.03404080361052059   0.011073440808068866
0.01826346853982748   -0.03404080361052059   0.011073440808068866
0.01826346853982748   -0.03404080361052059   0.011073440808068866
-0.409588303706859   -0.060615300704738986   -0.007926937422039
-0.409588303706859   -0.060615300704738986   -0.007926937422039
-0.409588303706859   -0.060615300704738986   -0.007926937422039
-0.409588303706859   -0.060615300704738986   -0.007926937422039
-0.4443316818572728   -0.13081155064306185   -0.011824510461160363
-0.4443316818572728   -0.13081155064306185   -0.011824510461160363
-0.4443316818572728   -0.13081155064306185   -0.011824510461160363
-0.4443316818572728   -0.13081155064306185   -0.011824510461160363
0.013891359809852023   0.02526149030590125   0.017244842847074553
0.013891359809852023   0.02526149030590125   0.017244842847074553
0.013891359809852023   0.02526149030590125   0.017244842847074553
0.013891359809852023   0.02526149030590125   0.017244842847074553
-0.2063580345165281   -0.046891352071915346   -0.016391361572245633
-0.2063580345165281   -0.046891352071915346   -0.016391361572245633
-0.2063580345165281   -0.046891352071915346   -0.016391361572245633
-0.2063580345165281   -0.046891352071915346   -0.016391361572245633
-0.3682373002829604   -0.031046744496887206   0.005850750851760922
-0.3682373002829604   -0.031046744496887206   0.005850750851760922
-0.3682373002829604   -0.031046744496887206   0.005850750851760922
-0.3682373002829604   -0.031046744496887206   0.005850750851760922
-0.7837374813302124   -0.05053229799051165   -0.020614083711345675
-0.7837374813302124   -0.05053229799051165   -0.020614083711345675
-0.7837374813302124   -0.05053229799051165   -0.020614083711345675
-0.7837374813302124   -0.05053229799051165   -0.020614083711345675
-0.8195248896504309   -0.12866503701621115   -0.02004121815109678
-0.8195248896504309   -0.12866503701621115   -0.02004121815109678
-0.8195248896504309   -0.12866503701621115   -0.02004121815109678
-0.8195248896504309   -0.12866503701621115   -0.02004121815109678
-0.37011256439949575   0.03135817710957155   0.003968302772363746
-0.37011256439949575   0.03135817710957155   0.003968302772363746
-0.37011256439949575   0.03135817710957155   0.003968302772363746
-0.37011256439949575   0.03135817710957155   0.003968302772363746
-0.5806004871367618   -0.04265418040257768   -0.008143485366217555
-0.5806004871367618   -0.04265418040257768   -0.008143485366217555
-0.5806004871367618   -0.04265418040257768   -0.008143485366217555
-0.5806004871367618   -0.04265418040257768   -0.008143485366217555
-0.38124771826132564   -0.03422601416134426   0.013876724734132187
-0.38124771826132564   -0.03422601416134426   0.013876724734132187
-0.38124771826132564   -0.03422601416134426   0.013876724734132187
-0.38124771826132564   -0.03422601416134426   0.013876724734132187
-0.8061224585424517   -0.06081356849914647   -0.020880531128270517
-0.8061224585424517   -0.06081356849914647   -0.020880531128270517
-0.8061224585424517   -0.06081356849914647   -0.020880531128270517
-0.8061224585424517   -0.06081356849914647   -0.020880531128270517
-0.8448413292092288   -0.13677155865676333   -0.014132539260755422
-0.8448413292092288   -0.13677155865676333   -0.014132539260755422
-0.8448413292092288   -0.13677155865676333   -0.014132539260755422
-0.8448413292092288   -0.13677155865676333   -0.014132539260755422
-0.39049391680216256   0.022103924856722204   0.004825771539981951
-0.39049391680216256   0.022103924856722204   0.004825771539981951
-0.39049391680216256   0.022103924856722204   0.004825771539981951
-0.39049391680216256   0.022103924856722204   0.004825771539981951
-0.5965306959699578   -0.04709564068494973   -0.008136720146263834
-0.5965306959699578   -0.04709564068494973   -0.008136720146263834
-0.5965306959699578   -0.04709564068494973   -0.008136720146263834
-0.5965306959699578   -0.04709564068494973   -0.008136720146263834
-0.40147002034718665   -0.04238412774823954   0.014433306419821332
-0.40147002034718665   -0.04238412774823954   0.014433306419821332
-0.40147002034718665   -0.04238412774823954   0.014433306419821332
-0.40147002034718665   -0.04238412774823954   0.014433306419821332
-0.8323427885822676   -0.0707610689698698   -0.017650325812842427
-0.8323427885822676   -0.0707610689698698   -0.017650325812842427
-0.8323427885822676   -0.0707610689698698   -0.017650325812842427
-0.8323427885822676   -0.0707610689698698   -0.017650325812842427
-0.8734642368047173   -0.14749522639319193   -0.015078735650212276
-0.8734642368047173   -0.14749522639319193   -0.015078735650212276
-0.8734642368047173   -0.14749522639319193   -0.015078735650212276
-0.8734642368047173   -0.14749522639319193   -0.015078735650212276
-0.41252580475493533   0.010653918248471242   0.005739406158987961
-0.41252580475493533   0.010653918248471242   0.005739406158987961
-0.41252580475493533   0.010653918248471242   0.005739406158987961
-0.41252580475493533   0.010653918248471242   0.005739406158987961
-0.6250397785296208   -0.05814765008668102   -0.013308551791053433
-0.6250397785296208   -0.05814765008668102   -0.013308551791053433
-0.6250397785296208   -0.05814765008668102   -0.013308551791053433
-0.6250397785296208   -0.05814765008668102   -0.013308551791053433
-0.7574144259296225   0.0352958444206547   0.02517305088043771
-0.7574144259296225   0.0352958444206547   0.02517305088043771
-0.7574144259296225   0.0352958444206547   0.02517305088043771
-0.7574144259296225   0.0352958444206547   0.02517305088043771
-1.1739997190564249   -0.058456132348143564   -0.015515022924332114
-1.1739997190564249   -0.058456132348143564   -0.015515022924332114
-1.1739997190564249   -0.058456132348143564   -0.015515022924332114
-1.1739997190564249   -0.058456132348143564   -0.015515022924332114
-1.2024055667054676   -0.05955498534136941   0.025782871456441238
-1.2024055667054676   -0.05955498534136941   0.025782871456441238
-1.2024055667054676   -0.05955498534136941   0.025782871456441238
-1.2024055667054676   -0.05955498534136941   0.025782871456441238
-0.7860695700739496   0.02462032048090257   -0.0060499777658099
-0.7860695700739496   0.02462032048090257   -0.0060499777658099
-0.7860695700739496   0.02462032048090257   -0.0060499777658099
-0.7860695700739496   0.02462032048090257   -0.0060499777658099
-0.9342754787104963   0.0005950014718824614   0.023772040786234155
-0.9342754787104963   0.0005950014718824614   0.023772040786234155
-0.9342754787104963   0.0005950014718824614   0.023772040786234155
-0.9342754787104963   0.0005950014718824614   0.023772040786234155
-0.7781041562352737   0.02652350403590087   0.031873907872568046
-0.7781041562352737   0.02652350403590087   0.031873907872568046
-0.7781041562352737   0.02652350403590087   0.031873907872568046
-0.7781041562352737   0.02652350403590087   0.031873907872568046
-1.209832907941783   -0.06092009629400286   -0.009988723772503427
-1.209832907941783   -0.06092009629400286   -0.009988723772503427
-1.209832907941783   -0.06092009629400286   -0.009988723772503427
-1.209832907941783   -0.06092009629400286   -0.009988723772503427
-1.2382111364463664   -0.06922548326420128   0.035110345945318554
-1.2382111364463664   -0.06922548326420128   0.035110345945318554
-1.2382111364463664   -0.06922548326420128   0.035110345945318554
-1.2382111364463664   -0.06922548326420128   0.035110345945318554
-0.8123219296472286   0.018042176284893352   -0.006349276392417939
-0.8123219296472286   0.018042176284893352   -0.006349276392417939
-0.8123219296472286   0.018042176284893352   -0.006349276392417939
-0.8123219296472286   0.018042176284893352   -0.006349276392417939
-0.9807077732111285   -0.010696694046058747   0.013195773466763615
-0.9807077732111285   -0.010696694046058747   0.013195773466763615
-0.9807077732111285   -0.010696694046058747   0.013195773466763615
-0.9807077732111285   -0.010696694046058747   0.013195773466763615
-0.8050372796326452   0.016675374085459688   0.03144077587993289
-0.8050372796326452   0.016675374085459688   0.03144077587993289
-0.8050372796326452   0.016675374085459688   0.03144077587993289
-0.8050372796326452   0.016675374085459688   0.03144077587993289
-1.2468681943635136   -0.0692310889673314   -0.008169337937287392
-1.2468681943635136   -0.0692310889673314   -0.008169337937287392
-1.2468681943635136   -0.0692310889673314   -0.008169337937287392
-1.2468681943635136   -0.0692310889673314   -0.008169337937287392
-1.2891758191809364   -0.10846617385403004   0.030390392575601034
-1.2891758191809364   -0.10846617385403004   0.030390392575601034
-1.2891758191809364   -0.10846617385403004   0.030390392575601034
-1.2891758191809364   -0.10846617385403004   0.030390392575601034
-0.8425930126957404   -0.0022247372141429023   -0.005993104284392196
-0.8425930126957404   -0.0022247372141429023   -0.005993104284392196
-0.8425930126957404   -0.0022247372141429023   -0.005993104284392196
-0.8425930126957404   -0.0022247372141429023   -0.005993104284392196
-1.0000972265944699   -0.02498117954274487   0.0039906514661426085
-1.0000972265944699   -0.02498117954274487   0.0039906514661426085
-1.0000972265944699   -0.02498117954274487   0.0039906514661426085
-1.0000972265944699   -0.02498117954274487   0.0039906514661426085
0.7742437381818104   0.04163982568401642   -0.027200820273355533
0.7742437381818104   0.04163982568401642   -0.027200820273355533
0.7742437381818104   0.04163982568401642   -0.027200820273355533
0.7742437381818104   0.04163982568401642   -0.027200820273355533
0.38320801787083303   -0.0008254154295674748   0.0097430949243732
0.38320801787083303   -0.0008254154295674748   0.0097430949243732
0.38320801787083303   -0.0008254154295674748   0.0097430949243732
0.38320801787083303   -0.0008254154295674748   0.0097430949243732
0.3506705999430241   -0.056877901795644406   -0.025039183237139134
0.3506705999430241   -0.056877901795644406   -0.025039183237139134
0.3506705999430241   -0.056877901795644406   -0.025039183237139134
0.3506705999430241   -0.056877901795644406   -0.025039183237139134
0.7598766681401808   0.0624026440818891   0.012233572219952391
0.7598766681401808   0.0624026440818891   0.012233572219952391
0.7598766681401808   0.0624026440818891   0.012233572219952391
0.7598766681401808   0.0624026440818891   0.012233572219952391
0.5376863490339241   0.004729363213616222   -0.017706911089024294
0.5376863490339241   0.004729363213616222   -0.017706911089024294
0.5376863490339241   0.004729363213616222   -0.017706911089024294
0.5376863490339241   0.004729363213616222   -0.017706911089024294
0.7440101863121179   0.021548844631590847   -0.026245037470056798
0.7440101863121179   0.021548844631590847   -0.026245037470056798
0.7440101863121179   0.021548844631590847   -0.026245037470056798
0.7440101863121179   0.021548844631590847   -0.026245037470056798
0.36586545108945856   -0.016695733026974288   0.010752903726357805
0.36586545108945856   -0.016695733026974288   0.010752903726357805
0.36586545108945856   -0.016695733026974288   0.010752903726357805
0.36586545108945856   -0.016695733026974288   0.010752903726357805
0.33440105411736165   -0.06156465681239179   -0.02179074907147125
0.33440105411736165   -0.06156465681239179   -0.02179074907147125
0.33440105411736165   -0.06156465681239179   -0.02179074907147125
0.33440105411736165   -0.06156465681239179   -0.02179074907147125
0.735554846198449   0.0559398145059775   0.01678837709937619
0.735554846198449   0.0559398145059775   0.01678837709937619
0.735554846198449   0.0559398145059775   0.01678837709937619
0.735554846198449   0.0559398145059775   0.01678837709937619
0.5251159177444488   -0.003763957380855637   -0.02312859669274419
0.5251159177444488   -0.003763957380855637   -0.02312859669274419
0.5251159177444488   -0.003763957380855637   -0.02312859669274419
0.5251159177444488   -0.003763957380855637   -0.02312859669274419
0.7200196271046782   0.015773022355556776   -0.0207209262190449
0.7200196271046782   0.015773022355556776   -0.0207209262190449
0.7200196271046782   0.015773022355556776   -0.0207209262190449
0.7200196271046782   0.015773022355556776   -0.0207209262190449
0.3493262102070545   -0.02200792766604759   0.01327830223064531
0.3493262102070545   -0.02200792766604759   0.01327830223064531
0.3493262102070545   -0.02200792766604759   0.01327830223064531
0.3493262102070545   -0.02200792766604759   0.01327830223064531
0.3195655094269275   -0.06280235529158368   -0.017810616382386797
0.3195655094269275   -0.06280235529158368   -0.017810616382386797
0.3195655094269275   -0.06280235529158368   -0.017810616382386797
0.3195655094269275   -0.06280235529158368   -0.017810616382386797
0.7081364032622107   0.050389581436058095   0.020951186961248598
0.7081364032622107   0.050389581436058095   0.020951186961248598
0.7081364032622107   0.050389581436058095   0.020951186961248598
0.7081364032622107   0.050389581436058095   0.020951186961248598
0.49530157688529947   -0.009563710776648152   -0.03134952895106967
0.49530157688529947   -0.009563710776648152   -0.03134952895106967
0.49530157688529947   -0.009563710776648152   -0.03134952895106967
0.49530157688529947   -0.009563710776648152   -0.03134952895106967
0.3900156355356691   0.0406253029820563   0.0023304648369298214
0.3900156355356691   0.0406253029820563   0.0023304648369298214
0.3900156355356691   0.0406253029820563   0.0023304648369298214
0.3900156355356691   0.0406253029820563   0.0023304648369298214
0.012432125387539827   -0.013090234539576506   -0.0017070746835176655
0.012432125387539827   -0.013090234539576506   -0.0017070746835176655
0.012432125387539827   -0.013090234539576506   -0.0017070746835176655
0.012432125387539827   -0.013090234539576506   -0.0017070746835176655
-0.01209864374964844   -0.0513011206523512   -0.017102301479630513
-0.01209864374964844   -0.0513011206523512   -0.017102301479630513
-0.01209864374964844   -0.0513011206523512   -0.017102301479630513
-0.01209864374964844   -0.0513011206523512   -0.017102301479630513
0.38259420415625733   0.0565962673050049   0.021104668728372536
0.38259420415625733   0.0565962673050049   0.021104668728372536
0.38259420415625733   0.0565962673050049   0.021104668728372536
0.38259420415625733   0.0565962673050049   0.021104668728372536
0.1902208584650391   0.0080679991341268   -0.002129237820169756
0.1902208584650391   0.0080679991341268   -0.002129237820169756
0.1902208584650391   0.0080679991341268   -0.002129237820169756
0.1902208584650391   0.0080679991341268   -0.002129237820169756
0.37399919657204606   0.030236739441981873   0.004489158670340358
0.37399919657204606   0.030236739441981873   0.004489158670340358
0.37399919657204606   0.030236739441981873   0.004489158670340358
0.37399919657204606   0.030236739441981873   0.004489158670340358
-0.003347868756586977   -0.02478582538047778   0.00013627821380337787
-0.003347868756586977   -0.02478582538047778   0.00013627821380337787
-0.003347868756586977   -0.02478582538047778   0.00013627821380337787
-0.003347868756586977   -0.02478582538047778   0.00013627821380337787
-0.027509035263427187   -0.0588736201509263   -0.014805729799949433
-0.027509035263427187   -0.0588736201509263   -0.014805729799949433
-0.027509035263427187   -0.0588736201509263   -0.014805729799949433
-0.027509035263427187   -0.0588736201509263   -0.014805729799949433
0.3651341853377717   0.04697037753064021   0.02333987268754334
0.3651341853377717   0.04697037753064021   0.02333987268754334
0.3651341853377717   0.04697037753064021   0.02333987268754334
0.3651341853377717   0.04697037753064021   0.02333987268754334
0.1713554231615721   -0.0014344453831689544   -0.007522432448391802
0.1713554231615721   -0.0014344453831689544   -0.007522432448391802
0.1713554231615721   -0.0014344453831689544   -0.007522432448391802
0.1713554231615721   -0.0014344453831689544   -0.007522432448391802
0.35686517411911967   0.022296172092131944   0.006669022032794937
0.35686517411911967   0.022296172092131944   0.006669022032794937
0.35686517411911967   0.022296172092131944   0.006669022032794937
0.35686517411911967   0.022296172092131944   0.006669022032794937
-0.019226308052690738   -0.03418569872033303   0.001919984823139551
-0.019226308052690738   -0.03418569872033303   0.001919984823139551
-0.019226308052690738   -0.03418569872033303   0.001919984823139551
-0.019226308052690738   -0.03418569872033303   0.001919984823139551
-0.04275685067750362   -0.06337953248792258   -0.011813003809161345
-0.04275685067750362   -0.06337953248792258   -0.011813003809161345
-0.04275685067750362   -0.06337953248792258   -0.011813003809161345
-0.04275685067750362   -0.06337953248792258   -0.011813003809161345
0.34852644834302016   0.03889315626286691   0.02529856664362133
0.34852644834302016   0.03889315626286691   0.02529856664362133
0.34852644834302016   0.03889315626286691   0.02529856664362133
0.34852644834302016   0.03889315626286691   0.02529856664362133
0.15747301696534327   -0.007455374004994922   -0.011478410626249505
0.15747301696534327   -0.007455374004994922   -0.011478410626249505
0.15747301696534327   -0.007455374004994922   -0.011478410626249505
0.15747301696534327   -0.007455374004994922   -0.011478410626249505
0.02532561829102823   0.040856150196145254   0.008814005098204495
0.02532561829102823   0.040856150196145254   0.008814005098204495
0.02532561829102823   0.040856150196145254   0.008814005098204495
0.02532561829102823   0.040856150196145254   0.008814005098204495
-0.3469665793447408   -0.022676865202612875   -0.01190874829506055
-0.3469665793447408   -0.022676865202612875   -0.01190874829506055
-0.3469665793447408   -0.022676865202612875   -0.01190874829506055
-0.3469665793447408   -0.022676865202612875   -0.01190874829506055
-0.36610256563575544   -0.047148363319716106   -0.010931005560745334
-0.36610256563575544   -0.047148363319716106   -0.010931005560745334
-0.36610256563575544   -0.047148363319716106   -0.010931005560745334
-0.36610256563575544   -0.047148363319716106   -0.010931005560745334
0.01291120312911771   0.04636585374094652   0.010279958520902516
0.01291120312911771   0.04636585374094652   0.010279958520902516
0.01291120312911771   0.04636585374094652   0.010279958520902516
0.01291120312911771   0.04636585374094652   0.010279958520902516
-0.16849357971416956   0.005110929858269754   0.0006697959394445178
-0.16849357971416956   0.005110929858269754   0.0006697959394445178
-0.16849357971416956   0.005110929858269754   0.0006697959394445178
-0.16849357971416956   0.005110929858269754   0.0006697959394445178
0.01029369858597137   0.03252395712166817   0.011034332424449171
0.01029369858597137   0.03252395712166817   0.011034332424449171
0.01029369858597137   0.03252395712166817   0.011034332424449171
0.01029369858597137   0.03252395712166817   0.011034332424449171
-0.36306271631013065   -0.03288412191795928   -0.009996000334378089
-0.36306271631013065   -0.03288412191795928   -0.009996000334378089
-0.36306271631013065   -0.03288412191795928   -0.009996000334378089
-0.36306271631013065   -0.03288412191795928   -0.009996000334378089
-0.3826366065224259   -0.055462795894299574   -0.00911611055427507
-0.3826366065224259   -0.055462795894299574   -0.00911611055427507
-0.3826366065224259   -0.055462795894299574   -0.00911611055427507
-0.3826366065224259   -0.055462795894299574   -0.00911611055427507
-0.0029880387662229897   0.03646685270597794   0.012458779829167318
-0.0029880387662229897   0.03646685270597794   0.012458779829167318
-0.0029880387662229897   0.03646685270597794   0.012458779829167318
-0.0029880387662229897   0.03646685270597794   0.012458779829167318
-0.18433823416663897   -0.003050307823339128   -0.003371161878909873
-0.18433823416663897   -0.003050307823339128   -0.003371161878909873
-0.18433823416663897   -0.003050307823339128   -0.003371161878909873
-0.18433823416663897   -0.003050307823339128   -0.003371161878909873
-0.005219622430012127   0.024497804898565085   0.013269909317634488
-0.005219622430012127   0.024497804898565085   0.013269909317634488
-0.005219622430012127   0.024497804898565085   0.013269909317634488
-0.005219622430012127   0.024497804898565085   0.013269909317634488
-0.3800453575610828   -0.043134082789332465   -0.008488578852524846
-0.3800453575610828   -0.043134082789332465   -0.008488578852524846
-0.3800453575610828   -0.043134082789332465   -0.008488578852524846
-0.3800453575610828   -0.043134082789332465   -0.008488578852524846
-0.39905307787521704   -0.06199555439945833   -0.006095942994654291
-0.39905307787521704   -0.06199555439945833   -0.006095942994654291
-0.39905307787521704   -0.06199555439945833   -0.006095942994654291
-0.39905307787521704   -0.06199555439945833   -0.006095942994654291
-0.01946232230634015   0.027141819868547638   0.014138285690185801
-0.01946232230634015   0.027141819868547638   0.014138285690185801
-0.01946232230634015   0.027141819868547638   0.014138285690185801
-0.01946232230634015   0.027141819868547638   0.014138285690185801
-0.20138902630966668   -0.011348632903417942   -0.007793587787933402
-0.20138902630966668   -0.011348632903417942   -0.007793587787933402
-0.20138902630966668   -0.011348632903417942   -0.007793587787933402
-0.20138902630966668   -0.011348632903417942   -0.007793587787933402
-0.3272612864813   0.04806160657120598   0.01587924424833017
-0.3272612864813   0.04806160657120598   0.01587924424833017
-0.3272612864813   0.04806160657120598   0.01587924424833017
-0.3272612864813   0.04806160657120598   0.01587924424833017
-0.6948428788686954   -0.031116845214285274   -0.019464483214631293
-0.6948428788686954   -0.031116845214285274   -0.019464483214631293
-0.6948428788686954   -0.031116845214285274   -0.019464483214631293
-0.6948428788686954   -0.031116845214285274   -0.019464483214631293
-0.7097500440618044   -0.03802604865548863   -0.0033153463906591026
-0.7097500440618044   -0.03802604865548863   -0.0033153463906591026
-0.7097500440618044   -0.03802604865548863   -0.0033153463906591026
-0.7097500440618044   -0.03802604865548863   -0.0033153463906591026
-0.3475508481954808   0.035141206121332785   -0.000461987800419221
-0.3475508481954808   0.035141206121332785   -0.000461987800419221
-0.3475508481954808   0.035141206121332785   -0.000461987800419221
-0.3475508481954808   0.035141206121332785   -0.000461987800419221
-0.516091338236002   0.005076859521444391   0.003784110043696845
-0.516091338236002   0.005076859521444391   0.003784110043696845
-0.516091338236002   0.005076859521444391   0.003784110043696845
-0.516091338236002   0.005076859521444391   0.003784110043696845
-0.3430155466873833   0.039545887724839676   0.017809838136561295
-0.3430155466873833   0.039545887724839676   0.017809838136561295
-0.3430155466873833   0.039545887724839676   0.017809838136561295
-0.3430155466873833   0.039545887724839676   0.017809838136561295
-0.7137205675713986   -0.041865952260493194   -0.019328060333631318
-0.7137205675713986   -0.041865952260493194   -0.019328060333631318
-0.7137205675713986   -0.041865952260493194   -0.019328060333631318
-0.7137205675713986   -0.041865952260493194   -0.019328060333631318
-0.7301053937839324   -0.047381672648932935   -0.0029907390065239577
-0.7301053937839324   -0.047381672648932935   -0.0029907390065239577
-0.7301053937839324   -0.047381672648932935   -0.0029907390065239577
-0.7301053937839324   -0.047381672648932935   -0.0029907390065239577
-0.3642867807345274   0.025695176105487633   0.0014750463854321418
-0.3642867807345274   0.025695176105487633   0.0014750463854321418
-0.3642867807345274   0.025695176105487633   0.0014750463854321418
-0.3642867807345274   0.025695176105487633   0.0014750463854321418
-0.530287595315022   -0.002356394285303612   0.00047480826384683
-0.530287595315022   -0.002356394285303612   0.00047480826384683
-0.530287595315022   -0.002356394285303612   0.00047480826384683
-0.530287595315022   -0.002356394285303612   0.00047480826384683
-0.3593144343226145   0.03148421496227177   0.020547739588212433
-0.3593144343226145   0.03148421496227177   0.020547739588212433
-0.3593144343226145   0.03148421496227177   0.020547739588212433
-0.3593144343226145   0.03148421496227177   0.020547739588212433
-0.7339181722156566   -0.05201114352553447   -0.01742516028854926
-0.7339181722156566   -0.05201114352553447   -0.01742516028854926
-0.7339181722156566   -0.05201114352553447   -0.01742516028854926
-0.7339181722156566   -0.05201114352553447   -0.01742516028854926
-0.7488346483584785   -0.05741148801964287   0.0017212184219605707
-0.7488346483584785   -0.05741148801964287   0.0017212184219605707
-0.7488346483584785   -0.05741148801964287   0.0017212184219605707
-0.7488346483584785   -0.05741148801964287   0.0017212184219605707
-0.38202354639532105   0.014427966722401014   0.002628193282974211
-0.38202354639532105   0.014427966722401014   0.002628193282974211
-0.38202354639532105   0.014427966722401014   0.002628193282974211
-0.38202354639532105   0.014427966722401014   0.002628193282974211
-0.5525976379105196   -0.012863082270525183   -0.004001315487956552
-0.5525976379105196   -0.012863082270525183   -0.004001315487956552
-0.5525976379105196   -0.012863082270525183   -0.004001315487956552
-0.5525976379105196   -0.012863082270525183   -0.004001315487956552
-0.670338823480788   0.04980570087831099   0.022133247632303746
-0.670338823480788   0.04980570087831099   0.022133247632303746
-0.670338823480788   0.04980570087831099   0.022133247632303746
-0.670338823480788   0.04980570087831099   0.022133247632303746
-1.0260619189148459   -0.047518054361338435   -0.017786578241469814
-1.0260619189148459   -0.047518054361338435   -0.017786578241469814
-1.0260619189148459   -0.047518054361338435   -0.017786578241469814
-1.0260619189148459   -0.047518054361338435   -0.017786578241469814
-1.0398782778526756   -0.02117846579632443   0.018764798626781154
-1.0398782778526756   -0.02117846579632443   0.018764798626781154
-1.0398782778526756   -0.02117846579632443   0.018764798626781154
-1.0398782778526756   -0.02117846579632443   0.018764798626781154
-0.6991999792664704   0.02126788598487614   -0.009858957054353627
-0.6991999792664704   0.02126788598487614   -0.009858957054353627
-0.6991999792664704   0.02126788598487614   -0.009858957054353627
-0.6991999792664704   0.02126788598487614   -0.009858957054353627
-0.8208710474635927   0.010254889322446531   0.0189668866271367
-0.8208710474635927   0.010254889322446531   0.0189668866271367
-0.8208710474635927   0.010254889322446531   0.0189668866271367
-0.8208710474635927   0.010254889322446531   0.0189668866271367
-0.6862155988559417   0.05088939706191481   0.025441433921243317
-0.6862155988559417   0.05088939706191481   0.025441433921243317
-0.6862155988559417   0.05088939706191481   0.025441433921243317
-0.6862155988559417   0.05088939706191481   0.025441433921243317
-1.052097508170969   -0.050034826781125946   -0.013474991979865451
-1.052097508170969   -0.050034826781125946   -0.013474991979865451
-1.052097508170969   -0.050034826781125946   -0.013474991979865451
-1.052097508170969   -0.050034826781125946   -0.013474991979865451
-1.0651698272862464   -0.02607496420931213   0.025912918775542047
-1.0651698272862464   -0.02607496420931213   0.025912918775542047
-1.0651698272862464   -0.02607496420931213   0.025912918775542047
-1.0651698272862464   -0.02607496420931213   0.025912918775542047
-0.718615728214913   0.015841515166562514   -0.008765598976922674
-0.718615728214913   0.015841515166562514   -0.008765598976922674
-0.718615728214913   0.015841515166562514   -0.008765598976922674
-0.718615728214913   0.015841515166562514   -0.008765598976922674
-0.8558837562551147   0.005081126062543934   0.012306862382879341
-0.8558837562551147   0.005081126062543934   0.012306862382879341
-0.8558837562551147   0.005081126062543934   0.012306862382879341
-0.8558837562551147   0.005081126062543934   0.012306862382879341
-0.7042713285058194   0.04723477894890529   0.031563135786202005
-0.7042713285058194   0.04723477894890529   0.031563135786202005
-0.7042713285058194   0.04723477894890529   0.031563135786202005
-0.7042713285058194   0.04723477894890529   0.031563135786202005
-1.0787699741244619   -0.056723975120773484   -0.011438804504053608
-1.0787699741244619   -0.056723975120773484   -0.011438804504053608
-1.0787699741244619   -0.056723975120773484   -0.011438804504053608
-1.0787699741244619   -0.056723975120773484   -0.011438804504053608
-1.099482034391248   -0.04726364408983294   0.025701383032664872
-1.099482034391248   -0.04726364408983294   0.025701383032664872
-1.099482034391248   -0.04726364408983294   0.025701383032664872
-1.099482034391248   -0.04726364408983294   0.025701383032664872
-0.739461925911503   -0.0005791458668276961   -0.00824751149597698
-0.739461925911503   -0.0005791458668276961   -0.00824751149597698
-0.739461925911503   -0.0005791458668276961   -0.00824751149597698
-0.739461925911503   -0.0005791458668276961   -0.00824751149597698
-0.8657842759289585   -0.0024321770976333534   0.010163752983663288
-0.8657842759289585   -0.0024321770976333534   0.010163752983663288
-0.8657842759289585   -0.0024321770976333534   0.010163752983663288
-0.8657842759289585   -0.0024321770976333534   0.010163752983663288
0.5894587986345181   0.03292709962373262   -0.02774511057281145
0.5894587986345181   0.03292709962373262   -0.02774511057281145
0.5894587986345181   0.03292709962373262   -0.02774511057281145
0.5894587986345181   0.03292709962373262   -0.02774511057281145
0.2799061023838008   0.0052434658424969915   0.010489962171641647
0.2799061023838008   0.0052434658424969915   0.010489962171641647
0.2799061023838008   0.0052434658424969915   0.010489962171641647
0.2799061023838008   0.0052434658424969915   0.010489962171641647
0.24912487525016333   -0.0474751240029941   -0.02640347531444606
0.24912487525016333   -0.0474751240029941   -0.02640347531444606
0.24912487525016333   -0.0474751240029941   -0.02640347531444606
0.24912487525016333   -0.0474751240029941   -0.02640347531444606
0.5769165918513831   0.0539801219135079   0.012984553226101501
0.5769165918513831   0.0539801219135079   0.012984553226101501
0.5769165918513831   0.0539801219135079   0.012984553226101501
0.5769165918513831   0.0539801219135079   0.012984553226101501
0.40196135617843726   0.005421053811891771   -0.011896288680491734
0.40196135617843726   0.005421053811891771   -0.011896288680491734
0.40196135617843726   0.005421053811891771   -0.011896288680491734
0.40196135617843726   0.005421053811891771   -0.011896288680491734
0.5612679634061662   0.014982079394833911   -0.0262605464813089
0.5612679634061662   0.014982079394833911   -0.0262605464813089
0.5612679634061662   0.014982079394833911   -0.0262605464813089
0.5612679634061662   0.014982079394833911   -0.0262605464813089
0.2644680789578116   -0.008782506221889155   0.011619925442687647
0.2644680789578116   -0.008782506221889155   0.011619925442687647
0.2644680789578116   -0.008782506221889155   0.011619925442687647
0.2644680789578116   -0.008782506221889155   0.011619925442687647
0.23476244103650076   -0.05208547112714082   -0.022545645904267057
0.23476244103650076   -0.05208547112714082   -0.022545645904267057
0.23476244103650076   -0.05208547112714082   -0.022545645904267057
0.23476244103650076   -0.05208547112714082   -0.022545645904267057
0.5545796616819294   0.04737792055065328   0.017127818166098544
0.5545796616819294   0.04737792055065328   0.017127818166098544
0.5545796616819294   0.04737792055065328   0.017127818166098544
0.5545796616819294   0.04737792055065328   0.017127818166098544
0.3892280842513782   -0.0026062869010477357   -0.016598175736115748
0.3892280842513782   -0.0026062869010477357   -0.016598175736115748
0.3892280842513782   -0.0026062869010477357   -0.016598175736115748
0.3892280842513782   -0.0026062869010477357   -0.016598175736115748
0.5392864487839795   0.009113662040513226   -0.02107398781350627
0.5392864487839795   0.009113662040513226   -0.02107398781350627
0.5392864487839795   0.009113662040513226   -0.02107398781350627
0.5392864487839795   0.009113662040513226   -0.02107398781350627
0.24966264852927378   -0.014214218022172168   0.01408413845462696
0.24966264852927378   -0.014214218022172168   0.01408413845462696
0.24966264852927378   -0.014214218022172168   0.01408413845462696
0.24966264852927378   -0.014214218022172168   0.01408413845462696
0.22183540410686878   -0.05481719841510052   -0.018781713139202426
0.22183540410686878   -0.05481719841510052   -0.018781713139202426
0.22183540410686878   -0.05481719841510052   -0.018781713139202426
0.22183540410686878   -0.05481719841510052   -0.018781713139202426
0.5293755448104864   0.04030843865119434   0.02038963546386376
0.5293755448104864   0.04030843865119434   0.02038963546386376
0.5293755448104864   0.04030843865119434   0.02038963546386376
0.5293755448104864   0.04030843865119434   0.02038963546386376
0.36367990767857167   -0.00863409255010894   -0.023620781909809947
0.36367990767857167   -0.00863409255010894   -0.023620781909809947
0.36367990767857167   -0.00863409255010894   -0.023620781909809947
0.36367990767857167   -0.00863409255010894   -0.023620781909809947
0.28474138802211885   0.041412503470991284   -0.0015026472652576988
0.28474138802211885   0.041412503470991284   -0.0015026472652576988
0.28474138802211885   0.041412503470991284   -0.0015026472652576988
0.28474138802211885   0.041412503470991284   -0.0015026472652576988
-0.0190020562695366   -0.004306338394822647   -0.00025134800105733085
-0.0190020562695366   -0.004306338394822647   -0.00025134800105733085
-0.0190020562695366   -0.004306338394822647   -0.00025134800105733085
-0.0190020562695366   -0.004306338394822647   -0.00025134800105733085
-0.040688807634443394   -0.03564990799459327   -0.01684319597891766
-0.040688807634443394   -0.03564990799459327   -0.01684319597891766
-0.040688807634443394   -0.03564990799459327   -0.01684319597891766
-0.040688807634443394   -0.03564990799459327   -0.01684319597891766
0.2774803111728913   0.04911872461269675   0.018779855683499692
0.2774803111728913   0.04911872461269675   0.018779855683499692
0.2774803111728913   0.04911872461269675   0.018779855683499692
0.2774803111728913   0.04911872461269675   0.018779855683499692
0.12369121275468752   0.01207156278817859   0.0009099055752908392
0.12369121275468752   0.01207156278817859   0.0009099055752908392
0.12369121275468752   0.01207156278817859   0.0009099055752908392
0.12369121275468752   0.01207156278817859   0.0009099055752908392
0.2701049536934863   0.030068201705514563   0.0009535911936611316
0.2701049536934863   0.030068201705514563   0.0009535911936611316
0.2701049536934863   0.030068201705514563   0.0009535911936611316
0.2701049536934863   0.030068201705514563   0.0009535911936611316
-0.033189152063802456   -0.016475086996169314   0.0014802608758630706
-0.033189152063802456   -0.016475086996169314   0.0014802608758630706
-0.033189152063802456   -0.016475086996169314   0.0014802608758630706
-0.033189152063802456   -0.016475086996169314   0.0014802608758630706
-0.05421329934991677   -0.04435731511474953   -0.01395110585171693
-0.05421329934991677   -0.04435731511474953   -0.01395110585171693
-0.05421329934991677   -0.04435731511474953   -0.01395110585171693
-0.05421329934991677   -0.04435731511474953   -0.01395110585171693
0.2615298639692737   0.03868101161924713   0.020524986013207312
0.2615298639692737   0.03868101161924713   0.020524986013207312
0.2615298639692737   0.03868101161924713   0.020524986013207312
0.2615298639692737   0.03868101161924713   0.020524986013207312
0.10698704364274311   0.0017380990412006157   -0.004273884432270329
0.10698704364274311   0.0017380990412006157   -0.004273884432270329
0.10698704364274311   0.0017380990412006157   -0.004273884432270329
0.10698704364274311   0.0017380990412006157   -0.004273884432270329
0.254401352616429   0.020723770518752918   0.002839670349480298
0.254401352616429   0.020723770518752918   0.002839670349480298
0.254401352616429   0.020723770518752918   0.002839670349480298
0.254401352616429   0.020723770518752918   0.002839670349480298
-0.04719261661006081   -0.02650790262724881   0.003302895360062133
-0.04719261661006081   -0.02650790262724881   0.003302895360062133
-0.04719261661006081   -0.02650790262724881   0.003302895360062133
-0.04719261661006081   -0.02650790262724881   0.003302895360062133
-0.06755568914973148   -0.05162993218213341   -0.011234738088628675
-0.06755568914973148   -0.05162993218213341   -0.011234738088628675
-0.06755568914973148   -0.05162993218213341   -0.011234738088628675
-0.06755568914973148   -0.05162993218213341   -0.011234738088628675
0.2468024911543417   0.029067977582487588   0.022168546100572492
0.2468024911543417   0.029067977582487588   0.022168546100572492
0.2468024911543417   0.029067977582487588   0.022168546100572492
0.2468024911543417   0.029067977582487588   0.022168546100572492
0.09423126087496306   -0.006044366610447088   -0.008575625619531534
0.09423126087496306   -0.006044366610447088   -0.008575625619531534
0.09423126087496306   -0.006044366610447088   -0.008575625619531534
0.09423126087496306   -0.006044366610447088   -0.008575625619531534
-0.006899813469224084   0.0490907859605329   0.006862741645151626
-0.006899813469224084   0.0490907859605329   0.006862741645151626
-0.006899813469224084   0.0490907859605329   0.006862741645151626
-0.006899813469224084   0.0490907859605329   0.006862741645151626
-0.31157082005826736   -0.01377245962021266   -0.010331114538208234
-0.31157082005826736   -0.01377245962021266   -0.010331114538208234
-0.31157082005826736   -0.01377245962021266   -0.010331114538208234
-0.31157082005826736   -0.01377245962021266   -0.010331114538208234
-0.3255429955009058   -0.024998655610825884   -0.008088389607935956
-0.3255429955009058   -0.024998655610825884   -0.008088389607935956
-0.3255429955009058   -0.024998655610825884   -0.008088389607935956
-0.3255429955009058   -0.024998655610825884   -0.008088389607935956
-0.02061404170798775   0.039661002557125416   0.00821972310164186
-0.02061404170798775   0.039661002557125416   0.00821972310164186
-0.02061404170798775   0.039661002557125416   0.00821972310164186
-0.02061404170798775   0.039661002557125416   0.00821972310164186
-0.16576143267244978   0.01256692103056093   0.0032462636733918953
-0.16576143267244978   0.01256692103056093   0.0032462636733918953
-0.16576143267244978   0.01256692103056093   0.0032462636733918953
-0.16576143267244978   0.01256692103056093   0.0032462636733918953
-0.02035280802966839   0.03957869884590134   0.009608195204462728
-0.02035280802966839   0.03957869884590134   0.009608195204462728
-0.02035280802966839   0.03957869884590134   0.009608195204462728
-0.02035280802966839   0.03957869884590134   0.009608195204462728
-0.32554531715852053   -0.024657439878897104   -0.008441213627938012
-0.32554531715852053   -0.024657439878897104   -0.008441213627938012
-0.32554531715852053   -0.024657439878897104   -0.008441213627938012
-0.32554531715852053   -0.024657439878897104   -0.008441213627938012
-0.3393975417328672   -0.03442086672942821   -0.005570314381219181
-0.3393975417328672   -0.03442086672942821   -0.005570314381219181
-0.3393975417328672   -0.03442086672942821   -0.005570314381219181
-0.3393975417328672   -0.03442086672942821   -0.005570314381219181
-0.03471819136056884   0.028914707137107927   0.010252411843165242
-0.03471819136056884   0.028914707137107927   0.010252411843165242
-0.03471819136056884   0.028914707137107927   0.010252411843165242
-0.03471819136056884   0.028914707137107927   0.010252411843165242
-0.17975881746096617   0.003250214769316001   -0.0009505128992918031
-0.17975881746096617   0.003250214769316001   -0.0009505128992918031
-0.17975881746096617   0.003250214769316001   -0.0009505128992918031
-0.17975881746096617   0.003250214769316001   -0.0009505128992918031
-0.03417538054315394   0.030094885831861626   0.011786287235486033
-0.03417538054315394   0.030094885831861626   0.011786287235486033
-0.03417538054315394   0.030094885831861626   0.011786287235486033
-0.03417538054315394   0.030094885831861626   0.011786287235486033
-0.3398682866934288   -0.03552897956732351   -0.00681592634613197
-0.3398682866934288   -0.03552897956732351   -0.00681592634613197
-0.3398682866934288   -0.03552897956732351   -0.00681592634613197
-0.3398682866934288   -0.03552897956732351   -0.00681592634613197
-0.3530825187312799   -0.04302470360439273   -0.003074135249576306
-0.3530825187312799   -0.04302470360439273   -0.003074135249576306
-0.3530825187312799   -0.04302470360439273   -0.003074135249576306
-0.3530825187312799   -0.04302470360439273   -0.003074135249576306
-0.04888438599776021   0.018521436234268544   0.011970409254825724
-0.04888438599776021   0.018521436234268544   0.011970409254825724
-0.04888438599776021   0.018521436234268544   0.011970409254825724
-0.04888438599776021   0.018521436234268544   0.011970409254825724
-0.194402200140109   -0.006142151942609177   -0.005627944235172674
-0.194402200140109   -0.006142151942609177   -0.005627944235172674
-0.194402200140109   -0.006142151942609177   -0.005627944235172674
-0.194402200140109   -0.006142151942609177   -0.005627944235172674
-0.29256551474709425   0.0561800956103745   0.014742856787066435
-0.29256551474709425   0.0561800956103745   0.014742856787066435
-0.29256551474709425   0.0561800956103745   0.014742856787066435
-0.29256551474709425   0.0561800956103745   0.014742856787066435
-0.5977420154129194   -0.023463055851037168   -0.018565882007761374
-0.5977420154129194   -0.023463055851037168   -0.018565882007761374
-0.5977420154129194   -0.023463055851037168   -0.018565882007761374
-0.5977420154129194   -0.023463055851037168   -0.018565882007761374
-0.6053650319999714   -0.016039939624049343   0.001446467277160697
-0.6053650319999714   -0.016039939624049343   0.001446467277160697
-0.6053650319999714   -0.016039939624049343   0.001446467277160697
-0.6053650319999714   -0.016039939624049343   0.001446467277160697
-0.3136792969946451   0.02852480442832106   -0.002293357115777026
-0.3136792969946451   0.02852480442832106   -0.002293357115777026
-0.3136792969946451   0.02852480442832106   -0.002293357115777026
-0.3136792969946451   0.02852480442832106   -0.002293357115777026
-0.44938471397286744   0.011856338283866022   0.005495596883448847
-0.44938471397286744   0.011856338283866022   0.005495596883448847
-0.44938471397286744   0.011856338283866022   0.005495596883448847
-0.44938471397286744   0.011856338283866022   0.005495596883448847
-0.30604589033246143   0.047011909482260444   0.0173865711411997
-0.30604589033246143   0.047011909482260444   0.0173865711411997
-0.30604589033246143   0.047011909482260444   0.0173865711411997
-0.30604589033246143   0.047011909482260444   0.0173865711411997
-0.612935224603041   -0.03446383061887508   -0.01798060474336168
-0.612935224603041   -0.03446383061887508   -0.01798060474336168
-0.612935224603041   -0.03446383061887508   -0.01798060474336168
-0.612935224603041   -0.03446383061887508   -0.01798060474336168
-0.6215026840831548   -0.025567992164688483   0.002375108383178951
-0.6215026840831548   -0.025567992164688483   0.002375108383178951
-0.6215026840831548   -0.025567992164688483   0.002375108383178951
-0.6215026840831548   -0.025567992164688483   0.002375108383178951
-0.3277319284525848   0.01856994433478168   -0.0002330590440149244
-0.3277319284525848   0.01856994433478168   -0.0002330590440149244
-0.3277319284525848   0.01856994433478168   -0.0002330590440149244
-0.3277319284525848   0.01856994433478168   -0.0002330590440149244
-0.4611708636333102   0.0035741221107555565   0.0015957090231425025
-0.4611708636333102   0.0035741221107555565   0.0015957090231425025
-0.4611708636333102   0.0035741221107555565   0.0015957090231425025
-0.4611708636333102   0.0035741221107555565   0.0015957090231425025
-0.3197756638472461   0.03827169322445757   0.01984651509300051
-0.3197756638472461   0.03827169322445757   0.01984651509300051
-0.3197756638472461   0.03827169322445757   0.01984651509300051
-0.3197756638472461   0.03827169322445757   0.01984651509300051
-0.6290525476621857   -0.04486334002805689   -0.016078861648606863
-0.6290525476621857   -0.04486334002805689   -0.016078861648606863
-0.6290525476621857   -0.04486334002805689   -0.016078861648606863
-0.6290525476621857   -0.04486334002805689   -0.016078861648606863
-0.6361256258145934   -0.0358447627903065   0.005366625138708971
-0.6361256258145934   -0.0358447627903065   0.005366625138708971
-0.6361256258145934   -0.0358447627903065   0.005366625138708971
-0.6361256258145934   -0.0358447627903065   0.005366625138708971
-0.3421806345279109   0.00715265180203592   0.0012579303608434914
-0.3421806345279109   0.00715265180203592   0.0012579303608434914
-0.3421806345279109   0.00715265180203592   0.0012579303608434914
-0.3421806345279109   0.00715265180203592   0.0012579303608434914
-0.4792571368139415   -0.006873341019479048   -0.0033795163916772834
-0.4792571368139415   -0.006873341019479048   -0.0033795163916772834
-0.4792571368139415   -0.006873341019479048   -0.0033795163916772834
-0.4792571368139415   -0.006873341019479048   -0.0033795163916772834
-0.5751016124146524   0.05038828167791781   0.02078479545461792
-0.5751016124146524   0.05038828167791781   0.02078479545461792
-0.5751016124146524   0.05038828167791781   0.02078479545461792
-0.5751016124146524   0.05038828167791781   0.02078479545461792
-0.8704811910256713   -0.04024193484260921   -0.02029219202598808
-0.8704811910256713   -0.04024193484260921   -0.02029219202598808
-0.8704811910256713   -0.04024193484260921   -0.02029219202598808
-0.8704811910256713   -0.04024193484260921   -0.02029219202598808
-0.8799637265225686   -0.009089310243356352   0.01911880906058206
-0.8799637265225686   -0.009089310243356352   0.01911880906058206
-0.8799637265225686   -0.009089310243356352   0.01911880906058206
-0.8799637265225686   -0.009089310243356352   0.01911880906058206
-0.6018825313384748   0.014600337486049247   -0.011781306525454997
-0.6018825313384748   0.014600337486049247   -0.011781306525454997
-0.6018825313384748   0.014600337486049247   -0.011781306525454997
-0.6018825313384748   0.014600337486049247   -0.011781306525454997
-0.69944164933535   0.011210300067140438   0.01721620822444838
-0.69944164933535   0.011210300067140438   0.01721620822444838
-0.69944164933535   0.011210300067140438   0.01721620822444838
-0.69944164933535   0.011210300067140438   0.01721620822444838
-0.5874767870112748   0.050461555305081646   0.024386197291508975
-0.5874767870112748   0.050461555305081646   0.024386197291508975
-0.5874767870112748   0.050461555305081646   0.024386197291508975
-0.5874767870112748   0.050461555305081646   0.024386197291508975
-0.8941338317993988   -0.04471488901202339   -0.01610613855489427
-0.8941338317993988   -0.04471488901202339   -0.01610613855489427
-0.8941338317993988   -0.04471488901202339   -0.01610613855489427
-0.8941338317993988   -0.04471488901202339   -0.01610613855489427
-0.9011075183396854   -0.014122634160921105   0.023905444510431688
-0.9011075183396854   -0.014122634160921105   0.023905444510431688
-0.9011075183396854   -0.014122634160921105   0.023905444510431688
-0.9011075183396854   -0.014122634160921105   0.023905444510431688
-0.6170517086782079   0.00914427389820427   -0.010082280654979188
-0.6170517086782079   0.00914427389820427   -0.010082280654979188
-0.6170517086782079   0.00914427389820427   -0.010082280654979188
-0.6170517086782079   0.00914427389820427   -0.010082280654979188
-0.7291668375328643   0.005607688638266606   0.010574798589840798
-0.7291668375328643   0.005607688638266606   0.010574798589840798
-0.7291668375328643   0.005607688638266606   0.010574798589840798
-0.7291668375328643   0.005607688638266606   0.010574798589840798
-0.6017716516229982   0.04671325498682072   0.028749023532453476
-0.6017716516229982   0.04671325498682072   0.028749023532453476
-0.6017716516229982   0.04671325498682072   0.028749023532453476
-0.6017716516229982   0.04671325498682072   0.028749023532453476
-0.9159904760095249   -0.05129451586416536   -0.013337462135510451
-0.9159904760095249   -0.05129451586416536   -0.013337462135510451
-0.9159904760095249   -0.05129451586416536   -0.013337462135510451
-0.9159904760095249   -0.05129451586416536   -0.013337462135510451
-0.9290185418374538   -0.032155949330543776   0.02342508711139339
-0.9290185418374538   -0.032155949330543776   0.02342508711139339
-0.9290185418374538   -0.032155949330543776   0.02342508711139339
-0.9290185418374538   -0.032155949330543776   0.02342508711139339
-0.6330878442961807   -0.006146647574782782   -0.009142582484751034
-0.6330878442961807   -0.006146647574782782   -0.009142582484751034
-0.6330878442961807   -0.006146647574782782   -0.009142582484751034
-0.6330878442961807   -0.006146647574782782   -0.009142582484751034
-0.7365828544724995   -0.0014083274954172498   0.008403170868848203
-0.7365828544724995   -0.0014083274954172498   0.008403170868848203
-0.7365828544724995   -0.0014083274954172498   0.008403170868848203
-0.7365828544724995   -0.0014083274954172498   0.008403170868848203
0.40733442097188316   0.023214120895088716   -0.027085081153482137
0.40733442097188316   0.023214120895088716   -0.027085081153482137
0.40733442097188316   0.023214120895088716   -0.027085081153482137
0.40733442097188316   0.023214120895088716   -0.027085081153482137
0.17396798060794058   0.010742986184747873   0.01154770638374385
0.17396798060794058   0.010742986184747873   0.01154770638374385
0.17396798060794058   0.010742986184747873   0.01154770638374385
0.17396798060794058   0.010742986184747873   0.01154770638374385
0.14610943579220548   -0.039835242506857584   -0.025285112816548327
0.14610943579220548   -0.039835242506857584   -0.025285112816548327
0.14610943579220548   -0.039835242506857584   -0.025285112816548327
0.14610943579220548   -0.039835242506857584   -0.025285112816548327
0.3979889022563418   0.04601741598184358   0.014039435832044615
0.3979889022563418   0.04601741598184358   0.014039435832044615
0.3979889022563418   0.04601741598184358   0.014039435832044615
0.3979889022563418   0.04601741598184358   0.014039435832044615
0.26645883325642533   0.005887654768819028   -0.0072731199375153845
0.26645883325642533   0.005887654768819028   -0.0072731199375153845
0.26645883325642533   0.005887654768819028   -0.0072731199375153845
0.26645883325642533   0.005887654768819028   -0.0072731199375153845
0.3824017561644035   0.007420390334775262   -0.025299268980582053
0.3824017561644035   0.007420390334775262   -0.025299268980582053
0.3824017561644035   0.007420390334775262   -0.025299268980582053
0.3824017561644035   0.007420390334775262   -0.025299268980582053
0.1614031060624673   -0.0015316926814658918   0.012879688709371758
0.1614031060624673   -0.0015316926814658918   0.012879688709371758
0.1614031060624673   -0.0015316926814658918   0.012879688709371758
0.1614031060624673   -0.0015316926814658918   0.012879688709371758
0.13426412253845607   -0.044420441490231485   -0.021548452894851935
0.13426412253845607   -0.044420441490231485   -0.021548452894851935
0.13426412253845607   -0.044420441490231485   -0.021548452894851935
0.13426412253845607   -0.044420441490231485   -0.021548452894851935
0.37848661179273113   0.03950697529138476   0.018138622057726185
0.37848661179273113   0.03950697529138476   0.018138622057726185
0.37848661179273113   0.03950697529138476   0.018138622057726185
0.37848661179273113   0.03950697529138476   0.018138622057726185
0.2543074705660828   -0.0016993014977457269   -0.011749040207914774
0.2543074705660828   -0.0016993014977457269   -0.011749040207914774
0.2543074705660828   -0.0016993014977457269   -0.011749040207914774
0.2543074705660828   -0.0016993014977457269   -0.011749040207914774
0.3631442312900594   0.0015433415051744476   -0.020609646669425618
0.3631442312900594   0.0015433415051744476   -0.020609646669425618
0.3631442312900594   0.0015433415051744476   -0.020609646669425618
0.3631442312900594   0.0015433415051744476   -0.020609646669425618
0.14916875512503283   -0.006894555620116448   0.015448824167918384
0.14916875512503283   -0.006894555620116448   0.015448824167918384
0.14916875512503283   -0.006894555620116448   0.015448824167918384
0.14916875512503283   -0.006894555620116448   0.015448824167918384
0.12368923733539262   -0.0485003020547293   -0.017967760590660697
0.12368923733539262   -0.0485003020547293   -0.017967760590660697
0.12368923733539262   -0.0485003020547293   -0.017967760590660697
0.12368923733539262   -0.0485003020547293   -0.017967760590660697
0.35569629644340056   0.031006675958270745   0.020738196150897233
0.35569629644340056   0.031006675958270745   0.020738196150897233
0.35569629644340056   0.031006675958270745   0.020738196150897233
0.35569629644340056   0.031006675958270745   0.020738196150897233
0.23347207350418858   -0.007891007629106342   -0.017942407095537558
0.23347207350418858   -0.007891007629106342   -0.017942407095537558
0.23347207350418858   -0.007891007629106342   -0.017942407095537558
0.23347207350418858   -0.007891007629106342   -0.017942407095537558
0.17528993315629152   0.03365201679383596   -0.004751561483592408
0.17528993315629152   0.03365201679383596   -0.004751561483592408
0.17528993315629152   0.03365201679383596   -0.004751561483592408
0.17528993315629152   0.03365201679383596   -0.004751561483592408
-0.053357213512461664   0.002672749913784347   0.0014868708542618396
-0.053357213512461664   0.002672749913784347   0.0014868708542618396
-0.053357213512461664   0.002672749913784347   0.0014868708542618396
-0.053357213512461664   0.002672749913784347   0.0014868708542618396
-0.07240407468661159   -0.027737729684380576   -0.015618029942384103
-0.07240407468661159   -0.027737729684380576   -0.015618029942384103
-0.07240407468661159   -0.027737729684380576   -0.015618029942384103
-0.07240407468661159   -0.027737729684380576   -0.015618029942384103
0.17057607571829095   0.040410096781799805   0.016802747525224312
0.17057607571829095   0.040410096781799805   0.016802747525224312
0.17057607571829095   0.040410096781799805   0.016802747525224312
0.17057607571829095   0.040410096781799805   0.016802747525224312
0.05382349014938407   0.011649855042869197   0.002075892269849426
0.05382349014938407   0.011649855042869197   0.002075892269849426
0.05382349014938407   0.011649855042869197   0.002075892269849426
0.05382349014938407   0.011649855042869197   0.002075892269849426
0.1630232026567967   0.021967522977240042   -0.0025190439776893165
0.1630232026567967   0.021967522977240042   -0.0025190439776893165
0.1630232026567967   0.021967522977240042   -0.0025190439776893165
0.1630232026567967   0.021967522977240042   -0.0025190439776893165
-0.06496692743977701   -0.00941088169448085   0.0032408583018890065
-0.06496692743977701   -0.00941088169448085   0.0032408583018890065
-0.06496692743977701   -0.00941088169448085   0.0032408583018890065
-0.06496692743977701   -0.00941088169448085   0.0032408583018890065
-0.08341642005011404   -0.036945080678859335   -0.012659191457937254
-0.08341642005011404   -0.036945080678859335   -0.012659191457937254
-0.08341642005011404   -0.036945080678859335   -0.012659191457937254
-0.08341642005011404   -0.036945080678859335   -0.012659191457937254
0.15706289605586457   0.029755823298013448   0.018269149903947075
0.15706289605586457   0.029755823298013448   0.018269149903947075
0.15706289605586457   0.029755823298013448   0.018269149903947075
0.15706289605586457   0.029755823298013448   0.018269149903947075
0.04021434042854803   0.001196878841257013   -0.002944839381028552
0.04021434042854803   0.001196878841257013   -0.002944839381028552
0.04021434042854803   0.001196878841257013   -0.002944839381028552
0.04021434042854803   0.001196878841257013   -0.002944839381028552
0.14974891656606928   0.012092366738800923   -0.0006372909858193138
0.14974891656606928   0.012092366738800923   -0.0006372909858193138
0.14974891656606928   0.012092366738800923   -0.0006372909858193138
0.14974891656606928   0.012092366738800923   -0.0006372909858193138
-0.07639047862919675   -0.01956966218852488   0.005095097156316732
-0.07639047862919675   -0.01956966218852488   0.005095097156316732
-0.07639047862919675   -0.01956966218852488   0.005095097156316732
-0.07639047862919675   -0.01956966218852488   0.005095097156316732
-0.09427850757345196   -0.04556715817147803   -0.009926133941461942
-0.09427850757345196   -0.04556715817147803   -0.009926133941461942
-0.09427850757345196   -0.04556715817147803   -0.009926133941461942
-0.09427850757345196   -0.04556715817147803   -0.009926133941461942
0.14486878109081716   0.019551596372197548   0.019878059759538047
0.14486878109081716   0.019551596372197548   0.019878059759538047
0.14486878109081716   0.019551596372197548   0.019878059759538047
0.14486878109081716   0.019551596372197548   0.019878059759538047
0.029331937770739256   -0.007436371712525827   -0.00736643854732752
0.029331937770739256   -0.007436371712525827   -0.00736643854732752
0.029331937770739256   -0.007436371712525827   -0.00736643854732752
0.029331937770739256   -0.007436371712525827   -0.00736643854732752
-0.044927303453718134   0.04240358401724268   0.0039055870445192375
-0.044927303453718134   0.04240358401724268   0.0039055870445192375
-0.044927303453718134   0.04240358401724268   0.0039055870445192375
-0.044927303453718134   0.04240358401724268   0.0039055870445192375
-0.2772673815360985   -0.007240661588568231   -0.008456483379144654
-0.2772673815360985   -0.007240661588568231   -0.008456483379144654
-0.2772673815360985   -0.007240661588568231   -0.008456483379144654
-0.2772673815360985   -0.007240661588568231   -0.008456483379144654
-0.28814979953534914   -0.016738101386032954   -0.006240038786788639
-0.28814979953534914   -0.016738101386032954   -0.006240038786788639
-0.28814979953534914   -0.016738101386032954   -0.006240038786788639
-0.28814979953534914   -0.016738101386032954   -0.006240038786788639
-0.05626660877093988   0.030800940109820443   0.006530629841773418
-0.05626660877093988   0.030800940109820443   0.006530629841773418
-0.05626660877093988   0.030800940109820443   0.006530629841773418
-0.05626660877093988   0.030800940109820443   0.006530629841773418
-0.16624318277778222   0.012104178452614849   0.003307798476002998
-0.16624318277778222   0.012104178452614849   0.003307798476002998
-0.16624318277778222   0.012104178452614849   0.003307798476002998
-0.16624318277778222   0.012104178452614849   0.003307798476002998
-0.05593853224410626   0.032288791955604766   0.006683160630157123
-0.05593853224410626   0.032288791955604766   0.006683160630157123
-0.05593853224410626   0.032288791955604766   0.006683160630157123
-0.05593853224410626   0.032288791955604766   0.006683160630157123
-0.2885138474825682   -0.018261924652200237   -0.00653645525671696
-0.2885138474825682   -0.018261924652200237   -0.00653645525671696
-0.2885138474825682   -0.018261924652200237   -0.00653645525671696
-0.2885138474825682   -0.018261924652200237   -0.00653645525671696
-0.2992789718416695   -0.02677002358906551   -0.003610461306601309
-0.2992789718416695   -0.02677002358906551   -0.003610461306601309
-0.2992789718416695   -0.02677002358906551   -0.003610461306601309
-0.2992789718416695   -0.02677002358906551   -0.003610461306601309
-0.06782433457540568   0.019837168352571675   0.008518986884173588
-0.06782433457540568   0.019837168352571675   0.008518986884173588
-0.06782433457540568   0.019837168352571675   0.008518986884173588
-0.06782433457540568   0.019837168352571675   0.008518986884173588
-0.17768375798253974   0.002322825082804951   -0.0010013357956059395
-0.17768375798253974   0.002322825082804951   -0.0010013357956059395
-0.17768375798253974   0.002322825082804951   -0.0010013357956059395
-0.17768375798253974   0.002322825082804951   -0.0010013357956059395
-0.0672587222896966   0.022160801596423203   0.009023415068869375
-0.0672587222896966   0.022160801596423203   0.009023415068869375
-0.0672587222896966   0.022160801596423203   0.009023415068869375
-0.0672587222896966   0.022160801596423203   0.009023415068869375
-0.3000293902747775   -0.02927846298031822   -0.004854114080888705
-0.3000293902747775   -0.02927846298031822   -0.004854114080888705
-0.3000293902747775   -0.02927846298031822   -0.004854114080888705
-0.3000293902747775   -0.02927846298031822   -0.004854114080888705
-0.31021455348497934   -0.03634849570034991   -0.0010490829310473675
-0.31021455348497934   -0.03634849570034991   -0.0010490829310473675
-0.31021455348497934   -0.03634849570034991   -0.0010490829310473675
-0.31021455348497934   -0.03634849570034991   -0.0010490829310473675
-0.07928941004891848   0.009185793499706805   0.010266402010018723
-0.07928941004891848   0.009185793499706805   0.010266402010018723
-0.07928941004891848   0.009185793499706805   0.010266402010018723
-0.07928941004891848   0.009185793499706805   0.010266402010018723
-0.1896009844587239   -0.007467219716912089   -0.005675441116102161
-0.1896009844587239   -0.007467219716912089   -0.005675441116102161
-0.1896009844587239   -0.007467219716912089   -0.005675441116102161
-0.1896009844587239   -0.007467219716912089   -0.005675441116102161
-0.2616599292054548   0.049945467607590985   0.012394649077914821
-0.2616599292054548   0.049945467607590985   0.012394649077914821
-0.2616599292054548   0.049945467607590985   0.012394649077914821
-0.2616599292054548   0.049945467607590985   0.012394649077914821
-0.4974434062602112   -0.017130658756158795   -0.017138490771922442
-0.4974434062602112   -0.017130658756158795   -0.017138490771922442
-0.4974434062602112   -0.017130658756158795   -0.017138490771922442
-0.4974434062602112   -0.017130658756158795   -0.017138490771922442
-0.5015162786185969   -0.007822442884428932   0.003807387944424933
-0.5015162786185969   -0.007822442884428932   0.003807387944424933
-0.5015162786185969   -0.007822442884428932   0.003807387944424933
-0.5015162786185969   -0.007822442884428932   0.003807387944424933
-0.28025199671566775   0.020096790019103486   -0.0035859160935241656
-0.28025199671566775   0.020096790019103486   -0.0035859160935241656
-0.28025199671566775   0.020096790019103486   -0.0035859160935241656
-0.28025199671566775   0.020096790019103486   -0.0035859160935241656
-0.3829121089478369   0.01137582315824813   0.00478765182131714
-0.3829121089478369   0.01137582315824813   0.00478765182131714
-0.3829121089478369   0.01137582315824813   0.00478765182131714
-0.3829121089478369   0.01137582315824813   0.00478765182131714
-0.27247167027033004   0.04025625202232856   0.015156254129945406
-0.27247167027033004   0.04025625202232856   0.015156254129945406
-0.27247167027033004   0.04025625202232856   0.015156254129945406
-0.27247167027033004   0.04025625202232856   0.015156254129945406
-0.5096442467063748   -0.028329546530095687   -0.016325348848797553
-0.5096442467063748   -0.028329546530095687   -0.016325348848797553
-0.5096442467063748   -0.028329546530095687   -0.016325348848797553
-0.5096442467063748   -0.028329546530095687   -0.016325348848797553
-0.5146442357549479   -0.017762326548834986   0.00501789384026495
-0.5146442357549479   -0.017762326548834986   0.00501789384026495
-0.5146442357549479   -0.017762326548834986   0.00501789384026495
-0.5146442357549479   -0.017762326548834986   0.00501789384026495
-0.2915021449105668   0.00998781630976478   -0.0014841665499238585
-0.2915021449105668   0.00998781630976478   -0.0014841665499238585
-0.2915021449105668   0.00998781630976478   -0.0014841665499238585
-0.2915021449105668   0.00998781630976478   -0.0014841665499238585
-0.39250663040734507   0.0025273862533875813   0.00047330519205511165
-0.39250663040734507   0.0025273862533875813   0.00047330519205511165
-0.39250663040734507   0.0025273862533875813   0.00047330519205511165
-0.39250663040734507   0.0025273862533875813   0.00047330519205511165
-0.28344028630834006   0.031031227605524667   0.017781715165455403
-0.28344028630834006   0.031031227605524667   0.017781715165455403
-0.28344028630834006   0.031031227605524667   0.017781715165455403
-0.28344028630834006   0.031031227605524667   0.017781715165455403
-0.5227405270864782   -0.038840170573898186   -0.014385718792327175
-0.5227405270864782   -0.038840170573898186   -0.014385718792327175
-0.5227405270864782   -0.038840170573898186   -0.014385718792327175
-0.5227405270864782   -0.038840170573898186   -0.014385718792327175
-0.5263183208453712   -0.02837327207244933   0.007765997305877535
-0.5263183208453712   -0.02837327207244933   0.007765997305877535
-0.5263183208453712   -0.02837327207244933   0.007765997305877535
-0.5263183208453712   -0.02837327207244933   0.007765997305877535
-0.30295190431711977   -0.0012511737490077807   0.0001668409569047409
-0.30295190431711977   -0.0012511737490077807   0.0001668409569047409
-0.30295190431711977   -0.0012511737490077807   0.0001668409569047409
-0.30295190431711977   -0.0012511737490077807   0.0001668409569047409
-0.40701211947540594   -0.007791929804471284   -0.004553634745874387
-0.40701211947540594   -0.007791929804471284   -0.004553634745874387
-0.40701211947540594   -0.007791929804471284   -0.004553634745874387
-0.40701211947540594   -0.007791929804471284   -0.004553634745874387
-0.4774362309460076   0.04631570082259047   0.019451026220346494
-0.4774362309460076   0.04631570082259047   0.019451026220346494
-0.4774362309460076   0.04631570082259047   0.019451026220346494
-0.4774362309460076   0.04631570082259047   0.019451026220346494
-0.705132522670644   -0.03256357095732776   -0.022090821920348364
-0.705132522670644   -0.03256357095732776   -0.022090821920348364
-0.705132522670644   -0.03256357095732776   -0.022090821920348364
-0.705132522670644   -0.03256357095732776   -0.022090821920348364
-0.711799053711632   -0.0011751887525238425   0.019257584654836672
-0.711799053711632   -0.0011751887525238425   0.019257584654836672
-0.711799053711632   -0.0011751887525238425   0.019257584654836672
-0.711799053711632   -0.0011751887525238425   0.019257584654836672
-0.5019432495305601   0.0070520151457808405   -0.013201924645604306
-0.5019432495305601   0.0070520151457808405   -0.013201924645604306
-0.5019432495305601   0.0070520151457808405   -0.013201924645604306
-0.5019432495305601   0.0070520151457808405   -0.013201924645604306
-0.5726787923601363   0.01062473808429995   0.014577070243725752
-0.5726787923601363   0.01062473808429995   0.014577070243725752
-0.5726787923601363   0.01062473808429995   0.014577070243725752
-0.5726787923601363   0.01062473808429995   0.014577070243725752
-0.4872279886562577   0.044477321918268406   0.022949072953423667
-0.4872279886562577   0.044477321918268406   0.022949072953423667
-0.4872279886562577   0.044477321918268406   0.022949072953423667
-0.4872279886562577   0.044477321918268406   0.022949072953423667
-0.7268136256995534   -0.03889980663862856   -0.018090657398658016
-0.7268136256995534   -0.03889980663862856   -0.018090657398658016
-0.7268136256995534   -0.03889980663862856   -0.018090657398658016
-0.7268136256995534   -0.03889980663862856   -0.018090657398658016
-0.730371736744843   -0.006651483262961083   0.024258961605829167
-0.730371736744843   -0.006651483262961083   0.024258961605829167
-0.730371736744843   -0.006651483262961083   0.024258961605829167
-0.730371736744843   -0.006651483262961083   0.024258961605829167
-0.5140406191081859   0.0015103037903112099   -0.01123665326507858
-0.5140406191081859   0.0015103037903112099   -0.01123665326507858
-0.5140406191081859   0.0015103037903112099   -0.01123665326507858
-0.5140406191081859   0.0015103037903112099   -0.01123665326507858
-0.597872201647508   0.004344084973227191   0.007743497759526534
-0.597872201647508   0.004344084973227191   0.007743497759526534
-0.597872201647508   0.004344084973227191   0.007743497759526534
-0.597872201647508   0.004344084973227191   0.007743497759526534
-0.49864055811073676   0.04024812603765959   0.027025829474826214
-0.49864055811073676   0.04024812603765959   0.027025829474826214
-0.49864055811073676   0.04024812603765959   0.027025829474826214
-0.49864055811073676   0.04024812603765959   0.027025829474826214
-0.7459868519360083   -0.04560435970402445   -0.014863737908934412
-0.7459868519360083   -0.04560435970402445   -0.014863737908934412
-0.7459868519360083   -0.04560435970402445   -0.014863737908934412
-0.7459868519360083   -0.04560435970402445   -0.014863737908934412
-0.7552172236336487   -0.023884154836284144   0.024299260545240828
-0.7552172236336487   -0.023884154836284144   0.024299260545240828
-0.7552172236336487   -0.023884154836284144   0.024299260545240828
-0.7552172236336487   -0.023884154836284144   0.024299260545240828
-0.5267111158167176   -0.012632872666433204   -0.009938376956882045
-0.5267111158167176   -0.012632872666433204   -0.009938376956882045
-0.5267111158167176   -0.012632872666433204   -0.009938376956882045
-0.5267111158167176   -0.012632872666433204   -0.009938376956882045
-0.6047983792736039   -0.002859450071700881   0.004530457676635374
-0.6047983792736039   -0.002859450071700881   0.004530457676635374
-0.6047983792736039   -0.002859450071700881   0.004530457676635374
-0.6047983792736039   -0.002859450071700881   0.004530457676635374
0.226927968839459   0.013698120567461093   -0.02663660993420845
0.226927968839459   0.013698120567461093   -0.02663660993420845
0.226927968839459   0.013698120567461093   -0.02663660993420845
0.226927968839459   0.013698120567461093   -0.02663660993420845
0.06683858722089575   0.015871044375982753   0.012671032677377209
0.06683858722089575   0.015871044375982753   0.012671032677377209
0.06683858722089575   0.015871044375982753   0.012671032677377209
0.06683858722089575   0.015871044375982753   0.012671032677377209
0.042085750304207525   -0.03267350933102363   -0.02351203878015716
0.042085750304207525   -0.03267350933102363   -0.02351203878015716
0.042085750304207525   -0.03267350933102363   -0.02351203878015716
0.042085750304207525   -0.03267350933102363   -0.02351203878015716
0.22086860196058047   0.03817769984784149   0.01524241103625583
0.22086860196058047   0.03817769984784149   0.01524241103625583
0.22086860196058047   0.03817769984784149   0.01524241103625583
0.22086860196058047   0.03817769984784149   0.01524241103625583
0.1310874384738017   0.006385187402759243   -0.0030055081131867088
0.1310874384738017   0.006385187402759243   -0.0030055081131867088
0.1310874384738017   0.006385187402759243   -0.0030055081131867088
0.1310874384738017   0.006385187402759243   -0.0030055081131867088
0.20524721448336522   -0.00023014503296402838   -0.024456681469016847
0.20524721448336522   -0.00023014503296402838   -0.024456681469016847
0.20524721448336522   -0.00023014503296402838   -0.024456681469016847
0.20524721448336522   -0.00023014503296402838   -0.024456681469016847
0.057220121509240586   0.005247319277599492   0.014238988636385749
0.057220121509240586   0.005247319277599492   0.014238988636385749
0.057220121509240586   0.005247319277599492   0.014238988636385749
0.057220121509240586   0.005247319277599492   0.014238988636385749
0.0327512517945417   -0.03726738525143999   -0.019997820658208182
0.0327512517945417   -0.03726738525143999   -0.019997820658208182
0.0327512517945417   -0.03726738525143999   -0.019997820658208182
0.0327512517945417   -0.03726738525143999   -0.019997820658208182
0.20408719119974608   0.031842505922664154   0.019621394114494567
0.20408719119974608   0.031842505922664154   0.019621394114494567
0.20408719119974608   0.031842505922664154   0.019621394114494567
0.20408719119974608   0.031842505922664154   0.019621394114494567
0.11945523563510653   -0.000807154050190044   -0.007647046261443769
0.11945523563510653   -0.000807154050190044   -0.007647046261443769
0.11945523563510653   -0.000807154050190044   -0.007647046261443769
0.11945523563510653   -0.000807154050190044   -0.007647046261443769
0.18854365971142084   -0.006133409181096991   -0.020120348223372345
0.18854365971142084   -0.006133409181096991   -0.020120348223372345
0.18854365971142084   -0.006133409181096991   -0.020120348223372345
0.18854365971142084   -0.006133409181096991   -0.020120348223372345
0.04763924335432131   5.298992377533729e-05   0.01712176196547526
0.04763924335432131   5.298992377533729e-05   0.01712176196547526
0.04763924335432131   5.298992377533729e-05   0.01712176196547526
0.04763924335432131   5.298992377533729e-05   0.01712176196547526
0.024413304001112884   -0.04273149244472364   -0.01666965342178705
0.024413304001112884   -0.04273149244472364   -0.01666965342178705
0.024413304001112884   -0.04273149244472364   -0.01666965342178705
0.024413304001112884   -0.04273149244472364   -0.01666965342178705
0.18328445430223195   0.021760138599825257   0.021817692533409396
0.18328445430223195   0.021760138599825257   0.021817692533409396
0.18328445430223195   0.021760138599825257   0.021817692533409396
0.18328445430223195   0.021760138599825257   0.021817692533409396
0.10317262934780537   -0.007179441042112673   -0.013357996788670893
0.10317262934780537   -0.007179441042112673   -0.013357996788670893
0.10317262934780537   -0.007179441042112673   -0.013357996788670893
0.10317262934780537   -0.007179441042112673   -0.013357996788670893
0.06449250519764693   0.02442304406031654   -0.007611377123201145
0.06449250519764693   0.02442304406031654   -0.007611377123201145
0.06449250519764693   0.02442304406031654   -0.007611377123201145
0.06449250519764693   0.02442304406031654   -0.007611377123201145
-0.0899552391556008   0.007646285449079818   0.0030194424029221893
-0.0899552391556008   0.007646285449079818   0.0030194424029221893
-0.0899552391556008   0.007646285449079818   0.0030194424029221893
-0.0899552391556008   0.007646285449079818   0.0030194424029221893
-0.1059090667745144   -0.02099905331040338   -0.01375786044298625
-0.1059090667745144   -0.02099905331040338   -0.01375786044298625
-0.1059090667745144   -0.02099905331040338   -0.01375786044298625
-0.1059090667745144   -0.02099905331040338   -0.01375786044298625
0.062308501482799504   0.030281167606015024   0.014647040175764799
0.062308501482799504   0.030281167606015024   0.014647040175764799
0.062308501482799504   0.030281167606015024   0.014647040175764799
0.062308501482799504   0.030281167606015024   0.014647040175764799
-0.01781494628639384   0.009897058568294472   0.0025662100766049127
-0.01781494628639384   0.009897058568294472   0.0025662100766049127
-0.01781494628639384   0.009897058568294472   0.0025662100766049127
-0.01781494628639384   0.009897058568294472   0.0025662100766049127
0.05475866052001105   0.012768220692219424   -0.005589217724382338
0.05475866052001105   0.012768220692219424   -0.005589217724382338
0.05475866052001105   0.012768220692219424   -0.005589217724382338
0.05475866052001105   0.012768220692219424   -0.005589217724382338
-0.09877820223174984   -0.003905082816634306   0.004802491777067478
-0.09877820223174984   -0.003905082816634306   0.004802491777067478
-0.09877820223174984   -0.003905082816634306   0.004802491777067478
-0.09877820223174984   -0.003905082816634306   0.004802491777067478
-0.11425626354845629   -0.030321671999823198   -0.010799166980915318
-0.11425626354845629   -0.030321671999823198   -0.010799166980915318
-0.11425626354845629   -0.030321671999823198   -0.010799166980915318
-0.11425626354845629   -0.030321671999823198   -0.010799166980915318
0.05135762086512809   0.019791345659367195   0.015975293783917273
0.05135762086512809   0.019791345659367195   0.015975293783917273
0.05135762086512809   0.019791345659367195   0.015975293783917273
0.05135762086512809   0.019791345659367195   0.015975293783917273
-0.028145840591233526   -0.0001914928203492561   -0.0022718366181334786
-0.028145840591233526   -0.0001914928203492561   -0.0022718366181334786
-0.028145840591233526   -0.0001914928203492561   -0.0022718366181334786
-0.028145840591233526   -0.0001914928203492561   -0.0022718366181334786
0.04402793618857544   0.0027655371298919255   -0.0036473210693714238
0.04402793618857544   0.0027655371298919255   -0.0036473210693714238
0.04402793618857544   0.0027655371298919255   -0.0036473210693714238
0.04402793618857544   0.0027655371298919255   -0.0036473210693714238
-0.10746941283126789   -0.01383869742971229   0.006652112034915805
-0.10746941283126789   -0.01383869742971229   0.006652112034915805
-0.10746941283126789   -0.01383869742971229   0.006652112034915805
-0.10746941283126789   -0.01383869742971229   0.006652112034915805
-0.12253754189443126   -0.039530579988091556   -0.008126499056643699
-0.12253754189443126   -0.039530579988091556   -0.008126499056643699
-0.12253754189443126   -0.039530579988091556   -0.008126499056643699
-0.12253754189443126   -0.039530579988091556   -0.008126499056643699
0.04176870105534573   0.009532319903107064   0.017843519501546973
0.04176870105534573   0.009532319903107064   0.017843519501546973
0.04176870105534573   0.009532319903107064   0.017843519501546973
0.04176870105534573   0.009532319903107064   0.017843519501546973
-0.037053531174430984   -0.009179320259435726   -0.006828041349446238
-0.037053531174430984   -0.009179320259435726   -0.006828041349446238
-0.037053531174430984   -0.009179320259435726   -0.006828041349446238
-0.037053531174430984   -0.009179320259435726   -0.006828041349446238
-0.08522935109320198   0.033097729007199365   0.0011974391567967802
-0.08522935109320198   0.033097729007199365   0.0011974391567967802
-0.08522935109320198   0.033097729007199365   0.0011974391567967802
-0.08522935109320198   0.033097729007199365   0.0011974391567967802
-0.2445684091378418   -0.003125834591284911   -0.0067735320497879295
-0.2445684091378418   -0.003125834591284911   -0.0067735320497879295
-0.2445684091378418   -0.003125834591284911   -0.0067735320497879295
-0.2445684091378418   -0.003125834591284911   -0.0067735320497879295
-0.2521009241744182   -0.010486521726089375   -0.00407236393431264
-0.2521009241744182   -0.010486521726089375   -0.00407236393431264
-0.2521009241744182   -0.010486521726089375   -0.00407236393431264
-0.2521009241744182   -0.010486521726089375   -0.00407236393431264
-0.0940351572259833   0.01994869357519348   0.004663940414068517
-0.0940351572259833   0.01994869357519348   0.004663940414068517
-0.0940351572259833   0.01994869357519348   0.004663940414068517
-0.0940351572259833   0.01994869357519348   0.004663940414068517
-0.1685769462827393   0.009640010305341527   0.0026447902598012805
-0.1685769462827393   0.009640010305341527   0.0026447902598012805
-0.1685769462827393   0.009640010305341527   0.0026447902598012805
-0.1685769462827393   0.009640010305341527   0.0026447902598012805
-0.09360171668637543   0.02281979991319974   0.003960036774105441
-0.09360171668637543   0.02281979991319974   0.003960036774105441
-0.09360171668637543   0.02281979991319974   0.003960036774105441
-0.09360171668637543   0.02281979991319974   0.003960036774105441
-0.25290269793757586   -0.013725961287647623   -0.004841793188544389
-0.25290269793757586   -0.013725961287647623   -0.004841793188544389
-0.25290269793757586   -0.013725961287647623   -0.004841793188544389
-0.25290269793757586   -0.013725961287647623   -0.004841793188544389
-0.26041470549321427   -0.0206641162432354   -0.0013970651770532014
-0.26041470549321427   -0.0206641162432354   -0.0013970651770532014
-0.26041470549321427   -0.0206641162432354   -0.0013970651770532014
-0.26041470549321427   -0.0206641162432354   -0.0013970651770532014
-0.10284368209919588   0.009309713248880552   0.00663235501668105
-0.10284368209919588   0.009309713248880552   0.00663235501668105
-0.10284368209919588   0.009309713248880552   0.00663235501668105
-0.10284368209919588   0.009309713248880552   0.00663235501668105
-0.17724764297612883   -3.462038731720518e-05   -0.0016872750197955144
-0.17724764297612883   -3.462038731720518e-05   -0.0016872750197955144
-0.17724764297612883   -3.462038731720518e-05   -0.0016872750197955144
-0.17724764297612883   -3.462038731720518e-05   -0.0016872750197955144
-0.10226194994404317   0.012513328091895738   0.006337400949431381
-0.10226194994404317   0.012513328091895738   0.006337400949431381
-0.10226194994404317   0.012513328091895738   0.006337400949431381
-0.10226194994404317   0.012513328091895738   0.006337400949431381
-0.2615194695253003   -0.024390762963183897   -0.0031942386175367755
-0.2615194695253003   -0.024390762963183897   -0.0031942386175367755
-0.2615194695253003   -0.024390762963183897   -0.0031942386175367755
-0.2615194695253003   -0.024390762963183897   -0.0031942386175367755
-0.26856376759495576   -0.030482726876329722   0.0011981576758733478
-0.26856376759495576   -0.030482726876329722   0.0011981576758733478
-0.26856376759495576   -0.030482726876329722   0.0011981576758733478
-0.26856376759495576   -0.030482726876329722   0.0011981576758733478
-0.11150769399667217   -0.0009333623697626026   0.008425522813824794
-0.11150769399667217   -0.0009333623697626026   0.008425522813824794
-0.11150769399667217   -0.0009333623697626026   0.008425522813824794
-0.11150769399667217   -0.0009333623697626026   0.008425522813824794
-0.18637510728425244   -0.009729508369822372   -0.006393202856401176
-0.18637510728425244   -0.009729508369822372   -0.006393202856401176
-0.18637510728425244   -0.009729508369822372   -0.006393202856401176
-0.18637510728425244   -0.009729508369822372   -0.006393202856401176
-0.23225647148401452   0.04138874223256477   0.01027157939549874
-0.23225647148401452   0.04138874223256477   0.01027157939549874
-0.23225647148401452   0.04138874223256477   0.01027157939549874
-0.23225647148401452   0.04138874223256477   0.01027157939549874
-0.39600343577513414   -0.012029902535892492   -0.015374566017745086
-0.39600343577513414   -0.012029902535892492   -0.015374566017745086
-0.39600343577513414   -0.012029902535892492   -0.015374566017745086
-0.39600343577513414   -0.012029902535892492   -0.015374566017745086
-0.39674158111854463   -0.0012482733762932685   0.006178351332384365
-0.39674158111854463   -0.0012482733762932685   0.006178351332384365
-0.39674158111854463   -0.0012482733762932685   0.006178351332384365
-0.39674158111854463   -0.0012482733762932685   0.006178351332384365
-0.24809161046271763   0.010283906912169537   -0.004796224014072207
-0.24809161046271763   0.010283906912169537   -0.004796224014072207
-0.24809161046271763   0.010283906912169537   -0.004796224014072207
-0.24809161046271763   0.010283906912169537   -0.004796224014072207
-0.31662626188179754   0.009570146654559172   0.003453525315226764
-0.31662626188179754   0.009570146654559172   0.003453525315226764
-0.31662626188179754   0.009570146654559172   0.003453525315226764
-0.31662626188179754   0.009570146654559172   0.003453525315226764
-0.240298199005048   0.03141306734768509   0.013041672838764149
-0.240298199005048   0.03141306734768509   0.013041672838764149
-0.240298199005048   0.03141306734768509   0.013041672838764149
-0.240298199005048   0.03141306734768509   0.013041672838764149
-0.40523957850980874   -0.023082019745401333   -0.014477889254835462
-0.40523957850980874   -0.023082019745401333   -0.014477889254835462
-0.40523957850980874   -0.023082019745401333   -0.014477889254835462
-0.40523957850980874   -0.023082019745401333   -0.014477889254835462
-0.40698242871963924   -0.011288356594949159   0.0076152527355788716
-0.40698242871963924   -0.011288356594949159   0.0076152527355788716
-0.40698242871963924   -0.011288356594949159   0.0076152527355788716
-0.40698242871963924   -0.011288356594949159   0.0076152527355788716
-0.2564490797719058   0.00047735373677588316   -0.0027104065505257555
-0.2564490797719058   0.00047735373677588316   -0.0027104065505257555
-0.2564490797719058   0.00047735373677588316   -0.0027104065505257555
-0.2564490797719058   0.00047735373677588316   -0.0027104065505257555
-0.3239704495863067   0.0005676858584333366   -0.00108405906537333
-0.3239704495863067   0.0005676858584333366   -0.00108405906537333
-0.3239704495863067   0.0005676858584333366   -0.00108405906537333
-0.3239704495863067   0.0005676858584333366   -0.00108405906537333
-0.24844926157350872   0.022040361602340533   0.015725676575896803
-0.24844926157350872   0.022040361602340533   0.015725676575896803
-0.24844926157350872   0.022040361602340533   0.015725676575896803
-0.24844926157350872   0.022040361602340533   0.015725676575896803
-0.41542233149775637   -0.03329144904023547   -0.01258116870973193
-0.41542233149775637   -0.03329144904023547   -0.01258116870973193
-0.41542233149775637   -0.03329144904023547   -0.01258116870973193
-0.41542233149775637   -0.03329144904023547   -0.01258116870973193
-0.41581582039644954   -0.021774868566836414   0.01041228294709132
-0.41581582039644954   -0.021774868566836414   0.01041228294709132
-0.41581582039644954   -0.021774868566836414   0.01041228294709132
-0.41581582039644954   -0.021774868566836414   0.01041228294709132
-0.26491426067595303   -0.010034991958681648   -0.0010020426467668656
-0.26491426067595303   -0.010034991958681648   -0.0010020426467668656
-0.26491426067595303   -0.010034991958681648   -0.0010020426467668656
-0.26491426067595303   -0.010034991958681648   -0.0010020426467668656
-0.3349663376162109   -0.009282721161268298   -0.0060454703187944395
-0.3349663376162109   -0.009282721161268298   -0.0060454703187944395
-0.3349663376162109   -0.009282721161268298   -0.0060454703187944395
-0.3349663376162109   -0.009282721161268298   -0.0060454703187944395
-0.37873131890705836   0.04077171444734072   0.01818440133940842
-0.37873131890705836   0.04077171444734072   0.01818440133940842
-0.37873131890705836   0.04077171444734072   0.01818440133940842
-0.37873131890705836   0.04077171444734072   0.01818440133940842
-0.5341613980077775   -0.024706500049641825   -0.02316214317246525
-0.5341613980077775   -0.024706500049641825   -0.02316214317246525
-0.5341613980077775   -0.024706500049641825   -0.02316214317246525
-0.5341613980077775   -0.024706500049641825   -0.02316214317246525
-0.5380048111362692   0.006301640280581569   0.01910776263410845
-0.5380048111362692   0.006301640280581569   0.01910776263410845
-0.5380048111362692   0.006301640280581569   0.01910776263410845
-0.5380048111362692   0.006301640280581569   0.01910776263410845
-0.4007491937872153   -0.0009918735619090374   -0.014116111825364624
-0.4007491937872153   -0.0009918735619090374   -0.014116111825364624
-0.4007491937872153   -0.0009918735619090374   -0.014116111825364624
-0.4007491937872153   -0.0009918735619090374   -0.014116111825364624
-0.4429714753509318   0.009651121800319767   0.010823076718502207
-0.4429714753509318   0.009651121800319767   0.010823076718502207
-0.4429714753509318   0.009651121800319767   0.010823076718502207
-0.4429714753509318   0.009651121800319767   0.010823076718502207
-0.38598886862764875   0.037185003614663856   0.02150863679589939
-0.38598886862764875   0.037185003614663856   0.02150863679589939
-0.38598886862764875   0.037185003614663856   0.02150863679589939
-0.38598886862764875   0.037185003614663856   0.02150863679589939
-0.5535172080147758   -0.03262730861493067   -0.019525272862912293
-0.5535172080147758   -0.03262730861493067   -0.019525272862912293
-0.5535172080147758   -0.03262730861493067   -0.019525272862912293
-0.5535172080147758   -0.03262730861493067   -0.019525272862912293
-0.5539785806604338   0.0006471924169329096   0.0243857514202778
-0.5539785806604338   0.0006471924169329096   0.0243857514202778
-0.5539785806604338   0.0006471924169329096   0.0243857514202778
-0.5539785806604338   0.0006471924169329096   0.0243857514202778
-0.409960135241258   -0.006463366512858754   -0.012098269954617005
-0.409960135241258   -0.006463366512858754   -0.012098269954617005
-0.409960135241258   -0.006463366512858754   -0.012098269954617005
-0.409960135241258   -0.006463366512858754   -0.012098269954617005
-0.463488674685717   0.0029785368542420143   0.004031390768239135
-0.463488674685717   0.0029785368542420143   0.004031390768239135
-0.463488674685717   0.0029785368542420143   0.004031390768239135
-0.463488674685717   0.0029785368542420143   0.004031390768239135
-0.39458195910731725   0.0327626794032924   0.02556656479894335
-0.39458195910731725   0.0327626794032924   0.02556656479894335
-0.39458195910731725   0.0327626794032924   0.02556656479894335
-0.39458195910731725   0.0327626794032924   0.02556656479894335
-0.5700642442330268   -0.03928634093786654   -0.016109033087887276
-0.5700642442330268   -0.03928634093786654   -0.016109033087887276
-0.5700642442330268   -0.03928634093786654   -0.016109033087887276
-0.5700642442330268   -0.03928634093786654   -0.016109033087887276
-0.5760478918920489   -0.015482882585406837   0.025148349523581012
-0.5760478918920489   -0.015482882585406837   0.025148349523581012
-0.5760478918920489   -0.015482882585406837   0.025148349523581012
-0.5760478918920489   -0.015482882585406837   0.025148349523581012
-0.4194722190356744   -0.01909310200550403   -0.010551476810369248
-0.4194722190356744   -0.01909310200550403   -0.010551476810369248
-0.4194722190356744   -0.01909310200550403   -0.010551476810369248
-0.4194722190356744   -0.01909310200550403   -0.010551476810369248
-0.470026938583177   -0.004149670721928844   2.461908394040674e-05
-0.470026938583177   -0.004149670721928844   2.461908394040674e-05
-0.470026938583177   -0.004149670721928844   2.461908394040674e-05
-0.470026938583177   -0.004149670721928844   2.461908394040674e-05
0.04553296858256038   0.0037329822823509795   -0.02671365915244629
0.04553296858256038   0.0037329822823509795   -0.02671365915244629
0.04553296858256038   0.0037329822823509795   -0.02671365915244629
0.04553296858256038   0.0037329822823509795   -0.02671365915244629
-0.04076043064096342   0.01991762985737141   0.013593697332270572
-0.04076043064096342   0.01991762985737141   0.013593697332270572
-0.04076043064096342   0.01991762985737141   0.013593697332270572
-0.04076043064096342   0.01991762985737141   0.013593697332270572
-0.06253792919008958   -0.025862275505778014   -0.021550934581171625
-0.06253792919008958   -0.025862275505778014   -0.021550934581171625
-0.06253792919008958   -0.025862275505778014   -0.021550934581171625
-0.06253792919008958   -0.025862275505778014   -0.021550934581171625
0.04223421143000616   0.02871552789778653   0.01665295697017037
0.04223421143000616   0.02871552789778653   0.01665295697017037
0.04223421143000616   0.02871552789778653   0.01665295697017037
0.04223421143000616   0.02871552789778653   0.01665295697017037
-0.0049883637720393795   0.006308941688766937   0.0022940633968638355
-0.0049883637720393795   0.006308941688766937   0.0022940633968638355
-0.0049883637720393795   0.006308941688766937   0.0022940633968638355
-0.0049883637720393795   0.006308941688766937   0.0022940633968638355
0.026675836045596063   -0.008495011627687735   -0.02392838042640586
0.026675836045596063   -0.008495011627687735   -0.02392838042640586
0.026675836045596063   -0.008495011627687735   -0.02392838042640586
0.026675836045596063   -0.008495011627687735   -0.02392838042640586
-0.04788932751257042   0.010438490312805304   0.015391307987840832
-0.04788932751257042   0.010438490312805304   0.015391307987840832
-0.04788932751257042   0.010438490312805304   0.015391307987840832
-0.04788932751257042   0.010438490312805304   0.015391307987840832
-0.06973661914047266   -0.03050718712301117   -0.018303260773678647
-0.06973661914047266   -0.03050718712301117   -0.018303260773678647
-0.06973661914047266   -0.03050718712301117   -0.018303260773678647
-0.06973661914047266   -0.03050718712301117   -0.018303260773678647
0.0274695629791078   0.022422445825655432   0.0228834092529102
0.0274695629791078   0.022422445825655432   0.0228834092529102
0.0274695629791078   0.022422445825655432   0.0228834092529102
0.0274695629791078   0.022422445825655432   0.0228834092529102
-0.016560961428259986   -0.0006559441043611485   -0.0030510259654095906
-0.016560961428259986   -0.0006559441043611485   -0.0030510259654095906
-0.016560961428259986   -0.0006559441043611485   -0.0030510259654095906
-0.016560961428259986   -0.0006559441043611485   -0.0030510259654095906
0.011539758518442399   -0.014549910734539812   -0.019793256490221574
0.011539758518442399   -0.014549910734539812   -0.019793256490221574
0.011539758518442399   -0.014549910734539812   -0.019793256490221574
0.011539758518442399   -0.014549910734539812   -0.019793256490221574
-0.055073841794195375   0.0051981423227933175   0.019305296511902815
-0.055073841794195375   0.0051981423227933175   0.019305296511902815
-0.055073841794195375   0.0051981423227933175   0.019305296511902815
-0.055073841794195375   0.0051981423227933175   0.019305296511902815
-0.07632726734499226   -0.037564762362635284   -0.015195090631669095
-0.07632726734499226   -0.037564762362635284   -0.015195090631669095
-0.07632726734499226   -0.037564762362635284   -0.015195090631669095
-0.07632726734499226   -0.037564762362635284   -0.015195090631669095
0.006962250725619836   0.00928634571555403   0.026129785374693192
0.006962250725619836   0.00928634571555403   0.026129785374693192
0.006962250725619836   0.00928634571555403   0.026129785374693192
0.006962250725619836   0.00928634571555403   0.026129785374693192
-0.02916633319187606   -0.007633729699208054   -0.009248306242999438
-0.02916633319187606   -0.007633729699208054   -0.009248306242999438
-0.02916633319187606   -0.007633729699208054   -0.009248306242999438
-0.02916633319187606   -0.007633729699208054   -0.009248306242999438
-0.04685784254387495   0.013555608188214514   -0.010531340513130195
-0.04685784254387495   0.013555608188214514   -0.010531340513130195
-0.04685784254387495   0.013555608188214514   -0.010531340513130195
-0.04685784254387495   0.013555608188214514   -0.010531340513130195
-0.12728354457631955   0.005371681952160284   0.0035092273846650656
-0.12728354457631955   0.005371681952160284   0.0035092273846650656
-0.12728354457631955   0.005371681952160284   0.0035092273846650656
-0.12728354457631955   0.005371681952160284   0.0035092273846650656
-0.13856315282475865   -0.015071719557077746   -0.011245741332140888
-0.13856315282475865   -0.015071719557077746   -0.011245741332140888
-0.13856315282475865   -0.015071719557077746   -0.011245741332140888
-0.13856315282475865   -0.015071719557077746   -0.011245741332140888
-0.04825089885925825   0.013258219875058059   0.010763721692148936
-0.04825089885925825   0.013258219875058059   0.010763721692148936
-0.04825089885925825   0.013258219875058059   0.010763721692148936
-0.04825089885925825   0.013258219875058059   0.010763721692148936
-0.09007123885773947   0.004008036902723694   0.0021658487010695563
-0.09007123885773947   0.004008036902723694   0.0021658487010695563
-0.09007123885773947   0.004008036902723694   0.0021658487010695563
-0.09007123885773947   0.004008036902723694   0.0021658487010695563
-0.05432933026041064   0.0022917917787575355   -0.0086620072173125
-0.05432933026041064   0.0022917917787575355   -0.0086620072173125
-0.05432933026041064   0.0022917917787575355   -0.0086620072173125
-0.05432933026041064   0.0022917917787575355   -0.0086620072173125
-0.1332385322084603   -0.004859102245631582   0.005164744437902779
-0.1332385322084603   -0.004859102245631582   0.005164744437902779
-0.1332385322084603   -0.004859102245631582   0.005164744437902779
-0.1332385322084603   -0.004859102245631582   0.005164744437902779
-0.14417791831973975   -0.024177195739406847   -0.00833187402508511
-0.14417791831973975   -0.024177195739406847   -0.00833187402508511
-0.14417791831973975   -0.024177195739406847   -0.00833187402508511
-0.14417791831973975   -0.024177195739406847   -0.00833187402508511
-0.05690863721216951   0.0031914281328879017   0.012138033611937533
-0.05690863721216951   0.0031914281328879017   0.012138033611937533
-0.05690863721216951   0.0031914281328879017   0.012138033611937533
-0.05690863721216951   0.0031914281328879017   0.012138033611937533
-0.0971617372833211   -0.005155911575957999   -0.002441900092521102
-0.0971617372833211   -0.005155911575957999   -0.002441900092521102
-0.0971617372833211   -0.005155911575957999   -0.002441900092521102
-0.0971617372833211   -0.005155911575957999   -0.002441900092521102
-0.06277501116809008   -0.007525600925846051   -0.006476807108930812
-0.06277501116809008   -0.007525600925846051   -0.006476807108930812
-0.06277501116809008   -0.007525600925846051   -0.006476807108930812
-0.06277501116809008   -0.007525600925846051   -0.006476807108930812
-0.13912222902206567   -0.014270851338919296   0.007040228062797712
-0.13912222902206567   -0.014270851338919296   0.007040228062797712
-0.13912222902206567   -0.014270851338919296   0.007040228062797712
-0.13912222902206567   -0.014270851338919296   0.007040228062797712
-0.14982963715794131   -0.03350676073828649   -0.005753545492133725
-0.14982963715794131   -0.03350676073828649   -0.005753545492133725
-0.14982963715794131   -0.03350676073828649   -0.005753545492133725
-0.14982963715794131   -0.03350676073828649   -0.005753545492133725
-0.0641557401280583   -0.0069595877418384515   0.015057370832203876
-0.0641557401280583   -0.0069595877418384515   0.015057370832203876
-0.0641557401280583   -0.0069595877418384515   0.015057370832203876
-0.0641557401280583   -0.0069595877418384515   0.015057370832203876
-0.10421585600030187   -0.014170295495766965   -0.007114833004722533
-0.10421585600030187   -0.014170295495766965   -0.007114833004722533
-0.10421585600030187   -0.014170295495766965   -0.007114833004722533
-0.10421585600030187   -0.014170295495766965   -0.007114833004722533
-0.12489308860674195   0.021942144801529444   -0.0011089556168160167
-0.12489308860674195   0.021942144801529444   -0.0011089556168160167
-0.12489308860674195   0.021942144801529444   -0.0011089556168160167
-0.12489308860674195   0.021942144801529444   -0.0011089556168160167
-0.2128464909321405   -0.00739159044370432   -0.006075137479615597
-0.2128464909321405   -0.00739159044370432   -0.006075137479615597
-0.2128464909321405   -0.00739159044370432   -0.006075137479615597
-0.2128464909321405   -0.00739159044370432   -0.006075137479615597
-0.21512136460965153   -0.005472007530762962   -0.0013533577320454827
-0.21512136460965153   -0.005472007530762962   -0.0013533577320454827
-0.21512136460965153   -0.005472007530762962   -0.0013533577320454827
-0.21512136460965153   -0.005472007530762962   -0.0013533577320454827
-0.1326573633620199   0.0015427993228168818   0.0016686871016563156
-0.1326573633620199   0.0015427993228168818   0.0016686871016563156
-0.1326573633620199   0.0015427993228168818   0.0016686871016563156
-0.1326573633620199   0.0015427993228168818   0.0016686871016563156
-0.17101476989621434   0.0024778652634925083   0.0007923126525529317
-0.17101476989621434   0.0024778652634925083   0.0007923126525529317
-0.17101476989621434   0.0024778652634925083   0.0007923126525529317
-0.17101476989621434   0.0024778652634925083   0.0007923126525529317
-0.13056571023981597   0.012036454413926506   0.0016332976215663146
-0.13056571023981597   0.012036454413926506   0.0016332976215663146
-0.13056571023981597   0.012036454413926506   0.0016332976215663146
-0.13056571023981597   0.012036454413926506   0.0016332976215663146
-0.21794058291624605   -0.0166932278062632   -0.004228228989517942
-0.21794058291624605   -0.0166932278062632   -0.004228228989517942
-0.21794058291624605   -0.0166932278062632   -0.004228228989517942
-0.21794058291624605   -0.0166932278062632   -0.004228228989517942
-0.2203918121161088   -0.015255488032481786   0.0013544786267822972
-0.2203918121161088   -0.015255488032481786   0.0013544786267822972
-0.2203918121161088   -0.015255488032481786   0.0013544786267822972
-0.2203918121161088   -0.015255488032481786   0.0013544786267822972
-0.13860276057618046   -0.008080833550150403   0.0034475525034549865
-0.13860276057618046   -0.008080833550150403   0.0034475525034549865
-0.13860276057618046   -0.008080833550150403   0.0034475525034549865
-0.13860276057618046   -0.008080833550150403   0.0034475525034549865
-0.17671996003470372   -0.0064204122684559176   -0.00343799821343776
-0.17671996003470372   -0.0064204122684559176   -0.00343799821343776
-0.17671996003470372   -0.0064204122684559176   -0.00343799821343776
-0.17671996003470372   -0.0064204122684559176   -0.00343799821343776
-0.1364551957541297   0.002068206772726896   0.004036336290831274
-0.1364551957541297   0.002068206772726896   0.004036336290831274
-0.1364551957541297   0.002068206772726896   0.004036336290831274
-0.1364551957541297   0.002068206772726896   0.004036336290831274
-0.22341735116510475   -0.026282502582304974   -0.0027462020683781934
-0.22341735116510475   -0.026282502582304974   -0.0027462020683781934
-0.22341735116510475   -0.026282502582304974   -0.0027462020683781934
-0.22341735116510475   -0.026282502582304974   -0.0027462020683781934
-0.2255221747957105   -0.024629883862637078   0.003957396148490746
-0.2255221747957105   -0.024629883862637078   0.003957396148490746
-0.2255221747957105   -0.024629883862637078   0.003957396148490746
-0.2255221747957105   -0.024629883862637078   0.003957396148490746
-0.14432184002926027   -0.017146497263466134   0.005425176676449428
-0.14432184002926027   -0.017146497263466134   0.005425176676449428
-0.14432184002926027   -0.017146497263466134   0.005425176676449428
-0.14432184002926027   -0.017146497263466134   0.005425176676449428
-0.18285899254121027   -0.015368413190631178   -0.008035758507677036
-0.18285899254121027   -0.015368413190631178   -0.008035758507677036
-0.18285899254121027   -0.015368413190631178   -0.008035758507677036
-0.18285899254121027   -0.015368413190631178   -0.008035758507677036
-0.202111546353107   0.031554156288692896   0.008653838683154686
-0.202111546353107   0.031554156288692896   0.008653838683154686
-0.202111546353107   0.031554156288692896   0.008653838683154686
-0.202111546353107   0.031554156288692896   0.008653838683154686
-0.29521312391019205   -0.012389162719118892   -0.013589214891493858
-0.29521312391019205   -0.012389162719118892   -0.013589214891493858
-0.29521312391019205   -0.012389162719118892   -0.013589214891493858
-0.29521312391019205   -0.012389162719118892   -0.013589214891493858
-0.2913423655713076   0.0043601316659435535   0.008835654863387821
-0.2913423655713076   0.0043601316659435535   0.008835654863387821
-0.2913423655713076   0.0043601316659435535   0.008835654863387821
-0.2913423655713076   0.0043601316659435535   0.008835654863387821
-0.21577232224085038   -0.0040818064718217695   -0.005998346946981066
-0.21577232224085038   -0.0040818064718217695   -0.005998346946981066
-0.21577232224085038   -0.0040818064718217695   -0.005998346946981066
-0.21577232224085038   -0.0040818064718217695   -0.005998346946981066
-0.25021177563882463   0.004884906905373396   0.0012686440740409689
-0.25021177563882463   0.004884906905373396   0.0012686440740409689
-0.25021177563882463   0.004884906905373396   0.0012686440740409689
-0.25021177563882463   0.004884906905373396   0.0012686440740409689
-0.2071332649345365   0.021714872869311286   0.011400260243455373
-0.2071332649345365   0.021714872869311286   0.011400260243455373
-0.2071332649345365   0.021714872869311286   0.011400260243455373
-0.2071332649345365   0.021714872869311286   0.011400260243455373
-0.30104473253547237   -0.02249985733304355   -0.01281619095845267
-0.30104473253547237   -0.02249985733304355   -0.01281619095845267
-0.30104473253547237   -0.02249985733304355   -0.01281619095845267
-0.30104473253547237   -0.02249985733304355   -0.01281619095845267
-0.29839503085671426   -0.0052794482553239624   0.010451534573798903
-0.29839503085671426   -0.0052794482553239624   0.010451534573798903
-0.29839503085671426   -0.0052794482553239624   0.010451534573798903
-0.29839503085671426   -0.0052794482553239624   0.010451534573798903
-0.2209961445286085   -0.012851646431216827   -0.004071025036981158
-0.2209961445286085   -0.012851646431216827   -0.004071025036981158
-0.2209961445286085   -0.012851646431216827   -0.004071025036981158
-0.2209961445286085   -0.012851646431216827   -0.004071025036981158
-0.2549953981818022   -0.0036857604901675903   -0.0033161712977940374
-0.2549953981818022   -0.0036857604901675903   -0.0033161712977940374
-0.2549953981818022   -0.0036857604901675903   -0.0033161712977940374
-0.2549953981818022   -0.0036857604901675903   -0.0033161712977940374
-0.21226371723845924   0.012670333791730132   0.014069131190814342
-0.21226371723845924   0.012670333791730132   0.014069131190814342
-0.21226371723845924   0.012670333791730132   0.014069131190814342
-0.21226371723845924   0.012670333791730132   0.014069131190814342
-0.3079671490665821   -0.03164111939798825   -0.011047385332880015
-0.3079671490665821   -0.03164111939798825   -0.011047385332880015
-0.3079671490665821   -0.03164111939798825   -0.011047385332880015
-0.3079671490665821   -0.03164111939798825   -0.011047385332880015
-0.30412488888128963   -0.015009778277160275   0.013334653966176646
-0.30412488888128963   -0.015009778277160275   0.013334653966176646
-0.30412488888128963   -0.015009778277160275   0.013334653966176646
-0.30412488888128963   -0.015009778277160275   0.013334653966176646
-0.2262428504766742   -0.021850887253944844   -0.0024249788650200065
-0.2262428504766742   -0.021850887253944844   -0.0024249788650200065
-0.2262428504766742   -0.021850887253944844   -0.0024249788650200065
-0.2262428504766742   -0.021850887253944844   -0.0024249788650200065
-0.26222165103921713   -0.012460011491477227   -0.008027715725036966
-0.26222165103921713   -0.012460011491477227   -0.008027715725036966
-0.26222165103921713   -0.012460011491477227   -0.008027715725036966
-0.26222165103921713   -0.012460011491477227   -0.008027715725036966
-0.2797443010337253   0.034235412778338234   0.017130323993382834
-0.2797443010337253   0.034235412778338234   0.017130323993382834
-0.2797443010337253   0.034235412778338234   0.017130323993382834
-0.2797443010337253   0.034235412778338234   0.017130323993382834
-0.3616546846532067   -0.018215877998097   -0.02256992761695139
-0.3616546846532067   -0.018215877998097   -0.02256992761695139
-0.3616546846532067   -0.018215877998097   -0.02256992761695139
-0.3616546846532067   -0.018215877998097   -0.02256992761695139
-0.3619897396004118   0.013360351400324738   0.018885558799000807
-0.3619897396004118   0.013360351400324738   0.018885558799000807
-0.3619897396004118   0.013360351400324738   0.018885558799000807
-0.3619897396004118   0.013360351400324738   0.018885558799000807
-0.29872667485602905   -0.009926389464535106   -0.013799370429744598
-0.29872667485602905   -0.009926389464535106   -0.013799370429744598
-0.29872667485602905   -0.009926389464535106   -0.013799370429744598
-0.29872667485602905   -0.009926389464535106   -0.013799370429744598
-0.31230485307696276   0.007997250852854826   0.0061628189238849
-0.31230485307696276   0.007997250852854826   0.0061628189238849
-0.31230485307696276   0.007997250852854826   0.0061628189238849
-0.31230485307696276   0.007997250852854826   0.0061628189238849
-0.2840995759866331   0.029202682711516978   0.02020705174118323
-0.2840995759866331   0.029202682711516978   0.02020705174118323
-0.2840995759866331   0.029202682711516978   0.02020705174118323
-0.2840995759866331   0.029202682711516978   0.02020705174118323
-0.37772605987264896   -0.026877942178564006   -0.019557748983284592
-0.37772605987264896   -0.026877942178564006   -0.019557748983284592
-0.37772605987264896   -0.026877942178564006   -0.019557748983284592
-0.37772605987264896   -0.026877942178564006   -0.019557748983284592
-0.3748121308271154   0.007848051271264964   0.02431081455185892
-0.3748121308271154   0.007848051271264964   0.02431081455185892
-0.3748121308271154   0.007848051271264964   0.02431081455185892
-0.3748121308271154   0.007848051271264964   0.02431081455185892
-0.3048376305765558   -0.014971760983896451   -0.012069151296839924
-0.3048376305765558   -0.014971760983896451   -0.012069151296839924
-0.3048376305765558   -0.014971760983896451   -0.012069151296839924
-0.3048376305765558   -0.014971760983896451   -0.012069151296839924
-0.32762099963977637   0.0013100666178290088   -0.0002344457607941705
-0.32762099963977637   0.0013100666178290088   -0.0002344457607941705
-0.32762099963977637   0.0013100666178290088   -0.0002344457607941705
-0.32762099963977637   0.0013100666178290088   -0.0002344457607941705
-0.2896133029326253   0.024868165939645304   0.024212559999270536
-0.2896133029326253   0.024868165939645304   0.024212559999270536
-0.2896133029326253   0.024868165939645304   0.024212559999270536
-0.2896133029326253   0.024868165939645304   0.024212559999270536
-0.39116067724238707   -0.03311609442361613   -0.016467771829606955
-0.39116067724238707   -0.03311609442361613   -0.016467771829606955
-0.39116067724238707   -0.03311609442361613   -0.016467771829606955
-0.39116067724238707   -0.03311609442361613   -0.016467771829606955
-0.3937003230696411   -0.0066918995664072   0.025682639419081638
-0.3937003230696411   -0.0066918995664072   0.025682639419081638
-0.3937003230696411   -0.0066918995664072   0.025682639419081638
-0.3937003230696411   -0.0066918995664072   0.025682639419081638
-0.3109774554393576   -0.0255139453112447   -0.010424011790086401
-0.3109774554393576   -0.0255139453112447   -0.010424011790086401
-0.3109774554393576   -0.0255139453112447   -0.010424011790086401
-0.3109774554393576   -0.0255139453112447   -0.010424011790086401
-0.33341952605266106   -0.005341345566283878   -0.004748027268603301
-0.33341952605266106   -0.005341345566283878   -0.004748027268603301
-0.33341952605266106   -0.005341345566283878   -0.004748027268603301
-0.33341952605266106   -0.005341345566283878   -0.004748027268603301
-0.14535262455461317   -0.00941776203445293   -0.02849106821320139
-0.14535262455461317   -0.00941776203445293   -0.02849106821320139
-0.14535262455461317   -0.00941776203445293   -0.02849106821320139
-0.14535262455461317   -0.00941776203445293   -0.02849106821320139
-0.1468165765560377   0.021624523105205393   0.012769133828611143
-0.1468165765560377   0.021624523105205393   0.012769133828611143
-0.1468165765560377   0.021624523105205393   0.012769133828611143
-0.1468165765560377   0.021624523105205393   0.012769133828611143
-0.16569487139622227   -0.02007939939535868   -0.019392596669327217
-0.16569487139622227   -0.02007939939535868   -0.019392596669327217
-0.16569487139622227   -0.02007939939535868   -0.019392596669327217
-0.16569487139622227   -0.02007939939535868   -0.019392596669327217
-0.14857037331307774   0.011827248424625812   0.019057049102874177
-0.14857037331307774   0.011827248424625812   0.019057049102874177
-0.14857037331307774   0.011827248424625812   0.019057049102874177
-0.14857037331307774   0.011827248424625812   0.019057049102874177
-0.14398372286975156   0.0037686471045673894   0.01303043515722847
-0.14398372286975156   0.0037686471045673894   0.01303043515722847
-0.14398372286975156   0.0037686471045673894   0.01303043515722847
-0.14398372286975156   0.0037686471045673894   0.01303043515722847
-0.1636516193235008   -0.02058051345989318   -0.02394141906472122
-0.1636516193235008   -0.02058051345989318   -0.02394141906472122
-0.1636516193235008   -0.02058051345989318   -0.02394141906472122
-0.1636516193235008   -0.02058051345989318   -0.02394141906472122
-0.15245504912198796   0.010486938752971728   0.016240176553514004
-0.15245504912198796   0.010486938752971728   0.016240176553514004
-0.15245504912198796   0.010486938752971728   0.016240176553514004
-0.15245504912198796   0.010486938752971728   0.016240176553514004
-0.17146042136140915   -0.02523161943950792   -0.016456932732389563
-0.17146042136140915   -0.02523161943950792   -0.016456932732389563
-0.17146042136140915   -0.02523161943950792   -0.016456932732389563
-0.17146042136140915   -0.02523161943950792   -0.016456932732389563
-0.16321016889102288   0.004845809342148094   0.03557096704079399
-0.16321016889102288   0.004845809342148094   0.03557096704079399
-0.16321016889102288   0.004845809342148094   0.03557096704079399
-0.16321016889102288   0.004845809342148094   0.03557096704079399
-0.1573916993025299   -0.005069654854152495   0.005266616753789518
-0.1573916993025299   -0.005069654854152495   0.005266616753789518
-0.1573916993025299   -0.005069654854152495   0.005266616753789518
-0.1573916993025299   -0.005069654854152495   0.005266616753789518
-0.18053949422353768   -0.027501681267818254   -0.018728169011812724
-0.18053949422353768   -0.027501681267818254   -0.018728169011812724
-0.18053949422353768   -0.027501681267818254   -0.018728169011812724
-0.18053949422353768   -0.027501681267818254   -0.018728169011812724
-0.15853560513306145   0.002711362066291502   0.02022416690354961
-0.15853560513306145   0.002711362066291502   0.02022416690354961
-0.15853560513306145   0.002711362066291502   0.02022416690354961
-0.15853560513306145   0.002711362066291502   0.02022416690354961
-0.17619814146316728   -0.03517034184836675   -0.012993260256123582
-0.17619814146316728   -0.03517034184836675   -0.012993260256123582
-0.17619814146316728   -0.03517034184836675   -0.012993260256123582
-0.17619814146316728   -0.03517034184836675   -0.012993260256123582
-0.1859256526205167   -0.018227896030553394   0.03326472730301024
-0.1859256526205167   -0.018227896030553394   0.03326472730301024
-0.1859256526205167   -0.018227896030553394   0.03326472730301024
-0.1859256526205167   -0.018227896030553394   0.03326472730301024
-0.16919336000211743   -0.01550055733318827   -0.007108012269435602
-0.16919336000211743   -0.01550055733318827   -0.007108012269435602
-0.16919336000211743   -0.01550055733318827   -0.007108012269435602
-0.16919336000211743   -0.01550055733318827   -0.007108012269435602
-0.1574701191365897   -0.004285241358846413   -0.014588814610098295
-0.1574701191365897   -0.004285241358846413   -0.014588814610098295
-0.1574701191365897   -0.004285241358846413   -0.014588814610098295
-0.1574701191365897   -0.004285241358846413   -0.014588814610098295
-0.16181203185142973   -0.01997023251472862   -0.000862868215552209
-0.16181203185142973   -0.01997023251472862   -0.000862868215552209
-0.16181203185142973   -0.01997023251472862   -0.000862868215552209
-0.16181203185142973   -0.01997023251472862   -0.000862868215552209
-0.16314940035439193   -0.013356125827789389   -0.007409505326939294
-0.16314940035439193   -0.013356125827789389   -0.007409505326939294
-0.16314940035439193   -0.013356125827789389   -0.007409505326939294
-0.16314940035439193   -0.013356125827789389   -0.007409505326939294
-0.16318228399698806   -0.026733455656578996   -0.00017560341193580782
-0.16318228399698806   -0.026733455656578996   -0.00017560341193580782
-0.16318228399698806   -0.026733455656578996   -0.00017560341193580782
-0.16318228399698806   -0.026733455656578996   -0.00017560341193580782
-0.1600392199041821   -0.01678931530074236   -0.0004352832030196825
-0.1600392199041821   -0.01678931530074236   -0.0004352832030196825
-0.1600392199041821   -0.01678931530074236   -0.0004352832030196825
-0.1600392199041821   -0.01678931530074236   -0.0004352832030196825
-0.16321243277690728   -0.014415659867103171   -0.012644143101008188
-0.16321243277690728   -0.014415659867103171   -0.012644143101008188
-0.16321243277690728   -0.014415659867103171   -0.012644143101008188
-0.16321243277690728   -0.014415659867103171   -0.012644143101008188
-0.16415879958461652   -0.026713469627406547   0.0009008423215549001
-0.16415879958461652   -0.026713469627406547   0.0009008423215549001
-0.16415879958461652   -0.026713469627406547   0.0009008423215549001
-0.16415879958461652   -0.026713469627406547   0.0009008423215549001
-0.16602403205482547   -0.022024338098413032   -0.004825402701926541
-0.16602403205482547   -0.022024338098413032   -0.004825402701926541
-0.16602403205482547   -0.022024338098413032   -0.004825402701926541
-0.16602403205482547   -0.022024338098413032   -0.004825402701926541
-0.1693123922550592   -0.034766439013710876   0.003818032373563235
-0.1693123922550592   -0.034766439013710876   0.003818032373563235
-0.1693123922550592   -0.034766439013710876   0.003818032373563235
-0.1693123922550592   -0.034766439013710876   0.003818032373563235
-0.16389213073628162   -0.023816396275623382   -0.004482467982676415
-0.16389213073628162   -0.023816396275623382   -0.004482467982676415
-0.16389213073628162   -0.023816396275623382   -0.004482467982676415
-0.16389213073628162   -0.023816396275623382   -0.004482467982676415
-0.16974023845805503   -0.023683355308082493   -0.009404282347044258
-0.16974023845805503   -0.023683355308082493   -0.009404282347044258
-0.16974023845805503   -0.023683355308082493   -0.009404282347044258
-0.16974023845805503   -0.023683355308082493   -0.009404282347044258
-0.16692358493723483   -0.03443482088944852   0.0030873156770582747
-0.16692358493723483   -0.03443482088944852   0.0030873156770582747
-0.16692358493723483   -0.03443482088944852   0.0030873156770582747
-0.16692358493723483   -0.03443482088944852   0.0030873156770582747
-0.1686242726311543   -0.03131871925744338   -0.002269754242724779
-0.1686242726311543   -0.03131871925744338   -0.002269754242724779
-0.1686242726311543   -0.03131871925744338   -0.002269754242724779
-0.1686242726311543   -0.03131871925744338   -0.002269754242724779
-0.17402403875987316   -0.04489774696079135   0.0076046583727706965
-0.17402403875987316   -0.04489774696079135   0.0076046583727706965
-0.17402403875987316   -0.04489774696079135   0.0076046583727706965
-0.17402403875987316   -0.04489774696079135   0.0076046583727706965
-0.16911567100642663   -0.032238557527382916   -0.009600926640787322
-0.16911567100642663   -0.032238557527382916   -0.009600926640787322
-0.16911567100642663   -0.032238557527382916   -0.009600926640787322
-0.16911567100642663   -0.032238557527382916   -0.009600926640787322
-0.1573048087981533   0.0043936469885307375   -0.0026906324524274983
-0.1573048087981533   0.0043936469885307375   -0.0026906324524274983
-0.1573048087981533   0.0043936469885307375   -0.0026906324524274983
-0.1573048087981533   0.0043936469885307375   -0.0026906324524274983
-0.17983365947172786   -0.03416464463011129   -0.008668769970592186
-0.17983365947172786   -0.03416464463011129   -0.008668769970592186
-0.17983365947172786   -0.03416464463011129   -0.008668769970592186
-0.17983365947172786   -0.03416464463011129   -0.008668769970592186
-0.1726366791847519   -0.006351846531604338   0.0021747736522822105
-0.1726366791847519   -0.006351846531604338   0.0021747736522822105
-0.1726366791847519   -0.006351846531604338   0.0021747736522822105
-0.1726366791847519   -0.006351846531604338   0.0021747736522822105
-0.16736241824652073   -0.036543184686456745   -0.005287535928915988
-0.16736241824652073   -0.036543184686456745   -0.005287535928915988
-0.16736241824652073   -0.036543184686456745   -0.005287535928915988
-0.16736241824652073   -0.036543184686456745   -0.005287535928915988
-0.16916482257566753   -0.018747409867232938   -0.003747999814311639
-0.16916482257566753   -0.018747409867232938   -0.003747999814311639
-0.16916482257566753   -0.018747409867232938   -0.003747999814311639
-0.16916482257566753   -0.018747409867232938   -0.003747999814311639
-0.15985008071949192   -0.004236073470876192   -3.295950935236838e-05
-0.15985008071949192   -0.004236073470876192   -3.295950935236838e-05
-0.15985008071949192   -0.004236073470876192   -3.295950935236838e-05
-0.15985008071949192   -0.004236073470876192   -3.295950935236838e-05
-0.1810959085434149   -0.039605849578817166   -0.006867370093823904
-0.1810959085434149   -0.039605849578817166   -0.006867370093823904
-0.1810959085434149   -0.039605849578817166   -0.006867370093823904
-0.1810959085434149   -0.039605849578817166   -0.006867370093823904
-0.17474176024818505   -0.015050112254346774   0.004740158654477738
-0.17474176024818505   -0.015050112254346774   0.004740158654477738
-0.17474176024818505   -0.015050112254346774   0.004740158654477738
-0.17474176024818505   -0.015050112254346774   0.004740158654477738
-0.1700542681708035   -0.0433878032583571   -0.0036131181218726285
-0.1700542681708035   -0.0433878032583571   -0.0036131181218726285
-0.1700542681708035   -0.0433878032583571   -0.0036131181218726285
-0.1700542681708035   -0.0433878032583571   -0.0036131181218726285
-0.17138627039299859   -0.025361358543982124   -0.007219484410072282
-0.17138627039299859   -0.025361358543982124   -0.007219484410072282
-0.17138627039299859   -0.025361358543982124   -0.007219484410072282
-0.17138627039299859   -0.025361358543982124   -0.007219484410072282
-0.16276313427212324   -0.013092890972832297   0.0025476390860036963
-0.16276313427212324   -0.013092890972832297   0.0025476390860036963
-0.16276313427212324   -0.013092890972832297   0.0025476390860036963
-0.16276313427212324   -0.013092890972832297   0.0025476390860036963
-0.18309082356661238   -0.04640295395962188   -0.005652316232387614
-0.18309082356661238   -0.04640295395962188   -0.005652316232387614
-0.18309082356661238   -0.04640295395962188   -0.005652316232387614
-0.18309082356661238   -0.04640295395962188   -0.005652316232387614
-0.17647957454376134   -0.02321198827831865   0.0072554561166879444
-0.17647957454376134   -0.02321198827831865   0.0072554561166879444
-0.17647957454376134   -0.02321198827831865   0.0072554561166879444
-0.17647957454376134   -0.02321198827831865   0.0072554561166879444
-0.17209998238486474   -0.04992168552845368   -0.001045336740268704
-0.17209998238486474   -0.04992168552845368   -0.001045336740268704
-0.17209998238486474   -0.04992168552845368   -0.001045336740268704
-0.17209998238486474   -0.04992168552845368   -0.001045336740268704
-0.1740155279057121   -0.032272163927532245   -0.01103176994486973
-0.1740155279057121   -0.032272163927532245   -0.01103176994486973
-0.1740155279057121   -0.032272163927532245   -0.01103176994486973
-0.1740155279057121   -0.032272163927532245   -0.01103176994486973
-0.16603447843599362   0.0178307562246776   0.008331734353290163
-0.16603447843599362   0.0178307562246776   0.008331734353290163
-0.16603447843599362   0.0178307562246776   0.008331734353290163
-0.16603447843599362   0.0178307562246776   0.008331734353290163
-0.19786422862457323   -0.02570768244391232   -0.012152718736928726
-0.19786422862457323   -0.02570768244391232   -0.012152718736928726
-0.19786422862457323   -0.02570768244391232   -0.012152718736928726
-0.19786422862457323   -0.02570768244391232   -0.012152718736928726
-0.18741611423791937   0.00508198795366091   0.011464417177516638
-0.18741611423791937   0.00508198795366091   0.011464417177516638
-0.18741611423791937   0.00508198795366091   0.011464417177516638
-0.18741611423791937   0.00508198795366091   0.011464417177516638
-0.1789182619850731   -0.028276854444740818   -0.0073081324361872375
-0.1789182619850731   -0.028276854444740818   -0.0073081324361872375
-0.1789182619850731   -0.028276854444740818   -0.0073081324361872375
-0.1789182619850731   -0.028276854444740818   -0.0073081324361872375
-0.18251579884148622   -0.00758360450439903   -0.002236380853037621
-0.18251579884148622   -0.00758360450439903   -0.002236380853037621
-0.18251579884148622   -0.00758360450439903   -0.002236380853037621
-0.18251579884148622   -0.00758360450439903   -0.002236380853037621
-0.16784283275411793   0.008885160558072848   0.010906998715774892
-0.16784283275411793   0.008885160558072848   0.010906998715774892
-0.16784283275411793   0.008885160558072848   0.010906998715774892
-0.16784283275411793   0.008885160558072848   0.010906998715774892
-0.1997529544828215   -0.03334143806309971   -0.011796358030233291
-0.1997529544828215   -0.03334143806309971   -0.011796358030233291
-0.1997529544828215   -0.03334143806309971   -0.011796358030233291
-0.1997529544828215   -0.03334143806309971   -0.011796358030233291
-0.1909753523595428   -0.003430991334728177   0.013011458276396411
-0.1909753523595428   -0.003430991334728177   0.013011458276396411
-0.1909753523595428   -0.003430991334728177   0.013011458276396411
-0.1909753523595428   -0.003430991334728177   0.013011458276396411
-0.18076696699451086   -0.03462964621935193   -0.005806341112150051
-0.18076696699451086   -0.03462964621935193   -0.005806341112150051
-0.18076696699451086   -0.03462964621935193   -0.005806341112150051
-0.18076696699451086   -0.03462964621935193   -0.005806341112150051
-0.18436007919473926   -0.014764448244319103   -0.006311945496776731
-0.18436007919473926   -0.014764448244319103   -0.006311945496776731
-0.18436007919473926   -0.014764448244319103   -0.006311945496776731
-0.18436007919473926   -0.014764448244319103   -0.006311945496776731
-0.1698232005416214   0.0008780969668049296   0.013404747966140504
-0.1698232005416214   0.0008780969668049296   0.013404747966140504
-0.1698232005416214   0.0008780969668049296   0.013404747966140504
-0.1698232005416214   0.0008780969668049296   0.013404747966140504
-0.2030113482926169   -0.040030964001069674   -0.010568548722632692
-0.2030113482926169   -0.040030964001069674   -0.010568548722632692
-0.2030113482926169   -0.040030964001069674   -0.010568548722632692
-0.2030113482926169   -0.040030964001069674   -0.010568548722632692
-0.19336281801481944   -0.011614108372037336   0.01587888308266279
-0.19336281801481944   -0.011614108372037336   0.01587888308266279
-0.19336281801481944   -0.011614108372037336   0.01587888308266279
-0.19336281801481944   -0.011614108372037336   0.01587888308266279
-0.182378256378529   -0.04101727444385529   -0.00443266689161757
-0.182378256378529   -0.04101727444385529   -0.00443266689161757
-0.182378256378529   -0.04101727444385529   -0.00443266689161757
-0.182378256378529   -0.04101727444385529   -0.00443266689161757
-0.18752914441547172   -0.021558557801443508   -0.010270593516680327
-0.18752914441547172   -0.021558557801443508   -0.010270593516680327
-0.18752914441547172   -0.021558557801443508   -0.010270593516680327
-0.18752914441547172   -0.021558557801443508   -0.010270593516680327
-0.1818356407398086   0.02559868663047636   0.016683851612501882
-0.1818356407398086   0.02559868663047636   0.016683851612501882
-0.1818356407398086   0.02559868663047636   0.016683851612501882
-0.1818356407398086   0.02559868663047636   0.016683851612501882
-0.19629804002964862   -0.015707943890949528   -0.01754786464632607
-0.19629804002964862   -0.015707943890949528   -0.01754786464632607
-0.19629804002964862   -0.015707943890949528   -0.01754786464632607
-0.19629804002964862   -0.015707943890949528   -0.01754786464632607
-0.19212403204258996   0.01786446758860727   0.01855227202251282
-0.19212403204258996   0.01786446758860727   0.01855227202251282
-0.19212403204258996   0.01786446758860727   0.01855227202251282
-0.19212403204258996   0.01786446758860727   0.01855227202251282
-0.19680274621958121   -0.01965655750831981   -0.01073019726881182
-0.19680274621958121   -0.01965655750831981   -0.01073019726881182
-0.19680274621958121   -0.01965655750831981   -0.01073019726881182
-0.19680274621958121   -0.01965655750831981   -0.01073019726881182
-0.18518024319169266   0.004460973529410328   0.0008733505383058549
-0.18518024319169266   0.004460973529410328   0.0008733505383058549
-0.18518024319169266   0.004460973529410328   0.0008733505383058549
-0.18518024319169266   0.004460973529410328   0.0008733505383058549
-0.1828972317913176   0.019856280589329776   0.01928453677485295
-0.1828972317913176   0.019856280589329776   0.01928453677485295
-0.1828972317913176   0.019856280589329776   0.01928453677485295
-0.1828972317913176   0.019856280589329776   0.01928453677485295
-0.2070667195411436   -0.022685543579332935   -0.015611154302315067
-0.2070667195411436   -0.022685543579332935   -0.015611154302315067
-0.2070667195411436   -0.022685543579332935   -0.015611154302315067
-0.2070667195411436   -0.022685543579332935   -0.015611154302315067
-0.20057976359805682   0.01306569001316412   0.023860236709979367
-0.20057976359805682   0.01306569001316412   0.023860236709979367
-0.20057976359805682   0.01306569001316412   0.023860236709979367
-0.20057976359805682   0.01306569001316412   0.023860236709979367
-0.1995261791774611   -0.02340912649281822   -0.009764540655104967
-0.1995261791774611   -0.02340912649281822   -0.009764540655104967
-0.1995261791774611   -0.02340912649281822   -0.009764540655104967
-0.1995261791774611   -0.02340912649281822   -0.009764540655104967
-0.19431093942399164   -0.0013393725067455814   -0.003979769441908618
-0.19431093942399164   -0.0013393725067455814   -0.003979769441908618
-0.19431093942399164   -0.0013393725067455814   -0.003979769441908618
-0.19431093942399164   -0.0013393725067455814   -0.003979769441908618
-0.18507831090019058   0.016005890048691407   0.023059784189734225
-0.18507831090019058   0.016005890048691407   0.023059784189734225
-0.18507831090019058   0.016005890048691407   0.023059784189734225
-0.18507831090019058   0.016005890048691407   0.023059784189734225
-0.21636758265069697   -0.027689277303713213   -0.014323891236344055
-0.21636758265069697   -0.027689277303713213   -0.014323891236344055
-0.21636758265069697   -0.027689277303713213   -0.014323891236344055
-0.21636758265069697   -0.027689277303713213   -0.014323891236344055
-0.21533124996058323   0.0007962131716904713   0.025480575145815032
-0.21533124996058323   0.0007962131716904713   0.025480575145815032
-0.21533124996058323   0.0007962131716904713   0.025480575145815032
-0.21533124996058323   0.0007962131716904713   0.025480575145815032
-0.2020248725814436   -0.03056703111859281   -0.008478467003902658
-0.2020248725814436   -0.03056703111859281   -0.008478467003902658
-0.2020248725814436   -0.03056703111859281   -0.008478467003902658
-0.2020248725814436   -0.03056703111859281   -0.008478467003902658
-0.19862989895694236   -0.006702438092211979   -0.008328085861260444
-0.19862989895694236   -0.006702438092211979   -0.008328085861260444
-0.19862989895694236   -0.006702438092211979   -0.008328085861260444
-0.19862989895694236   -0.006702438092211979   -0.008328085861260444
-0.3797626294469131   -0.03482071312547451   -0.03651099443391301
-0.3797626294469131   -0.03482071312547451   -0.03651099443391301
-0.3797626294469131   -0.03482071312547451   -0.03651099443391301
-0.3797626294469131   -0.03482071312547451   -0.03651099443391301
-0.2423782209343171   0.020134805194753372   0.008560940795203236
-0.2423782209343171   0.020134805194753372   0.008560940795203236
-0.2423782209343171   0.020134805194753372   0.008560940795203236
-0.2423782209343171   0.020134805194753372   0.008560940795203236
-0.2546765577233188   -0.016490574669973404   -0.016425881959880834
-0.2546765577233188   -0.016490574669973404   -0.016425881959880834
-0.2546765577233188   -0.016490574669973404   -0.016425881959880834
-0.2546765577233188   -0.016490574669973404   -0.016425881959880834
-0.4045095748702174   -0.04635528528412283   0.04058566198343704
-0.4045095748702174   -0.04635528528412283   0.04058566198343704
-0.4045095748702174   -0.04635528528412283   0.04058566198343704
-0.4045095748702174   -0.04635528528412283   0.04058566198343704
-0.2943042435872443   -0.011467554783111136   0.03953156738495803
-0.2943042435872443   -0.011467554783111136   0.03953156738495803
-0.2943042435872443   -0.011467554783111136   0.03953156738495803
-0.2943042435872443   -0.011467554783111136   0.03953156738495803
-0.4190135690619686   -0.05144226616467772   -0.026847328094760273
-0.4190135690619686   -0.05144226616467772   -0.026847328094760273
-0.4190135690619686   -0.05144226616467772   -0.026847328094760273
-0.4190135690619686   -0.05144226616467772   -0.026847328094760273
-0.2503944468240155   -0.021625477081864533   0.010119574948526631
-0.2503944468240155   -0.021625477081864533   0.010119574948526631
-0.2503944468240155   -0.021625477081864533   0.010119574948526631
-0.2503944468240155   -0.021625477081864533   0.010119574948526631
-0.2588506024112208   -0.02377472410524547   -0.011891266675975922
-0.2588506024112208   -0.02377472410524547   -0.011891266675975922
-0.2588506024112208   -0.02377472410524547   -0.011891266675975922
-0.2588506024112208   -0.02377472410524547   -0.011891266675975922
-0.4177674308904699   -0.0646677413716277   0.0007941368418124366
-0.4177674308904699   -0.0646677413716277   0.0007941368418124366
-0.4177674308904699   -0.0646677413716277   0.0007941368418124366
-0.4177674308904699   -0.0646677413716277   0.0007941368418124366
-0.32638160024456225   -0.03901259550736169   0.009207697982238673
-0.32638160024456225   -0.03901259550736169   0.009207697982238673
-0.32638160024456225   -0.03901259550736169   0.009207697982238673
-0.32638160024456225   -0.03901259550736169   0.009207697982238673
-0.42097270922016994   -0.05816740947291879   -0.021732586705393384
-0.42097270922016994   -0.05816740947291879   -0.021732586705393384
-0.42097270922016994   -0.05816740947291879   -0.021732586705393384
-0.42097270922016994   -0.05816740947291879   -0.021732586705393384
-0.2587155069682103   -0.03334523889064368   -0.0016452746755271537
-0.2587155069682103   -0.03334523889064368   -0.0016452746755271537
-0.2587155069682103   -0.03334523889064368   -0.0016452746755271537
-0.2587155069682103   -0.03334523889064368   -0.0016452746755271537
-0.25927037038264356   -0.04129457995365189   -0.008723974550355389
-0.25927037038264356   -0.04129457995365189   -0.008723974550355389
-0.25927037038264356   -0.04129457995365189   -0.008723974550355389
-0.25927037038264356   -0.04129457995365189   -0.008723974550355389
-0.4282340429589753   -0.0985833886891756   0.006167673303410234
-0.4282340429589753   -0.0985833886891756   0.006167673303410234
-0.4282340429589753   -0.0985833886891756   0.006167673303410234
-0.4282340429589753   -0.0985833886891756   0.006167673303410234
-0.3263302466679924   -0.05356505197850283   0.0007811482072837008
-0.3263302466679924   -0.05356505197850283   0.0007811482072837008
-0.3263302466679924   -0.05356505197850283   0.0007811482072837008
-0.3263302466679924   -0.05356505197850283   0.0007811482072837008
-0.2616936634754972   -0.044458565449683365   -0.02342290126625845
-0.2616936634754972   -0.044458565449683365   -0.02342290126625845
-0.2616936634754972   -0.044458565449683365   -0.02342290126625845
-0.2616936634754972   -0.044458565449683365   -0.02342290126625845
-0.18098698296996837   -0.11832309521042483   -0.022118735350004512
-0.18098698296996837   -0.11832309521042483   -0.022118735350004512
-0.18098698296996837   -0.11832309521042483   -0.022118735350004512
-0.18098698296996837   -0.11832309521042483   -0.022118735350004512
-0.15889412277011875   -0.026143490320923765   -0.0015139379605289892
-0.15889412277011875   -0.026143490320923765   -0.0015139379605289892
-0.15889412277011875   -0.026143490320923765   -0.0015139379605289892
-0.15889412277011875   -0.026143490320923765   -0.0015139379605289892
-0.27867035975193305   -0.12513418230471243   -0.027751284468213115
-0.27867035975193305   -0.12513418230471243   -0.027751284468213115
-0.27867035975193305   -0.12513418230471243   -0.027751284468213115
-0.27867035975193305   -0.12513418230471243   -0.027751284468213115
-0.21753720682055883   -0.08325245505898617   -0.006376769632965011
-0.21753720682055883   -0.08325245505898617   -0.006376769632965011
-0.21753720682055883   -0.08325245505898617   -0.006376769632965011
-0.21753720682055883   -0.08325245505898617   -0.006376769632965011
-0.26161142920468594   -0.04991860568589102   -0.017672208350798066
-0.26161142920468594   -0.04991860568589102   -0.017672208350798066
-0.26161142920468594   -0.04991860568589102   -0.017672208350798066
-0.26161142920468594   -0.04991860568589102   -0.017672208350798066
-0.1770072586396388   -0.10241327226201795   -0.01580983536703498
-0.1770072586396388   -0.10241327226201795   -0.01580983536703498
-0.1770072586396388   -0.10241327226201795   -0.01580983536703498
-0.1770072586396388   -0.10241327226201795   -0.01580983536703498
-0.16092574278892882   -0.03382779799371115   0.00012458800743149473
-0.16092574278892882   -0.03382779799371115   0.00012458800743149473
-0.16092574278892882   -0.03382779799371115   0.00012458800743149473
-0.16092574278892882   -0.03382779799371115   0.00012458800743149473
-0.27988006513891567   -0.12446737593468099   -0.016345928485016686
-0.27988006513891567   -0.12446737593468099   -0.016345928485016686
-0.27988006513891567   -0.12446737593468099   -0.016345928485016686
-0.27988006513891567   -0.12446737593468099   -0.016345928485016686
-0.21527389413963324   -0.07803170021968402   -0.006777525709010397
-0.21527389413963324   -0.07803170021968402   -0.006777525709010397
-0.21527389413963324   -0.07803170021968402   -0.006777525709010397
-0.21527389413963324   -0.07803170021968402   -0.006777525709010397
-0.26587449126122614   -0.05749962691325543   -0.013285808117992612
-0.26587449126122614   -0.05749962691325543   -0.013285808117992612
-0.26587449126122614   -0.05749962691325543   -0.013285808117992612
-0.26587449126122614   -0.05749962691325543   -0.013285808117992612
-0.17713600323314824   -0.10300023358166628   -0.01175427862571055
-0.17713600323314824   -0.10300023358166628   -0.01175427862571055
-0.17713600323314824   -0.10300023358166628   -0.01175427862571055
-0.17713600323314824   -0.10300023358166628   -0.01175427862571055
-0.1611197639685881   -0.04334459882015938   0.002466124284645481
-0.1611197639685881   -0.04334459882015938   0.002466124284645481
-0.1611197639685881   -0.04334459882015938   0.002466124284645481
-0.1611197639685881   -0.04334459882015938   0.002466124284645481
-0.27941736666565886   -0.1263641142351659   -0.024389421683921313
-0.27941736666565886   -0.1263641142351659   -0.024389421683921313
-0.27941736666565886   -0.1263641142351659   -0.024389421683921313
-0.27941736666565886   -0.1263641142351659   -0.024389421683921313
-0.21876829817504456   -0.08388266397563617   -0.01261503508703616
-0.21876829817504456   -0.08388266397563617   -0.01261503508703616
-0.21876829817504456   -0.08388266397563617   -0.01261503508703616
-0.21876829817504456   -0.08388266397563617   -0.01261503508703616
-0.1590458448654156   -0.028683796435218317   -0.0020523436024472235
-0.1590458448654156   -0.028683796435218317   -0.0020523436024472235
-0.1590458448654156   -0.028683796435218317   -0.0020523436024472235
-0.1590458448654156   -0.028683796435218317   -0.0020523436024472235
-0.134593229482511   -0.09077734374081264   -0.015667622689696348
-0.134593229482511   -0.09077734374081264   -0.015667622689696348
-0.134593229482511   -0.09077734374081264   -0.015667622689696348
-0.134593229482511   -0.09077734374081264   -0.015667622689696348
-0.11604608897322084   -0.02399799691144509   0.006122073672842406
-0.11604608897322084   -0.02399799691144509   0.006122073672842406
-0.11604608897322084   -0.02399799691144509   0.006122073672842406
-0.11604608897322084   -0.02399799691144509   0.006122073672842406
-0.17648542281931906   -0.09838343687472054   -0.017230491652733892
-0.17648542281931906   -0.09838343687472054   -0.017230491652733892
-0.17648542281931906   -0.09838343687472054   -0.017230491652733892
-0.17648542281931906   -0.09838343687472054   -0.017230491652733892
-0.14591305075326877   -0.06126394689919842   -0.007206927399478686
-0.14591305075326877   -0.06126394689919842   -0.007206927399478686
-0.14591305075326877   -0.06126394689919842   -0.007206927399478686
-0.14591305075326877   -0.06126394689919842   -0.007206927399478686
-0.16010790170631184   -0.03398336565426286   0.000257042691844547
-0.16010790170631184   -0.03398336565426286   0.000257042691844547
-0.16010790170631184   -0.03398336565426286   0.000257042691844547
-0.16010790170631184   -0.03398336565426286   0.000257042691844547
-0.1333667491167795   -0.08934120716245421   -0.015138016793941802
-0.1333667491167795   -0.08934120716245421   -0.015138016793941802
-0.1333667491167795   -0.08934120716245421   -0.015138016793941802
-0.1333667491167795   -0.08934120716245421   -0.015138016793941802
-0.1162908390252512   -0.030322428187247553   0.007950328088122814
-0.1162908390252512   -0.030322428187247553   0.007950328088122814
-0.1162908390252512   -0.030322428187247553   0.007950328088122814
-0.1162908390252512   -0.030322428187247553   0.007950328088122814
-0.1772454849323753   -0.09993924544194441   -0.015362675261567614
-0.1772454849323753   -0.09993924544194441   -0.015362675261567614
-0.1772454849323753   -0.09993924544194441   -0.015362675261567614
-0.1772454849323753   -0.09993924544194441   -0.015362675261567614
-0.14582641949781064   -0.06361488117962599   -0.009357438259465167
-0.14582641949781064   -0.06361488117962599   -0.009357438259465167
-0.14582641949781064   -0.06361488117962599   -0.009357438259465167
-0.14582641949781064   -0.06361488117962599   -0.009357438259465167
-0.16167659231225512   -0.04040094665237928   0.0029434890494681107
-0.16167659231225512   -0.04040094665237928   0.0029434890494681107
-0.16167659231225512   -0.04040094665237928   0.0029434890494681107
-0.16167659231225512   -0.04040094665237928   0.0029434890494681107
-0.13238151796415387   -0.09038251329559455   -0.012442981498039771
-0.13238151796415387   -0.09038251329559455   -0.012442981498039771
-0.13238151796415387   -0.09038251329559455   -0.012442981498039771
-0.13238151796415387   -0.09038251329559455   -0.012442981498039771
-0.11515204574530935   -0.03633315086221811   0.009949399951353747
-0.11515204574530935   -0.03633315086221811   0.009949399951353747
-0.11515204574530935   -0.03633315086221811   0.009949399951353747
-0.11515204574530935   -0.03633315086221811   0.009949399951353747
-0.17537981895215699   -0.10114646200014936   -0.011032287453208948
-0.17537981895215699   -0.10114646200014936   -0.011032287453208948
-0.17537981895215699   -0.10114646200014936   -0.011032287453208948
-0.17537981895215699   -0.10114646200014936   -0.011032287453208948
-0.14561739234714005   -0.06674688489469352   -0.010881248946151605
-0.14561739234714005   -0.06674688489469352   -0.010881248946151605
-0.14561739234714005   -0.06674688489469352   -0.010881248946151605
-0.14561739234714005   -0.06674688489469352   -0.010881248946151605
-0.11188620747429766   -0.0038862547869685064   0.010976398397522413
-0.11188620747429766   -0.0038862547869685064   0.010976398397522413
-0.11188620747429766   -0.0038862547869685064   0.010976398397522413
-0.11188620747429766   -0.0038862547869685064   0.010976398397522413
-0.10698473767100262   -0.04829473944209224   -0.009488559105730687
-0.10698473767100262   -0.04829473944209224   -0.009488559105730687
-0.10698473767100262   -0.04829473944209224   -0.009488559105730687
-0.10698473767100262   -0.04829473944209224   -0.009488559105730687
-0.09244660437439767   -0.006985862411448466   0.012675170119599108
-0.09244660437439767   -0.006985862411448466   0.012675170119599108
-0.09244660437439767   -0.006985862411448466   0.012675170119599108
-0.09244660437439767   -0.006985862411448466   0.012675170119599108
-0.12490691379516178   -0.05550429712020269   -0.006675750228104632
-0.12490691379516178   -0.05550429712020269   -0.006675750228104632
-0.12490691379516178   -0.05550429712020269   -0.006675750228104632
-0.12490691379516178   -0.05550429712020269   -0.006675750228104632
-0.10941053212081725   -0.028383323792307073   -0.003922105173923481
-0.10941053212081725   -0.028383323792307073   -0.003922105173923481
-0.10941053212081725   -0.028383323792307073   -0.003922105173923481
-0.10941053212081725   -0.028383323792307073   -0.003922105173923481
-0.11212283648107431   -0.01092339584356467   0.01266373506569472
-0.11212283648107431   -0.01092339584356467   0.01266373506569472
-0.11212283648107431   -0.01092339584356467   0.01266373506569472
-0.11212283648107431   -0.01092339584356467   0.01266373506569472
-0.1062467468957663   -0.05258282889536764   -0.010728576003324856
-0.1062467468957663   -0.05258282889536764   -0.010728576003324856
-0.1062467468957663   -0.05258282889536764   -0.010728576003324856
-0.1062467468957663   -0.05258282889536764   -0.010728576003324856
-0.09277422048015113   -0.013141972309860249   0.01363928192094862
-0.09277422048015113   -0.013141972309860249   0.01363928192094862
-0.09277422048015113   -0.013141972309860249   0.01363928192094862
-0.09277422048015113   -0.013141972309860249   0.01363928192094862
-0.12507511203295393   -0.0589016809941272   -0.0073917841435113315
-0.12507511203295393   -0.0589016809941272   -0.0073917841435113315
-0.12507511203295393   -0.0589016809941272   -0.0073917841435113315
-0.12507511203295393   -0.0589016809941272   -0.0073917841435113315
-0.10911140425534982   -0.03330827665826215   -0.006676187547127158
-0.10911140425534982   -0.03330827665826215   -0.006676187547127158
-0.10911140425534982   -0.03330827665826215   -0.006676187547127158
-0.10911140425534982   -0.03330827665826215   -0.006676187547127158
-0.11231506148524126   -0.016897199479068543   0.014403987079997278
-0.11231506148524126   -0.016897199479068543   0.014403987079997278
-0.11231506148524126   -0.016897199479068543   0.014403987079997278
-0.11231506148524126   -0.016897199479068543   0.014403987079997278
-0.10615052097685028   -0.05576270377390473   -0.010621489098502633
-0.10615052097685028   -0.05576270377390473   -0.010621489098502633
-0.10615052097685028   -0.05576270377390473   -0.010621489098502633
-0.10615052097685028   -0.05576270377390473   -0.010621489098502633
-0.09219175343439777   -0.018930341527978102   0.015815494743629456
-0.09219175343439777   -0.018930341527978102   0.015815494743629456
-0.09219175343439777   -0.018930341527978102   0.015815494743629456
-0.09219175343439777   -0.018930341527978102   0.015815494743629456
-0.12333446261279851   -0.062282306233050186   -0.005013529015259937
-0.12333446261279851   -0.062282306233050186   -0.005013529015259937
-0.12333446261279851   -0.062282306233050186   -0.005013529015259937
-0.12333446261279851   -0.062282306233050186   -0.005013529015259937
-0.1090060060174239   -0.03758086149392873   -0.008618874774849442
-0.1090060060174239   -0.03758086149392873   -0.008618874774849442
-0.1090060060174239   -0.03758086149392873   -0.008618874774849442
-0.1090060060174239   -0.03758086149392873   -0.008618874774849442
-0.08946928092353844   0.012605148247864427   0.01718883694163353
-0.08946928092353844   0.012605148247864427   0.01718883694163353
-0.08946928092353844   0.012605148247864427   0.01718883694163353
-0.08946928092353844   0.012605148247864427   0.01718883694163353
-0.061072924474958434   -0.016062032542728755   -0.005915852030257299
-0.061072924474958434   -0.016062032542728755   -0.005915852030257299
-0.061072924474958434   -0.016062032542728755   -0.005915852030257299
-0.061072924474958434   -0.016062032542728755   -0.005915852030257299
-0.05375837475767482   0.014498632994870364   0.01700138378523267
-0.05375837475767482   0.014498632994870364   0.01700138378523267
-0.05375837475767482   0.014498632994870364   0.01700138378523267
-0.05375837475767482   0.014498632994870364   0.01700138378523267
-0.09903916480447246   -0.024194164831847546   -0.0030793296103757634
-0.09903916480447246   -0.024194164831847546   -0.0030793296103757634
-0.09903916480447246   -0.024194164831847546   -0.0030793296103757634
-0.09903916480447246   -0.024194164831847546   -0.0030793296103757634
-0.07472720480224888   -0.0016033578959392426   -0.003011669867159215
-0.07472720480224888   -0.0016033578959392426   -0.003011669867159215
-0.07472720480224888   -0.0016033578959392426   -0.003011669867159215
-0.07472720480224888   -0.0016033578959392426   -0.003011669867159215
-0.0882403644432782   0.007955049811210632   0.018765457552537383
-0.0882403644432782   0.007955049811210632   0.018765457552537383
-0.0882403644432782   0.007955049811210632   0.018765457552537383
-0.0882403644432782   0.007955049811210632   0.018765457552537383
-0.06467597262273873   -0.017769379152056175   -0.005318593393152626
-0.06467597262273873   -0.017769379152056175   -0.005318593393152626
-0.06467597262273873   -0.017769379152056175   -0.005318593393152626
-0.06467597262273873   -0.017769379152056175   -0.005318593393152626
-0.05629224713705622   0.01146535190120578   0.021373919274610152
-0.05629224713705622   0.01146535190120578   0.021373919274610152
-0.05629224713705622   0.01146535190120578   0.021373919274610152
-0.05629224713705622   0.01146535190120578   0.021373919274610152
-0.09880744697097495   -0.025787227169781303   -0.003881595673249413
-0.09880744697097495   -0.025787227169781303   -0.003881595673249413
-0.09880744697097495   -0.025787227169781303   -0.003881595673249413
-0.09880744697097495   -0.025787227169781303   -0.003881595673249413
-0.0771773326915028   -0.004909912478778044   -0.004376841868540084
-0.0771773326915028   -0.004909912478778044   -0.004376841868540084
-0.0771773326915028   -0.004909912478778044   -0.004376841868540084
-0.0771773326915028   -0.004909912478778044   -0.004376841868540084
-0.08750161066657612   0.005267305896811649   0.021593052782151734
-0.08750161066657612   0.005267305896811649   0.021593052782151734
-0.08750161066657612   0.005267305896811649   0.021593052782151734
-0.08750161066657612   0.005267305896811649   0.021593052782151734
-0.06837236639699475   -0.020363464120923675   -0.007197861002945306
-0.06837236639699475   -0.020363464120923675   -0.007197861002945306
-0.06837236639699475   -0.020363464120923675   -0.007197861002945306
-0.06837236639699475   -0.020363464120923675   -0.007197861002945306
-0.06432880855899561   0.0031168946825261383   0.02224509797924408
-0.06432880855899561   0.0031168946825261383   0.02224509797924408
-0.06432880855899561   0.0031168946825261383   0.02224509797924408
-0.06432880855899561   0.0031168946825261383   0.02224509797924408
-0.09767249336635629   -0.027287669685431906   -0.003230876758709369
-0.09767249336635629   -0.027287669685431906   -0.003230876758709369
-0.09767249336635629   -0.027287669685431906   -0.003230876758709369
-0.09767249336635629   -0.027287669685431906   -0.003230876758709369
-0.0784416090728127   -0.007343526315492481   -0.006510129232114482
-0.0784416090728127   -0.007343526315492481   -0.006510129232114482
-0.0784416090728127   -0.007343526315492481   -0.006510129232114482
-0.0784416090728127   -0.007343526315492481   -0.006510129232114482
-0.9048104672954774   -0.1292755459640389   -0.07605856863759773
-0.9048104672954774   -0.1292755459640389   -0.07605856863759773
-0.9048104672954774   -0.1292755459640389   -0.07605856863759773
-0.9048104672954774   -0.1292755459640389   -0.07605856863759773
-0.31546606493295254   -0.5077961721190372   -0.0593101174768044
-0.31546606493295254   -0.5077961721190372   -0.0593101174768044
-0.31546606493295254   -0.5077961721190372   -0.0593101174768044
-0.31546606493295254   -0.5077961721190372   -0.0593101174768044
-0.24220184948132753   -0.02197606436839808   0.00017404117317090795
-0.24220184948132753   -0.02197606436839808   0.00017404117317090795
-0.24220184948132753   -0.02197606436839808   0.00017404117317090795
-0.24220184948132753   -0.02197606436839808   0.00017404117317090795
-0.9691992119676229   -0.5944373356148345   -0.31272730951649147
-0.9691992119676229   -0.5944373356148345   -0.31272730951649147
-0.9691992119676229   -0.5944373356148345   -0.31272730951649147
-0.9691992119676229   -0.5944373356148345   -0.31272730951649147
-0.5926654713065763   -0.29537694743835774   -0.0430850063688539
-0.5926654713065763   -0.29537694743835774   -0.0430850063688539
-0.5926654713065763   -0.29537694743835774   -0.0430850063688539
-0.5926654713065763   -0.29537694743835774   -0.0430850063688539
-0.8409317953272111   -0.16243531179838644   -0.10339225013088738
-0.8409317953272111   -0.16243531179838644   -0.10339225013088738
-0.8409317953272111   -0.16243531179838644   -0.10339225013088738
-0.8409317953272111   -0.16243531179838644   -0.10339225013088738
-0.3411415855687745   -0.42465040763188194   -0.09185029600057722
-0.3411415855687745   -0.42465040763188194   -0.09185029600057722
-0.3411415855687745   -0.42465040763188194   -0.09185029600057722
-0.3411415855687745   -0.42465040763188194   -0.09185029600057722
-0.24750333579562458   -0.02892622000719329   0.009237648569139122
-0.24750333579562458   -0.02892622000719329   0.009237648569139122
-0.24750333579562458   -0.02892622000719329   0.009237648569139122
-0.24750333579562458   -0.02892622000719329   0.009237648569139122
-0.9072269139125327   -0.5315926559868305   -0.28776391397987267
-0.9072269139125327   -0.5315926559868305   -0.28776391397987267
-0.9072269139125327   -0.5315926559868305   -0.28776391397987267
-0.9072269139125327   -0.5315926559868305   -0.28776391397987267
-0.5584475494653307   -0.26678634661881895   0.022266523158638002
-0.5584475494653307   -0.26678634661881895   0.022266523158638002
-0.5584475494653307   -0.26678634661881895   0.022266523158638002
-0.5584475494653307   -0.26678634661881895   0.022266523158638002
-0.7897678673904497   -0.1546991029260375   -0.07736223443025682
-0.7897678673904497   -0.1546991029260375   -0.07736223443025682
-0.7897678673904497   -0.1546991029260375   -0.07736223443025682
-0.7897678673904497   -0.1546991029260375   -0.07736223443025682
-0.33233052339214064   -0.37318791414242003   -0.0706365952782124
-0.33233052339214064   -0.37318791414242003   -0.0706365952782124
-0.33233052339214064   -0.37318791414242003   -0.0706365952782124
-0.33233052339214064   -0.37318791414242003   -0.0706365952782124
-0.28539570129870256   -0.07428302934427339   -0.015168871632351498
-0.28539570129870256   -0.07428302934427339   -0.015168871632351498
-0.28539570129870256   -0.07428302934427339   -0.015168871632351498
-0.28539570129870256   -0.07428302934427339   -0.015168871632351498
-0.8270382463554913   -0.4485179049071649   -0.25511123025253124
-0.8270382463554913   -0.4485179049071649   -0.25511123025253124
-0.8270382463554913   -0.4485179049071649   -0.25511123025253124
-0.8270382463554913   -0.4485179049071649   -0.25511123025253124
-0.5175512122866408   -0.23162299636183092   0.09621580671179245
-0.5175512122866408   -0.23162299636183092   0.09621580671179245
-0.5175512122866408   -0.23162299636183092   0.09621580671179245
-0.5175512122866408   -0.23162299636183092   0.09621580671179245
-0.2313532099051249   -0.12773416368233026   -0.018807850774374996
-0.2313532099051249   -0.12773416368233026   -0.018807850774374996
-0.2313532099051249   -0.12773416368233026   -0.018807850774374996
-0.2313532099051249   -0.12773416368233026   -0.018807850774374996
-0.1082829131520883   -0.16417499613563213   -0.02681719885129552
-0.1082829131520883   -0.16417499613563213   -0.02681719885129552
-0.1082829131520883   -0.16417499613563213   -0.02681719885129552
-0.1082829131520883   -0.16417499613563213   -0.02681719885129552
-0.09469475492045892   -0.08232076935872763   0.002340175430236742
-0.09469475492045892   -0.08232076935872763   0.002340175430236742
-0.09469475492045892   -0.08232076935872763   0.002340175430236742
-0.09469475492045892   -0.08232076935872763   0.002340175430236742
-0.2851733515052358   -0.23747266078942655   0.0008131274746610434
-0.2851733515052358   -0.23747266078942655   0.0008131274746610434
-0.2851733515052358   -0.23747266078942655   0.0008131274746610434
-0.2851733515052358   -0.23747266078942655   0.0008131274746610434
-0.1525801005791771   -0.11481782946866964   0.04935303571691126
-0.1525801005791771   -0.11481782946866964   0.04935303571691126
-0.1525801005791771   -0.11481782946866964   0.04935303571691126
-0.1525801005791771   -0.11481782946866964   0.04935303571691126
-0.26408113141669676   -0.1190881385986978   -0.012110294273376218
-0.26408113141669676   -0.1190881385986978   -0.012110294273376218
-0.26408113141669676   -0.1190881385986978   -0.012110294273376218
-0.26408113141669676   -0.1190881385986978   -0.012110294273376218
-0.12398102774756595   -0.20889934428802467   -0.017512613775999414
-0.12398102774756595   -0.20889934428802467   -0.017512613775999414
-0.12398102774756595   -0.20889934428802467   -0.017512613775999414
-0.12398102774756595   -0.20889934428802467   -0.017512613775999414
-0.10266340551062648   -0.08525681288519334   0.0024902271341323973
-0.10266340551062648   -0.08525681288519334   0.0024902271341323973
-0.10266340551062648   -0.08525681288519334   0.0024902271341323973
-0.10266340551062648   -0.08525681288519334   0.0024902271341323973
-0.2996711037261964   -0.23491774415435512   -0.04560966693655613
-0.2996711037261964   -0.23491774415435512   -0.04560966693655613
-0.2996711037261964   -0.23491774415435512   -0.04560966693655613
-0.2996711037261964   -0.23491774415435512   -0.04560966693655613
-0.1826808774569649   -0.14684380353023999   0.02217839059961669
-0.1826808774569649   -0.14684380353023999   0.02217839059961669
-0.1826808774569649   -0.14684380353023999   0.02217839059961669
-0.1826808774569649   -0.14684380353023999   0.02217839059961669
-0.27297716354047386   -0.12435762662537447   -0.02270008353692597
-0.27297716354047386   -0.12435762662537447   -0.02270008353692597
-0.27297716354047386   -0.12435762662537447   -0.02270008353692597
-0.27297716354047386   -0.12435762662537447   -0.02270008353692597
-0.1286128572094013   -0.19507244192722625   -0.01744140231770686
-0.1286128572094013   -0.19507244192722625   -0.01744140231770686
-0.1286128572094013   -0.19507244192722625   -0.01744140231770686
-0.1286128572094013   -0.19507244192722625   -0.01744140231770686
-0.11507403299296023   -0.0878811778501144   0.003681926568637507
-0.11507403299296023   -0.0878811778501144   0.003681926568637507
-0.11507403299296023   -0.0878811778501144   0.003681926568637507
-0.11507403299296023   -0.0878811778501144   0.003681926568637507
-0.32112395732551746   -0.22861290156191238   -0.039480279548786114
-0.32112395732551746   -0.22861290156191238   -0.039480279548786114
-0.32112395732551746   -0.22861290156191238   -0.039480279548786114
-0.32112395732551746   -0.22861290156191238   -0.039480279548786114
-0.19166067880025894   -0.13848396881195638   0.023394476551120546
-0.19166067880025894   -0.13848396881195638   0.023394476551120546
-0.19166067880025894   -0.13848396881195638   0.023394476551120546
-0.19166067880025894   -0.13848396881195638   0.023394476551120546
-0.08425549712197447   -0.07645607974836481   0.005600964912006276
-0.08425549712197447   -0.07645607974836481   0.005600964912006276
-0.08425549712197447   -0.07645607974836481   0.005600964912006276
-0.08425549712197447   -0.07645607974836481   0.005600964912006276
-0.05255296247553073   -0.05314962167035711   -0.013189829920475585
-0.05255296247553073   -0.05314962167035711   -0.013189829920475585
-0.05255296247553073   -0.05314962167035711   -0.013189829920475585
-0.05255296247553073   -0.05314962167035711   -0.013189829920475585
-0.050590186092142   -0.06864645859523916   0.005559163017492125
-0.050590186092142   -0.06864645859523916   0.005559163017492125
-0.050590186092142   -0.06864645859523916   0.005559163017492125
-0.050590186092142   -0.06864645859523916   0.005559163017492125
-0.0941464915121139   -0.07173696799215808   -0.0055023088946057844
-0.0941464915121139   -0.07173696799215808   -0.0055023088946057844
-0.0941464915121139   -0.07173696799215808   -0.0055023088946057844
-0.0941464915121139   -0.07173696799215808   -0.0055023088946057844
-0.05931357176892376   -0.05683203318802987   0.024834373363724592
-0.05931357176892376   -0.05683203318802987   0.024834373363724592
-0.05931357176892376   -0.05683203318802987   0.024834373363724592
-0.05931357176892376   -0.05683203318802987   0.024834373363724592
-0.09287792436279352   -0.07699593923408452   0.006099498093920682
-0.09287792436279352   -0.07699593923408452   0.006099498093920682
-0.09287792436279352   -0.07699593923408452   0.006099498093920682
-0.09287792436279352   -0.07699593923408452   0.006099498093920682
-0.05275232448423502   -0.06428105859608632   -0.009616928942125857
-0.05275232448423502   -0.06428105859608632   -0.009616928942125857
-0.05275232448423502   -0.06428105859608632   -0.009616928942125857
-0.05275232448423502   -0.06428105859608632   -0.009616928942125857
-0.05140322047085404   -0.07070174106643728   0.004982582154446701
-0.05140322047085404   -0.07070174106643728   0.004982582154446701
-0.05140322047085404   -0.07070174106643728   0.004982582154446701
-0.05140322047085404   -0.07070174106643728   0.004982582154446701
-0.10034531419350051   -0.08347543913153986   0.012299309966110724
-0.10034531419350051   -0.08347543913153986   0.012299309966110724
-0.10034531419350051   -0.08347543913153986   0.012299309966110724
-0.10034531419350051   -0.08347543913153986   0.012299309966110724
-0.06490609761924644   -0.06340792281286214   0.020792262031702563
-0.06490609761924644   -0.06340792281286214   0.020792262031702563
-0.06490609761924644   -0.06340792281286214   0.020792262031702563
-0.06490609761924644   -0.06340792281286214   0.020792262031702563
-0.1004402772521002   -0.07986321478771811   0.008212270329288698
-0.1004402772521002   -0.07986321478771811   0.008212270329288698
-0.1004402772521002   -0.07986321478771811   0.008212270329288698
-0.1004402772521002   -0.07986321478771811   0.008212270329288698
-0.055737815285892306   -0.07874352328389729   -0.008648609703284599
-0.055737815285892306   -0.07874352328389729   -0.008648609703284599
-0.055737815285892306   -0.07874352328389729   -0.008648609703284599
-0.055737815285892306   -0.07874352328389729   -0.008648609703284599
-0.05242393754792403   -0.07294147997895412   0.007036741248534258
-0.05242393754792403   -0.07294147997895412   0.007036741248534258
-0.05242393754792403   -0.07294147997895412   0.007036741248534258
-0.05242393754792403   -0.07294147997895412   0.007036741248534258
-0.11800972501547474   -0.10214285325047767   0.0032651418564282504
-0.11800972501547474   -0.10214285325047767   0.0032651418564282504
-0.11800972501547474   -0.10214285325047767   0.0032651418564282504
-0.11800972501547474   -0.10214285325047767   0.0032651418564282504
-0.07290964184458575   -0.07208986638864501   0.009481960298929164
-0.07290964184458575   -0.07208986638864501   0.009481960298929164
-0.07290964184458575   -0.07208986638864501   0.009481960298929164
-0.07290964184458575   -0.07208986638864501   0.009481960298929164
-0.04242607687812056   -0.03052191681927172   0.014816893215489855
-0.04242607687812056   -0.03052191681927172   0.014816893215489855
-0.04242607687812056   -0.03052191681927172   0.014816893215489855
-0.04242607687812056   -0.03052191681927172   0.014816893215489855
-0.030547651862969694   -0.001749968753463776   -0.0030125205525919265
-0.030547651862969694   -0.001749968753463776   -0.0030125205525919265
-0.030547651862969694   -0.001749968753463776   -0.0030125205525919265
-0.030547651862969694   -0.001749968753463776   -0.0030125205525919265
-0.028933114506349507   -0.0331440047226004   0.009151912471098351
-0.028933114506349507   -0.0331440047226004   0.009151912471098351
-0.028933114506349507   -0.0331440047226004   0.009151912471098351
-0.028933114506349507   -0.0331440047226004   0.009151912471098351
-0.03982221797358153   -0.007694748582441978   -0.0015527064025027187
-0.03982221797358153   -0.007694748582441978   -0.0015527064025027187
-0.03982221797358153   -0.007694748582441978   -0.0015527064025027187
-0.03982221797358153   -0.007694748582441978   -0.0015527064025027187
-0.03272089135785178   -0.017400572630713755   0.007345312295495943
-0.03272089135785178   -0.017400572630713755   0.007345312295495943
-0.03272089135785178   -0.017400572630713755   0.007345312295495943
-0.03272089135785178   -0.017400572630713755   0.007345312295495943
-0.04213197160000433   -0.034811169382468976   0.014014946265410283
-0.04213197160000433   -0.034811169382468976   0.014014946265410283
-0.04213197160000433   -0.034811169382468976   0.014014946265410283
-0.04213197160000433   -0.034811169382468976   0.014014946265410283
-0.025922287407250087   -0.005326510449896777   -0.003611446306108155
-0.025922287407250087   -0.005326510449896777   -0.003611446306108155
-0.025922287407250087   -0.005326510449896777   -0.003611446306108155
-0.025922287407250087   -0.005326510449896777   -0.003611446306108155
-0.026735569995113926   -0.03605976117362697   0.008478272921153659
-0.026735569995113926   -0.03605976117362697   0.008478272921153659
-0.026735569995113926   -0.03605976117362697   0.008478272921153659
-0.026735569995113926   -0.03605976117362697   0.008478272921153659
-0.04039878406670637   -0.013672473126541122   0.0029754962352889257
-0.04039878406670637   -0.013672473126541122   0.0029754962352889257
-0.04039878406670637   -0.013672473126541122   0.0029754962352889257
-0.04039878406670637   -0.013672473126541122   0.0029754962352889257
-0.030297020024680144   -0.020005741993114463   0.008570984940468061
-0.030297020024680144   -0.020005741993114463   0.008570984940468061
-0.030297020024680144   -0.020005741993114463   0.008570984940468061
-0.030297020024680144   -0.020005741993114463   0.008570984940468061
-0.04259334215520884   -0.03771743638052403   0.016047669046763278
-0.04259334215520884   -0.03771743638052403   0.016047669046763278
-0.04259334215520884   -0.03771743638052403   0.016047669046763278
-0.04259334215520884   -0.03771743638052403   0.016047669046763278
-0.02482890129659136   -0.012302687309623334   -0.005745457450237143
-0.02482890129659136   -0.012302687309623334   -0.005745457450237143
-0.02482890129659136   -0.012302687309623334   -0.005745457450237143
-0.02482890129659136   -0.012302687309623334   -0.005745457450237143
-0.022746572536126997   -0.03929130640185425   0.00935358006405207
-0.022746572536126997   -0.03929130640185425   0.00935358006405207
-0.022746572536126997   -0.03929130640185425   0.00935358006405207
-0.022746572536126997   -0.03929130640185425   0.00935358006405207
-0.044052672231991385   -0.027904613095859777   0.003856200945103098
-0.044052672231991385   -0.027904613095859777   0.003856200945103098
-0.044052672231991385   -0.027904613095859777   0.003856200945103098
-0.044052672231991385   -0.027904613095859777   0.003856200945103098
-0.029490493186457325   -0.025136512449936334   0.007187935314785958
-0.029490493186457325   -0.025136512449936334   0.007187935314785958
-0.029490493186457325   -0.025136512449936334   0.007187935314785958
-0.029490493186457325   -0.025136512449936334   0.007187935314785958
-0.027632654703286522   -0.005190257403225734   0.015002753895585882
-0.027632654703286522   -0.005190257403225734   0.015002753895585882
-0.027632654703286522   -0.005190257403225734   0.015002753895585882
-0.027632654703286522   -0.005190257403225734   0.015002753895585882
-0.0054295431654024385   0.0029116460844214737   -0.00030347752642685363
-0.0054295431654024385   0.0029116460844214737   -0.00030347752642685363
-0.0054295431654024385   0.0029116460844214737   -0.00030347752642685363
-0.0054295431654024385   0.0029116460844214737   -0.00030347752642685363
0.0009217734426157516   -0.0017156379666605145   0.009352366468471186
0.0009217734426157516   -0.0017156379666605145   0.009352366468471186
0.0009217734426157516   -0.0017156379666605145   0.009352366468471186
0.0009217734426157516   -0.0017156379666605145   0.009352366468471186
-0.02392826799116624   0.001975658626627301   -0.0009435183022129961
-0.02392826799116624   0.001975658626627301   -0.0009435183022129961
-0.02392826799116624   0.001975658626627301   -0.0009435183022129961
-0.02392826799116624   0.001975658626627301   -0.0009435183022129961
-0.014220236822087463   -0.001133638957334412   -0.0010992669471671782
-0.014220236822087463   -0.001133638957334412   -0.0010992669471671782
-0.014220236822087463   -0.001133638957334412   -0.0010992669471671782
-0.014220236822087463   -0.001133638957334412   -0.0010992669471671782
-0.022019975282825458   -0.005049783526848821   0.015623387392967026
-0.022019975282825458   -0.005049783526848821   0.015623387392967026
-0.022019975282825458   -0.005049783526848821   0.015623387392967026
-0.022019975282825458   -0.005049783526848821   0.015623387392967026
-0.00017539801231380102   0.006120925440227475   -0.003970054213064566
-0.00017539801231380102   0.006120925440227475   -0.003970054213064566
-0.00017539801231380102   0.006120925440227475   -0.003970054213064566
-0.00017539801231380102   0.006120925440227475   -0.003970054213064566
0.003988991337711641   -0.0021437138828378937   0.011539532452781057
0.003988991337711641   -0.0021437138828378937   0.011539532452781057
0.003988991337711641   -0.0021437138828378937   0.011539532452781057
0.003988991337711641   -0.0021437138828378937   0.011539532452781057
-0.021246208758173648   0.0012302053487846598   -0.0013648874165565798
-0.021246208758173648   0.0012302053487846598   -0.0013648874165565798
-0.021246208758173648   0.0012302053487846598   -0.0013648874165565798
-0.021246208758173648   0.0012302053487846598   -0.0013648874165565798
-0.009663760994900681   -0.0004047086162715875   0.001417832542622534
-0.009663760994900681   -0.0004047086162715875   0.001417832542622534
-0.009663760994900681   -0.0004047086162715875   0.001417832542622534
-0.009663760994900681   -0.0004047086162715875   0.001417832542622534
-0.018990375602156995   -0.0056821641824213   0.01682664789473266
-0.018990375602156995   -0.0056821641824213   0.01682664789473266
-0.018990375602156995   -0.0056821641824213   0.01682664789473266
-0.018990375602156995   -0.0056821641824213   0.01682664789473266
0.0024375340597527426   0.0054730315264258245   -0.003834499346277151
0.0024375340597527426   0.0054730315264258245   -0.003834499346277151
0.0024375340597527426   0.0054730315264258245   -0.003834499346277151
0.0024375340597527426   0.0054730315264258245   -0.003834499346277151
0.006992793935242578   -0.003457150099825117   0.01125643386772187
0.006992793935242578   -0.003457150099825117   0.01125643386772187
0.006992793935242578   -0.003457150099825117   0.01125643386772187
0.006992793935242578   -0.003457150099825117   0.01125643386772187
-0.01688934848811048   0.0008711694407472518   -0.0015227755384668506
-0.01688934848811048   0.0008711694407472518   -0.0015227755384668506
-0.01688934848811048   0.0008711694407472518   -0.0015227755384668506
-0.01688934848811048   0.0008711694407472518   -0.0015227755384668506
-0.005645183214837256   -4.0223647583218424e-05   0.003562321672876881
-0.005645183214837256   -4.0223647583218424e-05   0.003562321672876881
-0.005645183214837256   -4.0223647583218424e-05   0.003562321672876881
-0.005645183214837256   -4.0223647583218424e-05   0.003562321672876881
              </DataArray>   
             <DataArray type="Float64" NumberOfComponents="3" Name="Displacements" format="ascii">   
0.0   0.0   0.0
-0.0025281569146136896   -0.001665325518662426   -0.0008473179693584225
0.0   0.0   0.0
0.0   0.0   0.0
-0.0025281569146136896   -0.001665325518662426   -0.0008473179693584225
-0.0016081126455710232   -0.0014977677157710972   -0.00062260615462364
0.0   0.0   0.0
-0.0015758971088988846   -0.001572541047057356   -0.0005217457529464
0.0   0.0   0.0
0.0   0.0   0.0
-0.0015758971088988846   -0.001572541047057356   -0.0005217457529464
0.0   0.0   0.0
0.0   0.0   0.0
-0.0015758971088988846   -0.001572541047057356   -0.0005217457529464
-0.002645326041618774   -0.0017738503369523141   -0.0006804811528009548
-0.0025281569146136896   -0.001665325518662426   -0.0008473179693584225
0.0   0.0   0.0
-0.0015758971088988846   -0.001572541047057356   -0.0005217457529464
-0.0025281569146136896   -0.001665325518662426   -0.0008473179693584225
0.0   0.0   0.0
0.0   0.0   0.0
-0.002645326041618774   -0.0017738503369523141   -0.0006804811528009548
0.0   0.0   0.0
0.0   0.0   0.0
-0.002645326041618774   -0.0017738503369523141   -0.0006804811528009548
-0.0015758971088988846   -0.001572541047057356   -0.0005217457529464
0.0   0.0   0.0
-0.0015798956155889878   -0.0016109113337669499   -0.00042108146500690827
0.0   0.0   0.0
0.0   0.0   0.0
-0.0015798956155889878   -0.0016109113337669499   -0.00042108146500690827
0.0   0.0   0.0
0.0   0.0   0.0
-0.0015798956155889878   -0.0016109113337669499   -0.00042108146500690827
-0.0027274081126095226   -0.001826646916108622   -0.0005207220105192245
-0.002645326041618774   -0.0017738503369523141   -0.0006804811528009548
0.0   0.0   0.0
-0.0015798956155889878   -0.0016109113337669499   -0.00042108146500690827
-0.002645326041618774   -0.0017738503369523141   -0.0006804811528009548
0.0   0.0   0.0
0.0   0.0   0.0
-0.0027274081126095226   -0.001826646916108622   -0.0005207220105192245
0.0   0.0   0.0
0.0   0.0   0.0
-0.0027274081126095226   -0.001826646916108622   -0.0005207220105192245
-0.0015798956155889878   -0.0016109113337669499   -0.00042108146500690827
0.0   0.0   0.0
-0.001578562644170949   -0.001620841265444865   -0.0003170566368042121
0.0   0.0   0.0
0.0   0.0   0.0
-0.001578562644170949   -0.001620841265444865   -0.0003170566368042121
0.0   0.0   0.0
0.0   0.0   0.0
-0.001578562644170949   -0.001620841265444865   -0.0003170566368042121
-0.002904677916334159   -0.0018668050992630858   -0.0003354414428533922
-0.0027274081126095226   -0.001826646916108622   -0.0005207220105192245
0.0   0.0   0.0
-0.001578562644170949   -0.001620841265444865   -0.0003170566368042121
-0.0027274081126095226   -0.001826646916108622   -0.0005207220105192245
0.0   0.0   0.0
0.0   0.0   0.0
-0.0016081126455710232   -0.0014977677157710972   -0.00062260615462364
0.0   0.0   0.0
0.0   0.0   0.0
-0.0016081126455710232   -0.0014977677157710972   -0.00062260615462364
-0.0007328587323346159   -0.0014364076758936902   -0.0004737582894256091
0.0   0.0   0.0
-0.0007044186650819855   -0.0014850235922017668   -0.0004260893949902436
0.0   0.0   0.0
0.0   0.0   0.0
-0.0007044186650819855   -0.0014850235922017668   -0.0004260893949902436
0.0   0.0   0.0
0.0   0.0   0.0
-0.0007044186650819855   -0.0014850235922017668   -0.0004260893949902436
-0.0015758971088988846   -0.001572541047057356   -0.0005217457529464
-0.0016081126455710232   -0.0014977677157710972   -0.00062260615462364
0.0   0.0   0.0
-0.0007044186650819855   -0.0014850235922017668   -0.0004260893949902436
-0.0016081126455710232   -0.0014977677157710972   -0.00062260615462364
0.0   0.0   0.0
0.0   0.0   0.0
-0.0015758971088988846   -0.001572541047057356   -0.0005217457529464
0.0   0.0   0.0
0.0   0.0   0.0
-0.0015758971088988846   -0.001572541047057356   -0.0005217457529464
-0.0007044186650819855   -0.0014850235922017668   -0.0004260893949902436
0.0   0.0   0.0
-0.0006882636149995109   -0.0015035724521109846   -0.00037971541712226065
0.0   0.0   0.0
0.0   0.0   0.0
-0.0006882636149995109   -0.0015035724521109846   -0.00037971541712226065
0.0   0.0   0.0
0.0   0.0   0.0
-0.0006882636149995109   -0.0015035724521109846   -0.00037971541712226065
-0.0015798956155889878   -0.0016109113337669499   -0.00042108146500690827
-0.0015758971088988846   -0.001572541047057356   -0.0005217457529464
0.0   0.0   0.0
-0.0006882636149995109   -0.0015035724521109846   -0.00037971541712226065
-0.0015758971088988846   -0.001572541047057356   -0.0005217457529464
0.0   0.0   0.0
0.0   0.0   0.0
-0.0015798956155889878   -0.0016109113337669499   -0.00042108146500690827
0.0   0.0   0.0
0.0   0.0   0.0
-0.0015798956155889878   -0.0016109113337669499   -0.00042108146500690827
-0.0006882636149995109   -0.0015035724521109846   -0.00037971541712226065
0.0   0.0   0.0
-0.0006734795325166857   -0.0014958765028533173   -0.0003318253605826937
0.0   0.0   0.0
0.0   0.0   0.0
-0.0006734795325166857   -0.0014958765028533173   -0.0003318253605826937
0.0   0.0   0.0
0.0   0.0   0.0
-0.0006734795325166857   -0.0014958765028533173   -0.0003318253605826937
-0.001578562644170949   -0.001620841265444865   -0.0003170566368042121
-0.0015798956155889878   -0.0016109113337669499   -0.00042108146500690827
0.0   0.0   0.0
-0.0006734795325166857   -0.0014958765028533173   -0.0003318253605826937
-0.0015798956155889878   -0.0016109113337669499   -0.00042108146500690827
0.0   0.0   0.0
0.0   0.0   0.0
-0.0007328587323346159   -0.0014364076758936902   -0.0004737582894256091
0.0   0.0   0.0
0.0   0.0   0.0
-0.0007328587323346159   -0.0014364076758936902   -0.0004737582894256091
9.371079704776155e-05   -0.0014443392267627804   -0.0003790421889016031
0.0   0.0   0.0
0.00011207069924294312   -0.0014694770814254626   -0.00038550949814311885
0.0   0.0   0.0
0.0   0.0   0.0
0.00011207069924294312   -0.0014694770814254626   -0.00038550949814311885
0.0   0.0   0.0
0.0   0.0   0.0
0.00011207069924294312   -0.0014694770814254626   -0.00038550949814311885
-0.0007044186650819855   -0.0014850235922017668   -0.0004260893949902436
-0.0007328587323346159   -0.0014364076758936902   -0.0004737582894256091
0.0   0.0   0.0
0.00011207069924294312   -0.0014694770814254626   -0.00038550949814311885
-0.0007328587323346159   -0.0014364076758936902   -0.0004737582894256091
0.0   0.0   0.0
0.0   0.0   0.0
-0.0007044186650819855   -0.0014850235922017668   -0.0004260893949902436
0.0   0.0   0.0
0.0   0.0   0.0
-0.0007044186650819855   -0.0014850235922017668   -0.0004260893949902436
0.00011207069924294312   -0.0014694770814254626   -0.00038550949814311885
0.0   0.0   0.0
0.0001266204214477703   -0.0014673405382051184   -0.0003913945485752022
0.0   0.0   0.0
0.0   0.0   0.0
0.0001266204214477703   -0.0014673405382051184   -0.0003913945485752022
0.0   0.0   0.0
0.0   0.0   0.0
0.0001266204214477703   -0.0014673405382051184   -0.0003913945485752022
-0.0006882636149995109   -0.0015035724521109846   -0.00037971541712226065
-0.0007044186650819855   -0.0014850235922017668   -0.0004260893949902436
0.0   0.0   0.0
0.0001266204214477703   -0.0014673405382051184   -0.0003913945485752022
-0.0007044186650819855   -0.0014850235922017668   -0.0004260893949902436
0.0   0.0   0.0
0.0   0.0   0.0
-0.0006882636149995109   -0.0015035724521109846   -0.00037971541712226065
0.0   0.0   0.0
0.0   0.0   0.0
-0.0006882636149995109   -0.0015035724521109846   -0.00037971541712226065
0.0001266204214477703   -0.0014673405382051184   -0.0003913945485752022
0.0   0.0   0.0
0.00014604915548682636   -0.0014357015237022209   -0.0003974952564107069
0.0   0.0   0.0
0.0   0.0   0.0
0.00014604915548682636   -0.0014357015237022209   -0.0003974952564107069
0.0   0.0   0.0
0.0   0.0   0.0
0.00014604915548682636   -0.0014357015237022209   -0.0003974952564107069
-0.0006734795325166857   -0.0014958765028533173   -0.0003318253605826937
-0.0006882636149995109   -0.0015035724521109846   -0.00037971541712226065
0.0   0.0   0.0
0.00014604915548682636   -0.0014357015237022209   -0.0003974952564107069
-0.0006882636149995109   -0.0015035724521109846   -0.00037971541712226065
0.0   0.0   0.0
0.0   0.0   0.0
9.371079704776155e-05   -0.0014443392267627804   -0.0003790421889016031
0.0   0.0   0.0
0.0   0.0   0.0
9.371079704776155e-05   -0.0014443392267627804   -0.0003790421889016031
0.0009913187918663409   -0.0015141035774446406   -0.0003323780749544713
0.0   0.0   0.0
0.000993626386079417   -0.0015219947745748227   -0.00039581285129526117
0.0   0.0   0.0
0.0   0.0   0.0
0.000993626386079417   -0.0015219947745748227   -0.00039581285129526117
0.0   0.0   0.0
0.0   0.0   0.0
0.000993626386079417   -0.0015219947745748227   -0.00039581285129526117
0.00011207069924294312   -0.0014694770814254626   -0.00038550949814311885
9.371079704776155e-05   -0.0014443392267627804   -0.0003790421889016031
0.0   0.0   0.0
0.000993626386079417   -0.0015219947745748227   -0.00039581285129526117
9.371079704776155e-05   -0.0014443392267627804   -0.0003790421889016031
0.0   0.0   0.0
0.0   0.0   0.0
0.00011207069924294312   -0.0014694770814254626   -0.00038550949814311885
0.0   0.0   0.0
0.0   0.0   0.0
0.00011207069924294312   -0.0014694770814254626   -0.00038550949814311885
0.000993626386079417   -0.0015219947745748227   -0.00039581285129526117
0.0   0.0   0.0
0.0009898403806235347   -0.0015002651673192032   -0.00045673133410322056
0.0   0.0   0.0
0.0   0.0   0.0
0.0009898403806235347   -0.0015002651673192032   -0.00045673133410322056
0.0   0.0   0.0
0.0   0.0   0.0
0.0009898403806235347   -0.0015002651673192032   -0.00045673133410322056
0.0001266204214477703   -0.0014673405382051184   -0.0003913945485752022
0.00011207069924294312   -0.0014694770814254626   -0.00038550949814311885
0.0   0.0   0.0
0.0009898403806235347   -0.0015002651673192032   -0.00045673133410322056
0.00011207069924294312   -0.0014694770814254626   -0.00038550949814311885
0.0   0.0   0.0
0.0   0.0   0.0
0.0001266204214477703   -0.0014673405382051184   -0.0003913945485752022
0.0   0.0   0.0
0.0   0.0   0.0
0.0001266204214477703   -0.0014673405382051184   -0.0003913945485752022
0.0009898403806235347   -0.0015002651673192032   -0.00045673133410322056
0.0   0.0   0.0
0.0010094617876915814   -0.0014423146177797927   -0.0005165407122861554
0.0   0.0   0.0
0.0   0.0   0.0
0.0010094617876915814   -0.0014423146177797927   -0.0005165407122861554
0.0   0.0   0.0
0.0   0.0   0.0
0.0010094617876915814   -0.0014423146177797927   -0.0005165407122861554
0.00014604915548682636   -0.0014357015237022209   -0.0003974952564107069
0.0001266204214477703   -0.0014673405382051184   -0.0003913945485752022
0.0   0.0   0.0
0.0010094617876915814   -0.0014423146177797927   -0.0005165407122861554
0.0001266204214477703   -0.0014673405382051184   -0.0003913945485752022
0.0   0.0   0.0
0.0   0.0   0.0
0.0009913187918663409   -0.0015141035774446406   -0.0003323780749544713
0.0   0.0   0.0
0.0   0.0   0.0
0.0009913187918663409   -0.0015141035774446406   -0.0003323780749544713
0.0022409246308035314   -0.0016911758143844072   -0.00031406662092588997
0.0   0.0   0.0
0.0021052976024681018   -0.0016724824019062974   -0.0004580663714582996
0.0   0.0   0.0
0.0   0.0   0.0
0.0021052976024681018   -0.0016724824019062974   -0.0004580663714582996
0.0   0.0   0.0
0.0   0.0   0.0
0.0021052976024681018   -0.0016724824019062974   -0.0004580663714582996
0.000993626386079417   -0.0015219947745748227   -0.00039581285129526117
0.0009913187918663409   -0.0015141035774446406   -0.0003323780749544713
0.0   0.0   0.0
0.0021052976024681018   -0.0016724824019062974   -0.0004580663714582996
0.0009913187918663409   -0.0015141035774446406   -0.0003323780749544713
0.0   0.0   0.0
0.0   0.0   0.0
0.000993626386079417   -0.0015219947745748227   -0.00039581285129526117
0.0   0.0   0.0
0.0   0.0   0.0
0.000993626386079417   -0.0015219947745748227   -0.00039581285129526117
0.0021052976024681018   -0.0016724824019062974   -0.0004580663714582996
0.0   0.0   0.0
0.002042966648725695   -0.0016377157247216164   -0.0005798875390154706
0.0   0.0   0.0
0.0   0.0   0.0
0.002042966648725695   -0.0016377157247216164   -0.0005798875390154706
0.0   0.0   0.0
0.0   0.0   0.0
0.002042966648725695   -0.0016377157247216164   -0.0005798875390154706
0.0009898403806235347   -0.0015002651673192032   -0.00045673133410322056
0.000993626386079417   -0.0015219947745748227   -0.00039581285129526117
0.0   0.0   0.0
0.002042966648725695   -0.0016377157247216164   -0.0005798875390154706
0.000993626386079417   -0.0015219947745748227   -0.00039581285129526117
0.0   0.0   0.0
0.0   0.0   0.0
0.0009898403806235347   -0.0015002651673192032   -0.00045673133410322056
0.0   0.0   0.0
0.0   0.0   0.0
0.0009898403806235347   -0.0015002651673192032   -0.00045673133410322056
0.002042966648725695   -0.0016377157247216164   -0.0005798875390154706
0.0   0.0   0.0
0.0019498452005632023   -0.0015489415480139648   -0.0007089133551914425
0.0   0.0   0.0
0.0   0.0   0.0
0.0019498452005632023   -0.0015489415480139648   -0.0007089133551914425
0.0   0.0   0.0
0.0   0.0   0.0
0.0019498452005632023   -0.0015489415480139648   -0.0007089133551914425
0.0010094617876915814   -0.0014423146177797927   -0.0005165407122861554
0.0009898403806235347   -0.0015002651673192032   -0.00045673133410322056
0.0   0.0   0.0
0.0019498452005632023   -0.0015489415480139648   -0.0007089133551914425
0.0009898403806235347   -0.0015002651673192032   -0.00045673133410322056
0.0   0.0   0.0
-0.0025281569146136896   -0.001665325518662426   -0.0008473179693584225
-0.00471718265257451   -0.00463906751726449   -0.0011417977170618322
-0.0016081126455710232   -0.0014977677157710972   -0.00062260615462364
-0.002645326041618774   -0.0017738503369523141   -0.0006804811528009548
-0.00471718265257451   -0.00463906751726449   -0.0011417977170618322
-0.0030105712731444507   -0.004488549481333763   -0.0009403341884782803
-0.0016081126455710232   -0.0014977677157710972   -0.00062260615462364
-0.003013406427058485   -0.004564957055491914   -0.0008471780216453026
-0.002645326041618774   -0.0017738503369523141   -0.0006804811528009548
-0.0015758971088988846   -0.001572541047057356   -0.0005217457529464
-0.003013406427058485   -0.004564957055491914   -0.0008471780216453026
-0.0016081126455710232   -0.0014977677157710972   -0.00062260615462364
-0.002645326041618774   -0.0017738503369523141   -0.0006804811528009548
-0.003013406427058485   -0.004564957055491914   -0.0008471780216453026
-0.004857554458818876   -0.0047457619818565755   -0.0009906356425589211
-0.00471718265257451   -0.00463906751726449   -0.0011417977170618322
-0.002645326041618774   -0.0017738503369523141   -0.0006804811528009548
-0.003013406427058485   -0.004564957055491914   -0.0008471780216453026
-0.00471718265257451   -0.00463906751726449   -0.0011417977170618322
-0.0016081126455710232   -0.0014977677157710972   -0.00062260615462364
-0.002645326041618774   -0.0017738503369523141   -0.0006804811528009548
-0.004857554458818876   -0.0047457619818565755   -0.0009906356425589211
-0.0015758971088988846   -0.001572541047057356   -0.0005217457529464
-0.0027274081126095226   -0.001826646916108622   -0.0005207220105192245
-0.004857554458818876   -0.0047457619818565755   -0.0009906356425589211
-0.003013406427058485   -0.004564957055491914   -0.0008471780216453026
-0.0015758971088988846   -0.001572541047057356   -0.0005217457529464
-0.003024498929095131   -0.004611602140774846   -0.0007577058199373583
-0.0027274081126095226   -0.001826646916108622   -0.0005207220105192245
-0.0015798956155889878   -0.0016109113337669499   -0.00042108146500690827
-0.003024498929095131   -0.004611602140774846   -0.0007577058199373583
-0.0015758971088988846   -0.001572541047057356   -0.0005217457529464
-0.0027274081126095226   -0.001826646916108622   -0.0005207220105192245
-0.003024498929095131   -0.004611602140774846   -0.0007577058199373583
-0.004954779204614107   -0.004806082138469209   -0.0008426871504403873
-0.004857554458818876   -0.0047457619818565755   -0.0009906356425589211
-0.0027274081126095226   -0.001826646916108622   -0.0005207220105192245
-0.003024498929095131   -0.004611602140774846   -0.0007577058199373583
-0.004857554458818876   -0.0047457619818565755   -0.0009906356425589211
-0.0015758971088988846   -0.001572541047057356   -0.0005217457529464
-0.0027274081126095226   -0.001826646916108622   -0.0005207220105192245
-0.004954779204614107   -0.004806082138469209   -0.0008426871504403873
-0.0015798956155889878   -0.0016109113337669499   -0.00042108146500690827
-0.002904677916334159   -0.0018668050992630858   -0.0003354414428533922
-0.004954779204614107   -0.004806082138469209   -0.0008426871504403873
-0.003024498929095131   -0.004611602140774846   -0.0007577058199373583
-0.0015798956155889878   -0.0016109113337669499   -0.00042108146500690827
-0.0030146836582181312   -0.004635918184435148   -0.0006740037876735203
-0.002904677916334159   -0.0018668050992630858   -0.0003354414428533922
-0.001578562644170949   -0.001620841265444865   -0.0003170566368042121
-0.0030146836582181312   -0.004635918184435148   -0.0006740037876735203
-0.0015798956155889878   -0.0016109113337669499   -0.00042108146500690827
-0.002904677916334159   -0.0018668050992630858   -0.0003354414428533922
-0.0030146836582181312   -0.004635918184435148   -0.0006740037876735203
-0.005069661919225163   -0.004841352201115937   -0.0007081859155369952
-0.004954779204614107   -0.004806082138469209   -0.0008426871504403873
-0.002904677916334159   -0.0018668050992630858   -0.0003354414428533922
-0.0030146836582181312   -0.004635918184435148   -0.0006740037876735203
-0.004954779204614107   -0.004806082138469209   -0.0008426871504403873
-0.0015798956155889878   -0.0016109113337669499   -0.00042108146500690827
-0.0016081126455710232   -0.0014977677157710972   -0.00062260615462364
-0.0030105712731444507   -0.004488549481333763   -0.0009403341884782803
-0.0007328587323346159   -0.0014364076758936902   -0.0004737582894256091
-0.0015758971088988846   -0.001572541047057356   -0.0005217457529464
-0.0030105712731444507   -0.004488549481333763   -0.0009403341884782803
-0.0013981467999040537   -0.004418505979808836   -0.0008028777407334711
-0.0007328587323346159   -0.0014364076758936902   -0.0004737582894256091
-0.0013853505972088126   -0.0044670662979570605   -0.000755072264293068
-0.0015758971088988846   -0.001572541047057356   -0.0005217457529464
-0.0007044186650819855   -0.0014850235922017668   -0.0004260893949902436
-0.0013853505972088126   -0.0044670662979570605   -0.000755072264293068
-0.0007328587323346159   -0.0014364076758936902   -0.0004737582894256091
-0.0015758971088988846   -0.001572541047057356   -0.0005217457529464
-0.0013853505972088126   -0.0044670662979570605   -0.000755072264293068
-0.003013406427058485   -0.004564957055491914   -0.0008471780216453026
-0.0030105712731444507   -0.004488549481333763   -0.0009403341884782803
-0.0015758971088988846   -0.001572541047057356   -0.0005217457529464
-0.0013853505972088126   -0.0044670662979570605   -0.000755072264293068
-0.0030105712731444507   -0.004488549481333763   -0.0009403341884782803
-0.0007328587323346159   -0.0014364076758936902   -0.0004737582894256091
-0.0015758971088988846   -0.001572541047057356   -0.0005217457529464
-0.003013406427058485   -0.004564957055491914   -0.0008471780216453026
-0.0007044186650819855   -0.0014850235922017668   -0.0004260893949902436
-0.0015798956155889878   -0.0016109113337669499   -0.00042108146500690827
-0.003013406427058485   -0.004564957055491914   -0.0008471780216453026
-0.0013853505972088126   -0.0044670662979570605   -0.000755072264293068
-0.0007044186650819855   -0.0014850235922017668   -0.0004260893949902436
-0.0013739284270503492   -0.004490643220905239   -0.0007117672044324189
-0.0015798956155889878   -0.0016109113337669499   -0.00042108146500690827
-0.0006882636149995109   -0.0015035724521109846   -0.00037971541712226065
-0.0013739284270503492   -0.004490643220905239   -0.0007117672044324189
-0.0007044186650819855   -0.0014850235922017668   -0.0004260893949902436
-0.0015798956155889878   -0.0016109113337669499   -0.00042108146500690827
-0.0013739284270503492   -0.004490643220905239   -0.0007117672044324189
-0.003024498929095131   -0.004611602140774846   -0.0007577058199373583
-0.003013406427058485   -0.004564957055491914   -0.0008471780216453026
-0.0015798956155889878   -0.0016109113337669499   -0.00042108146500690827
-0.0013739284270503492   -0.004490643220905239   -0.0007117672044324189
-0.003013406427058485   -0.004564957055491914   -0.0008471780216453026
-0.0007044186650819855   -0.0014850235922017668   -0.0004260893949902436
-0.0015798956155889878   -0.0016109113337669499   -0.00042108146500690827
-0.003024498929095131   -0.004611602140774846   -0.0007577058199373583
-0.0006882636149995109   -0.0015035724521109846   -0.00037971541712226065
-0.001578562644170949   -0.001620841265444865   -0.0003170566368042121
-0.003024498929095131   -0.004611602140774846   -0.0007577058199373583
-0.0013739284270503492   -0.004490643220905239   -0.0007117672044324189
-0.0006882636149995109   -0.0015035724521109846   -0.00037971541712226065
-0.0013572255202925951   -0.004490123605171048   -0.000674102431186176
-0.001578562644170949   -0.001620841265444865   -0.0003170566368042121
-0.0006734795325166857   -0.0014958765028533173   -0.0003318253605826937
-0.0013572255202925951   -0.004490123605171048   -0.000674102431186176
-0.0006882636149995109   -0.0015035724521109846   -0.00037971541712226065
-0.001578562644170949   -0.001620841265444865   -0.0003170566368042121
-0.0013572255202925951   -0.004490123605171048   -0.000674102431186176
-0.0030146836582181312   -0.004635918184435148   -0.0006740037876735203
-0.003024498929095131   -0.004611602140774846   -0.0007577058199373583
-0.001578562644170949   -0.001620841265444865   -0.0003170566368042121
-0.0013572255202925951   -0.004490123605171048   -0.000674102431186176
-0.003024498929095131   -0.004611602140774846   -0.0007577058199373583
-0.0006882636149995109   -0.0015035724521109846   -0.00037971541712226065
-0.0007328587323346159   -0.0014364076758936902   -0.0004737582894256091
-0.0013981467999040537   -0.004418505979808836   -0.0008028777407334711
9.371079704776155e-05   -0.0014443392267627804   -0.0003790421889016031
-0.0007044186650819855   -0.0014850235922017668   -0.0004260893949902436
-0.0013981467999040537   -0.004418505979808836   -0.0008028777407334711
0.00015625137573056338   -0.004420635470126842   -0.0007161450548674705
9.371079704776155e-05   -0.0014443392267627804   -0.0003790421889016031
0.00017185206793707237   -0.004443530254372574   -0.000712843870014005
-0.0007044186650819855   -0.0014850235922017668   -0.0004260893949902436
0.00011207069924294312   -0.0014694770814254626   -0.00038550949814311885
0.00017185206793707237   -0.004443530254372574   -0.000712843870014005
9.371079704776155e-05   -0.0014443392267627804   -0.0003790421889016031
-0.0007044186650819855   -0.0014850235922017668   -0.0004260893949902436
0.00017185206793707237   -0.004443530254372574   -0.000712843870014005
-0.0013853505972088126   -0.0044670662979570605   -0.000755072264293068
-0.0013981467999040537   -0.004418505979808836   -0.0008028777407334711
-0.0007044186650819855   -0.0014850235922017668   -0.0004260893949902436
0.00017185206793707237   -0.004443530254372574   -0.000712843870014005
-0.0013981467999040537   -0.004418505979808836   -0.0008028777407334711
9.371079704776155e-05   -0.0014443392267627804   -0.0003790421889016031
-0.0007044186650819855   -0.0014850235922017668   -0.0004260893949902436
-0.0013853505972088126   -0.0044670662979570605   -0.000755072264293068
0.00011207069924294312   -0.0014694770814254626   -0.00038550949814311885
-0.0006882636149995109   -0.0015035724521109846   -0.00037971541712226065
-0.0013853505972088126   -0.0044670662979570605   -0.000755072264293068
0.00017185206793707237   -0.004443530254372574   -0.000712843870014005
0.00011207069924294312   -0.0014694770814254626   -0.00038550949814311885
0.00018258207859944478   -0.004442024746681932   -0.000714647790974913
-0.0006882636149995109   -0.0015035724521109846   -0.00037971541712226065
0.0001266204214477703   -0.0014673405382051184   -0.0003913945485752022
0.00018258207859944478   -0.004442024746681932   -0.000714647790974913
0.00011207069924294312   -0.0014694770814254626   -0.00038550949814311885
-0.0006882636149995109   -0.0015035724521109846   -0.00037971541712226065
0.00018258207859944478   -0.004442024746681932   -0.000714647790974913
-0.0013739284270503492   -0.004490643220905239   -0.0007117672044324189
-0.0013853505972088126   -0.0044670662979570605   -0.000755072264293068
-0.0006882636149995109   -0.0015035724521109846   -0.00037971541712226065
0.00018258207859944478   -0.004442024746681932   -0.000714647790974913
-0.0013853505972088126   -0.0044670662979570605   -0.000755072264293068
0.00011207069924294312   -0.0014694770814254626   -0.00038550949814311885
-0.0006882636149995109   -0.0015035724521109846   -0.00037971541712226065
-0.0013739284270503492   -0.004490643220905239   -0.0007117672044324189
0.0001266204214477703   -0.0014673405382051184   -0.0003913945485752022
-0.0006734795325166857   -0.0014958765028533173   -0.0003318253605826937
-0.0013739284270503492   -0.004490643220905239   -0.0007117672044324189
0.00018258207859944478   -0.004442024746681932   -0.000714647790974913
0.0001266204214477703   -0.0014673405382051184   -0.0003913945485752022
0.0001940390903494856   -0.0044153779458505175   -0.0007216366157649798
-0.0006734795325166857   -0.0014958765028533173   -0.0003318253605826937
0.00014604915548682636   -0.0014357015237022209   -0.0003974952564107069
0.0001940390903494856   -0.0044153779458505175   -0.0007216366157649798
0.0001266204214477703   -0.0014673405382051184   -0.0003913945485752022
-0.0006734795325166857   -0.0014958765028533173   -0.0003318253605826937
0.0001940390903494856   -0.0044153779458505175   -0.0007216366157649798
-0.0013572255202925951   -0.004490123605171048   -0.000674102431186176
-0.0013739284270503492   -0.004490643220905239   -0.0007117672044324189
-0.0006734795325166857   -0.0014958765028533173   -0.0003318253605826937
0.0001940390903494856   -0.0044153779458505175   -0.0007216366157649798
-0.0013739284270503492   -0.004490643220905239   -0.0007117672044324189
0.0001266204214477703   -0.0014673405382051184   -0.0003913945485752022
9.371079704776155e-05   -0.0014443392267627804   -0.0003790421889016031
0.00015625137573056338   -0.004420635470126842   -0.0007161450548674705
0.0009913187918663409   -0.0015141035774446406   -0.0003323780749544713
0.00011207069924294312   -0.0014694770814254626   -0.00038550949814311885
0.00015625137573056338   -0.004420635470126842   -0.0007161450548674705
0.0018038859216353953   -0.004492347145028324   -0.0006759595581124612
0.0009913187918663409   -0.0015141035774446406   -0.0003323780749544713
0.0018131385408113267   -0.0044918918299245774   -0.0007186007566921826
0.00011207069924294312   -0.0014694770814254626   -0.00038550949814311885
0.000993626386079417   -0.0015219947745748227   -0.00039581285129526117
0.0018131385408113267   -0.0044918918299245774   -0.0007186007566921826
0.0009913187918663409   -0.0015141035774446406   -0.0003323780749544713
0.00011207069924294312   -0.0014694770814254626   -0.00038550949814311885
0.0018131385408113267   -0.0044918918299245774   -0.0007186007566921826
0.00017185206793707237   -0.004443530254372574   -0.000712843870014005
0.00015625137573056338   -0.004420635470126842   -0.0007161450548674705
0.00011207069924294312   -0.0014694770814254626   -0.00038550949814311885
0.0018131385408113267   -0.0044918918299245774   -0.0007186007566921826
0.00015625137573056338   -0.004420635470126842   -0.0007161450548674705
0.0009913187918663409   -0.0015141035774446406   -0.0003323780749544713
0.00011207069924294312   -0.0014694770814254626   -0.00038550949814311885
0.00017185206793707237   -0.004443530254372574   -0.000712843870014005
0.000993626386079417   -0.0015219947745748227   -0.00039581285129526117
0.0001266204214477703   -0.0014673405382051184   -0.0003913945485752022
0.00017185206793707237   -0.004443530254372574   -0.000712843870014005
0.0018131385408113267   -0.0044918918299245774   -0.0007186007566921826
0.000993626386079417   -0.0015219947745748227   -0.00039581285129526117
0.0018056000436344948   -0.004467532767174327   -0.0007670171972750062
0.0001266204214477703   -0.0014673405382051184   -0.0003913945485752022
0.0009898403806235347   -0.0015002651673192032   -0.00045673133410322056
0.0018056000436344948   -0.004467532767174327   -0.0007670171972750062
0.000993626386079417   -0.0015219947745748227   -0.00039581285129526117
0.0001266204214477703   -0.0014673405382051184   -0.0003913945485752022
0.0018056000436344948   -0.004467532767174327   -0.0007670171972750062
0.00018258207859944478   -0.004442024746681932   -0.000714647790974913
0.00017185206793707237   -0.004443530254372574   -0.000712843870014005
0.0001266204214477703   -0.0014673405382051184   -0.0003913945485752022
0.0018056000436344948   -0.004467532767174327   -0.0007670171972750062
0.00017185206793707237   -0.004443530254372574   -0.000712843870014005
0.000993626386079417   -0.0015219947745748227   -0.00039581285129526117
0.0001266204214477703   -0.0014673405382051184   -0.0003913945485752022
0.00018258207859944478   -0.004442024746681932   -0.000714647790974913
0.0009898403806235347   -0.0015002651673192032   -0.00045673133410322056
0.00014604915548682636   -0.0014357015237022209   -0.0003974952564107069
0.00018258207859944478   -0.004442024746681932   -0.000714647790974913
0.0018056000436344948   -0.004467532767174327   -0.0007670171972750062
0.0009898403806235347   -0.0015002651673192032   -0.00045673133410322056
0.001801584693419168   -0.0044126426831987   -0.0008194146765003642
0.00014604915548682636   -0.0014357015237022209   -0.0003974952564107069
0.0010094617876915814   -0.0014423146177797927   -0.0005165407122861554
0.001801584693419168   -0.0044126426831987   -0.0008194146765003642
0.0009898403806235347   -0.0015002651673192032   -0.00045673133410322056
0.00014604915548682636   -0.0014357015237022209   -0.0003974952564107069
0.001801584693419168   -0.0044126426831987   -0.0008194146765003642
0.0001940390903494856   -0.0044153779458505175   -0.0007216366157649798
0.00018258207859944478   -0.004442024746681932   -0.000714647790974913
0.00014604915548682636   -0.0014357015237022209   -0.0003974952564107069
0.001801584693419168   -0.0044126426831987   -0.0008194146765003642
0.00018258207859944478   -0.004442024746681932   -0.000714647790974913
0.0009898403806235347   -0.0015002651673192032   -0.00045673133410322056
0.0009913187918663409   -0.0015141035774446406   -0.0003323780749544713
0.0018038859216353953   -0.004492347145028324   -0.0006759595581124612
0.0022409246308035314   -0.0016911758143844072   -0.00031406662092588997
0.000993626386079417   -0.0015219947745748227   -0.00039581285129526117
0.0018038859216353953   -0.004492347145028324   -0.0006759595581124612
0.0037932011643058675   -0.004625492671392835   -0.000665704828215332
0.0022409246308035314   -0.0016911758143844072   -0.00031406662092588997
0.0037172769989977095   -0.0046125400265107355   -0.0007617501961258234
0.000993626386079417   -0.0015219947745748227   -0.00039581285129526117
0.0021052976024681018   -0.0016724824019062974   -0.0004580663714582996
0.0037172769989977095   -0.0046125400265107355   -0.0007617501961258234
0.0022409246308035314   -0.0016911758143844072   -0.00031406662092588997
0.000993626386079417   -0.0015219947745748227   -0.00039581285129526117
0.0037172769989977095   -0.0046125400265107355   -0.0007617501961258234
0.0018131385408113267   -0.0044918918299245774   -0.0007186007566921826
0.0018038859216353953   -0.004492347145028324   -0.0006759595581124612
0.000993626386079417   -0.0015219947745748227   -0.00039581285129526117
0.0037172769989977095   -0.0046125400265107355   -0.0007617501961258234
0.0018038859216353953   -0.004492347145028324   -0.0006759595581124612
0.0022409246308035314   -0.0016911758143844072   -0.00031406662092588997
0.000993626386079417   -0.0015219947745748227   -0.00039581285129526117
0.0018131385408113267   -0.0044918918299245774   -0.0007186007566921826
0.0021052976024681018   -0.0016724824019062974   -0.0004580663714582996
0.0009898403806235347   -0.0015002651673192032   -0.00045673133410322056
0.0018131385408113267   -0.0044918918299245774   -0.0007186007566921826
0.0037172769989977095   -0.0046125400265107355   -0.0007617501961258234
0.0021052976024681018   -0.0016724824019062974   -0.0004580663714582996
0.003649318472791785   -0.004575033199841957   -0.0008699370310039034
0.0009898403806235347   -0.0015002651673192032   -0.00045673133410322056
0.002042966648725695   -0.0016377157247216164   -0.0005798875390154706
0.003649318472791785   -0.004575033199841957   -0.0008699370310039034
0.0021052976024681018   -0.0016724824019062974   -0.0004580663714582996
0.0009898403806235347   -0.0015002651673192032   -0.00045673133410322056
0.003649318472791785   -0.004575033199841957   -0.0008699370310039034
0.0018056000436344948   -0.004467532767174327   -0.0007670171972750062
0.0018131385408113267   -0.0044918918299245774   -0.0007186007566921826
0.0009898403806235347   -0.0015002651673192032   -0.00045673133410322056
0.003649318472791785   -0.004575033199841957   -0.0008699370310039034
0.0018131385408113267   -0.0044918918299245774   -0.0007186007566921826
0.0021052976024681018   -0.0016724824019062974   -0.0004580663714582996
0.0009898403806235347   -0.0015002651673192032   -0.00045673133410322056
0.0018056000436344948   -0.004467532767174327   -0.0007670171972750062
0.002042966648725695   -0.0016377157247216164   -0.0005798875390154706
0.0010094617876915814   -0.0014423146177797927   -0.0005165407122861554
0.0018056000436344948   -0.004467532767174327   -0.0007670171972750062
0.003649318472791785   -0.004575033199841957   -0.0008699370310039034
0.002042966648725695   -0.0016377157247216164   -0.0005798875390154706
0.0035469544856088346   -0.004491862487200111   -0.0009826394206203402
0.0010094617876915814   -0.0014423146177797927   -0.0005165407122861554
0.0019498452005632023   -0.0015489415480139648   -0.0007089133551914425
0.0035469544856088346   -0.004491862487200111   -0.0009826394206203402
0.002042966648725695   -0.0016377157247216164   -0.0005798875390154706
0.0010094617876915814   -0.0014423146177797927   -0.0005165407122861554
0.0035469544856088346   -0.004491862487200111   -0.0009826394206203402
0.001801584693419168   -0.0044126426831987   -0.0008194146765003642
0.0018056000436344948   -0.004467532767174327   -0.0007670171972750062
0.0010094617876915814   -0.0014423146177797927   -0.0005165407122861554
0.0035469544856088346   -0.004491862487200111   -0.0009826394206203402
0.0018056000436344948   -0.004467532767174327   -0.0007670171972750062
0.002042966648725695   -0.0016377157247216164   -0.0005798875390154706
-0.00471718265257451   -0.00463906751726449   -0.0011417977170618322
-0.006457230371150233   -0.008687240428877288   -0.001301224886592188
-0.0030105712731444507   -0.004488549481333763   -0.0009403341884782803
-0.004857554458818876   -0.0047457619818565755   -0.0009906356425589211
-0.006457230371150233   -0.008687240428877288   -0.001301224886592188
-0.004152227419722049   -0.008572422695231643   -0.001138204027802708
-0.0030105712731444507   -0.004488549481333763   -0.0009403341884782803
-0.004160445005870048   -0.008638238795669342   -0.0010660547901432261
-0.004857554458818876   -0.0047457619818565755   -0.0009906356425589211
-0.003013406427058485   -0.004564957055491914   -0.0008471780216453026
-0.004160445005870048   -0.008638238795669342   -0.0010660547901432261
-0.0030105712731444507   -0.004488549481333763   -0.0009403341884782803
-0.004857554458818876   -0.0047457619818565755   -0.0009906356425589211
-0.004160445005870048   -0.008638238795669342   -0.0010660547901432261
-0.0065708355516769686   -0.008777240001830174   -0.0011887772447212862
-0.006457230371150233   -0.008687240428877288   -0.001301224886592188
-0.004857554458818876   -0.0047457619818565755   -0.0009906356425589211
-0.004160445005870048   -0.008638238795669342   -0.0010660547901432261
-0.006457230371150233   -0.008687240428877288   -0.001301224886592188
-0.0030105712731444507   -0.004488549481333763   -0.0009403341884782803
-0.004857554458818876   -0.0047457619818565755   -0.0009906356425589211
-0.0065708355516769686   -0.008777240001830174   -0.0011887772447212862
-0.003013406427058485   -0.004564957055491914   -0.0008471780216453026
-0.004954779204614107   -0.004806082138469209   -0.0008426871504403873
-0.0065708355516769686   -0.008777240001830174   -0.0011887772447212862
-0.004160445005870048   -0.008638238795669342   -0.0010660547901432261
-0.003013406427058485   -0.004564957055491914   -0.0008471780216453026
-0.004170229972973746   -0.008684115503129513   -0.0009991593110463743
-0.004954779204614107   -0.004806082138469209   -0.0008426871504403873
-0.003024498929095131   -0.004611602140774846   -0.0007577058199373583
-0.004170229972973746   -0.008684115503129513   -0.0009991593110463743
-0.003013406427058485   -0.004564957055491914   -0.0008471780216453026
-0.004954779204614107   -0.004806082138469209   -0.0008426871504403873
-0.004170229972973746   -0.008684115503129513   -0.0009991593110463743
-0.0066420469193928   -0.008833760202054175   -0.0010840277243280624
-0.0065708355516769686   -0.008777240001830174   -0.0011887772447212862
-0.004954779204614107   -0.004806082138469209   -0.0008426871504403873
-0.004170229972973746   -0.008684115503129513   -0.0009991593110463743
-0.0065708355516769686   -0.008777240001830174   -0.0011887772447212862
-0.003013406427058485   -0.004564957055491914   -0.0008471780216453026
-0.004954779204614107   -0.004806082138469209   -0.0008426871504403873
-0.0066420469193928   -0.008833760202054175   -0.0010840277243280624
-0.003024498929095131   -0.004611602140774846   -0.0007577058199373583
-0.005069661919225163   -0.004841352201115937   -0.0007081859155369952
-0.0066420469193928   -0.008833760202054175   -0.0010840277243280624
-0.004170229972973746   -0.008684115503129513   -0.0009991593110463743
-0.003024498929095131   -0.004611602140774846   -0.0007577058199373583
-0.004161475005475995   -0.008714412317946275   -0.0009363961068421041
-0.005069661919225163   -0.004841352201115937   -0.0007081859155369952
-0.0030146836582181312   -0.004635918184435148   -0.0006740037876735203
-0.004161475005475995   -0.008714412317946275   -0.0009363961068421041
-0.003024498929095131   -0.004611602140774846   -0.0007577058199373583
-0.005069661919225163   -0.004841352201115937   -0.0007081859155369952
-0.004161475005475995   -0.008714412317946275   -0.0009363961068421041
-0.006723070317088905   -0.008874593575947911   -0.0009876970350969829
-0.0066420469193928   -0.008833760202054175   -0.0010840277243280624
-0.005069661919225163   -0.004841352201115937   -0.0007081859155369952
-0.004161475005475995   -0.008714412317946275   -0.0009363961068421041
-0.0066420469193928   -0.008833760202054175   -0.0010840277243280624
-0.003024498929095131   -0.004611602140774846   -0.0007577058199373583
-0.0030105712731444507   -0.004488549481333763   -0.0009403341884782803
-0.004152227419722049   -0.008572422695231643   -0.001138204027802708
-0.0013981467999040537   -0.004418505979808836   -0.0008028777407334711
-0.003013406427058485   -0.004564957055491914   -0.0008471780216453026
-0.004152227419722049   -0.008572422695231643   -0.001138204027802708
-0.0019801825400905136   -0.008515097950910617   -0.0010249844080978392
-0.0013981467999040537   -0.004418505979808836   -0.0008028777407334711
-0.0019743441563731673   -0.008557114224874129   -0.0009841219667848706
-0.003013406427058485   -0.004564957055491914   -0.0008471780216453026
-0.0013853505972088126   -0.0044670662979570605   -0.000755072264293068
-0.0019743441563731673   -0.008557114224874129   -0.0009841219667848706
-0.0013981467999040537   -0.004418505979808836   -0.0008028777407334711
-0.003013406427058485   -0.004564957055491914   -0.0008471780216453026
-0.0019743441563731673   -0.008557114224874129   -0.0009841219667848706
-0.004160445005870048   -0.008638238795669342   -0.0010660547901432261
-0.004152227419722049   -0.008572422695231643   -0.001138204027802708
-0.003013406427058485   -0.004564957055491914   -0.0008471780216453026
-0.0019743441563731673   -0.008557114224874129   -0.0009841219667848706
-0.004152227419722049   -0.008572422695231643   -0.001138204027802708
-0.0013981467999040537   -0.004418505979808836   -0.0008028777407334711
-0.003013406427058485   -0.004564957055491914   -0.0008471780216453026
-0.004160445005870048   -0.008638238795669342   -0.0010660547901432261
-0.0013853505972088126   -0.0044670662979570605   -0.000755072264293068
-0.003024498929095131   -0.004611602140774846   -0.0007577058199373583
-0.004160445005870048   -0.008638238795669342   -0.0010660547901432261
-0.0019743441563731673   -0.008557114224874129   -0.0009841219667848706
-0.0013853505972088126   -0.0044670662979570605   -0.000755072264293068
-0.001967395560905002   -0.008581823558555   -0.0009482567866412654
-0.003024498929095131   -0.004611602140774846   -0.0007577058199373583
-0.0013739284270503492   -0.004490643220905239   -0.0007117672044324189
-0.001967395560905002   -0.008581823558555   -0.0009482567866412654
-0.0013853505972088126   -0.0044670662979570605   -0.000755072264293068
-0.003024498929095131   -0.004611602140774846   -0.0007577058199373583
-0.001967395560905002   -0.008581823558555   -0.0009482567866412654
-0.004170229972973746   -0.008684115503129513   -0.0009991593110463743
-0.004160445005870048   -0.008638238795669342   -0.0010660547901432261
-0.003024498929095131   -0.004611602140774846   -0.0007577058199373583
-0.001967395560905002   -0.008581823558555   -0.0009482567866412654
-0.004160445005870048   -0.008638238795669342   -0.0010660547901432261
-0.0013853505972088126   -0.0044670662979570605   -0.000755072264293068
-0.003024498929095131   -0.004611602140774846   -0.0007577058199373583
-0.004170229972973746   -0.008684115503129513   -0.0009991593110463743
-0.0013739284270503492   -0.004490643220905239   -0.0007117672044324189
-0.0030146836582181312   -0.004635918184435148   -0.0006740037876735203
-0.004170229972973746   -0.008684115503129513   -0.0009991593110463743
-0.001967395560905002   -0.008581823558555   -0.0009482567866412654
-0.0013739284270503492   -0.004490643220905239   -0.0007117672044324189
-0.001956522750015342   -0.0085895790053867   -0.0009173765573411204
-0.0030146836582181312   -0.004635918184435148   -0.0006740037876735203
-0.0013572255202925951   -0.004490123605171048   -0.000674102431186176
-0.001956522750015342   -0.0085895790053867   -0.0009173765573411204
-0.0013739284270503492   -0.004490643220905239   -0.0007117672044324189
-0.0030146836582181312   -0.004635918184435148   -0.0006740037876735203
-0.001956522750015342   -0.0085895790053867   -0.0009173765573411204
-0.004161475005475995   -0.008714412317946275   -0.0009363961068421041
-0.004170229972973746   -0.008684115503129513   -0.0009991593110463743
-0.0030146836582181312   -0.004635918184435148   -0.0006740037876735203
-0.001956522750015342   -0.0085895790053867   -0.0009173765573411204
-0.004170229972973746   -0.008684115503129513   -0.0009991593110463743
-0.0013739284270503492   -0.004490643220905239   -0.0007117672044324189
-0.0013981467999040537   -0.004418505979808836   -0.0008028777407334711
-0.0019801825400905136   -0.008515097950910617   -0.0010249844080978392
0.00015625137573056338   -0.004420635470126842   -0.0007161450548674705
-0.0013853505972088126   -0.0044670662979570605   -0.000755072264293068
-0.0019801825400905136   -0.008515097950910617   -0.0010249844080978392
0.00012769512927321438   -0.00851203163941183   -0.000954970536412212
0.00015625137573056338   -0.004420635470126842   -0.0007161450548674705
0.00013772718099940538   -0.008530599145770451   -0.0009452329781823939
-0.0013853505972088126   -0.0044670662979570605   -0.000755072264293068
0.00017185206793707237   -0.004443530254372574   -0.000712843870014005
0.00013772718099940538   -0.008530599145770451   -0.0009452329781823939
0.00015625137573056338   -0.004420635470126842   -0.0007161450548674705
-0.0013853505972088126   -0.0044670662979570605   -0.000755072264293068
0.00013772718099940538   -0.008530599145770451   -0.0009452329781823939
-0.0019743441563731673   -0.008557114224874129   -0.0009841219667848706
-0.0019801825400905136   -0.008515097950910617   -0.0010249844080978392
-0.0013853505972088126   -0.0044670662979570605   -0.000755072264293068
0.00013772718099940538   -0.008530599145770451   -0.0009452329781823939
-0.0019801825400905136   -0.008515097950910617   -0.0010249844080978392
0.00015625137573056338   -0.004420635470126842   -0.0007161450548674705
-0.0013853505972088126   -0.0044670662979570605   -0.000755072264293068
-0.0019743441563731673   -0.008557114224874129   -0.0009841219667848706
0.00017185206793707237   -0.004443530254372574   -0.000712843870014005
-0.0013739284270503492   -0.004490643220905239   -0.0007117672044324189
-0.0019743441563731673   -0.008557114224874129   -0.0009841219667848706
0.00013772718099940538   -0.008530599145770451   -0.0009452329781823939
0.00017185206793707237   -0.004443530254372574   -0.000712843870014005
0.0001444721512634036   -0.008531927410399475   -0.0009403651524381925
-0.0013739284270503492   -0.004490643220905239   -0.0007117672044324189
0.00018258207859944478   -0.004442024746681932   -0.000714647790974913
0.0001444721512634036   -0.008531927410399475   -0.0009403651524381925
0.00017185206793707237   -0.004443530254372574   -0.000712843870014005
-0.0013739284270503492   -0.004490643220905239   -0.0007117672044324189
0.0001444721512634036   -0.008531927410399475   -0.0009403651524381925
-0.001967395560905002   -0.008581823558555   -0.0009482567866412654
-0.0019743441563731673   -0.008557114224874129   -0.0009841219667848706
-0.0013739284270503492   -0.004490643220905239   -0.0007117672044324189
0.0001444721512634036   -0.008531927410399475   -0.0009403651524381925
-0.0019743441563731673   -0.008557114224874129   -0.0009841219667848706
0.00017185206793707237   -0.004443530254372574   -0.000712843870014005
-0.0013739284270503492   -0.004490643220905239   -0.0007117672044324189
-0.001967395560905002   -0.008581823558555   -0.0009482567866412654
0.00018258207859944478   -0.004442024746681932   -0.000714647790974913
-0.0013572255202925951   -0.004490123605171048   -0.000674102431186176
-0.001967395560905002   -0.008581823558555   -0.0009482567866412654
0.0001444721512634036   -0.008531927410399475   -0.0009403651524381925
0.00018258207859944478   -0.004442024746681932   -0.000714647790974913
0.00014960435258316556   -0.008515760613764842   -0.0009406596303658127
-0.0013572255202925951   -0.004490123605171048   -0.000674102431186176
0.0001940390903494856   -0.0044153779458505175   -0.0007216366157649798
0.00014960435258316556   -0.008515760613764842   -0.0009406596303658127
0.00018258207859944478   -0.004442024746681932   -0.000714647790974913
-0.0013572255202925951   -0.004490123605171048   -0.000674102431186176
0.00014960435258316556   -0.008515760613764842   -0.0009406596303658127
-0.001956522750015342   -0.0085895790053867   -0.0009173765573411204
-0.001967395560905002   -0.008581823558555   -0.0009482567866412654
-0.0013572255202925951   -0.004490123605171048   -0.000674102431186176
0.00014960435258316556   -0.008515760613764842   -0.0009406596303658127
-0.001967395560905002   -0.008581823558555   -0.0009482567866412654
0.00018258207859944478   -0.004442024746681932   -0.000714647790974913
0.00015625137573056338   -0.004420635470126842   -0.0007161450548674705
0.00012769512927321438   -0.00851203163941183   -0.000954970536412212
0.0018038859216353953   -0.004492347145028324   -0.0006759595581124612
0.00017185206793707237   -0.004443530254372574   -0.000712843870014005
0.00012769512927321438   -0.00851203163941183   -0.000954970536412212
0.002325788069462529   -0.008559990565602879   -0.0009269921440675543
0.0018038859216353953   -0.004492347145028324   -0.0006759595581124612
0.0023347510523232394   -0.008557033910486695   -0.0009490186580330092
0.00017185206793707237   -0.004443530254372574   -0.000712843870014005
0.0018131385408113267   -0.0044918918299245774   -0.0007186007566921826
0.0023347510523232394   -0.008557033910486695   -0.0009490186580330092
0.0018038859216353953   -0.004492347145028324   -0.0006759595581124612
0.00017185206793707237   -0.004443530254372574   -0.000712843870014005
0.0023347510523232394   -0.008557033910486695   -0.0009490186580330092
0.00013772718099940538   -0.008530599145770451   -0.0009452329781823939
0.00012769512927321438   -0.00851203163941183   -0.000954970536412212
0.00017185206793707237   -0.004443530254372574   -0.000712843870014005
0.0023347510523232394   -0.008557033910486695   -0.0009490186580330092
0.00012769512927321438   -0.00851203163941183   -0.000954970536412212
0.0018038859216353953   -0.004492347145028324   -0.0006759595581124612
0.00017185206793707237   -0.004443530254372574   -0.000712843870014005
0.00013772718099940538   -0.008530599145770451   -0.0009452329781823939
0.0018131385408113267   -0.0044918918299245774   -0.0007186007566921826
0.00018258207859944478   -0.004442024746681932   -0.000714647790974913
0.00013772718099940538   -0.008530599145770451   -0.0009452329781823939
0.0023347510523232394   -0.008557033910486695   -0.0009490186580330092
0.0018131385408113267   -0.0044918918299245774   -0.0007186007566921826
0.0023298457084388467   -0.008537237931592096   -0.0009755570921134819
0.00018258207859944478   -0.004442024746681932   -0.000714647790974913
0.0018056000436344948   -0.004467532767174327   -0.0007670171972750062
0.0023298457084388467   -0.008537237931592096   -0.0009755570921134819
0.0018131385408113267   -0.0044918918299245774   -0.0007186007566921826
0.00018258207859944478   -0.004442024746681932   -0.000714647790974913
0.0023298457084388467   -0.008537237931592096   -0.0009755570921134819
0.0001444721512634036   -0.008531927410399475   -0.0009403651524381925
0.00013772718099940538   -0.008530599145770451   -0.0009452329781823939
0.00018258207859944478   -0.004442024746681932   -0.000714647790974913
0.0023298457084388467   -0.008537237931592096   -0.0009755570921134819
0.00013772718099940538   -0.008530599145770451   -0.0009452329781823939
0.0018131385408113267   -0.0044918918299245774   -0.0007186007566921826
0.00018258207859944478   -0.004442024746681932   -0.000714647790974913
0.0001444721512634036   -0.008531927410399475   -0.0009403651524381925
0.0018056000436344948   -0.004467532767174327   -0.0007670171972750062
0.0001940390903494856   -0.0044153779458505175   -0.0007216366157649798
0.0001444721512634036   -0.008531927410399475   -0.0009403651524381925
0.0023298457084388467   -0.008537237931592096   -0.0009755570921134819
0.0018056000436344948   -0.004467532767174327   -0.0007670171972750062
0.0023219323941823604   -0.00849639935189804   -0.0010071447187574114
0.0001940390903494856   -0.0044153779458505175   -0.0007216366157649798
0.001801584693419168   -0.0044126426831987   -0.0008194146765003642
0.0023219323941823604   -0.00849639935189804   -0.0010071447187574114
0.0018056000436344948   -0.004467532767174327   -0.0007670171972750062
0.0001940390903494856   -0.0044153779458505175   -0.0007216366157649798
0.0023219323941823604   -0.00849639935189804   -0.0010071447187574114
0.00014960435258316556   -0.008515760613764842   -0.0009406596303658127
0.0001444721512634036   -0.008531927410399475   -0.0009403651524381925
0.0001940390903494856   -0.0044153779458505175   -0.0007216366157649798
0.0023219323941823604   -0.00849639935189804   -0.0010071447187574114
0.0001444721512634036   -0.008531927410399475   -0.0009403651524381925
0.0018056000436344948   -0.004467532767174327   -0.0007670171972750062
0.0018038859216353953   -0.004492347145028324   -0.0006759595581124612
0.002325788069462529   -0.008559990565602879   -0.0009269921440675543
0.0037932011643058675   -0.004625492671392835   -0.000665704828215332
0.0018131385408113267   -0.0044918918299245774   -0.0007186007566921826
0.002325788069462529   -0.008559990565602879   -0.0009269921440675543
0.004829609772668281   -0.008646777769289307   -0.0009282853443089621
0.0037932011643058675   -0.004625492671392835   -0.000665704828215332
0.00478908163693848   -0.00863136960521389   -0.0009860656764337894
0.0018131385408113267   -0.0044918918299245774   -0.0007186007566921826
0.0037172769989977095   -0.0046125400265107355   -0.0007617501961258234
0.00478908163693848   -0.00863136960521389   -0.0009860656764337894
0.0037932011643058675   -0.004625492671392835   -0.000665704828215332
0.0018131385408113267   -0.0044918918299245774   -0.0007186007566921826
0.00478908163693848   -0.00863136960521389   -0.0009860656764337894
0.0023347510523232394   -0.008557033910486695   -0.0009490186580330092
0.002325788069462529   -0.008559990565602879   -0.0009269921440675543
0.0018131385408113267   -0.0044918918299245774   -0.0007186007566921826
0.00478908163693848   -0.00863136960521389   -0.0009860656764337894
0.002325788069462529   -0.008559990565602879   -0.0009269921440675543
0.0037932011643058675   -0.004625492671392835   -0.000665704828215332
0.0018131385408113267   -0.0044918918299245774   -0.0007186007566921826
0.0023347510523232394   -0.008557033910486695   -0.0009490186580330092
0.0037172769989977095   -0.0046125400265107355   -0.0007617501961258234
0.0018056000436344948   -0.004467532767174327   -0.0007670171972750062
0.0023347510523232394   -0.008557033910486695   -0.0009490186580330092
0.00478908163693848   -0.00863136960521389   -0.0009860656764337894
0.0037172769989977095   -0.0046125400265107355   -0.0007617501961258234
0.004748417185480495   -0.008600950013917873   -0.001051982909522362
0.0018056000436344948   -0.004467532767174327   -0.0007670171972750062
0.003649318472791785   -0.004575033199841957   -0.0008699370310039034
0.004748417185480495   -0.008600950013917873   -0.001051982909522362
0.0037172769989977095   -0.0046125400265107355   -0.0007617501961258234
0.0018056000436344948   -0.004467532767174327   -0.0007670171972750062
0.004748417185480495   -0.008600950013917873   -0.001051982909522362
0.0023298457084388467   -0.008537237931592096   -0.0009755570921134819
0.0023347510523232394   -0.008557033910486695   -0.0009490186580330092
0.0018056000436344948   -0.004467532767174327   -0.0007670171972750062
0.004748417185480495   -0.008600950013917873   -0.001051982909522362
0.0023347510523232394   -0.008557033910486695   -0.0009490186580330092
0.0037172769989977095   -0.0046125400265107355   -0.0007617501961258234
0.0018056000436344948   -0.004467532767174327   -0.0007670171972750062
0.0023298457084388467   -0.008537237931592096   -0.0009755570921134819
0.003649318472791785   -0.004575033199841957   -0.0008699370310039034
0.001801584693419168   -0.0044126426831987   -0.0008194146765003642
0.0023298457084388467   -0.008537237931592096   -0.0009755570921134819
0.004748417185480495   -0.008600950013917873   -0.001051982909522362
0.003649318472791785   -0.004575033199841957   -0.0008699370310039034
0.004675213921951556   -0.008537462522677735   -0.0011260460596696832
0.001801584693419168   -0.0044126426831987   -0.0008194146765003642
0.0035469544856088346   -0.004491862487200111   -0.0009826394206203402
0.004675213921951556   -0.008537462522677735   -0.0011260460596696832
0.003649318472791785   -0.004575033199841957   -0.0008699370310039034
0.001801584693419168   -0.0044126426831987   -0.0008194146765003642
0.004675213921951556   -0.008537462522677735   -0.0011260460596696832
0.0023219323941823604   -0.00849639935189804   -0.0010071447187574114
0.0023298457084388467   -0.008537237931592096   -0.0009755570921134819
0.001801584693419168   -0.0044126426831987   -0.0008194146765003642
0.004675213921951556   -0.008537462522677735   -0.0011260460596696832
0.0023298457084388467   -0.008537237931592096   -0.0009755570921134819
0.003649318472791785   -0.004575033199841957   -0.0008699370310039034
-0.006457230371150233   -0.008687240428877288   -0.001301224886592188
-0.007704459026254442   -0.013479873608595257   -0.001388719153300674
-0.004152227419722049   -0.008572422695231643   -0.001138204027802708
-0.0065708355516769686   -0.008777240001830174   -0.0011887772447212862
-0.007704459026254442   -0.013479873608595257   -0.001388719153300674
-0.005002711362830207   -0.013407017265547492   -0.0012561431230700619
-0.004152227419722049   -0.008572422695231643   -0.001138204027802708
-0.005007808540633415   -0.013463497713608188   -0.0012045996872373185
-0.0065708355516769686   -0.008777240001830174   -0.0011887772447212862
-0.004160445005870048   -0.008638238795669342   -0.0010660547901432261
-0.005007808540633415   -0.013463497713608188   -0.0012045996872373185
-0.004152227419722049   -0.008572422695231643   -0.001138204027802708
-0.0065708355516769686   -0.008777240001830174   -0.0011887772447212862
-0.005007808540633415   -0.013463497713608188   -0.0012045996872373185
-0.007780461533518588   -0.013556329938171515   -0.0013142899126272808
-0.007704459026254442   -0.013479873608595257   -0.001388719153300674
-0.0065708355516769686   -0.008777240001830174   -0.0011887772447212862
-0.005007808540633415   -0.013463497713608188   -0.0012045996872373185
-0.007704459026254442   -0.013479873608595257   -0.001388719153300674
-0.004152227419722049   -0.008572422695231643   -0.001138204027802708
-0.0065708355516769686   -0.008777240001830174   -0.0011887772447212862
-0.007780461533518588   -0.013556329938171515   -0.0013142899126272808
-0.004160445005870048   -0.008638238795669342   -0.0010660547901432261
-0.0066420469193928   -0.008833760202054175   -0.0010840277243280624
-0.007780461533518588   -0.013556329938171515   -0.0013142899126272808
-0.005007808540633415   -0.013463497713608188   -0.0012045996872373185
-0.004160445005870048   -0.008638238795669342   -0.0010660547901432261
-0.005011150681362413   -0.013508354400805665   -0.0011582087722783537
-0.0066420469193928   -0.008833760202054175   -0.0010840277243280624
-0.004170229972973746   -0.008684115503129513   -0.0009991593110463743
-0.005011150681362413   -0.013508354400805665   -0.0011582087722783537
-0.004160445005870048   -0.008638238795669342   -0.0010660547901432261
-0.0066420469193928   -0.008833760202054175   -0.0010840277243280624
-0.005011150681362413   -0.013508354400805665   -0.0011582087722783537
-0.007823616647376255   -0.013610520107297087   -0.0012470420974187125
-0.007780461533518588   -0.013556329938171515   -0.0013142899126272808
-0.0066420469193928   -0.008833760202054175   -0.0010840277243280624
-0.005011150681362413   -0.013508354400805665   -0.0011582087722783537
-0.007780461533518588   -0.013556329938171515   -0.0013142899126272808
-0.004160445005870048   -0.008638238795669342   -0.0010660547901432261
-0.0066420469193928   -0.008833760202054175   -0.0010840277243280624
-0.007823616647376255   -0.013610520107297087   -0.0012470420974187125
-0.004170229972973746   -0.008684115503129513   -0.0009991593110463743
-0.006723070317088905   -0.008874593575947911   -0.0009876970350969829
-0.007823616647376255   -0.013610520107297087   -0.0012470420974187125
-0.005011150681362413   -0.013508354400805665   -0.0011582087722783537
-0.004170229972973746   -0.008684115503129513   -0.0009991593110463743
-0.0049998510814739895   -0.013545315971497501   -0.0011162796255316113
-0.006723070317088905   -0.008874593575947911   -0.0009876970350969829
-0.004161475005475995   -0.008714412317946275   -0.0009363961068421041
-0.0049998510814739895   -0.013545315971497501   -0.0011162796255316113
-0.004170229972973746   -0.008684115503129513   -0.0009991593110463743
-0.006723070317088905   -0.008874593575947911   -0.0009876970350969829
-0.0049998510814739895   -0.013545315971497501   -0.0011162796255316113
-0.007867992087709769   -0.013659258639928546   -0.001187834687708697
-0.007823616647376255   -0.013610520107297087   -0.0012470420974187125
-0.006723070317088905   -0.008874593575947911   -0.0009876970350969829
-0.0049998510814739895   -0.013545315971497501   -0.0011162796255316113
-0.007823616647376255   -0.013610520107297087   -0.0012470420974187125
-0.004170229972973746   -0.008684115503129513   -0.0009991593110463743
-0.004152227419722049   -0.008572422695231643   -0.001138204027802708
-0.005002711362830207   -0.013407017265547492   -0.0012561431230700619
-0.0019801825400905136   -0.008515097950910617   -0.0010249844080978392
-0.004160445005870048   -0.008638238795669342   -0.0010660547901432261
-0.005002711362830207   -0.013407017265547492   -0.0012561431230700619
-0.002470665218217589   -0.013369226924156536   -0.0011643711120633193
-0.0019801825400905136   -0.008515097950910617   -0.0010249844080978392
-0.002465077157359842   -0.013404600272273613   -0.0011302345645160543
-0.004160445005870048   -0.008638238795669342   -0.0010660547901432261
-0.0019743441563731673   -0.008557114224874129   -0.0009841219667848706
-0.002465077157359842   -0.013404600272273613   -0.0011302345645160543
-0.0019801825400905136   -0.008515097950910617   -0.0010249844080978392
-0.004160445005870048   -0.008638238795669342   -0.0010660547901432261
-0.002465077157359842   -0.013404600272273613   -0.0011302345645160543
-0.005007808540633415   -0.013463497713608188   -0.0012045996872373185
-0.005002711362830207   -0.013407017265547492   -0.0012561431230700619
-0.004160445005870048   -0.008638238795669342   -0.0010660547901432261
-0.002465077157359842   -0.013404600272273613   -0.0011302345645160543
-0.005002711362830207   -0.013407017265547492   -0.0012561431230700619
-0.0019801825400905136   -0.008515097950910617   -0.0010249844080978392
-0.004160445005870048   -0.008638238795669342   -0.0010660547901432261
-0.005007808540633415   -0.013463497713608188   -0.0012045996872373185
-0.0019743441563731673   -0.008557114224874129   -0.0009841219667848706
-0.004170229972973746   -0.008684115503129513   -0.0009991593110463743
-0.005007808540633415   -0.013463497713608188   -0.0012045996872373185
-0.002465077157359842   -0.013404600272273613   -0.0011302345645160543
-0.0019743441563731673   -0.008557114224874129   -0.0009841219667848706
-0.002457783136852738   -0.013430224728930313   -0.0011011684285561838
-0.004170229972973746   -0.008684115503129513   -0.0009991593110463743
-0.001967395560905002   -0.008581823558555   -0.0009482567866412654
-0.002457783136852738   -0.013430224728930313   -0.0011011684285561838
-0.0019743441563731673   -0.008557114224874129   -0.0009841219667848706
-0.004170229972973746   -0.008684115503129513   -0.0009991593110463743
-0.002457783136852738   -0.013430224728930313   -0.0011011684285561838
-0.005011150681362413   -0.013508354400805665   -0.0011582087722783537
-0.005007808540633415   -0.013463497713608188   -0.0012045996872373185
-0.004170229972973746   -0.008684115503129513   -0.0009991593110463743
-0.002457783136852738   -0.013430224728930313   -0.0011011684285561838
-0.005007808540633415   -0.013463497713608188   -0.0012045996872373185
-0.0019743441563731673   -0.008557114224874129   -0.0009841219667848706
-0.004170229972973746   -0.008684115503129513   -0.0009991593110463743
-0.005011150681362413   -0.013508354400805665   -0.0011582087722783537
-0.001967395560905002   -0.008581823558555   -0.0009482567866412654
-0.004161475005475995   -0.008714412317946275   -0.0009363961068421041
-0.005011150681362413   -0.013508354400805665   -0.0011582087722783537
-0.002457783136852738   -0.013430224728930313   -0.0011011684285561838
-0.001967395560905002   -0.008581823558555   -0.0009482567866412654
-0.0024473284164091363   -0.013446269243265925   -0.0010772601100450332
-0.004161475005475995   -0.008714412317946275   -0.0009363961068421041
-0.001956522750015342   -0.0085895790053867   -0.0009173765573411204
-0.0024473284164091363   -0.013446269243265925   -0.0010772601100450332
-0.001967395560905002   -0.008581823558555   -0.0009482567866412654
-0.004161475005475995   -0.008714412317946275   -0.0009363961068421041
-0.0024473284164091363   -0.013446269243265925   -0.0010772601100450332
-0.0049998510814739895   -0.013545315971497501   -0.0011162796255316113
-0.005011150681362413   -0.013508354400805665   -0.0011582087722783537
-0.004161475005475995   -0.008714412317946275   -0.0009363961068421041
-0.0024473284164091363   -0.013446269243265925   -0.0010772601100450332
-0.005011150681362413   -0.013508354400805665   -0.0011582087722783537
-0.001967395560905002   -0.008581823558555   -0.0009482567866412654
-0.0019801825400905136   -0.008515097950910617   -0.0010249844080978392
-0.002470665218217589   -0.013369226924156536   -0.0011643711120633193
0.00012769512927321438   -0.00851203163941183   -0.000954970536412212
-0.0019743441563731673   -0.008557114224874129   -0.0009841219667848706
-0.002470665218217589   -0.013369226924156536   -0.0011643711120633193
-7.599355561228293e-06   -0.013362643861079083   -0.0011111183267902935
0.00012769512927321438   -0.00851203163941183   -0.000954970536412212
2.1554665040753935e-06   -0.013376768203026593   -0.001094534989288053
-0.0019743441563731673   -0.008557114224874129   -0.0009841219667848706
0.00013772718099940538   -0.008530599145770451   -0.0009452329781823939
2.1554665040753935e-06   -0.013376768203026593   -0.001094534989288053
0.00012769512927321438   -0.00851203163941183   -0.000954970536412212
-0.0019743441563731673   -0.008557114224874129   -0.0009841219667848706
2.1554665040753935e-06   -0.013376768203026593   -0.001094534989288053
-0.002465077157359842   -0.013404600272273613   -0.0011302345645160543
-0.002470665218217589   -0.013369226924156536   -0.0011643711120633193
-0.0019743441563731673   -0.008557114224874129   -0.0009841219667848706
2.1554665040753935e-06   -0.013376768203026593   -0.001094534989288053
-0.002470665218217589   -0.013369226924156536   -0.0011643711120633193
0.00012769512927321438   -0.00851203163941183   -0.000954970536412212
-0.0019743441563731673   -0.008557114224874129   -0.0009841219667848706
-0.002465077157359842   -0.013404600272273613   -0.0011302345645160543
0.00013772718099940538   -0.008530599145770451   -0.0009452329781823939
-0.001967395560905002   -0.008581823558555   -0.0009482567866412654
-0.002465077157359842   -0.013404600272273613   -0.0011302345645160543
2.1554665040753935e-06   -0.013376768203026593   -0.001094534989288053
0.00013772718099940538   -0.008530599145770451   -0.0009452329781823939
9.355332139266034e-06   -0.01338107529233647   -0.0010829610442917898
-0.001967395560905002   -0.008581823558555   -0.0009482567866412654
0.0001444721512634036   -0.008531927410399475   -0.0009403651524381925
9.355332139266034e-06   -0.01338107529233647   -0.0010829610442917898
0.00013772718099940538   -0.008530599145770451   -0.0009452329781823939
-0.001967395560905002   -0.008581823558555   -0.0009482567866412654
9.355332139266034e-06   -0.01338107529233647   -0.0010829610442917898
-0.002457783136852738   -0.013430224728930313   -0.0011011684285561838
-0.002465077157359842   -0.013404600272273613   -0.0011302345645160543
-0.001967395560905002   -0.008581823558555   -0.0009482567866412654
9.355332139266034e-06   -0.01338107529233647   -0.0010829610442917898
-0.002465077157359842   -0.013404600272273613   -0.0011302345645160543
0.00013772718099940538   -0.008530599145770451   -0.0009452329781823939
-0.001967395560905002   -0.008581823558555   -0.0009482567866412654
-0.002457783136852738   -0.013430224728930313   -0.0011011684285561838
0.0001444721512634036   -0.008531927410399475   -0.0009403651524381925
-0.001956522750015342   -0.0085895790053867   -0.0009173765573411204
-0.002457783136852738   -0.013430224728930313   -0.0011011684285561838
9.355332139266034e-06   -0.01338107529233647   -0.0010829610442917898
0.0001444721512634036   -0.008531927410399475   -0.0009403651524381925
1.4268551879046644e-05   -0.013375429741926678   -0.001076615428312251
-0.001956522750015342   -0.0085895790053867   -0.0009173765573411204
0.00014960435258316556   -0.008515760613764842   -0.0009406596303658127
1.4268551879046644e-05   -0.013375429741926678   -0.001076615428312251
0.0001444721512634036   -0.008531927410399475   -0.0009403651524381925
-0.001956522750015342   -0.0085895790053867   -0.0009173765573411204
1.4268551879046644e-05   -0.013375429741926678   -0.001076615428312251
-0.0024473284164091363   -0.013446269243265925   -0.0010772601100450332
-0.002457783136852738   -0.013430224728930313   -0.0011011684285561838
-0.001956522750015342   -0.0085895790053867   -0.0009173765573411204
1.4268551879046644e-05   -0.013375429741926678   -0.001076615428312251
-0.002457783136852738   -0.013430224728930313   -0.0011011684285561838
0.0001444721512634036   -0.008531927410399475   -0.0009403651524381925
0.00012769512927321438   -0.00851203163941183   -0.000954970536412212
-7.599355561228293e-06   -0.013362643861079083   -0.0011111183267902935
0.002325788069462529   -0.008559990565602879   -0.0009269921440675543
0.00013772718099940538   -0.008530599145770451   -0.0009452329781823939
-7.599355561228293e-06   -0.013362643861079083   -0.0011111183267902935
0.0025402189300216286   -0.013384579683816065   -0.001096203750363034
0.002325788069462529   -0.008559990565602879   -0.0009269921440675543
0.0025520268549415383   -0.013378661942892611   -0.0010975364205749929
0.00013772718099940538   -0.008530599145770451   -0.0009452329781823939
0.0023347510523232394   -0.008557033910486695   -0.0009490186580330092
0.0025520268549415383   -0.013378661942892611   -0.0010975364205749929
0.002325788069462529   -0.008559990565602879   -0.0009269921440675543
0.00013772718099940538   -0.008530599145770451   -0.0009452329781823939
0.0025520268549415383   -0.013378661942892611   -0.0010975364205749929
2.1554665040753935e-06   -0.013376768203026593   -0.001094534989288053
-7.599355561228293e-06   -0.013362643861079083   -0.0011111183267902935
0.00013772718099940538   -0.008530599145770451   -0.0009452329781823939
0.0025520268549415383   -0.013378661942892611   -0.0010975364205749929
-7.599355561228293e-06   -0.013362643861079083   -0.0011111183267902935
0.002325788069462529   -0.008559990565602879   -0.0009269921440675543
0.00013772718099940538   -0.008530599145770451   -0.0009452329781823939
2.1554665040753935e-06   -0.013376768203026593   -0.001094534989288053
0.0023347510523232394   -0.008557033910486695   -0.0009490186580330092
0.0001444721512634036   -0.008531927410399475   -0.0009403651524381925
2.1554665040753935e-06   -0.013376768203026593   -0.001094534989288053
0.0025520268549415383   -0.013378661942892611   -0.0010975364205749929
0.0023347510523232394   -0.008557033910486695   -0.0009490186580330092
0.002553900630793714   -0.013363713423416258   -0.0011036063921833854
0.0001444721512634036   -0.008531927410399475   -0.0009403651524381925
0.0023298457084388467   -0.008537237931592096   -0.0009755570921134819
0.002553900630793714   -0.013363713423416258   -0.0011036063921833854
0.0023347510523232394   -0.008557033910486695   -0.0009490186580330092
0.0001444721512634036   -0.008531927410399475   -0.0009403651524381925
0.002553900630793714   -0.013363713423416258   -0.0011036063921833854
9.355332139266034e-06   -0.01338107529233647   -0.0010829610442917898
2.1554665040753935e-06   -0.013376768203026593   -0.001094534989288053
0.0001444721512634036   -0.008531927410399475   -0.0009403651524381925
0.002553900630793714   -0.013363713423416258   -0.0011036063921833854
2.1554665040753935e-06   -0.013376768203026593   -0.001094534989288053
0.0023347510523232394   -0.008557033910486695   -0.0009490186580330092
0.0001444721512634036   -0.008531927410399475   -0.0009403651524381925
9.355332139266034e-06   -0.01338107529233647   -0.0010829610442917898
0.0023298457084388467   -0.008537237931592096   -0.0009755570921134819
0.00014960435258316556   -0.008515760613764842   -0.0009406596303658127
9.355332139266034e-06   -0.01338107529233647   -0.0010829610442917898
0.002553900630793714   -0.013363713423416258   -0.0011036063921833854
0.0023298457084388467   -0.008537237931592096   -0.0009755570921134819
0.0025493239801087433   -0.013336026868436596   -0.0011145972813782544
0.00014960435258316556   -0.008515760613764842   -0.0009406596303658127
0.0023219323941823604   -0.00849639935189804   -0.0010071447187574114
0.0025493239801087433   -0.013336026868436596   -0.0011145972813782544
0.0023298457084388467   -0.008537237931592096   -0.0009755570921134819
0.00014960435258316556   -0.008515760613764842   -0.0009406596303658127
0.0025493239801087433   -0.013336026868436596   -0.0011145972813782544
1.4268551879046644e-05   -0.013375429741926678   -0.001076615428312251
9.355332139266034e-06   -0.01338107529233647   -0.0010829610442917898
0.00014960435258316556   -0.008515760613764842   -0.0009406596303658127
0.0025493239801087433   -0.013336026868436596   -0.0011145972813782544
9.355332139266034e-06   -0.01338107529233647   -0.0010829610442917898
0.0023298457084388467   -0.008537237931592096   -0.0009755570921134819
0.002325788069462529   -0.008559990565602879   -0.0009269921440675543
0.0025402189300216286   -0.013384579683816065   -0.001096203750363034
0.004829609772668281   -0.008646777769289307   -0.0009282853443089621
0.0023347510523232394   -0.008557033910486695   -0.0009490186580330092
0.0025402189300216286   -0.013384579683816065   -0.001096203750363034
0.005353542024224507   -0.013424730090627907   -0.0011114202410318272
0.004829609772668281   -0.008646777769289307   -0.0009282853443089621
0.00535016861080437   -0.013405201668636025   -0.0011319784485422024
0.0023347510523232394   -0.008557033910486695   -0.0009490186580330092
0.00478908163693848   -0.00863136960521389   -0.0009860656764337894
0.00535016861080437   -0.013405201668636025   -0.0011319784485422024
0.004829609772668281   -0.008646777769289307   -0.0009282853443089621
0.0023347510523232394   -0.008557033910486695   -0.0009490186580330092
0.00535016861080437   -0.013405201668636025   -0.0011319784485422024
0.0025520268549415383   -0.013378661942892611   -0.0010975364205749929
0.0025402189300216286   -0.013384579683816065   -0.001096203750363034
0.0023347510523232394   -0.008557033910486695   -0.0009490186580330092
0.00535016861080437   -0.013405201668636025   -0.0011319784485422024
0.0025402189300216286   -0.013384579683816065   -0.001096203750363034
0.004829609772668281   -0.008646777769289307   -0.0009282853443089621
0.0023347510523232394   -0.008557033910486695   -0.0009490186580330092
0.0025520268549415383   -0.013378661942892611   -0.0010975364205749929
0.00478908163693848   -0.00863136960521389   -0.0009860656764337894
0.0023298457084388467   -0.008537237931592096   -0.0009755570921134819
0.0025520268549415383   -0.013378661942892611   -0.0010975364205749929
0.00535016861080437   -0.013405201668636025   -0.0011319784485422024
0.00478908163693848   -0.00863136960521389   -0.0009860656764337894
0.00533815110050468   -0.013380888625061834   -0.001160229172398549
0.0023298457084388467   -0.008537237931592096   -0.0009755570921134819
0.004748417185480495   -0.008600950013917873   -0.001051982909522362
0.00533815110050468   -0.013380888625061834   -0.001160229172398549
0.00478908163693848   -0.00863136960521389   -0.0009860656764337894
0.0023298457084388467   -0.008537237931592096   -0.0009755570921134819
0.00533815110050468   -0.013380888625061834   -0.001160229172398549
0.002553900630793714   -0.013363713423416258   -0.0011036063921833854
0.0025520268549415383   -0.013378661942892611   -0.0010975364205749929
0.0023298457084388467   -0.008537237931592096   -0.0009755570921134819
0.00533815110050468   -0.013380888625061834   -0.001160229172398549
0.0025520268549415383   -0.013378661942892611   -0.0010975364205749929
0.00478908163693848   -0.00863136960521389   -0.0009860656764337894
0.0023298457084388467   -0.008537237931592096   -0.0009755570921134819
0.002553900630793714   -0.013363713423416258   -0.0011036063921833854
0.004748417185480495   -0.008600950013917873   -0.001051982909522362
0.0023219323941823604   -0.00849639935189804   -0.0010071447187574114
0.002553900630793714   -0.013363713423416258   -0.0011036063921833854
0.00533815110050468   -0.013380888625061834   -0.001160229172398549
0.004748417185480495   -0.008600950013917873   -0.001051982909522362
0.0053030866083276906   -0.013334853177041096   -0.0011961164934904242
0.0023219323941823604   -0.00849639935189804   -0.0010071447187574114
0.004675213921951556   -0.008537462522677735   -0.0011260460596696832
0.0053030866083276906   -0.013334853177041096   -0.0011961164934904242
0.004748417185480495   -0.008600950013917873   -0.001051982909522362
0.0023219323941823604   -0.00849639935189804   -0.0010071447187574114
0.0053030866083276906   -0.013334853177041096   -0.0011961164934904242
0.0025493239801087433   -0.013336026868436596   -0.0011145972813782544
0.002553900630793714   -0.013363713423416258   -0.0011036063921833854
0.0023219323941823604   -0.00849639935189804   -0.0010071447187574114
0.0053030866083276906   -0.013334853177041096   -0.0011961164934904242
0.002553900630793714   -0.013363713423416258   -0.0011036063921833854
0.004748417185480495   -0.008600950013917873   -0.001051982909522362
-0.007704459026254442   -0.013479873608595257   -0.001388719153300674
-0.008456579094800881   -0.018689558140831758   -0.0014152472442112657
-0.005002711362830207   -0.013407017265547492   -0.0012561431230700619
-0.007780461533518588   -0.013556329938171515   -0.0013142899126272808
-0.008456579094800881   -0.018689558140831758   -0.0014152472442112657
-0.005559772191760075   -0.01866004560423059   -0.0013099461987463128
-0.005002711362830207   -0.013407017265547492   -0.0012561431230700619
-0.005556771099726635   -0.01870809751068318   -0.0012784014121726439
-0.007780461533518588   -0.013556329938171515   -0.0013142899126272808
-0.005007808540633415   -0.013463497713608188   -0.0012045996872373185
-0.005556771099726635   -0.01870809751068318   -0.0012784014121726439
-0.005002711362830207   -0.013407017265547492   -0.0012561431230700619
-0.007780461533518588   -0.013556329938171515   -0.0013142899126272808
-0.005556771099726635   -0.01870809751068318   -0.0012784014121726439
-0.008491502458271419   -0.01875419531843079   -0.001377083552844221
-0.008456579094800881   -0.018689558140831758   -0.0014152472442112657
-0.007780461533518588   -0.013556329938171515   -0.0013142899126272808
-0.005556771099726635   -0.01870809751068318   -0.0012784014121726439
-0.008456579094800881   -0.018689558140831758   -0.0014152472442112657
-0.005002711362830207   -0.013407017265547492   -0.0012561431230700619
-0.007780461533518588   -0.013556329938171515   -0.0013142899126272808
-0.008491502458271419   -0.01875419531843079   -0.001377083552844221
-0.005007808540633415   -0.013463497713608188   -0.0012045996872373185
-0.007823616647376255   -0.013610520107297087   -0.0012470420974187125
-0.008491502458271419   -0.01875419531843079   -0.001377083552844221
-0.005556771099726635   -0.01870809751068318   -0.0012784014121726439
-0.005007808540633415   -0.013463497713608188   -0.0012045996872373185
-0.005548525933435575   -0.018752519565528154   -0.0012520974742524754
-0.007823616647376255   -0.013610520107297087   -0.0012470420974187125
-0.005011150681362413   -0.013508354400805665   -0.0011582087722783537
-0.005548525933435575   -0.018752519565528154   -0.0012520974742524754
-0.005007808540633415   -0.013463497713608188   -0.0012045996872373185
-0.007823616647376255   -0.013610520107297087   -0.0012470420974187125
-0.005548525933435575   -0.018752519565528154   -0.0012520974742524754
-0.008501975395115356   -0.01880702928590419   -0.0013464603162426203
-0.008491502458271419   -0.01875419531843079   -0.001377083552844221
-0.007823616647376255   -0.013610520107297087   -0.0012470420974187125
-0.005548525933435575   -0.018752519565528154   -0.0012520974742524754
-0.008491502458271419   -0.01875419531843079   -0.001377083552844221
-0.005007808540633415   -0.013463497713608188   -0.0012045996872373185
-0.007823616647376255   -0.013610520107297087   -0.0012470420974187125
-0.008501975395115356   -0.01880702928590419   -0.0013464603162426203
-0.005011150681362413   -0.013508354400805665   -0.0011582087722783537
-0.007867992087709769   -0.013659258639928546   -0.001187834687708697
-0.008501975395115356   -0.01880702928590419   -0.0013464603162426203
-0.005548525933435575   -0.018752519565528154   -0.0012520974742524754
-0.005011150681362413   -0.013508354400805665   -0.0011582087722783537
-0.005529408595328993   -0.0187967067335248   -0.0012306591008646312
-0.007867992087709769   -0.013659258639928546   -0.001187834687708697
-0.0049998510814739895   -0.013545315971497501   -0.0011162796255316113
-0.005529408595328993   -0.0187967067335248   -0.0012306591008646312
-0.005011150681362413   -0.013508354400805665   -0.0011582087722783537
-0.007867992087709769   -0.013659258639928546   -0.001187834687708697
-0.005529408595328993   -0.0187967067335248   -0.0012306591008646312
-0.008504755560983856   -0.018864557142542152   -0.0013240342148949688
-0.008501975395115356   -0.01880702928590419   -0.0013464603162426203
-0.007867992087709769   -0.013659258639928546   -0.001187834687708697
-0.005529408595328993   -0.0187967067335248   -0.0012306591008646312
-0.008501975395115356   -0.01880702928590419   -0.0013464603162426203
-0.005011150681362413   -0.013508354400805665   -0.0011582087722783537
-0.005002711362830207   -0.013407017265547492   -0.0012561431230700619
-0.005559772191760075   -0.01866004560423059   -0.0013099461987463128
-0.002470665218217589   -0.013369226924156536   -0.0011643711120633193
-0.005007808540633415   -0.013463497713608188   -0.0012045996872373185
-0.005559772191760075   -0.01866004560423059   -0.0013099461987463128
-0.0028690274711253775   -0.018642928219287282   -0.0012382857256370526
-0.002470665218217589   -0.013369226924156536   -0.0011643711120633193
-0.002858202485627516   -0.01867194493989812   -0.0012106542174814617
-0.005007808540633415   -0.013463497713608188   -0.0012045996872373185
-0.002465077157359842   -0.013404600272273613   -0.0011302345645160543
-0.002858202485627516   -0.01867194493989812   -0.0012106542174814617
-0.002470665218217589   -0.013369226924156536   -0.0011643711120633193
-0.005007808540633415   -0.013463497713608188   -0.0012045996872373185
-0.002858202485627516   -0.01867194493989812   -0.0012106542174814617
-0.005556771099726635   -0.01870809751068318   -0.0012784014121726439
-0.005559772191760075   -0.01866004560423059   -0.0013099461987463128
-0.005007808540633415   -0.013463497713608188   -0.0012045996872373185
-0.002858202485627516   -0.01867194493989812   -0.0012106542174814617
-0.005559772191760075   -0.01866004560423059   -0.0013099461987463128
-0.002470665218217589   -0.013369226924156536   -0.0011643711120633193
-0.005007808540633415   -0.013463497713608188   -0.0012045996872373185
-0.005556771099726635   -0.01870809751068318   -0.0012784014121726439
-0.002465077157359842   -0.013404600272273613   -0.0011302345645160543
-0.005011150681362413   -0.013508354400805665   -0.0011582087722783537
-0.005556771099726635   -0.01870809751068318   -0.0012784014121726439
-0.002858202485627516   -0.01867194493989812   -0.0012106542174814617
-0.002465077157359842   -0.013404600272273613   -0.0011302345645160543
-0.0028451158013759557   -0.018698640219835253   -0.001188263602473176
-0.005011150681362413   -0.013508354400805665   -0.0011582087722783537
-0.002457783136852738   -0.013430224728930313   -0.0011011684285561838
-0.0028451158013759557   -0.018698640219835253   -0.001188263602473176
-0.002465077157359842   -0.013404600272273613   -0.0011302345645160543
-0.005011150681362413   -0.013508354400805665   -0.0011582087722783537
-0.0028451158013759557   -0.018698640219835253   -0.001188263602473176
-0.005548525933435575   -0.018752519565528154   -0.0012520974742524754
-0.005556771099726635   -0.01870809751068318   -0.0012784014121726439
-0.005011150681362413   -0.013508354400805665   -0.0011582087722783537
-0.0028451158013759557   -0.018698640219835253   -0.001188263602473176
-0.005556771099726635   -0.01870809751068318   -0.0012784014121726439
-0.002465077157359842   -0.013404600272273613   -0.0011302345645160543
-0.005011150681362413   -0.013508354400805665   -0.0011582087722783537
-0.005548525933435575   -0.018752519565528154   -0.0012520974742524754
-0.002457783136852738   -0.013430224728930313   -0.0011011684285561838
-0.0049998510814739895   -0.013545315971497501   -0.0011162796255316113
-0.005548525933435575   -0.018752519565528154   -0.0012520974742524754
-0.0028451158013759557   -0.018698640219835253   -0.001188263602473176
-0.002457783136852738   -0.013430224728930313   -0.0011011684285561838
-0.002829535097920085   -0.01872310342412362   -0.0011712439572284527
-0.0049998510814739895   -0.013545315971497501   -0.0011162796255316113
-0.0024473284164091363   -0.013446269243265925   -0.0010772601100450332
-0.002829535097920085   -0.01872310342412362   -0.0011712439572284527
-0.002457783136852738   -0.013430224728930313   -0.0011011684285561838
-0.0049998510814739895   -0.013545315971497501   -0.0011162796255316113
-0.002829535097920085   -0.01872310342412362   -0.0011712439572284527
-0.005529408595328993   -0.0187967067335248   -0.0012306591008646312
-0.005548525933435575   -0.018752519565528154   -0.0012520974742524754
-0.0049998510814739895   -0.013545315971497501   -0.0011162796255316113
-0.002829535097920085   -0.01872310342412362   -0.0011712439572284527
-0.005548525933435575   -0.018752519565528154   -0.0012520974742524754
-0.002457783136852738   -0.013430224728930313   -0.0011011684285561838
-0.002470665218217589   -0.013369226924156536   -0.0011643711120633193
-0.0028690274711253775   -0.018642928219287282   -0.0012382857256370526
-7.599355561228293e-06   -0.013362643861079083   -0.0011111183267902935
-0.002465077157359842   -0.013404600272273613   -0.0011302345645160543
-0.0028690274711253775   -0.018642928219287282   -0.0012382857256370526
-0.0002511383899975723   -0.018633002701876955   -0.0012014345662200228
-7.599355561228293e-06   -0.013362643861079083   -0.0011111183267902935
-0.0002362954972518515   -0.018642601385382943   -0.0011780020744209339
-0.002465077157359842   -0.013404600272273613   -0.0011302345645160543
2.1554665040753935e-06   -0.013376768203026593   -0.001094534989288053
-0.0002362954972518515   -0.018642601385382943   -0.0011780020744209339
-7.599355561228293e-06   -0.013362643861079083   -0.0011111183267902935
-0.002465077157359842   -0.013404600272273613   -0.0011302345645160543
-0.0002362954972518515   -0.018642601385382943   -0.0011780020744209339
-0.002858202485627516   -0.01867194493989812   -0.0012106542174814617
-0.0028690274711253775   -0.018642928219287282   -0.0012382857256370526
-0.002465077157359842   -0.013404600272273613   -0.0011302345645160543
-0.0002362954972518515   -0.018642601385382943   -0.0011780020744209339
-0.0028690274711253775   -0.018642928219287282   -0.0012382857256370526
-7.599355561228293e-06   -0.013362643861079083   -0.0011111183267902935
-0.002465077157359842   -0.013404600272273613   -0.0011302345645160543
-0.002858202485627516   -0.01867194493989812   -0.0012106542174814617
2.1554665040753935e-06   -0.013376768203026593   -0.001094534989288053
-0.002457783136852738   -0.013430224728930313   -0.0011011684285561838
-0.002858202485627516   -0.01867194493989812   -0.0012106542174814617
-0.0002362954972518515   -0.018642601385382943   -0.0011780020744209339
2.1554665040753935e-06   -0.013376768203026593   -0.001094534989288053
-0.00022334256110924022   -0.018649709906427447   -0.0011597687700338692
-0.002457783136852738   -0.013430224728930313   -0.0011011684285561838
9.355332139266034e-06   -0.01338107529233647   -0.0010829610442917898
-0.00022334256110924022   -0.018649709906427447   -0.0011597687700338692
2.1554665040753935e-06   -0.013376768203026593   -0.001094534989288053
-0.002457783136852738   -0.013430224728930313   -0.0011011684285561838
-0.00022334256110924022   -0.018649709906427447   -0.0011597687700338692
-0.0028451158013759557   -0.018698640219835253   -0.001188263602473176
-0.002858202485627516   -0.01867194493989812   -0.0012106542174814617
-0.002457783136852738   -0.013430224728930313   -0.0011011684285561838
-0.00022334256110924022   -0.018649709906427447   -0.0011597687700338692
-0.002858202485627516   -0.01867194493989812   -0.0012106542174814617
2.1554665040753935e-06   -0.013376768203026593   -0.001094534989288053
-0.002457783136852738   -0.013430224728930313   -0.0011011684285561838
-0.0028451158013759557   -0.018698640219835253   -0.001188263602473176
9.355332139266034e-06   -0.01338107529233647   -0.0010829610442917898
-0.0024473284164091363   -0.013446269243265925   -0.0010772601100450332
-0.0028451158013759557   -0.018698640219835253   -0.001188263602473176
-0.00022334256110924022   -0.018649709906427447   -0.0011597687700338692
9.355332139266034e-06   -0.01338107529233647   -0.0010829610442917898
-0.00021326889231907702   -0.018654289145236893   -0.0011469219839214332
-0.0024473284164091363   -0.013446269243265925   -0.0010772601100450332
1.4268551879046644e-05   -0.013375429741926678   -0.001076615428312251
-0.00021326889231907702   -0.018654289145236893   -0.0011469219839214332
9.355332139266034e-06   -0.01338107529233647   -0.0010829610442917898
-0.0024473284164091363   -0.013446269243265925   -0.0010772601100450332
-0.00021326889231907702   -0.018654289145236893   -0.0011469219839214332
-0.002829535097920085   -0.01872310342412362   -0.0011712439572284527
-0.0028451158013759557   -0.018698640219835253   -0.001188263602473176
-0.0024473284164091363   -0.013446269243265925   -0.0010772601100450332
-0.00021326889231907702   -0.018654289145236893   -0.0011469219839214332
-0.0028451158013759557   -0.018698640219835253   -0.001188263602473176
9.355332139266034e-06   -0.01338107529233647   -0.0010829610442917898
-7.599355561228293e-06   -0.013362643861079083   -0.0011111183267902935
-0.0002511383899975723   -0.018633002701876955   -0.0012014345662200228
0.0025402189300216286   -0.013384579683816065   -0.001096203750363034
2.1554665040753935e-06   -0.013376768203026593   -0.001094534989288053
-0.0002511383899975723   -0.018633002701876955   -0.0012014345662200228
0.002446478163634764   -0.018628552874234233   -0.0011997516309692653
0.0025402189300216286   -0.013384579683816065   -0.001096203750363034
0.0024659570144105487   -0.018619318545828368   -0.0011807246701057048
2.1554665040753935e-06   -0.013376768203026593   -0.001094534989288053
0.0025520268549415383   -0.013378661942892611   -0.0010975364205749929
0.0024659570144105487   -0.018619318545828368   -0.0011807246701057048
0.0025402189300216286   -0.013384579683816065   -0.001096203750363034
2.1554665040753935e-06   -0.013376768203026593   -0.001094534989288053
0.0024659570144105487   -0.018619318545828368   -0.0011807246701057048
-0.0002362954972518515   -0.018642601385382943   -0.0011780020744209339
-0.0002511383899975723   -0.018633002701876955   -0.0012014345662200228
2.1554665040753935e-06   -0.013376768203026593   -0.001094534989288053
0.0024659570144105487   -0.018619318545828368   -0.0011807246701057048
-0.0002511383899975723   -0.018633002701876955   -0.0012014345662200228
0.0025402189300216286   -0.013384579683816065   -0.001096203750363034
2.1554665040753935e-06   -0.013376768203026593   -0.001094534989288053
-0.0002362954972518515   -0.018642601385382943   -0.0011780020744209339
0.0025520268549415383   -0.013378661942892611   -0.0010975364205749929
9.355332139266034e-06   -0.01338107529233647   -0.0010829610442917898
-0.0002362954972518515   -0.018642601385382943   -0.0011780020744209339
0.0024659570144105487   -0.018619318545828368   -0.0011807246701057048
0.0025520268549415383   -0.013378661942892611   -0.0010975364205749929
0.0024793314023369983   -0.01860870301468626   -0.0011667451327442714
9.355332139266034e-06   -0.01338107529233647   -0.0010829610442917898
0.002553900630793714   -0.013363713423416258   -0.0011036063921833854
0.0024793314023369983   -0.01860870301468626   -0.0011667451327442714
0.0025520268549415383   -0.013378661942892611   -0.0010975364205749929
9.355332139266034e-06   -0.01338107529233647   -0.0010829610442917898
0.0024793314023369983   -0.01860870301468626   -0.0011667451327442714
-0.00022334256110924022   -0.018649709906427447   -0.0011597687700338692
-0.0002362954972518515   -0.018642601385382943   -0.0011780020744209339
9.355332139266034e-06   -0.01338107529233647   -0.0010829610442917898
0.0024793314023369983   -0.01860870301468626   -0.0011667451327442714
-0.0002362954972518515   -0.018642601385382943   -0.0011780020744209339
0.0025520268549415383   -0.013378661942892611   -0.0010975364205749929
9.355332139266034e-06   -0.01338107529233647   -0.0010829610442917898
-0.00022334256110924022   -0.018649709906427447   -0.0011597687700338692
0.002553900630793714   -0.013363713423416258   -0.0011036063921833854
1.4268551879046644e-05   -0.013375429741926678   -0.001076615428312251
-0.00022334256110924022   -0.018649709906427447   -0.0011597687700338692
0.0024793314023369983   -0.01860870301468626   -0.0011667451327442714
0.002553900630793714   -0.013363713423416258   -0.0011036063921833854
0.0024827655395855065   -0.018593270666614575   -0.0011577115494301425
1.4268551879046644e-05   -0.013375429741926678   -0.001076615428312251
0.0025493239801087433   -0.013336026868436596   -0.0011145972813782544
0.0024827655395855065   -0.018593270666614575   -0.0011577115494301425
0.002553900630793714   -0.013363713423416258   -0.0011036063921833854
1.4268551879046644e-05   -0.013375429741926678   -0.001076615428312251
0.0024827655395855065   -0.018593270666614575   -0.0011577115494301425
-0.00021326889231907702   -0.018654289145236893   -0.0011469219839214332
-0.00022334256110924022   -0.018649709906427447   -0.0011597687700338692
1.4268551879046644e-05   -0.013375429741926678   -0.001076615428312251
0.0024827655395855065   -0.018593270666614575   -0.0011577115494301425
-0.00022334256110924022   -0.018649709906427447   -0.0011597687700338692
0.002553900630793714   -0.013363713423416258   -0.0011036063921833854
0.0025402189300216286   -0.013384579683816065   -0.001096203750363034
0.002446478163634764   -0.018628552874234233   -0.0011997516309692653
0.005353542024224507   -0.013424730090627907   -0.0011114202410318272
0.0025520268549415383   -0.013378661942892611   -0.0010975364205749929
0.002446478163634764   -0.018628552874234233   -0.0011997516309692653
0.005369175933167282   -0.018622150828612655   -0.001229848666612289
0.005353542024224507   -0.013424730090627907   -0.0011114202410318272
0.00540700118743275   -0.018598001882557322   -0.001213942028221236
0.0025520268549415383   -0.013378661942892611   -0.0010975364205749929
0.00535016861080437   -0.013405201668636025   -0.0011319784485422024
0.00540700118743275   -0.018598001882557322   -0.001213942028221236
0.005353542024224507   -0.013424730090627907   -0.0011114202410318272
0.0025520268549415383   -0.013378661942892611   -0.0010975364205749929
0.00540700118743275   -0.018598001882557322   -0.001213942028221236
0.0024659570144105487   -0.018619318545828368   -0.0011807246701057048
0.002446478163634764   -0.018628552874234233   -0.0011997516309692653
0.0025520268549415383   -0.013378661942892611   -0.0010975364205749929
0.00540700118743275   -0.018598001882557322   -0.001213942028221236
0.002446478163634764   -0.018628552874234233   -0.0011997516309692653
0.005353542024224507   -0.013424730090627907   -0.0011114202410318272
0.0025520268549415383   -0.013378661942892611   -0.0010975364205749929
0.0024659570144105487   -0.018619318545828368   -0.0011807246701057048
0.00535016861080437   -0.013405201668636025   -0.0011319784485422024
0.002553900630793714   -0.013363713423416258   -0.0011036063921833854
0.0024659570144105487   -0.018619318545828368   -0.0011807246701057048
0.00540700118743275   -0.018598001882557322   -0.001213942028221236
0.00535016861080437   -0.013405201668636025   -0.0011319784485422024
0.005427530732481284   -0.01857901345391862   -0.0012057142741771201
0.002553900630793714   -0.013363713423416258   -0.0011036063921833854
0.00533815110050468   -0.013380888625061834   -0.001160229172398549
0.005427530732481284   -0.01857901345391862   -0.0012057142741771201
0.00535016861080437   -0.013405201668636025   -0.0011319784485422024
0.002553900630793714   -0.013363713423416258   -0.0011036063921833854
0.005427530732481284   -0.01857901345391862   -0.0012057142741771201
0.0024793314023369983   -0.01860870301468626   -0.0011667451327442714
0.0024659570144105487   -0.018619318545828368   -0.0011807246701057048
0.002553900630793714   -0.013363713423416258   -0.0011036063921833854
0.005427530732481284   -0.01857901345391862   -0.0012057142741771201
0.0024659570144105487   -0.018619318545828368   -0.0011807246701057048
0.00535016861080437   -0.013405201668636025   -0.0011319784485422024
0.002553900630793714   -0.013363713423416258   -0.0011036063921833854
0.0024793314023369983   -0.01860870301468626   -0.0011667451327442714
0.00533815110050468   -0.013380888625061834   -0.001160229172398549
0.0025493239801087433   -0.013336026868436596   -0.0011145972813782544
0.0024793314023369983   -0.01860870301468626   -0.0011667451327442714
0.005427530732481284   -0.01857901345391862   -0.0012057142741771201
0.00533815110050468   -0.013380888625061834   -0.001160229172398549
0.005433636141967571   -0.018548803116738136   -0.0012052966755914385
0.0025493239801087433   -0.013336026868436596   -0.0011145972813782544
0.0053030866083276906   -0.013334853177041096   -0.0011961164934904242
0.005433636141967571   -0.018548803116738136   -0.0012052966755914385
0.00533815110050468   -0.013380888625061834   -0.001160229172398549
0.0025493239801087433   -0.013336026868436596   -0.0011145972813782544
0.005433636141967571   -0.018548803116738136   -0.0012052966755914385
0.0024827655395855065   -0.018593270666614575   -0.0011577115494301425
0.0024793314023369983   -0.01860870301468626   -0.0011667451327442714
0.0025493239801087433   -0.013336026868436596   -0.0011145972813782544
0.005433636141967571   -0.018548803116738136   -0.0012052966755914385
0.0024793314023369983   -0.01860870301468626   -0.0011667451327442714
0.00533815110050468   -0.013380888625061834   -0.001160229172398549
-0.008456579094800881   -0.018689558140831758   -0.0014152472442112657
-0.008715515727461326   -0.023986310711975305   -0.001392390475682013
-0.005559772191760075   -0.01866004560423059   -0.0013099461987463128
-0.008491502458271419   -0.01875419531843079   -0.001377083552844221
-0.008715515727461326   -0.023986310711975305   -0.001392390475682013
-0.005825162866940005   -0.024000308338826985   -0.0013147876910092715
-0.005559772191760075   -0.01866004560423059   -0.0013099461987463128
-0.005809041887916953   -0.02403980591254997   -0.0013028697142842334
-0.008491502458271419   -0.01875419531843079   -0.001377083552844221
-0.005556771099726635   -0.01870809751068318   -0.0012784014121726439
-0.005809041887916953   -0.02403980591254997   -0.0013028697142842334
-0.005559772191760075   -0.01866004560423059   -0.0013099461987463128
-0.008491502458271419   -0.01875419531843079   -0.001377083552844221
-0.005809041887916953   -0.02403980591254997   -0.0013028697142842334
-0.008704680288727768   -0.02403919003973972   -0.0013902091215260935
-0.008715515727461326   -0.023986310711975305   -0.001392390475682013
-0.008491502458271419   -0.01875419531843079   -0.001377083552844221
-0.005809041887916953   -0.02403980591254997   -0.0013028697142842334
-0.008715515727461326   -0.023986310711975305   -0.001392390475682013
-0.005559772191760075   -0.01866004560423059   -0.0013099461987463128
-0.008491502458271419   -0.01875419531843079   -0.001377083552844221
-0.008704680288727768   -0.02403919003973972   -0.0013902091215260935
-0.005556771099726635   -0.01870809751068318   -0.0012784014121726439
-0.008501975395115356   -0.01880702928590419   -0.0013464603162426203
-0.008704680288727768   -0.02403919003973972   -0.0013902091215260935
-0.005809041887916953   -0.02403980591254997   -0.0013028697142842334
-0.005556771099726635   -0.01870809751068318   -0.0012784014121726439
-0.005784210811655915   -0.024083685564109968   -0.001296329339070012
-0.008501975395115356   -0.01880702928590419   -0.0013464603162426203
-0.005548525933435575   -0.018752519565528154   -0.0012520974742524754
-0.005784210811655915   -0.024083685564109968   -0.001296329339070012
-0.005556771099726635   -0.01870809751068318   -0.0012784014121726439
-0.008501975395115356   -0.01880702928590419   -0.0013464603162426203
-0.005784210811655915   -0.024083685564109968   -0.001296329339070012
-0.0086774137610518   -0.024090676685482086   -0.0013960611029805573
-0.008704680288727768   -0.02403919003973972   -0.0013902091215260935
-0.008501975395115356   -0.01880702928590419   -0.0013464603162426203
-0.005784210811655915   -0.024083685564109968   -0.001296329339070012
-0.008704680288727768   -0.02403919003973972   -0.0013902091215260935
-0.005556771099726635   -0.01870809751068318   -0.0012784014121726439
-0.008501975395115356   -0.01880702928590419   -0.0013464603162426203
-0.0086774137610518   -0.024090676685482086   -0.0013960611029805573
-0.005548525933435575   -0.018752519565528154   -0.0012520974742524754
-0.008504755560983856   -0.018864557142542152   -0.0013240342148949688
-0.0086774137610518   -0.024090676685482086   -0.0013960611029805573
-0.005784210811655915   -0.024083685564109968   -0.001296329339070012
-0.005548525933435575   -0.018752519565528154   -0.0012520974742524754
-0.005752240488877466   -0.02413497694151432   -0.0012950707950276246
-0.008504755560983856   -0.018864557142542152   -0.0013240342148949688
-0.005529408595328993   -0.0187967067335248   -0.0012306591008646312
-0.005752240488877466   -0.02413497694151432   -0.0012950707950276246
-0.005548525933435575   -0.018752519565528154   -0.0012520974742524754
-0.008504755560983856   -0.018864557142542152   -0.0013240342148949688
-0.005752240488877466   -0.02413497694151432   -0.0012950707950276246
-0.008633597673626954   -0.0241571268427457   -0.0014103633771366411
-0.0086774137610518   -0.024090676685482086   -0.0013960611029805573
-0.008504755560983856   -0.018864557142542152   -0.0013240342148949688
-0.005752240488877466   -0.02413497694151432   -0.0012950707950276246
-0.0086774137610518   -0.024090676685482086   -0.0013960611029805573
-0.005548525933435575   -0.018752519565528154   -0.0012520974742524754
-0.005559772191760075   -0.01866004560423059   -0.0013099461987463128
-0.005825162866940005   -0.024000308338826985   -0.0013147876910092715
-0.0028690274711253775   -0.018642928219287282   -0.0012382857256370526
-0.005556771099726635   -0.01870809751068318   -0.0012784014121726439
-0.005825162866940005   -0.024000308338826985   -0.0013147876910092715
-0.00317711479931915   -0.024003219372205543   -0.0012632402183774974
-0.0028690274711253775   -0.018642928219287282   -0.0012382857256370526
-0.0031557558428432237   -0.02402580840624349   -0.0012419043620187184
-0.005556771099726635   -0.01870809751068318   -0.0012784014121726439
-0.002858202485627516   -0.01867194493989812   -0.0012106542174814617
-0.0031557558428432237   -0.02402580840624349   -0.0012419043620187184
-0.0028690274711253775   -0.018642928219287282   -0.0012382857256370526
-0.005556771099726635   -0.01870809751068318   -0.0012784014121726439
-0.0031557558428432237   -0.02402580840624349   -0.0012419043620187184
-0.005809041887916953   -0.02403980591254997   -0.0013028697142842334
-0.005825162866940005   -0.024000308338826985   -0.0013147876910092715
-0.005556771099726635   -0.01870809751068318   -0.0012784014121726439
-0.0031557558428432237   -0.02402580840624349   -0.0012419043620187184
-0.005825162866940005   -0.024000308338826985   -0.0013147876910092715
-0.0028690274711253775   -0.018642928219287282   -0.0012382857256370526
-0.005556771099726635   -0.01870809751068318   -0.0012784014121726439
-0.005809041887916953   -0.02403980591254997   -0.0013028697142842334
-0.002858202485627516   -0.01867194493989812   -0.0012106542174814617
-0.005548525933435575   -0.018752519565528154   -0.0012520974742524754
-0.005809041887916953   -0.02403980591254997   -0.0013028697142842334
-0.0031557558428432237   -0.02402580840624349   -0.0012419043620187184
-0.002858202485627516   -0.01867194493989812   -0.0012106542174814617
-0.003131707472068006   -0.024053384433263384   -0.0012259631796252808
-0.005548525933435575   -0.018752519565528154   -0.0012520974742524754
-0.0028451158013759557   -0.018698640219835253   -0.001188263602473176
-0.003131707472068006   -0.024053384433263384   -0.0012259631796252808
-0.002858202485627516   -0.01867194493989812   -0.0012106542174814617
-0.005548525933435575   -0.018752519565528154   -0.0012520974742524754
-0.003131707472068006   -0.024053384433263384   -0.0012259631796252808
-0.005784210811655915   -0.024083685564109968   -0.001296329339070012
-0.005809041887916953   -0.02403980591254997   -0.0013028697142842334
-0.005548525933435575   -0.018752519565528154   -0.0012520974742524754
-0.003131707472068006   -0.024053384433263384   -0.0012259631796252808
-0.005809041887916953   -0.02403980591254997   -0.0013028697142842334
-0.002858202485627516   -0.01867194493989812   -0.0012106542174814617
-0.005548525933435575   -0.018752519565528154   -0.0012520974742524754
-0.005784210811655915   -0.024083685564109968   -0.001296329339070012
-0.0028451158013759557   -0.018698640219835253   -0.001188263602473176
-0.005529408595328993   -0.0187967067335248   -0.0012306591008646312
-0.005784210811655915   -0.024083685564109968   -0.001296329339070012
-0.003131707472068006   -0.024053384433263384   -0.0012259631796252808
-0.0028451158013759557   -0.018698640219835253   -0.001188263602473176
-0.0031058261272383716   -0.024086033675846583   -0.0012155961252370642
-0.005529408595328993   -0.0187967067335248   -0.0012306591008646312
-0.002829535097920085   -0.01872310342412362   -0.0011712439572284527
-0.0031058261272383716   -0.024086033675846583   -0.0012155961252370642
-0.0028451158013759557   -0.018698640219835253   -0.001188263602473176
-0.005529408595328993   -0.0187967067335248   -0.0012306591008646312
-0.0031058261272383716   -0.024086033675846583   -0.0012155961252370642
-0.005752240488877466   -0.02413497694151432   -0.0012950707950276246
-0.005784210811655915   -0.024083685564109968   -0.001296329339070012
-0.005529408595328993   -0.0187967067335248   -0.0012306591008646312
-0.0031058261272383716   -0.024086033675846583   -0.0012155961252370642
-0.005784210811655915   -0.024083685564109968   -0.001296329339070012
-0.0028451158013759557   -0.018698640219835253   -0.001188263602473176
-0.0028690274711253775   -0.018642928219287282   -0.0012382857256370526
-0.00317711479931915   -0.024003219372205543   -0.0012632402183774974
-0.0002511383899975723   -0.018633002701876955   -0.0012014345662200228
-0.002858202485627516   -0.01867194493989812   -0.0012106542174814617
-0.00317711479931915   -0.024003219372205543   -0.0012632402183774974
-0.0006038716493855013   -0.02398902907396441   -0.0012424181101982545
-0.0002511383899975723   -0.018633002701876955   -0.0012014345662200228
-0.000578692121328679   -0.023994110150462798   -0.0012121347164317552
-0.002858202485627516   -0.01867194493989812   -0.0012106542174814617
-0.0002362954972518515   -0.018642601385382943   -0.0011780020744209339
-0.000578692121328679   -0.023994110150462798   -0.0012121347164317552
-0.0002511383899975723   -0.018633002701876955   -0.0012014345662200228
-0.002858202485627516   -0.01867194493989812   -0.0012106542174814617
-0.000578692121328679   -0.023994110150462798   -0.0012121347164317552
-0.0031557558428432237   -0.02402580840624349   -0.0012419043620187184
-0.00317711479931915   -0.024003219372205543   -0.0012632402183774974
-0.002858202485627516   -0.01867194493989812   -0.0012106542174814617
-0.000578692121328679   -0.023994110150462798   -0.0012121347164317552
-0.00317711479931915   -0.024003219372205543   -0.0012632402183774974
-0.0002511383899975723   -0.018633002701876955   -0.0012014345662200228
-0.002858202485627516   -0.01867194493989812   -0.0012106542174814617
-0.0031557558428432237   -0.02402580840624349   -0.0012419043620187184
-0.0002362954972518515   -0.018642601385382943   -0.0011780020744209339
-0.0028451158013759557   -0.018698640219835253   -0.001188263602473176
-0.0031557558428432237   -0.02402580840624349   -0.0012419043620187184
-0.000578692121328679   -0.023994110150462798   -0.0012121347164317552
-0.0002362954972518515   -0.018642601385382943   -0.0011780020744209339
-0.0005548435616301758   -0.02400379834738967   -0.0011872115779137976
-0.0028451158013759557   -0.018698640219835253   -0.001188263602473176
-0.00022334256110924022   -0.018649709906427447   -0.0011597687700338692
-0.0005548435616301758   -0.02400379834738967   -0.0011872115779137976
-0.0002362954972518515   -0.018642601385382943   -0.0011780020744209339
-0.0028451158013759557   -0.018698640219835253   -0.001188263602473176
-0.0005548435616301758   -0.02400379834738967   -0.0011872115779137976
-0.003131707472068006   -0.024053384433263384   -0.0012259631796252808
-0.0031557558428432237   -0.02402580840624349   -0.0012419043620187184
-0.0028451158013759557   -0.018698640219835253   -0.001188263602473176
-0.0005548435616301758   -0.02400379834738967   -0.0011872115779137976
-0.0031557558428432237   -0.02402580840624349   -0.0012419043620187184
-0.0002362954972518515   -0.018642601385382943   -0.0011780020744209339
-0.0028451158013759557   -0.018698640219835253   -0.001188263602473176
-0.003131707472068006   -0.024053384433263384   -0.0012259631796252808
-0.00022334256110924022   -0.018649709906427447   -0.0011597687700338692
-0.002829535097920085   -0.01872310342412362   -0.0011712439572284527
-0.003131707472068006   -0.024053384433263384   -0.0012259631796252808
-0.0005548435616301758   -0.02400379834738967   -0.0011872115779137976
-0.00022334256110924022   -0.018649709906427447   -0.0011597687700338692
-0.0005345000584370054   -0.02401830977176342   -0.001167833874657874
-0.002829535097920085   -0.01872310342412362   -0.0011712439572284527
-0.00021326889231907702   -0.018654289145236893   -0.0011469219839214332
-0.0005345000584370054   -0.02401830977176342   -0.001167833874657874
-0.00022334256110924022   -0.018649709906427447   -0.0011597687700338692
-0.002829535097920085   -0.01872310342412362   -0.0011712439572284527
-0.0005345000584370054   -0.02401830977176342   -0.001167833874657874
-0.0031058261272383716   -0.024086033675846583   -0.0012155961252370642
-0.003131707472068006   -0.024053384433263384   -0.0012259631796252808
-0.002829535097920085   -0.01872310342412362   -0.0011712439572284527
-0.0005345000584370054   -0.02401830977176342   -0.001167833874657874
-0.003131707472068006   -0.024053384433263384   -0.0012259631796252808
-0.00022334256110924022   -0.018649709906427447   -0.0011597687700338692
-0.0002511383899975723   -0.018633002701876955   -0.0012014345662200228
-0.0006038716493855013   -0.02398902907396441   -0.0012424181101982545
0.002446478163634764   -0.018628552874234233   -0.0011997516309692653
-0.0002362954972518515   -0.018642601385382943   -0.0011780020744209339
-0.0006038716493855013   -0.02398902907396441   -0.0012424181101982545
0.002046379539907519   -0.023957556922664408   -0.0012533550563430976
0.002446478163634764   -0.018628552874234233   -0.0011997516309692653
0.0020784121974382875   -0.02394505423200709   -0.0012142679291784776
-0.0002362954972518515   -0.018642601385382943   -0.0011780020744209339
0.0024659570144105487   -0.018619318545828368   -0.0011807246701057048
0.0020784121974382875   -0.02394505423200709   -0.0012142679291784776
0.002446478163634764   -0.018628552874234233   -0.0011997516309692653
-0.0002362954972518515   -0.018642601385382943   -0.0011780020744209339
0.0020784121974382875   -0.02394505423200709   -0.0012142679291784776
-0.000578692121328679   -0.023994110150462798   -0.0012121347164317552
-0.0006038716493855013   -0.02398902907396441   -0.0012424181101982545
-0.0002362954972518515   -0.018642601385382943   -0.0011780020744209339
0.0020784121974382875   -0.02394505423200709   -0.0012142679291784776
-0.0006038716493855013   -0.02398902907396441   -0.0012424181101982545
0.002446478163634764   -0.018628552874234233   -0.0011997516309692653
-0.0002362954972518515   -0.018642601385382943   -0.0011780020744209339
-0.000578692121328679   -0.023994110150462798   -0.0012121347164317552
0.0024659570144105487   -0.018619318545828368   -0.0011807246701057048
-0.00022334256110924022   -0.018649709906427447   -0.0011597687700338692
-0.000578692121328679   -0.023994110150462798   -0.0012121347164317552
0.0020784121974382875   -0.02394505423200709   -0.0012142679291784776
0.0024659570144105487   -0.018619318545828368   -0.0011807246701057048
0.0021081172527513932   -0.023938541347698055   -0.0011805226344087285
-0.00022334256110924022   -0.018649709906427447   -0.0011597687700338692
0.0024793314023369983   -0.01860870301468626   -0.0011667451327442714
0.0021081172527513932   -0.023938541347698055   -0.0011805226344087285
0.0024659570144105487   -0.018619318545828368   -0.0011807246701057048
-0.00022334256110924022   -0.018649709906427447   -0.0011597687700338692
0.0021081172527513932   -0.023938541347698055   -0.0011805226344087285
-0.0005548435616301758   -0.02400379834738967   -0.0011872115779137976
-0.000578692121328679   -0.023994110150462798   -0.0012121347164317552
-0.00022334256110924022   -0.018649709906427447   -0.0011597687700338692
0.0021081172527513932   -0.023938541347698055   -0.0011805226344087285
-0.000578692121328679   -0.023994110150462798   -0.0012121347164317552
0.0024659570144105487   -0.018619318545828368   -0.0011807246701057048
-0.00022334256110924022   -0.018649709906427447   -0.0011597687700338692
-0.0005548435616301758   -0.02400379834738967   -0.0011872115779137976
0.0024793314023369983   -0.01860870301468626   -0.0011667451327442714
-0.00021326889231907702   -0.018654289145236893   -0.0011469219839214332
-0.0005548435616301758   -0.02400379834738967   -0.0011872115779137976
0.0021081172527513932   -0.023938541347698055   -0.0011805226344087285
0.0024793314023369983   -0.01860870301468626   -0.0011667451327442714
0.00212435345998735   -0.023934928132240362   -0.001151770382339713
-0.00021326889231907702   -0.018654289145236893   -0.0011469219839214332
0.0024827655395855065   -0.018593270666614575   -0.0011577115494301425
0.00212435345998735   -0.023934928132240362   -0.001151770382339713
0.0024793314023369983   -0.01860870301468626   -0.0011667451327442714
-0.00021326889231907702   -0.018654289145236893   -0.0011469219839214332
0.00212435345998735   -0.023934928132240362   -0.001151770382339713
-0.0005345000584370054   -0.02401830977176342   -0.001167833874657874
-0.0005548435616301758   -0.02400379834738967   -0.0011872115779137976
-0.00021326889231907702   -0.018654289145236893   -0.0011469219839214332
0.00212435345998735   -0.023934928132240362   -0.001151770382339713
-0.0005548435616301758   -0.02400379834738967   -0.0011872115779137976
0.0024793314023369983   -0.01860870301468626   -0.0011667451327442714
0.002446478163634764   -0.018628552874234233   -0.0011997516309692653
0.002046379539907519   -0.023957556922664408   -0.0012533550563430976
0.005369175933167282   -0.018622150828612655   -0.001229848666612289
0.0024659570144105487   -0.018619318545828368   -0.0011807246701057048
0.002046379539907519   -0.023957556922664408   -0.0012533550563430976
0.004882613778394697   -0.0239045453883845   -0.0012978118444416703
0.005369175933167282   -0.018622150828612655   -0.001229848666612289
0.004965716341420066   -0.02387607335146644   -0.0012463604333618136
0.0024659570144105487   -0.018619318545828368   -0.0011807246701057048
0.00540700118743275   -0.018598001882557322   -0.001213942028221236
0.004965716341420066   -0.02387607335146644   -0.0012463604333618136
0.005369175933167282   -0.018622150828612655   -0.001229848666612289
0.0024659570144105487   -0.018619318545828368   -0.0011807246701057048
0.004965716341420066   -0.02387607335146644   -0.0012463604333618136
0.0020784121974382875   -0.02394505423200709   -0.0012142679291784776
0.002046379539907519   -0.023957556922664408   -0.0012533550563430976
0.0024659570144105487   -0.018619318545828368   -0.0011807246701057048
0.004965716341420066   -0.02387607335146644   -0.0012463604333618136
0.002046379539907519   -0.023957556922664408   -0.0012533550563430976
0.005369175933167282   -0.018622150828612655   -0.001229848666612289
0.0024659570144105487   -0.018619318545828368   -0.0011807246701057048
0.0020784121974382875   -0.02394505423200709   -0.0012142679291784776
0.00540700118743275   -0.018598001882557322   -0.001213942028221236
0.0024793314023369983   -0.01860870301468626   -0.0011667451327442714
0.0020784121974382875   -0.02394505423200709   -0.0012142679291784776
0.004965716341420066   -0.02387607335146644   -0.0012463604333618136
0.00540700118743275   -0.018598001882557322   -0.001213942028221236
0.00502307256784451   -0.023862251119021818   -0.0012025270373533952
0.0024793314023369983   -0.01860870301468626   -0.0011667451327442714
0.005427530732481284   -0.01857901345391862   -0.0012057142741771201
0.00502307256784451   -0.023862251119021818   -0.0012025270373533952
0.00540700118743275   -0.018598001882557322   -0.001213942028221236
0.0024793314023369983   -0.01860870301468626   -0.0011667451327442714
0.00502307256784451   -0.023862251119021818   -0.0012025270373533952
0.0021081172527513932   -0.023938541347698055   -0.0011805226344087285
0.0020784121974382875   -0.02394505423200709   -0.0012142679291784776
0.0024793314023369983   -0.01860870301468626   -0.0011667451327442714
0.00502307256784451   -0.023862251119021818   -0.0012025270373533952
0.0020784121974382875   -0.02394505423200709   -0.0012142679291784776
0.00540700118743275   -0.018598001882557322   -0.001213942028221236
0.0024793314023369983   -0.01860870301468626   -0.0011667451327442714
0.0021081172527513932   -0.023938541347698055   -0.0011805226344087285
0.005427530732481284   -0.01857901345391862   -0.0012057142741771201
0.0024827655395855065   -0.018593270666614575   -0.0011577115494301425
0.0021081172527513932   -0.023938541347698055   -0.0011805226344087285
0.00502307256784451   -0.023862251119021818   -0.0012025270373533952
0.005427530732481284   -0.01857901345391862   -0.0012057142741771201
0.005074335347152742   -0.023847389590102432   -0.0011666305104597544
0.0024827655395855065   -0.018593270666614575   -0.0011577115494301425
0.005433636141967571   -0.018548803116738136   -0.0012052966755914385
0.005074335347152742   -0.023847389590102432   -0.0011666305104597544
0.005427530732481284   -0.01857901345391862   -0.0012057142741771201
0.0024827655395855065   -0.018593270666614575   -0.0011577115494301425
0.005074335347152742   -0.023847389590102432   -0.0011666305104597544
0.00212435345998735   -0.023934928132240362   -0.001151770382339713
0.0021081172527513932   -0.023938541347698055   -0.0011805226344087285
0.0024827655395855065   -0.018593270666614575   -0.0011577115494301425
0.005074335347152742   -0.023847389590102432   -0.0011666305104597544
0.0021081172527513932   -0.023938541347698055   -0.0011805226344087285
0.005427530732481284   -0.01857901345391862   -0.0012057142741771201
-0.008715515727461326   -0.023986310711975305   -0.001392390475682013
-0.00847906762640445   -0.029038130756575763   -0.0013321297966169905
-0.005825162866940005   -0.024000308338826985   -0.0013147876910092715
-0.008704680288727768   -0.02403919003973972   -0.0013902091215260935
-0.00847906762640445   -0.029038130756575763   -0.0013321297966169905
-0.005800354106203596   -0.02909624922689311   -0.0012855860092215387
-0.005825162866940005   -0.024000308338826985   -0.0013147876910092715
-0.005766287349359052   -0.029125667067322572   -0.0012927130077925867
-0.008704680288727768   -0.02403919003973972   -0.0013902091215260935
-0.005809041887916953   -0.02403980591254997   -0.0013028697142842334
-0.005766287349359052   -0.029125667067322572   -0.0012927130077925867
-0.005825162866940005   -0.024000308338826985   -0.0013147876910092715
-0.008704680288727768   -0.02403919003973972   -0.0013902091215260935
-0.005766287349359052   -0.029125667067322572   -0.0012927130077925867
-0.008417532812284578   -0.029077862223985784   -0.001365875178653943
-0.00847906762640445   -0.029038130756575763   -0.0013321297966169905
-0.008704680288727768   -0.02403919003973972   -0.0013902091215260935
-0.005766287349359052   -0.029125667067322572   -0.0012927130077925867
-0.00847906762640445   -0.029038130756575763   -0.0013321297966169905
-0.005825162866940005   -0.024000308338826985   -0.0013147876910092715
-0.008704680288727768   -0.02403919003973972   -0.0013902091215260935
-0.008417532812284578   -0.029077862223985784   -0.001365875178653943
-0.005809041887916953   -0.02403980591254997   -0.0013028697142842334
-0.0086774137610518   -0.024090676685482086   -0.0013960611029805573
-0.008417532812284578   -0.029077862223985784   -0.001365875178653943
-0.005766287349359052   -0.029125667067322572   -0.0012927130077925867
-0.005809041887916953   -0.02403980591254997   -0.0013028697142842334
-0.005720269311464669   -0.02916769571558514   -0.0013053315172720085
-0.0086774137610518   -0.024090676685482086   -0.0013960611029805573
-0.005784210811655915   -0.024083685564109968   -0.001296329339070012
-0.005720269311464669   -0.02916769571558514   -0.0013053315172720085
-0.005809041887916953   -0.02403980591254997   -0.0013028697142842334
-0.0086774137610518   -0.024090676685482086   -0.0013960611029805573
-0.005720269311464669   -0.02916769571558514   -0.0013053315172720085
-0.008347518445535766   -0.02912680976538338   -0.0014082532822621212
-0.008417532812284578   -0.029077862223985784   -0.001365875178653943
-0.0086774137610518   -0.024090676685482086   -0.0013960611029805573
-0.005720269311464669   -0.02916769571558514   -0.0013053315172720085
-0.008417532812284578   -0.029077862223985784   -0.001365875178653943
-0.005809041887916953   -0.02403980591254997   -0.0013028697142842334
-0.0086774137610518   -0.024090676685482086   -0.0013960611029805573
-0.008347518445535766   -0.02912680976538338   -0.0014082532822621212
-0.005784210811655915   -0.024083685564109968   -0.001296329339070012
-0.008633597673626954   -0.0241571268427457   -0.0014103633771366411
-0.008347518445535766   -0.02912680976538338   -0.0014082532822621212
-0.005720269311464669   -0.02916769571558514   -0.0013053315172720085
-0.005784210811655915   -0.024083685564109968   -0.001296329339070012
-0.005670939920081876   -0.02922490610784089   -0.0013235961222641936
-0.008633597673626954   -0.0241571268427457   -0.0014103633771366411
-0.005752240488877466   -0.02413497694151432   -0.0012950707950276246
-0.005670939920081876   -0.02922490610784089   -0.0013235961222641936
-0.005784210811655915   -0.024083685564109968   -0.001296329339070012
-0.008633597673626954   -0.0241571268427457   -0.0014103633771366411
-0.005670939920081876   -0.02922490610784089   -0.0013235961222641936
-0.0082523422676786   -0.02920141208898708   -0.0014594347799587479
-0.008347518445535766   -0.02912680976538338   -0.0014082532822621212
-0.008633597673626954   -0.0241571268427457   -0.0014103633771366411
-0.005670939920081876   -0.02922490610784089   -0.0013235961222641936
-0.008347518445535766   -0.02912680976538338   -0.0014082532822621212
-0.005784210811655915   -0.024083685564109968   -0.001296329339070012
-0.005825162866940005   -0.024000308338826985   -0.0013147876910092715
-0.005800354106203596   -0.02909624922689311   -0.0012855860092215387
-0.00317711479931915   -0.024003219372205543   -0.0012632402183774974
-0.005809041887916953   -0.02403980591254997   -0.0013028697142842334
-0.005800354106203596   -0.02909624922689311   -0.0012855860092215387
-0.0033979624770297057   -0.02911906123227785   -0.0012558415407963647
-0.00317711479931915   -0.024003219372205543   -0.0012632402183774974
-0.003360923606083526   -0.02913429193757618   -0.001240297339879716
-0.005809041887916953   -0.02403980591254997   -0.0013028697142842334
-0.0031557558428432237   -0.02402580840624349   -0.0012419043620187184
-0.003360923606083526   -0.02913429193757618   -0.001240297339879716
-0.00317711479931915   -0.024003219372205543   -0.0012632402183774974
-0.005809041887916953   -0.02403980591254997   -0.0013028697142842334
-0.003360923606083526   -0.02913429193757618   -0.001240297339879716
-0.005766287349359052   -0.029125667067322572   -0.0012927130077925867
-0.005800354106203596   -0.02909624922689311   -0.0012855860092215387
-0.005809041887916953   -0.02403980591254997   -0.0013028697142842334
-0.003360923606083526   -0.02913429193757618   -0.001240297339879716
-0.005800354106203596   -0.02909624922689311   -0.0012855860092215387
-0.00317711479931915   -0.024003219372205543   -0.0012632402183774974
-0.005809041887916953   -0.02403980591254997   -0.0013028697142842334
-0.005766287349359052   -0.029125667067322572   -0.0012927130077925867
-0.0031557558428432237   -0.02402580840624349   -0.0012419043620187184
-0.005784210811655915   -0.024083685564109968   -0.001296329339070012
-0.005766287349359052   -0.029125667067322572   -0.0012927130077925867
-0.003360923606083526   -0.02913429193757618   -0.001240297339879716
-0.0031557558428432237   -0.02402580840624349   -0.0012419043620187184
-0.00332110329775499   -0.029161635668870815   -0.0012301763503927098
-0.005784210811655915   -0.024083685564109968   -0.001296329339070012
-0.003131707472068006   -0.024053384433263384   -0.0012259631796252808
-0.00332110329775499   -0.029161635668870815   -0.0012301763503927098
-0.0031557558428432237   -0.02402580840624349   -0.0012419043620187184
-0.005784210811655915   -0.024083685564109968   -0.001296329339070012
-0.00332110329775499   -0.029161635668870815   -0.0012301763503927098
-0.005720269311464669   -0.02916769571558514   -0.0013053315172720085
-0.005766287349359052   -0.029125667067322572   -0.0012927130077925867
-0.005784210811655915   -0.024083685564109968   -0.001296329339070012
-0.00332110329775499   -0.029161635668870815   -0.0012301763503927098
-0.005766287349359052   -0.029125667067322572   -0.0012927130077925867
-0.0031557558428432237   -0.02402580840624349   -0.0012419043620187184
-0.005784210811655915   -0.024083685564109968   -0.001296329339070012
-0.005720269311464669   -0.02916769571558514   -0.0013053315172720085
-0.003131707472068006   -0.024053384433263384   -0.0012259631796252808
-0.005752240488877466   -0.02413497694151432   -0.0012950707950276246
-0.005720269311464669   -0.02916769571558514   -0.0013053315172720085
-0.00332110329775499   -0.029161635668870815   -0.0012301763503927098
-0.003131707472068006   -0.024053384433263384   -0.0012259631796252808
-0.003280173951683723   -0.029201432163501493   -0.0012257485060826235
-0.005752240488877466   -0.02413497694151432   -0.0012950707950276246
-0.0031058261272383716   -0.024086033675846583   -0.0012155961252370642
-0.003280173951683723   -0.029201432163501493   -0.0012257485060826235
-0.003131707472068006   -0.024053384433263384   -0.0012259631796252808
-0.005752240488877466   -0.02413497694151432   -0.0012950707950276246
-0.003280173951683723   -0.029201432163501493   -0.0012257485060826235
-0.005670939920081876   -0.02922490610784089   -0.0013235961222641936
-0.005720269311464669   -0.02916769571558514   -0.0013053315172720085
-0.005752240488877466   -0.02413497694151432   -0.0012950707950276246
-0.003280173951683723   -0.029201432163501493   -0.0012257485060826235
-0.005720269311464669   -0.02916769571558514   -0.0013053315172720085
-0.003131707472068006   -0.024053384433263384   -0.0012259631796252808
-0.00317711479931915   -0.024003219372205543   -0.0012632402183774974
-0.0033979624770297057   -0.02911906123227785   -0.0012558415407963647
-0.0006038716493855013   -0.02398902907396441   -0.0012424181101982545
-0.0031557558428432237   -0.02402580840624349   -0.0012419043620187184
-0.0033979624770297057   -0.02911906123227785   -0.0012558415407963647
-0.0010681289240082653   -0.029101184138604526   -0.0012512380821987626
-0.0006038716493855013   -0.02398902907396441   -0.0012424181101982545
-0.001027171944272925   -0.029101374346338946   -0.0012138003046713633
-0.0031557558428432237   -0.02402580840624349   -0.0012419043620187184
-0.000578692121328679   -0.023994110150462798   -0.0012121347164317552
-0.001027171944272925   -0.029101374346338946   -0.0012138003046713633
-0.0006038716493855013   -0.02398902907396441   -0.0012424181101982545
-0.0031557558428432237   -0.02402580840624349   -0.0012419043620187184
-0.001027171944272925   -0.029101374346338946   -0.0012138003046713633
-0.003360923606083526   -0.02913429193757618   -0.001240297339879716
-0.0033979624770297057   -0.02911906123227785   -0.0012558415407963647
-0.0031557558428432237   -0.02402580840624349   -0.0012419043620187184
-0.001027171944272925   -0.029101374346338946   -0.0012138003046713633
-0.0033979624770297057   -0.02911906123227785   -0.0012558415407963647
-0.0006038716493855013   -0.02398902907396441   -0.0012424181101982545
-0.0031557558428432237   -0.02402580840624349   -0.0012419043620187184
-0.003360923606083526   -0.02913429193757618   -0.001240297339879716
-0.000578692121328679   -0.023994110150462798   -0.0012121347164317552
-0.003131707472068006   -0.024053384433263384   -0.0012259631796252808
-0.003360923606083526   -0.02913429193757618   -0.001240297339879716
-0.001027171944272925   -0.029101374346338946   -0.0012138003046713633
-0.000578692121328679   -0.023994110150462798   -0.0012121347164317552
-0.0009872726907313321   -0.029112808110393185   -0.001181802335390552
-0.003131707472068006   -0.024053384433263384   -0.0012259631796252808
-0.0005548435616301758   -0.02400379834738967   -0.0011872115779137976
-0.0009872726907313321   -0.029112808110393185   -0.001181802335390552
-0.000578692121328679   -0.023994110150462798   -0.0012121347164317552
-0.003131707472068006   -0.024053384433263384   -0.0012259631796252808
-0.0009872726907313321   -0.029112808110393185   -0.001181802335390552
-0.00332110329775499   -0.029161635668870815   -0.0012301763503927098
-0.003360923606083526   -0.02913429193757618   -0.001240297339879716
-0.003131707472068006   -0.024053384433263384   -0.0012259631796252808
-0.0009872726907313321   -0.029112808110393185   -0.001181802335390552
-0.003360923606083526   -0.02913429193757618   -0.001240297339879716
-0.000578692121328679   -0.023994110150462798   -0.0012121347164317552
-0.003131707472068006   -0.024053384433263384   -0.0012259631796252808
-0.00332110329775499   -0.029161635668870815   -0.0012301763503927098
-0.0005548435616301758   -0.02400379834738967   -0.0011872115779137976
-0.0031058261272383716   -0.024086033675846583   -0.0012155961252370642
-0.00332110329775499   -0.029161635668870815   -0.0012301763503927098
-0.0009872726907313321   -0.029112808110393185   -0.001181802335390552
-0.0005548435616301758   -0.02400379834738967   -0.0011872115779137976
-0.0009516276569505788   -0.029136418097083706   -0.0011554318431451556
-0.0031058261272383716   -0.024086033675846583   -0.0012155961252370642
-0.0005345000584370054   -0.02401830977176342   -0.001167833874657874
-0.0009516276569505788   -0.029136418097083706   -0.0011554318431451556
-0.0005548435616301758   -0.02400379834738967   -0.0011872115779137976
-0.0031058261272383716   -0.024086033675846583   -0.0012155961252370642
-0.0009516276569505788   -0.029136418097083706   -0.0011554318431451556
-0.003280173951683723   -0.029201432163501493   -0.0012257485060826235
-0.00332110329775499   -0.029161635668870815   -0.0012301763503927098
-0.0031058261272383716   -0.024086033675846583   -0.0012155961252370642
-0.0009516276569505788   -0.029136418097083706   -0.0011554318431451556
-0.00332110329775499   -0.029161635668870815   -0.0012301763503927098
-0.0005548435616301758   -0.02400379834738967   -0.0011872115779137976
-0.0006038716493855013   -0.02398902907396441   -0.0012424181101982545
-0.0010681289240082653   -0.029101184138604526   -0.0012512380821987626
0.002046379539907519   -0.023957556922664408   -0.0012533550563430976
-0.000578692121328679   -0.023994110150462798   -0.0012121347164317552
-0.0010681289240082653   -0.029101184138604526   -0.0012512380821987626
0.001341168192155642   -0.02904373789952903   -0.0012737431474309762
0.002046379539907519   -0.023957556922664408   -0.0012533550563430976
0.0013912628724247012   -0.029027871423422506   -0.0012146016592524316
-0.000578692121328679   -0.023994110150462798   -0.0012121347164317552
0.0020784121974382875   -0.02394505423200709   -0.0012142679291784776
0.0013912628724247012   -0.029027871423422506   -0.0012146016592524316
0.002046379539907519   -0.023957556922664408   -0.0012533550563430976
-0.000578692121328679   -0.023994110150462798   -0.0012121347164317552
0.0013912628724247012   -0.029027871423422506   -0.0012146016592524316
-0.001027171944272925   -0.029101374346338946   -0.0012138003046713633
-0.0010681289240082653   -0.029101184138604526   -0.0012512380821987626
-0.000578692121328679   -0.023994110150462798   -0.0012121347164317552
0.0013912628724247012   -0.029027871423422506   -0.0012146016592524316
-0.0010681289240082653   -0.029101184138604526   -0.0012512380821987626
0.002046379539907519   -0.023957556922664408   -0.0012533550563430976
-0.000578692121328679   -0.023994110150462798   -0.0012121347164317552
-0.001027171944272925   -0.029101374346338946   -0.0012138003046713633
0.0020784121974382875   -0.02394505423200709   -0.0012142679291784776
-0.0005548435616301758   -0.02400379834738967   -0.0011872115779137976
-0.001027171944272925   -0.029101374346338946   -0.0012138003046713633
0.0013912628724247012   -0.029027871423422506   -0.0012146016592524316
0.0020784121974382875   -0.02394505423200709   -0.0012142679291784776
0.0014426909838129928   -0.0290248583025986   -0.0011612440527964316
-0.0005548435616301758   -0.02400379834738967   -0.0011872115779137976
0.0021081172527513932   -0.023938541347698055   -0.0011805226344087285
0.0014426909838129928   -0.0290248583025986   -0.0011612440527964316
0.0020784121974382875   -0.02394505423200709   -0.0012142679291784776
-0.0005548435616301758   -0.02400379834738967   -0.0011872115779137976
0.0014426909838129928   -0.0290248583025986   -0.0011612440527964316
-0.0009872726907313321   -0.029112808110393185   -0.001181802335390552
-0.001027171944272925   -0.029101374346338946   -0.0012138003046713633
-0.0005548435616301758   -0.02400379834738967   -0.0011872115779137976
0.0014426909838129928   -0.0290248583025986   -0.0011612440527964316
-0.001027171944272925   -0.029101374346338946   -0.0012138003046713633
0.0020784121974382875   -0.02394505423200709   -0.0012142679291784776
-0.0005548435616301758   -0.02400379834738967   -0.0011872115779137976
-0.0009872726907313321   -0.029112808110393185   -0.001181802335390552
0.0021081172527513932   -0.023938541347698055   -0.0011805226344087285
-0.0005345000584370054   -0.02401830977176342   -0.001167833874657874
-0.0009872726907313321   -0.029112808110393185   -0.001181802335390552
0.0014426909838129928   -0.0290248583025986   -0.0011612440527964316
0.0021081172527513932   -0.023938541347698055   -0.0011805226344087285
0.0014770002097796652   -0.029032339880223253   -0.0011129062362203776
-0.0005345000584370054   -0.02401830977176342   -0.001167833874657874
0.00212435345998735   -0.023934928132240362   -0.001151770382339713
0.0014770002097796652   -0.029032339880223253   -0.0011129062362203776
0.0021081172527513932   -0.023938541347698055   -0.0011805226344087285
-0.0005345000584370054   -0.02401830977176342   -0.001167833874657874
0.0014770002097796652   -0.029032339880223253   -0.0011129062362203776
-0.0009516276569505788   -0.029136418097083706   -0.0011554318431451556
-0.0009872726907313321   -0.029112808110393185   -0.001181802335390552
-0.0005345000584370054   -0.02401830977176342   -0.001167833874657874
0.0014770002097796652   -0.029032339880223253   -0.0011129062362203776
-0.0009872726907313321   -0.029112808110393185   -0.001181802335390552
0.0021081172527513932   -0.023938541347698055   -0.0011805226344087285
0.002046379539907519   -0.023957556922664408   -0.0012533550563430976
0.001341168192155642   -0.02904373789952903   -0.0012737431474309762
0.004882613778394697   -0.0239045453883845   -0.0012978118444416703
0.0020784121974382875   -0.02394505423200709   -0.0012142679291784776
0.001341168192155642   -0.02904373789952903   -0.0012737431474309762
0.0039023063938057705   -0.028944923265551602   -0.001331254862682244
0.004882613778394697   -0.0239045453883845   -0.0012978118444416703
0.00403565362804779   -0.02891235762868721   -0.0012451055005991676
0.0020784121974382875   -0.02394505423200709   -0.0012142679291784776
0.004965716341420066   -0.02387607335146644   -0.0012463604333618136
0.00403565362804779   -0.02891235762868721   -0.0012451055005991676
0.004882613778394697   -0.0239045453883845   -0.0012978118444416703
0.0020784121974382875   -0.02394505423200709   -0.0012142679291784776
0.00403565362804779   -0.02891235762868721   -0.0012451055005991676
0.0013912628724247012   -0.029027871423422506   -0.0012146016592524316
0.001341168192155642   -0.02904373789952903   -0.0012737431474309762
0.0020784121974382875   -0.02394505423200709   -0.0012142679291784776
0.00403565362804779   -0.02891235762868721   -0.0012451055005991676
0.001341168192155642   -0.02904373789952903   -0.0012737431474309762
0.004882613778394697   -0.0239045453883845   -0.0012978118444416703
0.0020784121974382875   -0.02394505423200709   -0.0012142679291784776
0.0013912628724247012   -0.029027871423422506   -0.0012146016592524316
0.004965716341420066   -0.02387607335146644   -0.0012463604333618136
0.0021081172527513932   -0.023938541347698055   -0.0011805226344087285
0.0013912628724247012   -0.029027871423422506   -0.0012146016592524316
0.00403565362804779   -0.02891235762868721   -0.0012451055005991676
0.004965716341420066   -0.02387607335146644   -0.0012463604333618136
0.0041345334878235395   -0.028903351504508727   -0.0011666572085604428
0.0021081172527513932   -0.023938541347698055   -0.0011805226344087285
0.00502307256784451   -0.023862251119021818   -0.0012025270373533952
0.0041345334878235395   -0.028903351504508727   -0.0011666572085604428
0.004965716341420066   -0.02387607335146644   -0.0012463604333618136
0.0021081172527513932   -0.023938541347698055   -0.0011805226344087285
0.0041345334878235395   -0.028903351504508727   -0.0011666572085604428
0.0014426909838129928   -0.0290248583025986   -0.0011612440527964316
0.0013912628724247012   -0.029027871423422506   -0.0012146016592524316
0.0021081172527513932   -0.023938541347698055   -0.0011805226344087285
0.0041345334878235395   -0.028903351504508727   -0.0011666572085604428
0.0013912628724247012   -0.029027871423422506   -0.0012146016592524316
0.004965716341420066   -0.02387607335146644   -0.0012463604333618136
0.0021081172527513932   -0.023938541347698055   -0.0011805226344087285
0.0014426909838129928   -0.0290248583025986   -0.0011612440527964316
0.00502307256784451   -0.023862251119021818   -0.0012025270373533952
0.00212435345998735   -0.023934928132240362   -0.001151770382339713
0.0014426909838129928   -0.0290248583025986   -0.0011612440527964316
0.0041345334878235395   -0.028903351504508727   -0.0011666572085604428
0.00502307256784451   -0.023862251119021818   -0.0012025270373533952
0.004235028377403221   -0.028903316843780953   -0.001096267726629446
0.00212435345998735   -0.023934928132240362   -0.001151770382339713
0.005074335347152742   -0.023847389590102432   -0.0011666305104597544
0.004235028377403221   -0.028903316843780953   -0.001096267726629446
0.00502307256784451   -0.023862251119021818   -0.0012025270373533952
0.00212435345998735   -0.023934928132240362   -0.001151770382339713
0.004235028377403221   -0.028903316843780953   -0.001096267726629446
0.0014770002097796652   -0.029032339880223253   -0.0011129062362203776
0.0014426909838129928   -0.0290248583025986   -0.0011612440527964316
0.00212435345998735   -0.023934928132240362   -0.001151770382339713
0.004235028377403221   -0.028903316843780953   -0.001096267726629446
0.0014426909838129928   -0.0290248583025986   -0.0011612440527964316
0.00502307256784451   -0.023862251119021818   -0.0012025270373533952
-0.00847906762640445   -0.029038130756575763   -0.0013321297966169905
-0.0077391368062608296   -0.033503512218439224   -0.0012429205183440014
-0.005800354106203596   -0.02909624922689311   -0.0012855860092215387
-0.008417532812284578   -0.029077862223985784   -0.001365875178653943
-0.0077391368062608296   -0.033503512218439224   -0.0012429205183440014
-0.005485832977103933   -0.033607973867861934   -0.0012355540886532246
-0.005800354106203596   -0.02909624922689311   -0.0012855860092215387
-0.005429908282188956   -0.03362305740743108   -0.0012603110855578222
-0.008417532812284578   -0.029077862223985784   -0.001365875178653943
-0.005766287349359052   -0.029125667067322572   -0.0012927130077925867
-0.005429908282188956   -0.03362305740743108   -0.0012603110855578222
-0.005800354106203596   -0.02909624922689311   -0.0012855860092215387
-0.008417532812284578   -0.029077862223985784   -0.001365875178653943
-0.005429908282188956   -0.03362305740743108   -0.0012603110855578222
-0.007622364727093406   -0.0335258643926566   -0.0013123617523122077
-0.0077391368062608296   -0.033503512218439224   -0.0012429205183440014
-0.008417532812284578   -0.029077862223985784   -0.001365875178653943
-0.005429908282188956   -0.03362305740743108   -0.0012603110855578222
-0.0077391368062608296   -0.033503512218439224   -0.0012429205183440014
-0.005800354106203596   -0.02909624922689311   -0.0012855860092215387
-0.008417532812284578   -0.029077862223985784   -0.001365875178653943
-0.007622364727093406   -0.0335258643926566   -0.0013123617523122077
-0.005766287349359052   -0.029125667067322572   -0.0012927130077925867
-0.008347518445535766   -0.02912680976538338   -0.0014082532822621212
-0.007622364727093406   -0.0335258643926566   -0.0013123617523122077
-0.005429908282188956   -0.03362305740743108   -0.0012603110855578222
-0.005766287349359052   -0.029125667067322572   -0.0012927130077925867
-0.00535965323559149   -0.03365932339778668   -0.0012906200072020746
-0.008347518445535766   -0.02912680976538338   -0.0014082532822621212
-0.005720269311464669   -0.02916769571558514   -0.0013053315172720085
-0.00535965323559149   -0.03365932339778668   -0.0012906200072020746
-0.005766287349359052   -0.029125667067322572   -0.0012927130077925867
-0.008347518445535766   -0.02912680976538338   -0.0014082532822621212
-0.00535965323559149   -0.03365932339778668   -0.0012906200072020746
-0.007506041368901508   -0.033568430756279126   -0.0013908412552885384
-0.007622364727093406   -0.0335258643926566   -0.0013123617523122077
-0.008347518445535766   -0.02912680976538338   -0.0014082532822621212
-0.00535965323559149   -0.03365932339778668   -0.0012906200072020746
-0.007622364727093406   -0.0335258643926566   -0.0013123617523122077
-0.005766287349359052   -0.029125667067322572   -0.0012927130077925867
-0.008347518445535766   -0.02912680976538338   -0.0014082532822621212
-0.007506041368901508   -0.033568430756279126   -0.0013908412552885384
-0.005720269311464669   -0.02916769571558514   -0.0013053315172720085
-0.0082523422676786   -0.02920141208898708   -0.0014594347799587479
-0.007506041368901508   -0.033568430756279126   -0.0013908412552885384
-0.00535965323559149   -0.03365932339778668   -0.0012906200072020746
-0.005720269311464669   -0.02916769571558514   -0.0013053315172720085
-0.0052903628587270286   -0.0337188343238027   -0.001326428268870675
-0.0082523422676786   -0.02920141208898708   -0.0014594347799587479
-0.005670939920081876   -0.02922490610784089   -0.0013235961222641936
-0.0052903628587270286   -0.0337188343238027   -0.001326428268870675
-0.005720269311464669   -0.02916769571558514   -0.0013053315172720085
-0.0082523422676786   -0.02920141208898708   -0.0014594347799587479
-0.0052903628587270286   -0.0337188343238027   -0.001326428268870675
-0.007357081993859001   -0.033647805776361464   -0.001478204501745593
-0.007506041368901508   -0.033568430756279126   -0.0013908412552885384
-0.0082523422676786   -0.02920141208898708   -0.0014594347799587479
-0.0052903628587270286   -0.0337188343238027   -0.001326428268870675
-0.007506041368901508   -0.033568430756279126   -0.0013908412552885384
-0.005720269311464669   -0.02916769571558514   -0.0013053315172720085
-0.005800354106203596   -0.02909624922689311   -0.0012855860092215387
-0.005485832977103933   -0.033607973867861934   -0.0012355540886532246
-0.0033979624770297057   -0.02911906123227785   -0.0012558415407963647
-0.005766287349359052   -0.029125667067322572   -0.0012927130077925867
-0.005485832977103933   -0.033607973867861934   -0.0012355540886532246
-0.0035328779308482273   -0.033656615368503756   -0.0012327198015645875
-0.0033979624770297057   -0.02911906123227785   -0.0012558415407963647
-0.0034755543224192146   -0.0336615167248042   -0.0012215698774273327
-0.005766287349359052   -0.029125667067322572   -0.0012927130077925867
-0.003360923606083526   -0.02913429193757618   -0.001240297339879716
-0.0034755543224192146   -0.0336615167248042   -0.0012215698774273327
-0.0033979624770297057   -0.02911906123227785   -0.0012558415407963647
-0.005766287349359052   -0.029125667067322572   -0.0012927130077925867
-0.0034755543224192146   -0.0336615167248042   -0.0012215698774273327
-0.005429908282188956   -0.03362305740743108   -0.0012603110855578222
-0.005485832977103933   -0.033607973867861934   -0.0012355540886532246
-0.005766287349359052   -0.029125667067322572   -0.0012927130077925867
-0.0034755543224192146   -0.0336615167248042   -0.0012215698774273327
-0.005485832977103933   -0.033607973867861934   -0.0012355540886532246
-0.0033979624770297057   -0.02911906123227785   -0.0012558415407963647
-0.005766287349359052   -0.029125667067322572   -0.0012927130077925867
-0.005429908282188956   -0.03362305740743108   -0.0012603110855578222
-0.003360923606083526   -0.02913429193757618   -0.001240297339879716
-0.005720269311464669   -0.02916769571558514   -0.0013053315172720085
-0.005429908282188956   -0.03362305740743108   -0.0012603110855578222
-0.0034755543224192146   -0.0336615167248042   -0.0012215698774273327
-0.003360923606083526   -0.02913429193757618   -0.001240297339879716
-0.0034163681748619773   -0.03368534444037174   -0.001215807195757097
-0.005720269311464669   -0.02916769571558514   -0.0013053315172720085
-0.00332110329775499   -0.029161635668870815   -0.0012301763503927098
-0.0034163681748619773   -0.03368534444037174   -0.001215807195757097
-0.003360923606083526   -0.02913429193757618   -0.001240297339879716
-0.005720269311464669   -0.02916769571558514   -0.0013053315172720085
-0.0034163681748619773   -0.03368534444037174   -0.001215807195757097
-0.00535965323559149   -0.03365932339778668   -0.0012906200072020746
-0.005429908282188956   -0.03362305740743108   -0.0012603110855578222
-0.005720269311464669   -0.02916769571558514   -0.0013053315172720085
-0.0034163681748619773   -0.03368534444037174   -0.001215807195757097
-0.005429908282188956   -0.03362305740743108   -0.0012603110855578222
-0.003360923606083526   -0.02913429193757618   -0.001240297339879716
-0.005720269311464669   -0.02916769571558514   -0.0013053315172720085
-0.00535965323559149   -0.03365932339778668   -0.0012906200072020746
-0.00332110329775499   -0.029161635668870815   -0.0012301763503927098
-0.005670939920081876   -0.02922490610784089   -0.0013235961222641936
-0.00535965323559149   -0.03365932339778668   -0.0012906200072020746
-0.0034163681748619773   -0.03368534444037174   -0.001215807195757097
-0.00332110329775499   -0.029161635668870815   -0.0012301763503927098
-0.003357267439458606   -0.0337291866031797   -0.0012153714449566503
-0.005670939920081876   -0.02922490610784089   -0.0013235961222641936
-0.003280173951683723   -0.029201432163501493   -0.0012257485060826235
-0.003357267439458606   -0.0337291866031797   -0.0012153714449566503
-0.00332110329775499   -0.029161635668870815   -0.0012301763503927098
-0.005670939920081876   -0.02922490610784089   -0.0013235961222641936
-0.003357267439458606   -0.0337291866031797   -0.0012153714449566503
-0.0052903628587270286   -0.0337188343238027   -0.001326428268870675
-0.00535965323559149   -0.03365932339778668   -0.0012906200072020746
-0.005670939920081876   -0.02922490610784089   -0.0013235961222641936
-0.003357267439458606   -0.0337291866031797   -0.0012153714449566503
-0.00535965323559149   -0.03365932339778668   -0.0012906200072020746
-0.00332110329775499   -0.029161635668870815   -0.0012301763503927098
-0.0033979624770297057   -0.02911906123227785   -0.0012558415407963647
-0.0035328779308482273   -0.033656615368503756   -0.0012327198015645875
-0.0010681289240082653   -0.029101184138604526   -0.0012512380821987626
-0.003360923606083526   -0.02913429193757618   -0.001240297339879716
-0.0035328779308482273   -0.033656615368503756   -0.0012327198015645875
-0.0016445610952477913   -0.03364721154254171   -0.0012469584618104372
-0.0010681289240082653   -0.029101184138604526   -0.0012512380821987626
-0.001581777473999604   -0.03364065567578865   -0.001201155574517586
-0.003360923606083526   -0.02913429193757618   -0.001240297339879716
-0.001027171944272925   -0.029101374346338946   -0.0012138003046713633
-0.001581777473999604   -0.03364065567578865   -0.001201155574517586
-0.0010681289240082653   -0.029101184138604526   -0.0012512380821987626
-0.003360923606083526   -0.02913429193757618   -0.001240297339879716
-0.001581777473999604   -0.03364065567578865   -0.001201155574517586
-0.0034755543224192146   -0.0336615167248042   -0.0012215698774273327
-0.0035328779308482273   -0.033656615368503756   -0.0012327198015645875
-0.003360923606083526   -0.02913429193757618   -0.001240297339879716
-0.001581777473999604   -0.03364065567578865   -0.001201155574517586
-0.0035328779308482273   -0.033656615368503756   -0.0012327198015645875
-0.0010681289240082653   -0.029101184138604526   -0.0012512380821987626
-0.003360923606083526   -0.02913429193757618   -0.001240297339879716
-0.0034755543224192146   -0.0336615167248042   -0.0012215698774273327
-0.001027171944272925   -0.029101374346338946   -0.0012138003046713633
-0.00332110329775499   -0.029161635668870815   -0.0012301763503927098
-0.0034755543224192146   -0.0336615167248042   -0.0012215698774273327
-0.001581777473999604   -0.03364065567578865   -0.001201155574517586
-0.001027171944272925   -0.029101374346338946   -0.0012138003046713633
-0.0015208138197231023   -0.03365124651884719   -0.0011610964847779694
-0.00332110329775499   -0.029161635668870815   -0.0012301763503927098
-0.0009872726907313321   -0.029112808110393185   -0.001181802335390552
-0.0015208138197231023   -0.03365124651884719   -0.0011610964847779694
-0.001027171944272925   -0.029101374346338946   -0.0012138003046713633
-0.00332110329775499   -0.029161635668870815   -0.0012301763503927098
-0.0015208138197231023   -0.03365124651884719   -0.0011610964847779694
-0.0034163681748619773   -0.03368534444037174   -0.001215807195757097
-0.0034755543224192146   -0.0336615167248042   -0.0012215698774273327
-0.00332110329775499   -0.029161635668870815   -0.0012301763503927098
-0.0015208138197231023   -0.03365124651884719   -0.0011610964847779694
-0.0034755543224192146   -0.0336615167248042   -0.0012215698774273327
-0.001027171944272925   -0.029101374346338946   -0.0012138003046713633
-0.00332110329775499   -0.029161635668870815   -0.0012301763503927098
-0.0034163681748619773   -0.03368534444037174   -0.001215807195757097
-0.0009872726907313321   -0.029112808110393185   -0.001181802335390552
-0.003280173951683723   -0.029201432163501493   -0.0012257485060826235
-0.0034163681748619773   -0.03368534444037174   -0.001215807195757097
-0.0015208138197231023   -0.03365124651884719   -0.0011610964847779694
-0.0009872726907313321   -0.029112808110393185   -0.001181802335390552
-0.001465706239688358   -0.03368141464881724   -0.0011262883954625369
-0.003280173951683723   -0.029201432163501493   -0.0012257485060826235
-0.0009516276569505788   -0.029136418097083706   -0.0011554318431451556
-0.001465706239688358   -0.03368141464881724   -0.0011262883954625369
-0.0009872726907313321   -0.029112808110393185   -0.001181802335390552
-0.003280173951683723   -0.029201432163501493   -0.0012257485060826235
-0.001465706239688358   -0.03368141464881724   -0.0011262883954625369
-0.003357267439458606   -0.0337291866031797   -0.0012153714449566503
-0.0034163681748619773   -0.03368534444037174   -0.001215807195757097
-0.003280173951683723   -0.029201432163501493   -0.0012257485060826235
-0.001465706239688358   -0.03368141464881724   -0.0011262883954625369
-0.0034163681748619773   -0.03368534444037174   -0.001215807195757097
-0.0009872726907313321   -0.029112808110393185   -0.001181802335390552
-0.0010681289240082653   -0.029101184138604526   -0.0012512380821987626
-0.0016445610952477913   -0.03364721154254171   -0.0012469584618104372
0.001341168192155642   -0.02904373789952903   -0.0012737431474309762
-0.001027171944272925   -0.029101374346338946   -0.0012138003046713633
-0.0016445610952477913   -0.03364721154254171   -0.0012469584618104372
0.0003308675131892975   -0.033577674406326447   -0.0012813064683582338
0.001341168192155642   -0.02904373789952903   -0.0012737431474309762
0.00040730366143314775   -0.03355660776071136   -0.001200952544108534
-0.001027171944272925   -0.029101374346338946   -0.0012138003046713633
0.0013912628724247012   -0.029027871423422506   -0.0012146016592524316
0.00040730366143314775   -0.03355660776071136   -0.001200952544108534
0.001341168192155642   -0.02904373789952903   -0.0012737431474309762
-0.001027171944272925   -0.029101374346338946   -0.0012138003046713633
0.00040730366143314775   -0.03355660776071136   -0.001200952544108534
-0.001581777473999604   -0.03364065567578865   -0.001201155574517586
-0.0016445610952477913   -0.03364721154254171   -0.0012469584618104372
-0.001027171944272925   -0.029101374346338946   -0.0012138003046713633
0.00040730366143314775   -0.03355660776071136   -0.001200952544108534
-0.0016445610952477913   -0.03364721154254171   -0.0012469584618104372
0.001341168192155642   -0.02904373789952903   -0.0012737431474309762
-0.001027171944272925   -0.029101374346338946   -0.0012138003046713633
-0.001581777473999604   -0.03364065567578865   -0.001201155574517586
0.0013912628724247012   -0.029027871423422506   -0.0012146016592524316
-0.0009872726907313321   -0.029112808110393185   -0.001181802335390552
-0.001581777473999604   -0.03364065567578865   -0.001201155574517586
0.00040730366143314775   -0.03355660776071136   -0.001200952544108534
0.0013912628724247012   -0.029027871423422506   -0.0012146016592524316
0.0004879538093935199   -0.033554707798395464   -0.0011278715279425071
-0.0009872726907313321   -0.029112808110393185   -0.001181802335390552
0.0014426909838129928   -0.0290248583025986   -0.0011612440527964316
0.0004879538093935199   -0.033554707798395464   -0.0011278715279425071
0.0013912628724247012   -0.029027871423422506   -0.0012146016592524316
-0.0009872726907313321   -0.029112808110393185   -0.001181802335390552
0.0004879538093935199   -0.033554707798395464   -0.0011278715279425071
-0.0015208138197231023   -0.03365124651884719   -0.0011610964847779694
-0.001581777473999604   -0.03364065567578865   -0.001201155574517586
-0.0009872726907313321   -0.029112808110393185   -0.001181802335390552
0.0004879538093935199   -0.033554707798395464   -0.0011278715279425071
-0.001581777473999604   -0.03364065567578865   -0.001201155574517586
0.0013912628724247012   -0.029027871423422506   -0.0012146016592524316
-0.0009872726907313321   -0.029112808110393185   -0.001181802335390552
-0.0015208138197231023   -0.03365124651884719   -0.0011610964847779694
0.0014426909838129928   -0.0290248583025986   -0.0011612440527964316
-0.0009516276569505788   -0.029136418097083706   -0.0011554318431451556
-0.0015208138197231023   -0.03365124651884719   -0.0011610964847779694
0.0004879538093935199   -0.033554707798395464   -0.0011278715279425071
0.0014426909838129928   -0.0290248583025986   -0.0011612440527964316
0.0005469361555712044   -0.033571088115821886   -0.0010597945180284376
-0.0009516276569505788   -0.029136418097083706   -0.0011554318431451556
0.0014770002097796652   -0.029032339880223253   -0.0011129062362203776
0.0005469361555712044   -0.033571088115821886   -0.0010597945180284376
0.0014426909838129928   -0.0290248583025986   -0.0011612440527964316
-0.0009516276569505788   -0.029136418097083706   -0.0011554318431451556
0.0005469361555712044   -0.033571088115821886   -0.0010597945180284376
-0.001465706239688358   -0.03368141464881724   -0.0011262883954625369
-0.0015208138197231023   -0.03365124651884719   -0.0011610964847779694
-0.0009516276569505788   -0.029136418097083706   -0.0011554318431451556
0.0005469361555712044   -0.033571088115821886   -0.0010597945180284376
-0.0015208138197231023   -0.03365124651884719   -0.0011610964847779694
0.0014426909838129928   -0.0290248583025986   -0.0011612440527964316
0.001341168192155642   -0.02904373789952903   -0.0012737431474309762
0.0003308675131892975   -0.033577674406326447   -0.0012813064683582338
0.0039023063938057705   -0.028944923265551602   -0.001331254862682244
0.0013912628724247012   -0.029027871423422506   -0.0012146016592524316
0.0003308675131892975   -0.033577674406326447   -0.0012813064683582338
0.002434278319009502   -0.033441452418030745   -0.001354272052401124
0.0039023063938057705   -0.028944923265551602   -0.001331254862682244
0.0026286458461659574   -0.033401099861108965   -0.001231248429373416
0.0013912628724247012   -0.029027871423422506   -0.0012146016592524316
0.00403565362804779   -0.02891235762868721   -0.0012451055005991676
0.0026286458461659574   -0.033401099861108965   -0.001231248429373416
0.0039023063938057705   -0.028944923265551602   -0.001331254862682244
0.0013912628724247012   -0.029027871423422506   -0.0012146016592524316
0.0026286458461659574   -0.033401099861108965   -0.001231248429373416
0.00040730366143314775   -0.03355660776071136   -0.001200952544108534
0.0003308675131892975   -0.033577674406326447   -0.0012813064683582338
0.0013912628724247012   -0.029027871423422506   -0.0012146016592524316
0.0026286458461659574   -0.033401099861108965   -0.001231248429373416
0.0003308675131892975   -0.033577674406326447   -0.0012813064683582338
0.0039023063938057705   -0.028944923265551602   -0.001331254862682244
0.0013912628724247012   -0.029027871423422506   -0.0012146016592524316
0.00040730366143314775   -0.03355660776071136   -0.001200952544108534
0.00403565362804779   -0.02891235762868721   -0.0012451055005991676
0.0014426909838129928   -0.0290248583025986   -0.0011612440527964316
0.00040730366143314775   -0.03355660776071136   -0.001200952544108534
0.0026286458461659574   -0.033401099861108965   -0.001231248429373416
0.00403565362804779   -0.02891235762868721   -0.0012451055005991676
0.0027777283895319563   -0.03339410954894684   -0.0011172470899427787
0.0014426909838129928   -0.0290248583025986   -0.0011612440527964316
0.0041345334878235395   -0.028903351504508727   -0.0011666572085604428
0.0027777283895319563   -0.03339410954894684   -0.0011172470899427787
0.00403565362804779   -0.02891235762868721   -0.0012451055005991676
0.0014426909838129928   -0.0290248583025986   -0.0011612440527964316
0.0027777283895319563   -0.03339410954894684   -0.0011172470899427787
0.0004879538093935199   -0.033554707798395464   -0.0011278715279425071
0.00040730366143314775   -0.03355660776071136   -0.001200952544108534
0.0014426909838129928   -0.0290248583025986   -0.0011612440527964316
0.0027777283895319563   -0.03339410954894684   -0.0011172470899427787
0.00040730366143314775   -0.03355660776071136   -0.001200952544108534
0.00403565362804779   -0.02891235762868721   -0.0012451055005991676
0.0014426909838129928   -0.0290248583025986   -0.0011612440527964316
0.0004879538093935199   -0.033554707798395464   -0.0011278715279425071
0.0041345334878235395   -0.028903351504508727   -0.0011666572085604428
0.0014770002097796652   -0.029032339880223253   -0.0011129062362203776
0.0004879538093935199   -0.033554707798395464   -0.0011278715279425071
0.0027777283895319563   -0.03339410954894684   -0.0011172470899427787
0.0041345334878235395   -0.028903351504508727   -0.0011666572085604428
0.0029325145219615922   -0.03340619907095307   -0.0010131935165551451
0.0014770002097796652   -0.029032339880223253   -0.0011129062362203776
0.004235028377403221   -0.028903316843780953   -0.001096267726629446
0.0029325145219615922   -0.03340619907095307   -0.0010131935165551451
0.0041345334878235395   -0.028903351504508727   -0.0011666572085604428
0.0014770002097796652   -0.029032339880223253   -0.0011129062362203776
0.0029325145219615922   -0.03340619907095307   -0.0010131935165551451
0.0005469361555712044   -0.033571088115821886   -0.0010597945180284376
0.0004879538093935199   -0.033554707798395464   -0.0011278715279425071
0.0014770002097796652   -0.029032339880223253   -0.0011129062362203776
0.0029325145219615922   -0.03340619907095307   -0.0010131935165551451
0.0004879538093935199   -0.033554707798395464   -0.0011278715279425071
0.0041345334878235395   -0.028903351504508727   -0.0011666572085604428
-0.0077391368062608296   -0.033503512218439224   -0.0012429205183440014
-0.006488624769746389   -0.03700645043313653   -0.001128240063969442
-0.005485832977103933   -0.033607973867861934   -0.0012355540886532246
-0.007622364727093406   -0.0335258643926566   -0.0013123617523122077
-0.006488624769746389   -0.03700645043313653   -0.001128240063969442
-0.004884232502953306   -0.03716070592454736   -0.001174417289563241
-0.005485832977103933   -0.033607973867861934   -0.0012355540886532246
-0.00480411239108557   -0.03715290724239346   -0.001212494046670114
-0.007622364727093406   -0.0335258643926566   -0.0013123617523122077
-0.005429908282188956   -0.03362305740743108   -0.0012603110855578222
-0.00480411239108557   -0.03715290724239346   -0.001212494046670114
-0.005485832977103933   -0.033607973867861934   -0.0012355540886532246
-0.007622364727093406   -0.0335258643926566   -0.0013123617523122077
-0.00480411239108557   -0.03715290724239346   -0.001212494046670114
-0.006315270110839117   -0.03700220449981185   -0.0012308765326207924
-0.006488624769746389   -0.03700645043313653   -0.001128240063969442
-0.007622364727093406   -0.0335258643926566   -0.0013123617523122077
-0.00480411239108557   -0.03715290724239346   -0.001212494046670114
-0.006488624769746389   -0.03700645043313653   -0.001128240063969442
-0.005485832977103933   -0.033607973867861934   -0.0012355540886532246
-0.007622364727093406   -0.0335258643926566   -0.0013123617523122077
-0.006315270110839117   -0.03700220449981185   -0.0012308765326207924
-0.005429908282188956   -0.03362305740743108   -0.0012603110855578222
-0.007506041368901508   -0.033568430756279126   -0.0013908412552885384
-0.006315270110839117   -0.03700220449981185   -0.0012308765326207924
-0.00480411239108557   -0.03715290724239346   -0.001212494046670114
-0.005429908282188956   -0.03362305740743108   -0.0012603110855578222
-0.004709776965809852   -0.03717536767201885   -0.0012562240659562917
-0.007506041368901508   -0.033568430756279126   -0.0013908412552885384
-0.00535965323559149   -0.03365932339778668   -0.0012906200072020746
-0.004709776965809852   -0.03717536767201885   -0.0012562240659562917
-0.005429908282188956   -0.03362305740743108   -0.0012603110855578222
-0.007506041368901508   -0.033568430756279126   -0.0013908412552885384
-0.004709776965809852   -0.03717536767201885   -0.0012562240659562917
-0.006155578291940633   -0.03702991362182913   -0.0013414823459471819
-0.006315270110839117   -0.03700220449981185   -0.0012308765326207924
-0.007506041368901508   -0.033568430756279126   -0.0013908412552885384
-0.004709776965809852   -0.03717536767201885   -0.0012562240659562917
-0.006315270110839117   -0.03700220449981185   -0.0012308765326207924
-0.005429908282188956   -0.03362305740743108   -0.0012603110855578222
-0.007506041368901508   -0.033568430756279126   -0.0013908412552885384
-0.006155578291940633   -0.03702991362182913   -0.0013414823459471819
-0.00535965323559149   -0.03365932339778668   -0.0012906200072020746
-0.007357081993859001   -0.033647805776361464   -0.001478204501745593
-0.006155578291940633   -0.03702991362182913   -0.0013414823459471819
-0.004709776965809852   -0.03717536767201885   -0.0012562240659562917
-0.00535965323559149   -0.03365932339778668   -0.0012906200072020746
-0.004624201839460314   -0.0372286143810583   -0.001305247876775672
-0.007357081993859001   -0.033647805776361464   -0.001478204501745593
-0.0052903628587270286   -0.0337188343238027   -0.001326428268870675
-0.004624201839460314   -0.0372286143810583   -0.001305247876775672
-0.00535965323559149   -0.03365932339778668   -0.0012906200072020746
-0.007357081993859001   -0.033647805776361464   -0.001478204501745593
-0.004624201839460314   -0.0372286143810583   -0.001305247876775672
-0.005960736314151923   -0.037103572038598015   -0.001459599705822212
-0.006155578291940633   -0.03702991362182913   -0.0013414823459471819
-0.007357081993859001   -0.033647805776361464   -0.001478204501745593
-0.004624201839460314   -0.0372286143810583   -0.001305247876775672
-0.006155578291940633   -0.03702991362182913   -0.0013414823459471819
-0.00535965323559149   -0.03365932339778668   -0.0012906200072020746
-0.005485832977103933   -0.033607973867861934   -0.0012355540886532246
-0.004884232502953306   -0.03716070592454736   -0.001174417289563241
-0.0035328779308482273   -0.033656615368503756   -0.0012327198015645875
-0.005429908282188956   -0.03362305740743108   -0.0012603110855578222
-0.004884232502953306   -0.03716070592454736   -0.001174417289563241
-0.003571145710447025   -0.03726000184435158   -0.0012105791553842023
-0.0035328779308482273   -0.033656615368503756   -0.0012327198015645875
-0.003489026161678264   -0.03724735644154431   -0.0011989488445937892
-0.005429908282188956   -0.03362305740743108   -0.0012603110855578222
-0.0034755543224192146   -0.0336615167248042   -0.0012215698774273327
-0.003489026161678264   -0.03724735644154431   -0.0011989488445937892
-0.0035328779308482273   -0.033656615368503756   -0.0012327198015645875
-0.005429908282188956   -0.03362305740743108   -0.0012603110855578222
-0.003489026161678264   -0.03724735644154431   -0.0011989488445937892
-0.00480411239108557   -0.03715290724239346   -0.001212494046670114
-0.004884232502953306   -0.03716070592454736   -0.001174417289563241
-0.005429908282188956   -0.03362305740743108   -0.0012603110855578222
-0.003489026161678264   -0.03724735644154431   -0.0011989488445937892
-0.004884232502953306   -0.03716070592454736   -0.001174417289563241
-0.0035328779308482273   -0.033656615368503756   -0.0012327198015645875
-0.005429908282188956   -0.03362305740743108   -0.0012603110855578222
-0.00480411239108557   -0.03715290724239346   -0.001212494046670114
-0.0034755543224192146   -0.0336615167248042   -0.0012215698774273327
-0.00535965323559149   -0.03365932339778668   -0.0012906200072020746
-0.00480411239108557   -0.03715290724239346   -0.001212494046670114
-0.003489026161678264   -0.03724735644154431   -0.0011989488445937892
-0.0034755543224192146   -0.0336615167248042   -0.0012215698774273327
-0.0034080032874972323   -0.03726086160271972   -0.0011928163304875125
-0.00535965323559149   -0.03365932339778668   -0.0012906200072020746
-0.0034163681748619773   -0.03368534444037174   -0.001215807195757097
-0.0034080032874972323   -0.03726086160271972   -0.0011928163304875125
-0.0034755543224192146   -0.0336615167248042   -0.0012215698774273327
-0.00535965323559149   -0.03365932339778668   -0.0012906200072020746
-0.0034080032874972323   -0.03726086160271972   -0.0011928163304875125
-0.004709776965809852   -0.03717536767201885   -0.0012562240659562917
-0.00480411239108557   -0.03715290724239346   -0.001212494046670114
-0.00535965323559149   -0.03365932339778668   -0.0012906200072020746
-0.0034080032874972323   -0.03726086160271972   -0.0011928163304875125
-0.00480411239108557   -0.03715290724239346   -0.001212494046670114
-0.0034755543224192146   -0.0336615167248042   -0.0012215698774273327
-0.00535965323559149   -0.03365932339778668   -0.0012906200072020746
-0.004709776965809852   -0.03717536767201885   -0.0012562240659562917
-0.0034163681748619773   -0.03368534444037174   -0.001215807195757097
-0.0052903628587270286   -0.0337188343238027   -0.001326428268870675
-0.004709776965809852   -0.03717536767201885   -0.0012562240659562917
-0.0034080032874972323   -0.03726086160271972   -0.0011928163304875125
-0.0034163681748619773   -0.03368534444037174   -0.001215807195757097
-0.0033333901695239932   -0.037301361686891   -0.0011933230100046608
-0.0052903628587270286   -0.0337188343238027   -0.001326428268870675
-0.003357267439458606   -0.0337291866031797   -0.0012153714449566503
-0.0033333901695239932   -0.037301361686891   -0.0011933230100046608
-0.0034163681748619773   -0.03368534444037174   -0.001215807195757097
-0.0052903628587270286   -0.0337188343238027   -0.001326428268870675
-0.0033333901695239932   -0.037301361686891   -0.0011933230100046608
-0.004624201839460314   -0.0372286143810583   -0.001305247876775672
-0.004709776965809852   -0.03717536767201885   -0.0012562240659562917
-0.0052903628587270286   -0.0337188343238027   -0.001326428268870675
-0.0033333901695239932   -0.037301361686891   -0.0011933230100046608
-0.004709776965809852   -0.03717536767201885   -0.0012562240659562917
-0.0034163681748619773   -0.03368534444037174   -0.001215807195757097
-0.0035328779308482273   -0.033656615368503756   -0.0012327198015645875
-0.003571145710447025   -0.03726000184435158   -0.0012105791553842023
-0.0016445610952477913   -0.03364721154254171   -0.0012469584618104372
-0.0034755543224192146   -0.0336615167248042   -0.0012215698774273327
-0.003571145710447025   -0.03726000184435158   -0.0012105791553842023
-0.002313250195432382   -0.03731110633604466   -0.0012535449909149184
-0.0016445610952477913   -0.03364721154254171   -0.0012469584618104372
-0.002220701064838383   -0.037292721153724645   -0.0011949964319458372
-0.0034755543224192146   -0.0336615167248042   -0.0012215698774273327
-0.001581777473999604   -0.03364065567578865   -0.001201155574517586
-0.002220701064838383   -0.037292721153724645   -0.0011949964319458372
-0.0016445610952477913   -0.03364721154254171   -0.0012469584618104372
-0.0034755543224192146   -0.0336615167248042   -0.0012215698774273327
-0.002220701064838383   -0.037292721153724645   -0.0011949964319458372
-0.003489026161678264   -0.03724735644154431   -0.0011989488445937892
-0.003571145710447025   -0.03726000184435158   -0.0012105791553842023
-0.0034755543224192146   -0.0336615167248042   -0.0012215698774273327
-0.002220701064838383   -0.037292721153724645   -0.0011949964319458372
-0.003571145710447025   -0.03726000184435158   -0.0012105791553842023
-0.0016445610952477913   -0.03364721154254171   -0.0012469584618104372
-0.0034755543224192146   -0.0336615167248042   -0.0012215698774273327
-0.003489026161678264   -0.03724735644154431   -0.0011989488445937892
-0.001581777473999604   -0.03364065567578865   -0.001201155574517586
-0.0034163681748619773   -0.03368534444037174   -0.001215807195757097
-0.003489026161678264   -0.03724735644154431   -0.0011989488445937892
-0.002220701064838383   -0.037292721153724645   -0.0011949964319458372
-0.001581777473999604   -0.03364065567578865   -0.001201155574517586
-0.0021324308988377337   -0.03729738912202371   -0.0011413325374561144
-0.0034163681748619773   -0.03368534444037174   -0.001215807195757097
-0.0015208138197231023   -0.03365124651884719   -0.0011610964847779694
-0.0021324308988377337   -0.03729738912202371   -0.0011413325374561144
-0.001581777473999604   -0.03364065567578865   -0.001201155574517586
-0.0034163681748619773   -0.03368534444037174   -0.001215807195757097
-0.0021324308988377337   -0.03729738912202371   -0.0011413325374561144
-0.0034080032874972323   -0.03726086160271972   -0.0011928163304875125
-0.003489026161678264   -0.03724735644154431   -0.0011989488445937892
-0.0034163681748619773   -0.03368534444037174   -0.001215807195757097
-0.0021324308988377337   -0.03729738912202371   -0.0011413325374561144
-0.003489026161678264   -0.03724735644154431   -0.0011989488445937892
-0.001581777473999604   -0.03364065567578865   -0.001201155574517586
-0.0034163681748619773   -0.03368534444037174   -0.001215807195757097
-0.0034080032874972323   -0.03726086160271972   -0.0011928163304875125
-0.0015208138197231023   -0.03365124651884719   -0.0011610964847779694
-0.003357267439458606   -0.0337291866031797   -0.0012153714449566503
-0.0034080032874972323   -0.03726086160271972   -0.0011928163304875125
-0.0021324308988377337   -0.03729738912202371   -0.0011413325374561144
-0.0015208138197231023   -0.03365124651884719   -0.0011610964847779694
-0.002058925637061181   -0.03732949510005476   -0.0010955478233037493
-0.003357267439458606   -0.0337291866031797   -0.0012153714449566503
-0.001465706239688358   -0.03368141464881724   -0.0011262883954625369
-0.002058925637061181   -0.03732949510005476   -0.0010955478233037493
-0.0015208138197231023   -0.03365124651884719   -0.0011610964847779694
-0.003357267439458606   -0.0337291866031797   -0.0012153714449566503
-0.002058925637061181   -0.03732949510005476   -0.0010955478233037493
-0.0033333901695239932   -0.037301361686891   -0.0011933230100046608
-0.0034080032874972323   -0.03726086160271972   -0.0011928163304875125
-0.003357267439458606   -0.0337291866031797   -0.0012153714449566503
-0.002058925637061181   -0.03732949510005476   -0.0010955478233037493
-0.0034080032874972323   -0.03726086160271972   -0.0011928163304875125
-0.0015208138197231023   -0.03365124651884719   -0.0011610964847779694
-0.0016445610952477913   -0.03364721154254171   -0.0012469584618104372
-0.002313250195432382   -0.03731110633604466   -0.0012535449909149184
0.0003308675131892975   -0.033577674406326447   -0.0012813064683582338
-0.001581777473999604   -0.03364065567578865   -0.001201155574517586
-0.002313250195432382   -0.03731110633604466   -0.0012535449909149184
-0.0009772612576291711   -0.037295913975149024   -0.0013043545773987677
0.0003308675131892975   -0.033577674406326447   -0.0012813064683582338
-0.0008584322219639628   -0.037267052977093706   -0.001200862356765394
-0.001581777473999604   -0.03364065567578865   -0.001201155574517586
0.00040730366143314775   -0.03355660776071136   -0.001200952544108534
-0.0008584322219639628   -0.037267052977093706   -0.001200862356765394
0.0003308675131892975   -0.033577674406326447   -0.0012813064683582338
-0.001581777473999604   -0.03364065567578865   -0.001201155574517586
-0.0008584322219639628   -0.037267052977093706   -0.001200862356765394
-0.002220701064838383   -0.037292721153724645   -0.0011949964319458372
-0.002313250195432382   -0.03731110633604466   -0.0012535449909149184
-0.001581777473999604   -0.03364065567578865   -0.001201155574517586
-0.0008584322219639628   -0.037267052977093706   -0.001200862356765394
-0.002313250195432382   -0.03731110633604466   -0.0012535449909149184
0.0003308675131892975   -0.033577674406326447   -0.0012813064683582338
-0.001581777473999604   -0.03364065567578865   -0.001201155574517586
-0.002220701064838383   -0.037292721153724645   -0.0011949964319458372
0.00040730366143314775   -0.03355660776071136   -0.001200952544108534
-0.0015208138197231023   -0.03365124651884719   -0.0011610964847779694
-0.002220701064838383   -0.037292721153724645   -0.0011949964319458372
-0.0008584322219639628   -0.037267052977093706   -0.001200862356765394
0.00040730366143314775   -0.03355660776071136   -0.001200952544108534
-0.0007367238706345339   -0.03726209165131334   -0.0011025807056305457
-0.0015208138197231023   -0.03365124651884719   -0.0011610964847779694
0.0004879538093935199   -0.033554707798395464   -0.0011278715279425071
-0.0007367238706345339   -0.03726209165131334   -0.0011025807056305457
0.00040730366143314775   -0.03355660776071136   -0.001200952544108534
-0.0015208138197231023   -0.03365124651884719   -0.0011610964847779694
-0.0007367238706345339   -0.03726209165131334   -0.0011025807056305457
-0.0021324308988377337   -0.03729738912202371   -0.0011413325374561144
-0.002220701064838383   -0.037292721153724645   -0.0011949964319458372
-0.0015208138197231023   -0.03365124651884719   -0.0011610964847779694
-0.0007367238706345339   -0.03726209165131334   -0.0011025807056305457
-0.002220701064838383   -0.037292721153724645   -0.0011949964319458372
0.00040730366143314775   -0.03355660776071136   -0.001200952544108534
-0.0015208138197231023   -0.03365124651884719   -0.0011610964847779694
-0.0021324308988377337   -0.03729738912202371   -0.0011413325374561144
0.0004879538093935199   -0.033554707798395464   -0.0011278715279425071
-0.001465706239688358   -0.03368141464881724   -0.0011262883954625369
-0.0021324308988377337   -0.03729738912202371   -0.0011413325374561144
-0.0007367238706345339   -0.03726209165131334   -0.0011025807056305457
0.0004879538093935199   -0.033554707798395464   -0.0011278715279425071
-0.0006467082987606913   -0.03728608301967725   -0.001013208031390011
-0.001465706239688358   -0.03368141464881724   -0.0011262883954625369
0.0005469361555712044   -0.033571088115821886   -0.0010597945180284376
-0.0006467082987606913   -0.03728608301967725   -0.001013208031390011
0.0004879538093935199   -0.033554707798395464   -0.0011278715279425071
-0.001465706239688358   -0.03368141464881724   -0.0011262883954625369
-0.0006467082987606913   -0.03728608301967725   -0.001013208031390011
-0.002058925637061181   -0.03732949510005476   -0.0010955478233037493
-0.0021324308988377337   -0.03729738912202371   -0.0011413325374561144
-0.001465706239688358   -0.03368141464881724   -0.0011262883954625369
-0.0006467082987606913   -0.03728608301967725   -0.001013208031390011
-0.0021324308988377337   -0.03729738912202371   -0.0011413325374561144
0.0004879538093935199   -0.033554707798395464   -0.0011278715279425071
0.0003308675131892975   -0.033577674406326447   -0.0012813064683582338
-0.0009772612576291711   -0.037295913975149024   -0.0013043545773987677
0.002434278319009502   -0.033441452418030745   -0.001354272052401124
0.00040730366143314775   -0.03355660776071136   -0.001200952544108534
-0.0009772612576291711   -0.037295913975149024   -0.0013043545773987677
0.00045740509753100744   -0.03716687861434882   -0.001407791250948519
0.002434278319009502   -0.033441452418030745   -0.001354272052401124
0.0007360206482359528   -0.0371042940359697   -0.0012386163484706615
0.00040730366143314775   -0.03355660776071136   -0.001200952544108534
0.0026286458461659574   -0.033401099861108965   -0.001231248429373416
0.0007360206482359528   -0.0371042940359697   -0.0012386163484706615
0.002434278319009502   -0.033441452418030745   -0.001354272052401124
0.00040730366143314775   -0.03355660776071136   -0.001200952544108534
0.0007360206482359528   -0.0371042940359697   -0.0012386163484706615
-0.0008584322219639628   -0.037267052977093706   -0.001200862356765394
-0.0009772612576291711   -0.037295913975149024   -0.0013043545773987677
0.00040730366143314775   -0.03355660776071136   -0.001200952544108534
0.0007360206482359528   -0.0371042940359697   -0.0012386163484706615
-0.0009772612576291711   -0.037295913975149024   -0.0013043545773987677
0.002434278319009502   -0.033441452418030745   -0.001354272052401124
0.00040730366143314775   -0.03355660776071136   -0.001200952544108534
-0.0008584322219639628   -0.037267052977093706   -0.001200862356765394
0.0026286458461659574   -0.033401099861108965   -0.001231248429373416
0.0004879538093935199   -0.033554707798395464   -0.0011278715279425071
-0.0008584322219639628   -0.037267052977093706   -0.001200862356765394
0.0007360206482359528   -0.0371042940359697   -0.0012386163484706615
0.0026286458461659574   -0.033401099861108965   -0.001231248429373416
0.0009548846260854247   -0.03709172691109053   -0.0010796316103665702
0.0004879538093935199   -0.033554707798395464   -0.0011278715279425071
0.0027777283895319563   -0.03339410954894684   -0.0011172470899427787
0.0009548846260854247   -0.03709172691109053   -0.0010796316103665702
0.0026286458461659574   -0.033401099861108965   -0.001231248429373416
0.0004879538093935199   -0.033554707798395464   -0.0011278715279425071
0.0009548846260854247   -0.03709172691109053   -0.0010796316103665702
-0.0007367238706345339   -0.03726209165131334   -0.0011025807056305457
-0.0008584322219639628   -0.037267052977093706   -0.001200862356765394
0.0004879538093935199   -0.033554707798395464   -0.0011278715279425071
0.0009548846260854247   -0.03709172691109053   -0.0010796316103665702
-0.0008584322219639628   -0.037267052977093706   -0.001200862356765394
0.0026286458461659574   -0.033401099861108965   -0.001231248429373416
0.0004879538093935199   -0.033554707798395464   -0.0011278715279425071
-0.0007367238706345339   -0.03726209165131334   -0.0011025807056305457
0.0027777283895319563   -0.03339410954894684   -0.0011172470899427787
0.0005469361555712044   -0.033571088115821886   -0.0010597945180284376
-0.0007367238706345339   -0.03726209165131334   -0.0011025807056305457
0.0009548846260854247   -0.03709172691109053   -0.0010796316103665702
0.0027777283895319563   -0.03339410954894684   -0.0011172470899427787
0.0011827511912944541   -0.03710283276189307   -0.0009342657379283578
0.0005469361555712044   -0.033571088115821886   -0.0010597945180284376
0.0029325145219615922   -0.03340619907095307   -0.0010131935165551451
0.0011827511912944541   -0.03710283276189307   -0.0009342657379283578
0.0027777283895319563   -0.03339410954894684   -0.0011172470899427787
0.0005469361555712044   -0.033571088115821886   -0.0010597945180284376
0.0011827511912944541   -0.03710283276189307   -0.0009342657379283578
-0.0006467082987606913   -0.03728608301967725   -0.001013208031390011
-0.0007367238706345339   -0.03726209165131334   -0.0011025807056305457
0.0005469361555712044   -0.033571088115821886   -0.0010597945180284376
0.0011827511912944541   -0.03710283276189307   -0.0009342657379283578
-0.0007367238706345339   -0.03726209165131334   -0.0011025807056305457
0.0027777283895319563   -0.03339410954894684   -0.0011172470899427787
-0.006488624769746389   -0.03700645043313653   -0.001128240063969442
-0.004773503062621959   -0.0390916565372059   -0.0009933497154040929
-0.004884232502953306   -0.03716070592454736   -0.001174417289563241
-0.006315270110839117   -0.03700220449981185   -0.0012308765326207924
-0.004773503062621959   -0.0390916565372059   -0.0009933497154040929
-0.004023221689049699   -0.039286408336371266   -0.0011099096844561823
-0.004884232502953306   -0.03716070592454736   -0.001174417289563241
-0.003922434220175124   -0.03924826867698013   -0.001150545868737763
-0.006315270110839117   -0.03700220449981185   -0.0012308765326207924
-0.00480411239108557   -0.03715290724239346   -0.001212494046670114
-0.003922434220175124   -0.03924826867698013   -0.001150545868737763
-0.004884232502953306   -0.03716070592454736   -0.001174417289563241
-0.006315270110839117   -0.03700220449981185   -0.0012308765326207924
-0.003922434220175124   -0.03924826867698013   -0.001150545868737763
-0.004557888944250092   -0.039048642685369096   -0.001116401328175914
-0.004773503062621959   -0.0390916565372059   -0.0009933497154040929
-0.006315270110839117   -0.03700220449981185   -0.0012308765326207924
-0.003922434220175124   -0.03924826867698013   -0.001150545868737763
-0.004773503062621959   -0.0390916565372059   -0.0009933497154040929
-0.004884232502953306   -0.03716070592454736   -0.001174417289563241
-0.006315270110839117   -0.03700220449981185   -0.0012308765326207924
-0.004557888944250092   -0.039048642685369096   -0.001116401328175914
-0.00480411239108557   -0.03715290724239346   -0.001212494046670114
-0.006155578291940633   -0.03702991362182913   -0.0013414823459471819
-0.004557888944250092   -0.039048642685369096   -0.001116401328175914
-0.003922434220175124   -0.03924826867698013   -0.001150545868737763
-0.00480411239108557   -0.03715290724239346   -0.001212494046670114
-0.00381063846032872   -0.03925060932878863   -0.0011916018165054072
-0.006155578291940633   -0.03702991362182913   -0.0013414823459471819
-0.004709776965809852   -0.03717536767201885   -0.0012562240659562917
-0.00381063846032872   -0.03925060932878863   -0.0011916018165054072
-0.00480411239108557   -0.03715290724239346   -0.001212494046670114
-0.006155578291940633   -0.03702991362182913   -0.0013414823459471819
-0.00381063846032872   -0.03925060932878863   -0.0011916018165054072
-0.004371898233484769   -0.03905283511496865   -0.0012390192149043817
-0.004557888944250092   -0.039048642685369096   -0.001116401328175914
-0.006155578291940633   -0.03702991362182913   -0.0013414823459471819
-0.00381063846032872   -0.03925060932878863   -0.0011916018165054072
-0.004557888944250092   -0.039048642685369096   -0.001116401328175914
-0.00480411239108557   -0.03715290724239346   -0.001212494046670114
-0.006155578291940633   -0.03702991362182913   -0.0013414823459471819
-0.004371898233484769   -0.03905283511496865   -0.0012390192149043817
-0.004709776965809852   -0.03717536767201885   -0.0012562240659562917
-0.005960736314151923   -0.037103572038598015   -0.001459599705822212
-0.004371898233484769   -0.03905283511496865   -0.0012390192149043817
-0.00381063846032872   -0.03925060932878863   -0.0011916018165054072
-0.004709776965809852   -0.03717536767201885   -0.0012562240659562917
-0.0037068756408985405   -0.039293639616630446   -0.0012332483551227619
-0.005960736314151923   -0.037103572038598015   -0.001459599705822212
-0.004624201839460314   -0.0372286143810583   -0.001305247876775672
-0.0037068756408985405   -0.039293639616630446   -0.0012332483551227619
-0.004709776965809852   -0.03717536767201885   -0.0012562240659562917
-0.005960736314151923   -0.037103572038598015   -0.001459599705822212
-0.0037068756408985405   -0.039293639616630446   -0.0012332483551227619
-0.004151156466581399   -0.03910699354402932   -0.0013642654761339317
-0.004371898233484769   -0.03905283511496865   -0.0012390192149043817
-0.005960736314151923   -0.037103572038598015   -0.001459599705822212
-0.0037068756408985405   -0.039293639616630446   -0.0012332483551227619
-0.004371898233484769   -0.03905283511496865   -0.0012390192149043817
-0.004709776965809852   -0.03717536767201885   -0.0012562240659562917
-0.004884232502953306   -0.03716070592454736   -0.001174417289563241
-0.004023221689049699   -0.039286408336371266   -0.0011099096844561823
-0.003571145710447025   -0.03726000184435158   -0.0012105791553842023
-0.00480411239108557   -0.03715290724239346   -0.001212494046670114
-0.004023221689049699   -0.039286408336371266   -0.0011099096844561823
-0.0034719599389433217   -0.03948019296898288   -0.001212809136458415
-0.003571145710447025   -0.03726000184435158   -0.0012105791553842023
-0.003365787927413903   -0.03944097166768243   -0.0011848209434625104
-0.00480411239108557   -0.03715290724239346   -0.001212494046670114
-0.003489026161678264   -0.03724735644154431   -0.0011989488445937892
-0.003365787927413903   -0.03944097166768243   -0.0011848209434625104
-0.003571145710447025   -0.03726000184435158   -0.0012105791553842023
-0.00480411239108557   -0.03715290724239346   -0.001212494046670114
-0.003365787927413903   -0.03944097166768243   -0.0011848209434625104
-0.003922434220175124   -0.03924826867698013   -0.001150545868737763
-0.004023221689049699   -0.039286408336371266   -0.0011099096844561823
-0.00480411239108557   -0.03715290724239346   -0.001212494046670114
-0.003365787927413903   -0.03944097166768243   -0.0011848209434625104
-0.004023221689049699   -0.039286408336371266   -0.0011099096844561823
-0.003571145710447025   -0.03726000184435158   -0.0012105791553842023
-0.00480411239108557   -0.03715290724239346   -0.001212494046670114
-0.003922434220175124   -0.03924826867698013   -0.001150545868737763
-0.003489026161678264   -0.03724735644154431   -0.0011989488445937892
-0.004709776965809852   -0.03717536767201885   -0.0012562240659562917
-0.003922434220175124   -0.03924826867698013   -0.001150545868737763
-0.003365787927413903   -0.03944097166768243   -0.0011848209434625104
-0.003489026161678264   -0.03724735644154431   -0.0011989488445937892
-0.003263058174291223   -0.03944060772565315   -0.001156496397237982
-0.004709776965809852   -0.03717536767201885   -0.0012562240659562917
-0.0034080032874972323   -0.03726086160271972   -0.0011928163304875125
-0.003263058174291223   -0.03944060772565315   -0.001156496397237982
-0.003489026161678264   -0.03724735644154431   -0.0011989488445937892
-0.004709776965809852   -0.03717536767201885   -0.0012562240659562917
-0.003263058174291223   -0.03944060772565315   -0.001156496397237982
-0.00381063846032872   -0.03925060932878863   -0.0011916018165054072
-0.003922434220175124   -0.03924826867698013   -0.001150545868737763
-0.004709776965809852   -0.03717536767201885   -0.0012562240659562917
-0.003263058174291223   -0.03944060772565315   -0.001156496397237982
-0.003922434220175124   -0.03924826867698013   -0.001150545868737763
-0.003489026161678264   -0.03724735644154431   -0.0011989488445937892
-0.004709776965809852   -0.03717536767201885   -0.0012562240659562917
-0.00381063846032872   -0.03925060932878863   -0.0011916018165054072
-0.0034080032874972323   -0.03726086160271972   -0.0011928163304875125
-0.004624201839460314   -0.0372286143810583   -0.001305247876775672
-0.00381063846032872   -0.03925060932878863   -0.0011916018165054072
-0.003263058174291223   -0.03944060772565315   -0.001156496397237982
-0.0034080032874972323   -0.03726086160271972   -0.0011928163304875125
-0.003156018302400173   -0.03947831109495767   -0.0011293190854677834
-0.004624201839460314   -0.0372286143810583   -0.001305247876775672
-0.0033333901695239932   -0.037301361686891   -0.0011933230100046608
-0.003156018302400173   -0.03947831109495767   -0.0011293190854677834
-0.0034080032874972323   -0.03726086160271972   -0.0011928163304875125
-0.004624201839460314   -0.0372286143810583   -0.001305247876775672
-0.003156018302400173   -0.03947831109495767   -0.0011293190854677834
-0.0037068756408985405   -0.039293639616630446   -0.0012332483551227619
-0.00381063846032872   -0.03925060932878863   -0.0011916018165054072
-0.004624201839460314   -0.0372286143810583   -0.001305247876775672
-0.003156018302400173   -0.03947831109495767   -0.0011293190854677834
-0.00381063846032872   -0.03925060932878863   -0.0011916018165054072
-0.0034080032874972323   -0.03726086160271972   -0.0011928163304875125
-0.003571145710447025   -0.03726000184435158   -0.0012105791553842023
-0.0034719599389433217   -0.03948019296898288   -0.001212809136458415
-0.002313250195432382   -0.03731110633604466   -0.0012535449909149184
-0.003489026161678264   -0.03724735644154431   -0.0011989488445937892
-0.0034719599389433217   -0.03948019296898288   -0.001212809136458415
-0.0029678883072837368   -0.03971227629198974   -0.0013263646401680271
-0.002313250195432382   -0.03731110633604466   -0.0012535449909149184
-0.002837840489029628   -0.03967805441914338   -0.0012259384746414605
-0.003489026161678264   -0.03724735644154431   -0.0011989488445937892
-0.002220701064838383   -0.037292721153724645   -0.0011949964319458372
-0.002837840489029628   -0.03967805441914338   -0.0012259384746414605
-0.002313250195432382   -0.03731110633604466   -0.0012535449909149184
-0.003489026161678264   -0.03724735644154431   -0.0011989488445937892
-0.002837840489029628   -0.03967805441914338   -0.0012259384746414605
-0.003365787927413903   -0.03944097166768243   -0.0011848209434625104
-0.0034719599389433217   -0.03948019296898288   -0.001212809136458415
-0.003489026161678264   -0.03724735644154431   -0.0011989488445937892
-0.002837840489029628   -0.03967805441914338   -0.0012259384746414605
-0.0034719599389433217   -0.03948019296898288   -0.001212809136458415
-0.002313250195432382   -0.03731110633604466   -0.0012535449909149184
-0.003489026161678264   -0.03724735644154431   -0.0011989488445937892
-0.003365787927413903   -0.03944097166768243   -0.0011848209434625104
-0.002220701064838383   -0.037292721153724645   -0.0011949964319458372
-0.0034080032874972323   -0.03726086160271972   -0.0011928163304875125
-0.003365787927413903   -0.03944097166768243   -0.0011848209434625104
-0.002837840489029628   -0.03967805441914338   -0.0012259384746414605
-0.002220701064838383   -0.037292721153724645   -0.0011949964319458372
-0.002717219728262211   -0.03967642070858213   -0.00112577999740462
-0.0034080032874972323   -0.03726086160271972   -0.0011928163304875125
-0.0021324308988377337   -0.03729738912202371   -0.0011413325374561144
-0.002717219728262211   -0.03967642070858213   -0.00112577999740462
-0.002220701064838383   -0.037292721153724645   -0.0011949964319458372
-0.0034080032874972323   -0.03726086160271972   -0.0011928163304875125
-0.002717219728262211   -0.03967642070858213   -0.00112577999740462
-0.003263058174291223   -0.03944060772565315   -0.001156496397237982
-0.003365787927413903   -0.03944097166768243   -0.0011848209434625104
-0.0034080032874972323   -0.03726086160271972   -0.0011928163304875125
-0.002717219728262211   -0.03967642070858213   -0.00112577999740462
-0.003365787927413903   -0.03944097166768243   -0.0011848209434625104
-0.002220701064838383   -0.037292721153724645   -0.0011949964319458372
-0.0034080032874972323   -0.03726086160271972   -0.0011928163304875125
-0.003263058174291223   -0.03944060772565315   -0.001156496397237982
-0.0021324308988377337   -0.03729738912202371   -0.0011413325374561144
-0.0033333901695239932   -0.037301361686891   -0.0011933230100046608
-0.003263058174291223   -0.03944060772565315   -0.001156496397237982
-0.002717219728262211   -0.03967642070858213   -0.00112577999740462
-0.0021324308988377337   -0.03729738912202371   -0.0011413325374561144
-0.002587874565622324   -0.039705667054141025   -0.0010255200626355927
-0.0033333901695239932   -0.037301361686891   -0.0011933230100046608
-0.002058925637061181   -0.03732949510005476   -0.0010955478233037493
-0.002587874565622324   -0.039705667054141025   -0.0010255200626355927
-0.0021324308988377337   -0.03729738912202371   -0.0011413325374561144
-0.0033333901695239932   -0.037301361686891   -0.0011933230100046608
-0.002587874565622324   -0.039705667054141025   -0.0010255200626355927
-0.003156018302400173   -0.03947831109495767   -0.0011293190854677834
-0.003263058174291223   -0.03944060772565315   -0.001156496397237982
-0.0033333901695239932   -0.037301361686891   -0.0011933230100046608
-0.002587874565622324   -0.039705667054141025   -0.0010255200626355927
-0.003263058174291223   -0.03944060772565315   -0.001156496397237982
-0.0021324308988377337   -0.03729738912202371   -0.0011413325374561144
-0.002313250195432382   -0.03731110633604466   -0.0012535449909149184
-0.0029678883072837368   -0.03971227629198974   -0.0013263646401680271
-0.0009772612576291711   -0.037295913975149024   -0.0013043545773987677
-0.002220701064838383   -0.037292721153724645   -0.0011949964319458372
-0.0029678883072837368   -0.03971227629198974   -0.0013263646401680271
-0.002471789010357502   -0.04   -0.0014145299323245313
-0.0009772612576291711   -0.037295913975149024   -0.0013043545773987677
-0.00230795983351655   -0.04   -0.0012612690285659536
-0.002220701064838383   -0.037292721153724645   -0.0011949964319458372
-0.0008584322219639628   -0.037267052977093706   -0.001200862356765394
-0.00230795983351655   -0.04   -0.0012612690285659536
-0.0009772612576291711   -0.037295913975149024   -0.0013043545773987677
-0.002220701064838383   -0.037292721153724645   -0.0011949964319458372
-0.00230795983351655   -0.04   -0.0012612690285659536
-0.002837840489029628   -0.03967805441914338   -0.0012259384746414605
-0.0029678883072837368   -0.03971227629198974   -0.0013263646401680271
-0.002220701064838383   -0.037292721153724645   -0.0011949964319458372
-0.00230795983351655   -0.04   -0.0012612690285659536
-0.0029678883072837368   -0.03971227629198974   -0.0013263646401680271
-0.0009772612576291711   -0.037295913975149024   -0.0013043545773987677
-0.002220701064838383   -0.037292721153724645   -0.0011949964319458372
-0.002837840489029628   -0.03967805441914338   -0.0012259384746414605
-0.0008584322219639628   -0.037267052977093706   -0.001200862356765394
-0.0021324308988377337   -0.03729738912202371   -0.0011413325374561144
-0.002837840489029628   -0.03967805441914338   -0.0012259384746414605
-0.00230795983351655   -0.04   -0.0012612690285659536
-0.0008584322219639628   -0.037267052977093706   -0.001200862356765394
-0.0021431389522504206   -0.04   -0.0011061978151221594
-0.0021324308988377337   -0.03729738912202371   -0.0011413325374561144
-0.0007367238706345339   -0.03726209165131334   -0.0011025807056305457
-0.0021431389522504206   -0.04   -0.0011061978151221594
-0.0008584322219639628   -0.037267052977093706   -0.001200862356765394
-0.0021324308988377337   -0.03729738912202371   -0.0011413325374561144
-0.0021431389522504206   -0.04   -0.0011061978151221594
-0.002717219728262211   -0.03967642070858213   -0.00112577999740462
-0.002837840489029628   -0.03967805441914338   -0.0012259384746414605
-0.0021324308988377337   -0.03729738912202371   -0.0011413325374561144
-0.0021431389522504206   -0.04   -0.0011061978151221594
-0.002837840489029628   -0.03967805441914338   -0.0012259384746414605
-0.0008584322219639628   -0.037267052977093706   -0.001200862356765394
-0.0021324308988377337   -0.03729738912202371   -0.0011413325374561144
-0.002717219728262211   -0.03967642070858213   -0.00112577999740462
-0.0007367238706345339   -0.03726209165131334   -0.0011025807056305457
-0.002058925637061181   -0.03732949510005476   -0.0010955478233037493
-0.002717219728262211   -0.03967642070858213   -0.00112577999740462
-0.0021431389522504206   -0.04   -0.0011061978151221594
-0.0007367238706345339   -0.03726209165131334   -0.0011025807056305457
-0.001982289801117239   -0.04   -0.0009531950346517237
-0.002058925637061181   -0.03732949510005476   -0.0010955478233037493
-0.0006467082987606913   -0.03728608301967725   -0.001013208031390011
-0.001982289801117239   -0.04   -0.0009531950346517237
-0.0007367238706345339   -0.03726209165131334   -0.0011025807056305457
-0.002058925637061181   -0.03732949510005476   -0.0010955478233037493
-0.001982289801117239   -0.04   -0.0009531950346517237
-0.002587874565622324   -0.039705667054141025   -0.0010255200626355927
-0.002717219728262211   -0.03967642070858213   -0.00112577999740462
-0.002058925637061181   -0.03732949510005476   -0.0010955478233037493
-0.001982289801117239   -0.04   -0.0009531950346517237
-0.002717219728262211   -0.03967642070858213   -0.00112577999740462
-0.0007367238706345339   -0.03726209165131334   -0.0011025807056305457
-0.0009772612576291711   -0.037295913975149024   -0.0013043545773987677
-0.002471789010357502   -0.04   -0.0014145299323245313
0.00045740509753100744   -0.03716687861434882   -0.001407791250948519
-0.0008584322219639628   -0.037267052977093706   -0.001200862356765394
-0.002471789010357502   -0.04   -0.0014145299323245313
-0.0021095997997546603   -0.04   -0.001521300125438684
0.00045740509753100744   -0.03716687861434882   -0.001407791250948519
-0.001765341346109357   -0.04   -0.001299193330712817
-0.0008584322219639628   -0.037267052977093706   -0.001200862356765394
0.0007360206482359528   -0.0371042940359697   -0.0012386163484706615
-0.001765341346109357   -0.04   -0.001299193330712817
0.00045740509753100744   -0.03716687861434882   -0.001407791250948519
-0.0008584322219639628   -0.037267052977093706   -0.001200862356765394
-0.001765341346109357   -0.04   -0.001299193330712817
-0.00230795983351655   -0.04   -0.0012612690285659536
-0.002471789010357502   -0.04   -0.0014145299323245313
-0.0008584322219639628   -0.037267052977093706   -0.001200862356765394
-0.001765341346109357   -0.04   -0.001299193330712817
-0.002471789010357502   -0.04   -0.0014145299323245313
0.00045740509753100744   -0.03716687861434882   -0.001407791250948519
-0.0008584322219639628   -0.037267052977093706   -0.001200862356765394
-0.00230795983351655   -0.04   -0.0012612690285659536
0.0007360206482359528   -0.0371042940359697   -0.0012386163484706615
-0.0007367238706345339   -0.03726209165131334   -0.0011025807056305457
-0.00230795983351655   -0.04   -0.0012612690285659536
-0.001765341346109357   -0.04   -0.001299193330712817
0.0007360206482359528   -0.0371042940359697   -0.0012386163484706615
-0.001490817681601798   -0.04   -0.0010867421710123654
-0.0007367238706345339   -0.03726209165131334   -0.0011025807056305457
0.0009548846260854247   -0.03709172691109053   -0.0010796316103665702
-0.001490817681601798   -0.04   -0.0010867421710123654
0.0007360206482359528   -0.0371042940359697   -0.0012386163484706615
-0.0007367238706345339   -0.03726209165131334   -0.0011025807056305457
-0.001490817681601798   -0.04   -0.0010867421710123654
-0.0021431389522504206   -0.04   -0.0011061978151221594
-0.00230795983351655   -0.04   -0.0012612690285659536
-0.0007367238706345339   -0.03726209165131334   -0.0011025807056305457
-0.001490817681601798   -0.04   -0.0010867421710123654
-0.00230795983351655   -0.04   -0.0012612690285659536
0.0007360206482359528   -0.0371042940359697   -0.0012386163484706615
-0.0007367238706345339   -0.03726209165131334   -0.0011025807056305457
-0.0021431389522504206   -0.04   -0.0011061978151221594
0.0009548846260854247   -0.03709172691109053   -0.0010796316103665702
-0.0006467082987606913   -0.03728608301967725   -0.001013208031390011
-0.0021431389522504206   -0.04   -0.0011061978151221594
-0.001490817681601798   -0.04   -0.0010867421710123654
0.0009548846260854247   -0.03709172691109053   -0.0010796316103665702
-0.0011517669610126345   -0.04   -0.0008661751592381416
-0.0006467082987606913   -0.03728608301967725   -0.001013208031390011
0.0011827511912944541   -0.03710283276189307   -0.0009342657379283578
-0.0011517669610126345   -0.04   -0.0008661751592381416
0.0009548846260854247   -0.03709172691109053   -0.0010796316103665702
-0.0006467082987606913   -0.03728608301967725   -0.001013208031390011
-0.0011517669610126345   -0.04   -0.0008661751592381416
-0.001982289801117239   -0.04   -0.0009531950346517237
-0.0021431389522504206   -0.04   -0.0011061978151221594
-0.0006467082987606913   -0.03728608301967725   -0.001013208031390011
-0.0011517669610126345   -0.04   -0.0008661751592381416
-0.0021431389522504206   -0.04   -0.0011061978151221594
0.0009548846260854247   -0.03709172691109053   -0.0010796316103665702
-0.004773503062621959   -0.0390916565372059   -0.0009933497154040929
-0.0028760904036973394   -0.039211770103708646   -0.0008505436860830571
-0.004023221689049699   -0.039286408336371266   -0.0011099096844561823
-0.004557888944250092   -0.039048642685369096   -0.001116401328175914
-0.0028760904036973394   -0.039211770103708646   -0.0008505436860830571
-0.0030402269509429013   -0.039362513433883715   -0.0010006705213806049
-0.004023221689049699   -0.039286408336371266   -0.0011099096844561823
-0.0029638738942128298   -0.039310352333399454   -0.0010558839950558822
-0.004557888944250092   -0.039048642685369096   -0.001116401328175914
-0.003922434220175124   -0.03924826867698013   -0.001150545868737763
-0.0029638738942128298   -0.039310352333399454   -0.0010558839950558822
-0.004023221689049699   -0.039286408336371266   -0.0011099096844561823
-0.004557888944250092   -0.039048642685369096   -0.001116401328175914
-0.0029638738942128298   -0.039310352333399454   -0.0010558839950558822
-0.0026803605318501196   -0.039144741166870604   -0.0009798784475384922
-0.0028760904036973394   -0.039211770103708646   -0.0008505436860830571
-0.004557888944250092   -0.039048642685369096   -0.001116401328175914
-0.0029638738942128298   -0.039310352333399454   -0.0010558839950558822
-0.0028760904036973394   -0.039211770103708646   -0.0008505436860830571
-0.004023221689049699   -0.039286408336371266   -0.0011099096844561823
-0.004557888944250092   -0.039048642685369096   -0.001116401328175914
-0.0026803605318501196   -0.039144741166870604   -0.0009798784475384922
-0.003922434220175124   -0.03924826867698013   -0.001150545868737763
-0.004371898233484769   -0.03905283511496865   -0.0012390192149043817
-0.0026803605318501196   -0.039144741166870604   -0.0009798784475384922
-0.0029638738942128298   -0.039310352333399454   -0.0010558839950558822
-0.003922434220175124   -0.03924826867698013   -0.001150545868737763
-0.00287420981621616   -0.03929155792826517   -0.001106897220076918
-0.004371898233484769   -0.03905283511496865   -0.0012390192149043817
-0.00381063846032872   -0.03925060932878863   -0.0011916018165054072
-0.00287420981621616   -0.03929155792826517   -0.001106897220076918
-0.003922434220175124   -0.03924826867698013   -0.001150545868737763
-0.004371898233484769   -0.03905283511496865   -0.0012390192149043817
-0.00287420981621616   -0.03929155792826517   -0.001106897220076918
-0.002517473079737607   -0.039124629804964714   -0.0011040050678070607
-0.0026803605318501196   -0.039144741166870604   -0.0009798784475384922
-0.004371898233484769   -0.03905283511496865   -0.0012390192149043817
-0.00287420981621616   -0.03929155792826517   -0.001106897220076918
-0.0026803605318501196   -0.039144741166870604   -0.0009798784475384922
-0.003922434220175124   -0.03924826867698013   -0.001150545868737763
-0.004371898233484769   -0.03905283511496865   -0.0012390192149043817
-0.002517473079737607   -0.039124629804964714   -0.0011040050678070607
-0.00381063846032872   -0.03925060932878863   -0.0011916018165054072
-0.004151156466581399   -0.03910699354402932   -0.0013642654761339317
-0.002517473079737607   -0.039124629804964714   -0.0011040050678070607
-0.00287420981621616   -0.03929155792826517   -0.001106897220076918
-0.00381063846032872   -0.03925060932878863   -0.0011916018165054072
-0.002797463219157023   -0.03930642282703052   -0.0011534510835030415
-0.004151156466581399   -0.03910699354402932   -0.0013642654761339317
-0.0037068756408985405   -0.039293639616630446   -0.0012332483551227619
-0.002797463219157023   -0.03930642282703052   -0.0011534510835030415
-0.00381063846032872   -0.03925060932878863   -0.0011916018165054072
-0.004151156466581399   -0.03910699354402932   -0.0013642654761339317
-0.002797463219157023   -0.03930642282703052   -0.0011534510835030415
-0.0023329398288663653   -0.03914315169847984   -0.0012223878621803962
-0.002517473079737607   -0.039124629804964714   -0.0011040050678070607
-0.004151156466581399   -0.03910699354402932   -0.0013642654761339317
-0.002797463219157023   -0.03930642282703052   -0.0011534510835030415
-0.002517473079737607   -0.039124629804964714   -0.0011040050678070607
-0.00381063846032872   -0.03925060932878863   -0.0011916018165054072
-0.004023221689049699   -0.039286408336371266   -0.0011099096844561823
-0.0030402269509429013   -0.039362513433883715   -0.0010006705213806049
-0.0034719599389433217   -0.03948019296898288   -0.001212809136458415
-0.003922434220175124   -0.03924826867698013   -0.001150545868737763
-0.0030402269509429013   -0.039362513433883715   -0.0010006705213806049
-0.0032666736740164727   -0.03945495104421081   -0.0011205903381357855
-0.0034719599389433217   -0.03948019296898288   -0.001212809136458415
-0.0031991658614768633   -0.03940834166019307   -0.0011219290642671036
-0.003922434220175124   -0.03924826867698013   -0.001150545868737763
-0.003365787927413903   -0.03944097166768243   -0.0011848209434625104
-0.0031991658614768633   -0.03940834166019307   -0.0011219290642671036
-0.0034719599389433217   -0.03948019296898288   -0.001212809136458415
-0.003922434220175124   -0.03924826867698013   -0.001150545868737763
-0.0031991658614768633   -0.03940834166019307   -0.0011219290642671036
-0.0029638738942128298   -0.039310352333399454   -0.0010558839950558822
-0.0030402269509429013   -0.039362513433883715   -0.0010006705213806049
-0.003922434220175124   -0.03924826867698013   -0.001150545868737763
-0.0031991658614768633   -0.03940834166019307   -0.0011219290642671036
-0.0030402269509429013   -0.039362513433883715   -0.0010006705213806049
-0.0034719599389433217   -0.03948019296898288   -0.001212809136458415
-0.003922434220175124   -0.03924826867698013   -0.001150545868737763
-0.0029638738942128298   -0.039310352333399454   -0.0010558839950558822
-0.003365787927413903   -0.03944097166768243   -0.0011848209434625104
-0.00381063846032872   -0.03925060932878863   -0.0011916018165054072
-0.0029638738942128298   -0.039310352333399454   -0.0010558839950558822
-0.0031991658614768633   -0.03940834166019307   -0.0011219290642671036
-0.003365787927413903   -0.03944097166768243   -0.0011848209434625104
-0.003124053149856082   -0.03939194749834608   -0.0011178232593940102
-0.00381063846032872   -0.03925060932878863   -0.0011916018165054072
-0.003263058174291223   -0.03944060772565315   -0.001156496397237982
-0.003124053149856082   -0.03939194749834608   -0.0011178232593940102
-0.003365787927413903   -0.03944097166768243   -0.0011848209434625104
-0.00381063846032872   -0.03925060932878863   -0.0011916018165054072
-0.003124053149856082   -0.03939194749834608   -0.0011178232593940102
-0.00287420981621616   -0.03929155792826517   -0.001106897220076918
-0.0029638738942128298   -0.039310352333399454   -0.0010558839950558822
-0.00381063846032872   -0.03925060932878863   -0.0011916018165054072
-0.003124053149856082   -0.03939194749834608   -0.0011178232593940102
-0.0029638738942128298   -0.039310352333399454   -0.0010558839950558822
-0.003365787927413903   -0.03944097166768243   -0.0011848209434625104
-0.00381063846032872   -0.03925060932878863   -0.0011916018165054072
-0.00287420981621616   -0.03929155792826517   -0.001106897220076918
-0.003263058174291223   -0.03944060772565315   -0.001156496397237982
-0.0037068756408985405   -0.039293639616630446   -0.0012332483551227619
-0.00287420981621616   -0.03929155792826517   -0.001106897220076918
-0.003124053149856082   -0.03939194749834608   -0.0011178232593940102
-0.003263058174291223   -0.03944060772565315   -0.001156496397237982
-0.0030477159608463885   -0.039404426941442534   -0.0011094434550228632
-0.0037068756408985405   -0.039293639616630446   -0.0012332483551227619
-0.003156018302400173   -0.03947831109495767   -0.0011293190854677834
-0.0030477159608463885   -0.039404426941442534   -0.0011094434550228632
-0.003263058174291223   -0.03944060772565315   -0.001156496397237982
-0.0037068756408985405   -0.039293639616630446   -0.0012332483551227619
-0.0030477159608463885   -0.039404426941442534   -0.0011094434550228632
-0.002797463219157023   -0.03930642282703052   -0.0011534510835030415
-0.00287420981621616   -0.03929155792826517   -0.001106897220076918
-0.0037068756408985405   -0.039293639616630446   -0.0012332483551227619
-0.0030477159608463885   -0.039404426941442534   -0.0011094434550228632
-0.00287420981621616   -0.03929155792826517   -0.001106897220076918
-0.003263058174291223   -0.03944060772565315   -0.001156496397237982
-0.0034719599389433217   -0.03948019296898288   -0.001212809136458415
-0.0032666736740164727   -0.03945495104421081   -0.0011205903381357855
-0.0029678883072837368   -0.03971227629198974   -0.0013263646401680271
-0.003365787927413903   -0.03944097166768243   -0.0011848209434625104
-0.0032666736740164727   -0.03945495104421081   -0.0011205903381357855
-0.0035099825155925552   -0.039492632044648514   -0.0012387409373836023
-0.0029678883072837368   -0.03971227629198974   -0.0013263646401680271
-0.0034400474350954656   -0.03944809295786219   -0.0011882653426794028
-0.003365787927413903   -0.03944097166768243   -0.0011848209434625104
-0.002837840489029628   -0.03967805441914338   -0.0012259384746414605
-0.0034400474350954656   -0.03944809295786219   -0.0011882653426794028
-0.0029678883072837368   -0.03971227629198974   -0.0013263646401680271
-0.003365787927413903   -0.03944097166768243   -0.0011848209434625104
-0.0034400474350954656   -0.03944809295786219   -0.0011882653426794028
-0.0031991658614768633   -0.03940834166019307   -0.0011219290642671036
-0.0032666736740164727   -0.03945495104421081   -0.0011205903381357855
-0.003365787927413903   -0.03944097166768243   -0.0011848209434625104
-0.0034400474350954656   -0.03944809295786219   -0.0011882653426794028
-0.0032666736740164727   -0.03945495104421081   -0.0011205903381357855
-0.0029678883072837368   -0.03971227629198974   -0.0013263646401680271
-0.003365787927413903   -0.03944097166768243   -0.0011848209434625104
-0.0031991658614768633   -0.03940834166019307   -0.0011219290642671036
-0.002837840489029628   -0.03967805441914338   -0.0012259384746414605
-0.003263058174291223   -0.03944060772565315   -0.001156496397237982
-0.0031991658614768633   -0.03940834166019307   -0.0011219290642671036
-0.0034400474350954656   -0.03944809295786219   -0.0011882653426794028
-0.002837840489029628   -0.03967805441914338   -0.0012259384746414605
-0.00335624301605524   -0.03943425299532145   -0.0011311561134575735
-0.003263058174291223   -0.03944060772565315   -0.001156496397237982
-0.002717219728262211   -0.03967642070858213   -0.00112577999740462
-0.00335624301605524   -0.03943425299532145   -0.0011311561134575735
-0.002837840489029628   -0.03967805441914338   -0.0012259384746414605
-0.003263058174291223   -0.03944060772565315   -0.001156496397237982
-0.00335624301605524   -0.03943425299532145   -0.0011311561134575735
-0.003124053149856082   -0.03939194749834608   -0.0011178232593940102
-0.0031991658614768633   -0.03940834166019307   -0.0011219290642671036
-0.003263058174291223   -0.03944060772565315   -0.001156496397237982
-0.00335624301605524   -0.03943425299532145   -0.0011311561134575735
-0.0031991658614768633   -0.03940834166019307   -0.0011219290642671036
-0.002837840489029628   -0.03967805441914338   -0.0012259384746414605
-0.003263058174291223   -0.03944060772565315   -0.001156496397237982
-0.003124053149856082   -0.03939194749834608   -0.0011178232593940102
-0.002717219728262211   -0.03967642070858213   -0.00112577999740462
-0.003156018302400173   -0.03947831109495767   -0.0011293190854677834
-0.003124053149856082   -0.03939194749834608   -0.0011178232593940102
-0.00335624301605524   -0.03943425299532145   -0.0011311561134575735
-0.002717219728262211   -0.03967642070858213   -0.00112577999740462
-0.0032701098112138897   -0.03944638486954788   -0.0010703762924688183
-0.003156018302400173   -0.03947831109495767   -0.0011293190854677834
-0.002587874565622324   -0.039705667054141025   -0.0010255200626355927
-0.0032701098112138897   -0.03944638486954788   -0.0010703762924688183
-0.002717219728262211   -0.03967642070858213   -0.00112577999740462
-0.003156018302400173   -0.03947831109495767   -0.0011293190854677834
-0.0032701098112138897   -0.03944638486954788   -0.0010703762924688183
-0.0030477159608463885   -0.039404426941442534   -0.0011094434550228632
-0.003124053149856082   -0.03939194749834608   -0.0011178232593940102
-0.003156018302400173   -0.03947831109495767   -0.0011293190854677834
-0.0032701098112138897   -0.03944638486954788   -0.0010703762924688183
-0.003124053149856082   -0.03939194749834608   -0.0011178232593940102
-0.002717219728262211   -0.03967642070858213   -0.00112577999740462
-0.0029678883072837368   -0.03971227629198974   -0.0013263646401680271
-0.0035099825155925552   -0.039492632044648514   -0.0012387409373836023
-0.002471789010357502   -0.04   -0.0014145299323245313
-0.002837840489029628   -0.03967805441914338   -0.0012259384746414605
-0.0035099825155925552   -0.039492632044648514   -0.0012387409373836023
-0.003862723038710202   -0.03944871271738065   -0.0013513136890727893
-0.002471789010357502   -0.04   -0.0014145299323245313
-0.0037714101627980977   -0.03940648710852216   -0.0012514333786003327
-0.002837840489029628   -0.03967805441914338   -0.0012259384746414605
-0.00230795983351655   -0.04   -0.0012612690285659536
-0.0037714101627980977   -0.03940648710852216   -0.0012514333786003327
-0.002471789010357502   -0.04   -0.0014145299323245313
-0.002837840489029628   -0.03967805441914338   -0.0012259384746414605
-0.0037714101627980977   -0.03940648710852216   -0.0012514333786003327
-0.0034400474350954656   -0.03944809295786219   -0.0011882653426794028
-0.0035099825155925552   -0.039492632044648514   -0.0012387409373836023
-0.002837840489029628   -0.03967805441914338   -0.0012259384746414605
-0.0037714101627980977   -0.03940648710852216   -0.0012514333786003327
-0.0035099825155925552   -0.039492632044648514   -0.0012387409373836023
-0.002471789010357502   -0.04   -0.0014145299323245313
-0.002837840489029628   -0.03967805441914338   -0.0012259384746414605
-0.0034400474350954656   -0.03944809295786219   -0.0011882653426794028
-0.00230795983351655   -0.04   -0.0012612690285659536
-0.002717219728262211   -0.03967642070858213   -0.00112577999740462
-0.0034400474350954656   -0.03944809295786219   -0.0011882653426794028
-0.0037714101627980977   -0.03940648710852216   -0.0012514333786003327
-0.00230795983351655   -0.04   -0.0012612690285659536
-0.0036507330893511963   -0.03939712591224311   -0.0011441365362490708
-0.002717219728262211   -0.03967642070858213   -0.00112577999740462
-0.0021431389522504206   -0.04   -0.0011061978151221594
-0.0036507330893511963   -0.03939712591224311   -0.0011441365362490708
-0.00230795983351655   -0.04   -0.0012612690285659536
-0.002717219728262211   -0.03967642070858213   -0.00112577999740462
-0.0036507330893511963   -0.03939712591224311   -0.0011441365362490708
-0.00335624301605524   -0.03943425299532145   -0.0011311561134575735
-0.0034400474350954656   -0.03944809295786219   -0.0011882653426794028
-0.002717219728262211   -0.03967642070858213   -0.00112577999740462
-0.0036507330893511963   -0.03939712591224311   -0.0011441365362490708
-0.0034400474350954656   -0.03944809295786219   -0.0011882653426794028
-0.00230795983351655   -0.04   -0.0012612690285659536
-0.002717219728262211   -0.03967642070858213   -0.00112577999740462
-0.00335624301605524   -0.03943425299532145   -0.0011311561134575735
-0.0021431389522504206   -0.04   -0.0011061978151221594
-0.002587874565622324   -0.039705667054141025   -0.0010255200626355927
-0.00335624301605524   -0.03943425299532145   -0.0011311561134575735
-0.0036507330893511963   -0.03939712591224311   -0.0011441365362490708
-0.0021431389522504206   -0.04   -0.0011061978151221594
-0.0035375111492282375   -0.039414356564143854   -0.0010327624744178754
-0.002587874565622324   -0.039705667054141025   -0.0010255200626355927
-0.001982289801117239   -0.04   -0.0009531950346517237
-0.0035375111492282375   -0.039414356564143854   -0.0010327624744178754
-0.0021431389522504206   -0.04   -0.0011061978151221594
-0.002587874565622324   -0.039705667054141025   -0.0010255200626355927
-0.0035375111492282375   -0.039414356564143854   -0.0010327624744178754
-0.0032701098112138897   -0.03944638486954788   -0.0010703762924688183
-0.00335624301605524   -0.03943425299532145   -0.0011311561134575735
-0.002587874565622324   -0.039705667054141025   -0.0010255200626355927
-0.0035375111492282375   -0.039414356564143854   -0.0010327624744178754
-0.00335624301605524   -0.03943425299532145   -0.0011311561134575735
-0.0021431389522504206   -0.04   -0.0011061978151221594
-0.002471789010357502   -0.04   -0.0014145299323245313
-0.003862723038710202   -0.03944871271738065   -0.0013513136890727893
-0.0021095997997546603   -0.04   -0.001521300125438684
-0.00230795983351655   -0.04   -0.0012612690285659536
-0.003862723038710202   -0.03944871271738065   -0.0013513136890727893
-0.004552716253750784   -0.03925605110667695   -0.0014712861155341472
-0.0021095997997546603   -0.04   -0.001521300125438684
-0.004307937698343826   -0.039220158959714625   -0.0013074610378746602
-0.00230795983351655   -0.04   -0.0012612690285659536
-0.001765341346109357   -0.04   -0.001299193330712817
-0.004307937698343826   -0.039220158959714625   -0.0013074610378746602
-0.0021095997997546603   -0.04   -0.001521300125438684
-0.00230795983351655   -0.04   -0.0012612690285659536
-0.004307937698343826   -0.039220158959714625   -0.0013074610378746602
-0.0037714101627980977   -0.03940648710852216   -0.0012514333786003327
-0.003862723038710202   -0.03944871271738065   -0.0013513136890727893
-0.00230795983351655   -0.04   -0.0012612690285659536
-0.004307937698343826   -0.039220158959714625   -0.0013074610378746602
-0.003862723038710202   -0.03944871271738065   -0.0013513136890727893
-0.0021095997997546603   -0.04   -0.001521300125438684
-0.00230795983351655   -0.04   -0.0012612690285659536
-0.0037714101627980977   -0.03940648710852216   -0.0012514333786003327
-0.001765341346109357   -0.04   -0.001299193330712817
-0.0021431389522504206   -0.04   -0.0011061978151221594
-0.0037714101627980977   -0.03940648710852216   -0.0012514333786003327
-0.004307937698343826   -0.039220158959714625   -0.0013074610378746602
-0.001765341346109357   -0.04   -0.001299193330712817
-0.004083450431594773   -0.03921543544421908   -0.0011327863206264666
-0.0021431389522504206   -0.04   -0.0011061978151221594
-0.001490817681601798   -0.04   -0.0010867421710123654
-0.004083450431594773   -0.03921543544421908   -0.0011327863206264666
-0.001765341346109357   -0.04   -0.001299193330712817
-0.0021431389522504206   -0.04   -0.0011061978151221594
-0.004083450431594773   -0.03921543544421908   -0.0011327863206264666
-0.0036507330893511963   -0.03939712591224311   -0.0011441365362490708
-0.0037714101627980977   -0.03940648710852216   -0.0012514333786003327
-0.0021431389522504206   -0.04   -0.0011061978151221594
-0.004083450431594773   -0.03921543544421908   -0.0011327863206264666
-0.0037714101627980977   -0.03940648710852216   -0.0012514333786003327
-0.001765341346109357   -0.04   -0.001299193330712817
-0.0021431389522504206   -0.04   -0.0011061978151221594
-0.0036507330893511963   -0.03939712591224311   -0.0011441365362490708
-0.001490817681601798   -0.04   -0.0010867421710123654
-0.001982289801117239   -0.04   -0.0009531950346517237
-0.0036507330893511963   -0.03939712591224311   -0.0011441365362490708
-0.004083450431594773   -0.03921543544421908   -0.0011327863206264666
-0.001490817681601798   -0.04   -0.0010867421710123654
-0.003799869956855776   -0.03926245807142261   -0.0009502664200477888
-0.001982289801117239   -0.04   -0.0009531950346517237
-0.0011517669610126345   -0.04   -0.0008661751592381416
-0.003799869956855776   -0.03926245807142261   -0.0009502664200477888
-0.001490817681601798   -0.04   -0.0010867421710123654
-0.001982289801117239   -0.04   -0.0009531950346517237
-0.003799869956855776   -0.03926245807142261   -0.0009502664200477888
-0.0035375111492282375   -0.039414356564143854   -0.0010327624744178754
-0.0036507330893511963   -0.03939712591224311   -0.0011441365362490708
-0.001982289801117239   -0.04   -0.0009531950346517237
-0.003799869956855776   -0.03926245807142261   -0.0009502664200477888
-0.0036507330893511963   -0.03939712591224311   -0.0011441365362490708
-0.001490817681601798   -0.04   -0.0010867421710123654
-0.0028760904036973394   -0.039211770103708646   -0.0008505436860830571
-0.0012023338000029923   -0.03775419275547706   -0.0007340810295286345
-0.0030402269509429013   -0.039362513433883715   -0.0010006705213806049
-0.0026803605318501196   -0.039144741166870604   -0.0009798784475384922
-0.0012023338000029923   -0.03775419275547706   -0.0007340810295286345
-0.0021947274423099973   -0.03786843525501523   -0.0008936801831448641
-0.0030402269509429013   -0.039362513433883715   -0.0010006705213806049
-0.0021404020852367656   -0.03780528289351043   -0.0009430310211110685
-0.0026803605318501196   -0.039144741166870604   -0.0009798784475384922
-0.0029638738942128298   -0.039310352333399454   -0.0010558839950558822
-0.0021404020852367656   -0.03780528289351043   -0.0009430310211110685
-0.0030402269509429013   -0.039362513433883715   -0.0010006705213806049
-0.0026803605318501196   -0.039144741166870604   -0.0009798784475384922
-0.0021404020852367656   -0.03780528289351043   -0.0009430310211110685
-0.001045806611072434   -0.0376759498350615   -0.0008461997180130399
-0.0012023338000029923   -0.03775419275547706   -0.0007340810295286345
-0.0026803605318501196   -0.039144741166870604   -0.0009798784475384922
-0.0021404020852367656   -0.03780528289351043   -0.0009430310211110685
-0.0012023338000029923   -0.03775419275547706   -0.0007340810295286345
-0.0030402269509429013   -0.039362513433883715   -0.0010006705213806049
-0.0026803605318501196   -0.039144741166870604   -0.0009798784475384922
-0.001045806611072434   -0.0376759498350615   -0.0008461997180130399
-0.0029638738942128298   -0.039310352333399454   -0.0010558839950558822
-0.002517473079737607   -0.039124629804964714   -0.0011040050678070607
-0.001045806611072434   -0.0376759498350615   -0.0008461997180130399
-0.0021404020852367656   -0.03780528289351043   -0.0009430310211110685
-0.0029638738942128298   -0.039310352333399454   -0.0010558839950558822
-0.0020791164746570396   -0.03777076064946406   -0.0009880004136508006
-0.002517473079737607   -0.039124629804964714   -0.0011040050678070607
-0.00287420981621616   -0.03929155792826517   -0.001106897220076918
-0.0020791164746570396   -0.03777076064946406   -0.0009880004136508006
-0.0029638738942128298   -0.039310352333399454   -0.0010558839950558822
-0.002517473079737607   -0.039124629804964714   -0.0011040050678070607
-0.0020791164746570396   -0.03777076064946406   -0.0009880004136508006
-0.0009226257654121285   -0.037639219959193844   -0.0009518280122761722
-0.001045806611072434   -0.0376759498350615   -0.0008461997180130399
-0.002517473079737607   -0.039124629804964714   -0.0011040050678070607
-0.0020791164746570396   -0.03777076064946406   -0.0009880004136508006
-0.001045806611072434   -0.0376759498350615   -0.0008461997180130399
-0.0029638738942128298   -0.039310352333399454   -0.0010558839950558822
-0.002517473079737607   -0.039124629804964714   -0.0011040050678070607
-0.0009226257654121285   -0.037639219959193844   -0.0009518280122761722
-0.00287420981621616   -0.03929155792826517   -0.001106897220076918
-0.0023329398288663653   -0.03914315169847984   -0.0012223878621803962
-0.0009226257654121285   -0.037639219959193844   -0.0009518280122761722
-0.0020791164746570396   -0.03777076064946406   -0.0009880004136508006
-0.00287420981621616   -0.03929155792826517   -0.001106897220076918
-0.00203216551149222   -0.03776389816558218   -0.0010287325969308098
-0.0023329398288663653   -0.03914315169847984   -0.0012223878621803962
-0.002797463219157023   -0.03930642282703052   -0.0011534510835030415
-0.00203216551149222   -0.03776389816558218   -0.0010287325969308098
-0.00287420981621616   -0.03929155792826517   -0.001106897220076918
-0.0023329398288663653   -0.03914315169847984   -0.0012223878621803962
-0.00203216551149222   -0.03776389816558218   -0.0010287325969308098
-0.0007878146220752006   -0.03763334692823183   -0.0010506969499152136
-0.0009226257654121285   -0.037639219959193844   -0.0009518280122761722
-0.0023329398288663653   -0.03914315169847984   -0.0012223878621803962
-0.00203216551149222   -0.03776389816558218   -0.0010287325969308098
-0.0009226257654121285   -0.037639219959193844   -0.0009518280122761722
-0.00287420981621616   -0.03929155792826517   -0.001106897220076918
-0.0030402269509429013   -0.039362513433883715   -0.0010006705213806049
-0.0021947274423099973   -0.03786843525501523   -0.0008936801831448641
-0.0032666736740164727   -0.03945495104421081   -0.0011205903381357855
-0.0029638738942128298   -0.039310352333399454   -0.0010558839950558822
-0.0021947274423099973   -0.03786843525501523   -0.0008936801831448641
-0.0031764406094436618   -0.03790855248161502   -0.001023656333369459
-0.0032666736740164727   -0.03945495104421081   -0.0011205903381357855
-0.00313084371569927   -0.0378534746938   -0.0010262607789520446
-0.0029638738942128298   -0.039310352333399454   -0.0010558839950558822
-0.0031991658614768633   -0.03940834166019307   -0.0011219290642671036
-0.00313084371569927   -0.0378534746938   -0.0010262607789520446
-0.0032666736740164727   -0.03945495104421081   -0.0011205903381357855
-0.0029638738942128298   -0.039310352333399454   -0.0010558839950558822
-0.00313084371569927   -0.0378534746938   -0.0010262607789520446
-0.0021404020852367656   -0.03780528289351043   -0.0009430310211110685
-0.0021947274423099973   -0.03786843525501523   -0.0008936801831448641
-0.0029638738942128298   -0.039310352333399454   -0.0010558839950558822
-0.00313084371569927   -0.0378534746938   -0.0010262607789520446
-0.0021947274423099973   -0.03786843525501523   -0.0008936801831448641
-0.0032666736740164727   -0.03945495104421081   -0.0011205903381357855
-0.0029638738942128298   -0.039310352333399454   -0.0010558839950558822
-0.0021404020852367656   -0.03780528289351043   -0.0009430310211110685
-0.0031991658614768633   -0.03940834166019307   -0.0011219290642671036
-0.00287420981621616   -0.03929155792826517   -0.001106897220076918
-0.0021404020852367656   -0.03780528289351043   -0.0009430310211110685
-0.00313084371569927   -0.0378534746938   -0.0010262607789520446
-0.0031991658614768633   -0.03940834166019307   -0.0011219290642671036
-0.003083669861692976   -0.037824199519221925   -0.0010248056545215844
-0.00287420981621616   -0.03929155792826517   -0.001106897220076918
-0.003124053149856082   -0.03939194749834608   -0.0011178232593940102
-0.003083669861692976   -0.037824199519221925   -0.0010248056545215844
-0.0031991658614768633   -0.03940834166019307   -0.0011219290642671036
-0.00287420981621616   -0.03929155792826517   -0.001106897220076918
-0.003083669861692976   -0.037824199519221925   -0.0010248056545215844
-0.0020791164746570396   -0.03777076064946406   -0.0009880004136508006
-0.0021404020852367656   -0.03780528289351043   -0.0009430310211110685
-0.00287420981621616   -0.03929155792826517   -0.001106897220076918
-0.003083669861692976   -0.037824199519221925   -0.0010248056545215844
-0.0021404020852367656   -0.03780528289351043   -0.0009430310211110685
-0.0031991658614768633   -0.03940834166019307   -0.0011219290642671036
-0.00287420981621616   -0.03929155792826517   -0.001106897220076918
-0.0020791164746570396   -0.03777076064946406   -0.0009880004136508006
-0.003124053149856082   -0.03939194749834608   -0.0011178232593940102
-0.002797463219157023   -0.03930642282703052   -0.0011534510835030415
-0.0020791164746570396   -0.03777076064946406   -0.0009880004136508006
-0.003083669861692976   -0.037824199519221925   -0.0010248056545215844
-0.003124053149856082   -0.03939194749834608   -0.0011178232593940102
-0.0030381928280208462   -0.037819515368681736   -0.001019261324236588
-0.002797463219157023   -0.03930642282703052   -0.0011534510835030415
-0.0030477159608463885   -0.039404426941442534   -0.0011094434550228632
-0.0030381928280208462   -0.037819515368681736   -0.001019261324236588
-0.003124053149856082   -0.03939194749834608   -0.0011178232593940102
-0.002797463219157023   -0.03930642282703052   -0.0011534510835030415
-0.0030381928280208462   -0.037819515368681736   -0.001019261324236588
-0.00203216551149222   -0.03776389816558218   -0.0010287325969308098
-0.0020791164746570396   -0.03777076064946406   -0.0009880004136508006
-0.002797463219157023   -0.03930642282703052   -0.0011534510835030415
-0.0030381928280208462   -0.037819515368681736   -0.001019261324236588
-0.0020791164746570396   -0.03777076064946406   -0.0009880004136508006
-0.003124053149856082   -0.03939194749834608   -0.0011178232593940102
-0.0032666736740164727   -0.03945495104421081   -0.0011205903381357855
-0.0031764406094436618   -0.03790855248161502   -0.001023656333369459
-0.0035099825155925552   -0.039492632044648514   -0.0012387409373836023
-0.0031991658614768633   -0.03940834166019307   -0.0011219290642671036
-0.0031764406094436618   -0.03790855248161502   -0.001023656333369459
-0.00415167527452177   -0.037872480157744026   -0.0011453520597930528
-0.0035099825155925552   -0.039492632044648514   -0.0012387409373836023
-0.004106439414558157   -0.03782351884476864   -0.0011031146156055681
-0.0031991658614768633   -0.03940834166019307   -0.0011219290642671036
-0.0034400474350954656   -0.03944809295786219   -0.0011882653426794028
-0.004106439414558157   -0.03782351884476864   -0.0011031146156055681
-0.0035099825155925552   -0.039492632044648514   -0.0012387409373836023
-0.0031991658614768633   -0.03940834166019307   -0.0011219290642671036
-0.004106439414558157   -0.03782351884476864   -0.0011031146156055681
-0.00313084371569927   -0.0378534746938   -0.0010262607789520446
-0.0031764406094436618   -0.03790855248161502   -0.001023656333369459
-0.0031991658614768633   -0.03940834166019307   -0.0011219290642671036
-0.004106439414558157   -0.03782351884476864   -0.0011031146156055681
-0.0031764406094436618   -0.03790855248161502   -0.001023656333369459
-0.0035099825155925552   -0.039492632044648514   -0.0012387409373836023
-0.0031991658614768633   -0.03940834166019307   -0.0011219290642671036
-0.00313084371569927   -0.0378534746938   -0.0010262607789520446
-0.0034400474350954656   -0.03944809295786219   -0.0011882653426794028
-0.003124053149856082   -0.03939194749834608   -0.0011178232593940102
-0.00313084371569927   -0.0378534746938   -0.0010262607789520446
-0.004106439414558157   -0.03782351884476864   -0.0011031146156055681
-0.0034400474350954656   -0.03944809295786219   -0.0011882653426794028
-0.004055677390757543   -0.03779993688934096   -0.0010568815355531122
-0.003124053149856082   -0.03939194749834608   -0.0011178232593940102
-0.00335624301605524   -0.03943425299532145   -0.0011311561134575735
-0.004055677390757543   -0.03779993688934096   -0.0010568815355531122
-0.0034400474350954656   -0.03944809295786219   -0.0011882653426794028
-0.003124053149856082   -0.03939194749834608   -0.0011178232593940102
-0.004055677390757543   -0.03779993688934096   -0.0010568815355531122
-0.003083669861692976   -0.037824199519221925   -0.0010248056545215844
-0.00313084371569927   -0.0378534746938   -0.0010262607789520446
-0.003124053149856082   -0.03939194749834608   -0.0011178232593940102
-0.004055677390757543   -0.03779993688934096   -0.0010568815355531122
-0.00313084371569927   -0.0378534746938   -0.0010262607789520446
-0.0034400474350954656   -0.03944809295786219   -0.0011882653426794028
-0.003124053149856082   -0.03939194749834608   -0.0011178232593940102
-0.003083669861692976   -0.037824199519221925   -0.0010248056545215844
-0.00335624301605524   -0.03943425299532145   -0.0011311561134575735
-0.0030477159608463885   -0.039404426941442534   -0.0011094434550228632
-0.003083669861692976   -0.037824199519221925   -0.0010248056545215844
-0.004055677390757543   -0.03779993688934096   -0.0010568815355531122
-0.00335624301605524   -0.03943425299532145   -0.0011311561134575735
-0.004004746683363055   -0.03779933771874409   -0.0010061667043044192
-0.0030477159608463885   -0.039404426941442534   -0.0011094434550228632
-0.0032701098112138897   -0.03944638486954788   -0.0010703762924688183
-0.004004746683363055   -0.03779933771874409   -0.0010061667043044192
-0.00335624301605524   -0.03943425299532145   -0.0011311561134575735
-0.0030477159608463885   -0.039404426941442534   -0.0011094434550228632
-0.004004746683363055   -0.03779933771874409   -0.0010061667043044192
-0.0030381928280208462   -0.037819515368681736   -0.001019261324236588
-0.003083669861692976   -0.037824199519221925   -0.0010248056545215844
-0.0030477159608463885   -0.039404426941442534   -0.0011094434550228632
-0.004004746683363055   -0.03779933771874409   -0.0010061667043044192
-0.003083669861692976   -0.037824199519221925   -0.0010248056545215844
-0.00335624301605524   -0.03943425299532145   -0.0011311561134575735
-0.0035099825155925552   -0.039492632044648514   -0.0012387409373836023
-0.00415167527452177   -0.037872480157744026   -0.0011453520597930528
-0.003862723038710202   -0.03944871271738065   -0.0013513136890727893
-0.0034400474350954656   -0.03944809295786219   -0.0011882653426794028
-0.00415167527452177   -0.037872480157744026   -0.0011453520597930528
-0.00522227817120109   -0.03775551406408558   -0.0012572961516926235
-0.003862723038710202   -0.03944871271738065   -0.0013513136890727893
-0.005166787616184968   -0.03771264920225804   -0.0011711713742174766
-0.0034400474350954656   -0.03944809295786219   -0.0011882653426794028
-0.0037714101627980977   -0.03940648710852216   -0.0012514333786003327
-0.005166787616184968   -0.03771264920225804   -0.0011711713742174766
-0.003862723038710202   -0.03944871271738065   -0.0013513136890727893
-0.0034400474350954656   -0.03944809295786219   -0.0011882653426794028
-0.005166787616184968   -0.03771264920225804   -0.0011711713742174766
-0.004106439414558157   -0.03782351884476864   -0.0011031146156055681
-0.00415167527452177   -0.037872480157744026   -0.0011453520597930528
-0.0034400474350954656   -0.03944809295786219   -0.0011882653426794028
-0.005166787616184968   -0.03771264920225804   -0.0011711713742174766
-0.00415167527452177   -0.037872480157744026   -0.0011453520597930528
-0.003862723038710202   -0.03944871271738065   -0.0013513136890727893
-0.0034400474350954656   -0.03944809295786219   -0.0011882653426794028
-0.004106439414558157   -0.03782351884476864   -0.0011031146156055681
-0.0037714101627980977   -0.03940648710852216   -0.0012514333786003327
-0.00335624301605524   -0.03943425299532145   -0.0011311561134575735
-0.004106439414558157   -0.03782351884476864   -0.0011031146156055681
-0.005166787616184968   -0.03771264920225804   -0.0011711713742174766
-0.0037714101627980977   -0.03940648710852216   -0.0012514333786003327
-0.005090062611658129   -0.037694738068942565   -0.0010813559005543147
-0.00335624301605524   -0.03943425299532145   -0.0011311561134575735
-0.0036507330893511963   -0.03939712591224311   -0.0011441365362490708
-0.005090062611658129   -0.037694738068942565   -0.0010813559005543147
-0.0037714101627980977   -0.03940648710852216   -0.0012514333786003327
-0.00335624301605524   -0.03943425299532145   -0.0011311561134575735
-0.005090062611658129   -0.037694738068942565   -0.0010813559005543147
-0.004055677390757543   -0.03779993688934096   -0.0010568815355531122
-0.004106439414558157   -0.03782351884476864   -0.0011031146156055681
-0.00335624301605524   -0.03943425299532145   -0.0011311561134575735
-0.005090062611658129   -0.037694738068942565   -0.0010813559005543147
-0.004106439414558157   -0.03782351884476864   -0.0011031146156055681
-0.0037714101627980977   -0.03940648710852216   -0.0012514333786003327
-0.00335624301605524   -0.03943425299532145   -0.0011311561134575735
-0.004055677390757543   -0.03779993688934096   -0.0010568815355531122
-0.0036507330893511963   -0.03939712591224311   -0.0011441365362490708
-0.0032701098112138897   -0.03944638486954788   -0.0010703762924688183
-0.004055677390757543   -0.03779993688934096   -0.0010568815355531122
-0.005090062611658129   -0.037694738068942565   -0.0010813559005543147
-0.0036507330893511963   -0.03939712591224311   -0.0011441365362490708
-0.0050232875527548015   -0.03770179934634021   -0.0009853780173401895
-0.0032701098112138897   -0.03944638486954788   -0.0010703762924688183
-0.0035375111492282375   -0.039414356564143854   -0.0010327624744178754
-0.0050232875527548015   -0.03770179934634021   -0.0009853780173401895
-0.0036507330893511963   -0.03939712591224311   -0.0011441365362490708
-0.0032701098112138897   -0.03944638486954788   -0.0010703762924688183
-0.0050232875527548015   -0.03770179934634021   -0.0009853780173401895
-0.004004746683363055   -0.03779933771874409   -0.0010061667043044192
-0.004055677390757543   -0.03779993688934096   -0.0010568815355531122
-0.0032701098112138897   -0.03944638486954788   -0.0010703762924688183
-0.0050232875527548015   -0.03770179934634021   -0.0009853780173401895
-0.004055677390757543   -0.03779993688934096   -0.0010568815355531122
-0.0036507330893511963   -0.03939712591224311   -0.0011441365362490708
-0.003862723038710202   -0.03944871271738065   -0.0013513136890727893
-0.00522227817120109   -0.03775551406408558   -0.0012572961516926235
-0.004552716253750784   -0.03925605110667695   -0.0014712861155341472
-0.0037714101627980977   -0.03940648710852216   -0.0012514333786003327
-0.00522227817120109   -0.03775551406408558   -0.0012572961516926235
-0.006600782486969745   -0.03756528775732091   -0.0013652289091733581
-0.004552716253750784   -0.03925605110667695   -0.0014712861155341472
-0.006420395549807579   -0.037518609382418265   -0.0012292005538396822
-0.0037714101627980977   -0.03940648710852216   -0.0012514333786003327
-0.004307937698343826   -0.039220158959714625   -0.0013074610378746602
-0.006420395549807579   -0.037518609382418265   -0.0012292005538396822
-0.004552716253750784   -0.03925605110667695   -0.0014712861155341472
-0.0037714101627980977   -0.03940648710852216   -0.0012514333786003327
-0.006420395549807579   -0.037518609382418265   -0.0012292005538396822
-0.005166787616184968   -0.03771264920225804   -0.0011711713742174766
-0.00522227817120109   -0.03775551406408558   -0.0012572961516926235
-0.0037714101627980977   -0.03940648710852216   -0.0012514333786003327
-0.006420395549807579   -0.037518609382418265   -0.0012292005538396822
-0.00522227817120109   -0.03775551406408558   -0.0012572961516926235
-0.004552716253750784   -0.03925605110667695   -0.0014712861155341472
-0.0037714101627980977   -0.03940648710852216   -0.0012514333786003327
-0.005166787616184968   -0.03771264920225804   -0.0011711713742174766
-0.004307937698343826   -0.039220158959714625   -0.0013074610378746602
-0.0036507330893511963   -0.03939712591224311   -0.0011441365362490708
-0.005166787616184968   -0.03771264920225804   -0.0011711713742174766
-0.006420395549807579   -0.037518609382418265   -0.0012292005538396822
-0.004307937698343826   -0.039220158959714625   -0.0013074610378746602
-0.006259047797288398   -0.03750204222001024   -0.0010854067510866468
-0.0036507330893511963   -0.03939712591224311   -0.0011441365362490708
-0.004083450431594773   -0.03921543544421908   -0.0011327863206264666
-0.006259047797288398   -0.03750204222001024   -0.0010854067510866468
-0.004307937698343826   -0.039220158959714625   -0.0013074610378746602
-0.0036507330893511963   -0.03939712591224311   -0.0011441365362490708
-0.006259047797288398   -0.03750204222001024   -0.0010854067510866468
-0.005090062611658129   -0.037694738068942565   -0.0010813559005543147
-0.005166787616184968   -0.03771264920225804   -0.0011711713742174766
-0.0036507330893511963   -0.03939712591224311   -0.0011441365362490708
-0.006259047797288398   -0.03750204222001024   -0.0010854067510866468
-0.005166787616184968   -0.03771264920225804   -0.0011711713742174766
-0.004307937698343826   -0.039220158959714625   -0.0013074610378746602
-0.0036507330893511963   -0.03939712591224311   -0.0011441365362490708
-0.005090062611658129   -0.037694738068942565   -0.0010813559005543147
-0.004083450431594773   -0.03921543544421908   -0.0011327863206264666
-0.0035375111492282375   -0.039414356564143854   -0.0010327624744178754
-0.005090062611658129   -0.037694738068942565   -0.0010813559005543147
-0.006259047797288398   -0.03750204222001024   -0.0010854067510866468
-0.004083450431594773   -0.03921543544421908   -0.0011327863206264666
-0.006049977135168944   -0.03752424547406259   -0.0009352003207398379
-0.0035375111492282375   -0.039414356564143854   -0.0010327624744178754
-0.003799869956855776   -0.03926245807142261   -0.0009502664200477888
-0.006049977135168944   -0.03752424547406259   -0.0009352003207398379
-0.004083450431594773   -0.03921543544421908   -0.0011327863206264666
-0.0035375111492282375   -0.039414356564143854   -0.0010327624744178754
-0.006049977135168944   -0.03752424547406259   -0.0009352003207398379
-0.0050232875527548015   -0.03770179934634021   -0.0009853780173401895
-0.005090062611658129   -0.037694738068942565   -0.0010813559005543147
-0.0035375111492282375   -0.039414356564143854   -0.0010327624744178754
-0.006049977135168944   -0.03752424547406259   -0.0009352003207398379
-0.005090062611658129   -0.037694738068942565   -0.0010813559005543147
-0.004083450431594773   -0.03921543544421908   -0.0011327863206264666
-0.0012023338000029923   -0.03775419275547706   -0.0007340810295286345
0.00016048587685156069   -0.03505298474008072   -0.0006065124274819617
-0.0021947274423099973   -0.03786843525501523   -0.0008936801831448641
-0.001045806611072434   -0.0376759498350615   -0.0008461997180130399
0.00016048587685156069   -0.03505298474008072   -0.0006065124274819617
-0.0015208325978367263   -0.03513717092876123   -0.000763325449453118
-0.0021947274423099973   -0.03786843525501523   -0.0008936801831448641
-0.0014918967549371518   -0.035070958382406925   -0.0008026266423647079
-0.001045806611072434   -0.0376759498350615   -0.0008461997180130399
-0.0021404020852367656   -0.03780528289351043   -0.0009430310211110685
-0.0014918967549371518   -0.035070958382406925   -0.0008026266423647079
-0.0021947274423099973   -0.03786843525501523   -0.0008936801831448641
-0.001045806611072434   -0.0376759498350615   -0.0008461997180130399
-0.0014918967549371518   -0.035070958382406925   -0.0008026266423647079
0.0002703584505526745   -0.03497341131103929   -0.0006961604193691592
0.00016048587685156069   -0.03505298474008072   -0.0006065124274819617
-0.001045806611072434   -0.0376759498350615   -0.0008461997180130399
-0.0014918967549371518   -0.035070958382406925   -0.0008026266423647079
0.00016048587685156069   -0.03505298474008072   -0.0006065124274819617
-0.0021947274423099973   -0.03786843525501523   -0.0008936801831448641
-0.001045806611072434   -0.0376759498350615   -0.0008461997180130399
0.0002703584505526745   -0.03497341131103929   -0.0006961604193691592
-0.0021404020852367656   -0.03780528289351043   -0.0009430310211110685
-0.0009226257654121285   -0.037639219959193844   -0.0009518280122761722
0.0002703584505526745   -0.03497341131103929   -0.0006961604193691592
-0.0014918967549371518   -0.035070958382406925   -0.0008026266423647079
-0.0021404020852367656   -0.03780528289351043   -0.0009430310211110685
-0.0014588476843847172   -0.03502818531295846   -0.0008374211299301608
-0.0009226257654121285   -0.037639219959193844   -0.0009518280122761722
-0.0020791164746570396   -0.03777076064946406   -0.0009880004136508006
-0.0014588476843847172   -0.03502818531295846   -0.0008374211299301608
-0.0021404020852367656   -0.03780528289351043   -0.0009430310211110685
-0.0009226257654121285   -0.037639219959193844   -0.0009518280122761722
-0.0014588476843847172   -0.03502818531295846   -0.0008374211299301608
0.00035124209302846734   -0.034927978072512966   -0.0007794999688635697
0.0002703584505526745   -0.03497341131103929   -0.0006961604193691592
-0.0009226257654121285   -0.037639219959193844   -0.0009518280122761722
-0.0014588476843847172   -0.03502818531295846   -0.0008374211299301608
0.0002703584505526745   -0.03497341131103929   -0.0006961604193691592
-0.0021404020852367656   -0.03780528289351043   -0.0009430310211110685
-0.0009226257654121285   -0.037639219959193844   -0.0009518280122761722
0.00035124209302846734   -0.034927978072512966   -0.0007794999688635697
-0.0020791164746570396   -0.03777076064946406   -0.0009880004136508006
-0.0007878146220752006   -0.03763334692823183   -0.0010506969499152136
0.00035124209302846734   -0.034927978072512966   -0.0007794999688635697
-0.0014588476843847172   -0.03502818531295846   -0.0008374211299301608
-0.0020791164746570396   -0.03777076064946406   -0.0009880004136508006
-0.0014390769889450073   -0.03500756955346485   -0.00086815455412189
-0.0007878146220752006   -0.03763334692823183   -0.0010506969499152136
-0.00203216551149222   -0.03776389816558218   -0.0010287325969308098
-0.0014390769889450073   -0.03500756955346485   -0.00086815455412189
-0.0020791164746570396   -0.03777076064946406   -0.0009880004136508006
-0.0007878146220752006   -0.03763334692823183   -0.0010506969499152136
-0.0014390769889450073   -0.03500756955346485   -0.00086815455412189
0.00043810101323000876   -0.034906409196635915   -0.0008565046861653394
0.00035124209302846734   -0.034927978072512966   -0.0007794999688635697
-0.0007878146220752006   -0.03763334692823183   -0.0010506969499152136
-0.0014390769889450073   -0.03500756955346485   -0.00086815455412189
0.00035124209302846734   -0.034927978072512966   -0.0007794999688635697
-0.0020791164746570396   -0.03777076064946406   -0.0009880004136508006
-0.0021947274423099973   -0.03786843525501523   -0.0008936801831448641
-0.0015208325978367263   -0.03513717092876123   -0.000763325449453118
-0.0031764406094436618   -0.03790855248161502   -0.001023656333369459
-0.0021404020852367656   -0.03780528289351043   -0.0009430310211110685
-0.0015208325978367263   -0.03513717092876123   -0.000763325449453118
-0.0031492469924257137   -0.03515332136481817   -0.0008922420254493742
-0.0031764406094436618   -0.03790855248161502   -0.001023656333369459
-0.003128048590828691   -0.03509655220637009   -0.0008931698539847748
-0.0021404020852367656   -0.03780528289351043   -0.0009430310211110685
-0.00313084371569927   -0.0378534746938   -0.0010262607789520446
-0.003128048590828691   -0.03509655220637009   -0.0008931698539847748
-0.0031764406094436618   -0.03790855248161502   -0.001023656333369459
-0.0021404020852367656   -0.03780528289351043   -0.0009430310211110685
-0.003128048590828691   -0.03509655220637009   -0.0008931698539847748
-0.0014918967549371518   -0.035070958382406925   -0.0008026266423647079
-0.0015208325978367263   -0.03513717092876123   -0.000763325449453118
-0.0021404020852367656   -0.03780528289351043   -0.0009430310211110685
-0.003128048590828691   -0.03509655220637009   -0.0008931698539847748
-0.0015208325978367263   -0.03513717092876123   -0.000763325449453118
-0.0031764406094436618   -0.03790855248161502   -0.001023656333369459
-0.0021404020852367656   -0.03780528289351043   -0.0009430310211110685
-0.0014918967549371518   -0.035070958382406925   -0.0008026266423647079
-0.00313084371569927   -0.0378534746938   -0.0010262607789520446
-0.0020791164746570396   -0.03777076064946406   -0.0009880004136508006
-0.0014918967549371518   -0.035070958382406925   -0.0008026266423647079
-0.003128048590828691   -0.03509655220637009   -0.0008931698539847748
-0.00313084371569927   -0.0378534746938   -0.0010262607789520446
-0.0031062372915043753   -0.03506075538441545   -0.0008897758510158606
-0.0020791164746570396   -0.03777076064946406   -0.0009880004136508006
-0.003083669861692976   -0.037824199519221925   -0.0010248056545215844
-0.0031062372915043753   -0.03506075538441545   -0.0008897758510158606
-0.00313084371569927   -0.0378534746938   -0.0010262607789520446
-0.0020791164746570396   -0.03777076064946406   -0.0009880004136508006
-0.0031062372915043753   -0.03506075538441545   -0.0008897758510158606
-0.0014588476843847172   -0.03502818531295846   -0.0008374211299301608
-0.0014918967549371518   -0.035070958382406925   -0.0008026266423647079
-0.0020791164746570396   -0.03777076064946406   -0.0009880004136508006
-0.0031062372915043753   -0.03506075538441545   -0.0008897758510158606
-0.0014918967549371518   -0.035070958382406925   -0.0008026266423647079
-0.00313084371569927   -0.0378534746938   -0.0010262607789520446
-0.0020791164746570396   -0.03777076064946406   -0.0009880004136508006
-0.0014588476843847172   -0.03502818531295846   -0.0008374211299301608
-0.003083669861692976   -0.037824199519221925   -0.0010248056545215844
-0.00203216551149222   -0.03776389816558218   -0.0010287325969308098
-0.0014588476843847172   -0.03502818531295846   -0.0008374211299301608
-0.0031062372915043753   -0.03506075538441545   -0.0008897758510158606
-0.003083669861692976   -0.037824199519221925   -0.0010248056545215844
-0.003087165166215346   -0.03504559624611623   -0.0008823539510289676
-0.00203216551149222   -0.03776389816558218   -0.0010287325969308098
-0.0030381928280208462   -0.037819515368681736   -0.001019261324236588
-0.003087165166215346   -0.03504559624611623   -0.0008823539510289676
-0.003083669861692976   -0.037824199519221925   -0.0010248056545215844
-0.00203216551149222   -0.03776389816558218   -0.0010287325969308098
-0.003087165166215346   -0.03504559624611623   -0.0008823539510289676
-0.0014390769889450073   -0.03500756955346485   -0.00086815455412189
-0.0014588476843847172   -0.03502818531295846   -0.0008374211299301608
-0.00203216551149222   -0.03776389816558218   -0.0010287325969308098
-0.003087165166215346   -0.03504559624611623   -0.0008823539510289676
-0.0014588476843847172   -0.03502818531295846   -0.0008374211299301608
-0.003083669861692976   -0.037824199519221925   -0.0010248056545215844
-0.0031764406094436618   -0.03790855248161502   -0.001023656333369459
-0.0031492469924257137   -0.03515332136481817   -0.0008922420254493742
-0.00415167527452177   -0.037872480157744026   -0.0011453520597930528
-0.00313084371569927   -0.0378534746938   -0.0010262607789520446
-0.0031492469924257137   -0.03515332136481817   -0.0008922420254493742
-0.004752469367534503   -0.03510127380263582   -0.0010085814151202781
-0.00415167527452177   -0.037872480157744026   -0.0011453520597930528
-0.004732740990281943   -0.03505231797872598   -0.0009720561261836407
-0.00313084371569927   -0.0378534746938   -0.0010262607789520446
-0.004106439414558157   -0.03782351884476864   -0.0011031146156055681
-0.004732740990281943   -0.03505231797872598   -0.0009720561261836407
-0.00415167527452177   -0.037872480157744026   -0.0011453520597930528
-0.00313084371569927   -0.0378534746938   -0.0010262607789520446
-0.004732740990281943   -0.03505231797872598   -0.0009720561261836407
-0.003128048590828691   -0.03509655220637009   -0.0008931698539847748
-0.0031492469924257137   -0.03515332136481817   -0.0008922420254493742
-0.00313084371569927   -0.0378534746938   -0.0010262607789520446
-0.004732740990281943   -0.03505231797872598   -0.0009720561261836407
-0.0031492469924257137   -0.03515332136481817   -0.0008922420254493742
-0.00415167527452177   -0.037872480157744026   -0.0011453520597930528
-0.00313084371569927   -0.0378534746938   -0.0010262607789520446
-0.003128048590828691   -0.03509655220637009   -0.0008931698539847748
-0.004106439414558157   -0.03782351884476864   -0.0011031146156055681
-0.003083669861692976   -0.037824199519221925   -0.0010248056545215844
-0.003128048590828691   -0.03509655220637009   -0.0008931698539847748
-0.004732740990281943   -0.03505231797872598   -0.0009720561261836407
-0.004106439414558157   -0.03782351884476864   -0.0011031146156055681
-0.004708894396469047   -0.035024105874351785   -0.0009313062043277868
-0.003083669861692976   -0.037824199519221925   -0.0010248056545215844
-0.004055677390757543   -0.03779993688934096   -0.0010568815355531122
-0.004708894396469047   -0.035024105874351785   -0.0009313062043277868
-0.004106439414558157   -0.03782351884476864   -0.0011031146156055681
-0.003083669861692976   -0.037824199519221925   -0.0010248056545215844
-0.004708894396469047   -0.035024105874351785   -0.0009313062043277868
-0.0031062372915043753   -0.03506075538441545   -0.0008897758510158606
-0.003128048590828691   -0.03509655220637009   -0.0008931698539847748
-0.003083669861692976   -0.037824199519221925   -0.0010248056545215844
-0.004708894396469047   -0.035024105874351785   -0.0009313062043277868
-0.003128048590828691   -0.03509655220637009   -0.0008931698539847748
-0.004106439414558157   -0.03782351884476864   -0.0011031146156055681
-0.003083669861692976   -0.037824199519221925   -0.0010248056545215844
-0.0031062372915043753   -0.03506075538441545   -0.0008897758510158606
-0.004055677390757543   -0.03779993688934096   -0.0010568815355531122
-0.0030381928280208462   -0.037819515368681736   -0.001019261324236588
-0.0031062372915043753   -0.03506075538441545   -0.0008897758510158606
-0.004708894396469047   -0.035024105874351785   -0.0009313062043277868
-0.004055677390757543   -0.03779993688934096   -0.0010568815355531122
-0.004685726857208277   -0.035015695227891726   -0.0008864609103245135
-0.0030381928280208462   -0.037819515368681736   -0.001019261324236588
-0.004004746683363055   -0.03779933771874409   -0.0010061667043044192
-0.004685726857208277   -0.035015695227891726   -0.0008864609103245135
-0.004055677390757543   -0.03779993688934096   -0.0010568815355531122
-0.0030381928280208462   -0.037819515368681736   -0.001019261324236588
-0.004685726857208277   -0.035015695227891726   -0.0008864609103245135
-0.003087165166215346   -0.03504559624611623   -0.0008823539510289676
-0.0031062372915043753   -0.03506075538441545   -0.0008897758510158606
-0.0030381928280208462   -0.037819515368681736   -0.001019261324236588
-0.004685726857208277   -0.035015695227891726   -0.0008864609103245135
-0.0031062372915043753   -0.03506075538441545   -0.0008897758510158606
-0.004055677390757543   -0.03779993688934096   -0.0010568815355531122
-0.00415167527452177   -0.037872480157744026   -0.0011453520597930528
-0.004752469367534503   -0.03510127380263582   -0.0010085814151202781
-0.00522227817120109   -0.03775551406408558   -0.0012572961516926235
-0.004106439414558157   -0.03782351884476864   -0.0011031146156055681
-0.004752469367534503   -0.03510127380263582   -0.0010085814151202781
-0.006432042505446516   -0.0349828166006545   -0.001111969930022853
-0.00522227817120109   -0.03775551406408558   -0.0012572961516926235
-0.006406154692249586   -0.03494128217661943   -0.0010379254885611539
-0.004106439414558157   -0.03782351884476864   -0.0011031146156055681
-0.005166787616184968   -0.03771264920225804   -0.0011711713742174766
-0.006406154692249586   -0.03494128217661943   -0.0010379254885611539
-0.00522227817120109   -0.03775551406408558   -0.0012572961516926235
-0.004106439414558157   -0.03782351884476864   -0.0011031146156055681
-0.006406154692249586   -0.03494128217661943   -0.0010379254885611539
-0.004732740990281943   -0.03505231797872598   -0.0009720561261836407
-0.004752469367534503   -0.03510127380263582   -0.0010085814151202781
-0.004106439414558157   -0.03782351884476864   -0.0011031146156055681
-0.006406154692249586   -0.03494128217661943   -0.0010379254885611539
-0.004752469367534503   -0.03510127380263582   -0.0010085814151202781
-0.00522227817120109   -0.03775551406408558   -0.0012572961516926235
-0.004106439414558157   -0.03782351884476864   -0.0011031146156055681
-0.004732740990281943   -0.03505231797872598   -0.0009720561261836407
-0.005166787616184968   -0.03771264920225804   -0.0011711713742174766
-0.004055677390757543   -0.03779993688934096   -0.0010568815355531122
-0.004732740990281943   -0.03505231797872598   -0.0009720561261836407
-0.006406154692249586   -0.03494128217661943   -0.0010379254885611539
-0.005166787616184968   -0.03771264920225804   -0.0011711713742174766
-0.006362202031186114   -0.0349199459560034   -0.000960311093017722
-0.004055677390757543   -0.03779993688934096   -0.0010568815355531122
-0.005090062611658129   -0.037694738068942565   -0.0010813559005543147
-0.006362202031186114   -0.0349199459560034   -0.000960311093017722
-0.005166787616184968   -0.03771264920225804   -0.0011711713742174766
-0.004055677390757543   -0.03779993688934096   -0.0010568815355531122
-0.006362202031186114   -0.0349199459560034   -0.000960311093017722
-0.004708894396469047   -0.035024105874351785   -0.0009313062043277868
-0.004732740990281943   -0.03505231797872598   -0.0009720561261836407
-0.004055677390757543   -0.03779993688934096   -0.0010568815355531122
-0.006362202031186114   -0.0349199459560034   -0.000960311093017722
-0.004732740990281943   -0.03505231797872598   -0.0009720561261836407
-0.005166787616184968   -0.03771264920225804   -0.0011711713742174766
-0.004055677390757543   -0.03779993688934096   -0.0010568815355531122
-0.004708894396469047   -0.035024105874351785   -0.0009313062043277868
-0.005090062611658129   -0.037694738068942565   -0.0010813559005543147
-0.004004746683363055   -0.03779933771874409   -0.0010061667043044192
-0.004708894396469047   -0.035024105874351785   -0.0009313062043277868
-0.006362202031186114   -0.0349199459560034   -0.000960311093017722
-0.005090062611658129   -0.037694738068942565   -0.0010813559005543147
-0.0063266384263218345   -0.03491996338618338   -0.000878002080732864
-0.004004746683363055   -0.03779933771874409   -0.0010061667043044192
-0.0050232875527548015   -0.03770179934634021   -0.0009853780173401895
-0.0063266384263218345   -0.03491996338618338   -0.000878002080732864
-0.005090062611658129   -0.037694738068942565   -0.0010813559005543147
-0.004004746683363055   -0.03779933771874409   -0.0010061667043044192
-0.0063266384263218345   -0.03491996338618338   -0.000878002080732864
-0.004685726857208277   -0.035015695227891726   -0.0008864609103245135
-0.004708894396469047   -0.035024105874351785   -0.0009313062043277868
-0.004004746683363055   -0.03779933771874409   -0.0010061667043044192
-0.0063266384263218345   -0.03491996338618338   -0.000878002080732864
-0.004708894396469047   -0.035024105874351785   -0.0009313062043277868
-0.005090062611658129   -0.037694738068942565   -0.0010813559005543147
-0.00522227817120109   -0.03775551406408558   -0.0012572961516926235
-0.006432042505446516   -0.0349828166006545   -0.001111969930022853
-0.006600782486969745   -0.03756528775732091   -0.0013652289091733581
-0.005166787616184968   -0.03771264920225804   -0.0011711713742174766
-0.006432042505446516   -0.0349828166006545   -0.001111969930022853
-0.008390536890493216   -0.034811878461004406   -0.0012087066050865303
-0.006600782486969745   -0.03756528775732091   -0.0013652289091733581
-0.008256783437473249   -0.034768406197910204   -0.0010927293280466202
-0.005166787616184968   -0.03771264920225804   -0.0011711713742174766
-0.006420395549807579   -0.037518609382418265   -0.0012292005538396822
-0.008256783437473249   -0.034768406197910204   -0.0010927293280466202
-0.006600782486969745   -0.03756528775732091   -0.0013652289091733581
-0.005166787616184968   -0.03771264920225804   -0.0011711713742174766
-0.008256783437473249   -0.034768406197910204   -0.0010927293280466202
-0.006406154692249586   -0.03494128217661943   -0.0010379254885611539
-0.006432042505446516   -0.0349828166006545   -0.001111969930022853
-0.005166787616184968   -0.03771264920225804   -0.0011711713742174766
-0.008256783437473249   -0.034768406197910204   -0.0010927293280466202
-0.006432042505446516   -0.0349828166006545   -0.001111969930022853
-0.006600782486969745   -0.03756528775732091   -0.0013652289091733581
-0.005166787616184968   -0.03771264920225804   -0.0011711713742174766
-0.006406154692249586   -0.03494128217661943   -0.0010379254885611539
-0.006420395549807579   -0.037518609382418265   -0.0012292005538396822
-0.005090062611658129   -0.037694738068942565   -0.0010813559005543147
-0.006406154692249586   -0.03494128217661943   -0.0010379254885611539
-0.008256783437473249   -0.034768406197910204   -0.0010927293280466202
-0.006420395549807579   -0.037518609382418265   -0.0012292005538396822
-0.008140916027322842   -0.03474893770801231   -0.0009708497785704403
-0.005090062611658129   -0.037694738068942565   -0.0010813559005543147
-0.006259047797288398   -0.03750204222001024   -0.0010854067510866468
-0.008140916027322842   -0.03474893770801231   -0.0009708497785704403
-0.006420395549807579   -0.037518609382418265   -0.0012292005538396822
-0.005090062611658129   -0.037694738068942565   -0.0010813559005543147
-0.008140916027322842   -0.03474893770801231   -0.0009708497785704403
-0.006362202031186114   -0.0349199459560034   -0.000960311093017722
-0.006406154692249586   -0.03494128217661943   -0.0010379254885611539
-0.005090062611658129   -0.037694738068942565   -0.0010813559005543147
-0.008140916027322842   -0.03474893770801231   -0.0009708497785704403
-0.006406154692249586   -0.03494128217661943   -0.0010379254885611539
-0.006420395549807579   -0.037518609382418265   -0.0012292005538396822
-0.005090062611658129   -0.037694738068942565   -0.0010813559005543147
-0.006362202031186114   -0.0349199459560034   -0.000960311093017722
-0.006259047797288398   -0.03750204222001024   -0.0010854067510866468
-0.0050232875527548015   -0.03770179934634021   -0.0009853780173401895
-0.006362202031186114   -0.0349199459560034   -0.000960311093017722
-0.008140916027322842   -0.03474893770801231   -0.0009708497785704403
-0.006259047797288398   -0.03750204222001024   -0.0010854067510866468
-0.007984905725592649   -0.034762052352669603   -0.0008438415422070756
-0.0050232875527548015   -0.03770179934634021   -0.0009853780173401895
-0.006049977135168944   -0.03752424547406259   -0.0009352003207398379
-0.007984905725592649   -0.034762052352669603   -0.0008438415422070756
-0.006259047797288398   -0.03750204222001024   -0.0010854067510866468
-0.0050232875527548015   -0.03770179934634021   -0.0009853780173401895
-0.007984905725592649   -0.034762052352669603   -0.0008438415422070756
-0.0063266384263218345   -0.03491996338618338   -0.000878002080732864
-0.006362202031186114   -0.0349199459560034   -0.000960311093017722
-0.0050232875527548015   -0.03770179934634021   -0.0009853780173401895
-0.007984905725592649   -0.034762052352669603   -0.0008438415422070756
-0.006362202031186114   -0.0349199459560034   -0.000960311093017722
-0.006259047797288398   -0.03750204222001024   -0.0010854067510866468
0.00016048587685156069   -0.03505298474008072   -0.0006065124274819617
0.0012001014260111598   -0.03137281926567294   -0.00046193533808161686
-0.0015208325978367263   -0.03513717092876123   -0.000763325449453118
0.0002703584505526745   -0.03497341131103929   -0.0006961604193691592
0.0012001014260111598   -0.03137281926567294   -0.00046193533808161686
-0.0010318583632413683   -0.0314288288915407   -0.0006116713869426652
-0.0015208325978367263   -0.03513717092876123   -0.000763325449453118
-0.0010256412865384743   -0.03136296486283657   -0.0006390800745007441
0.0002703584505526745   -0.03497341131103929   -0.0006961604193691592
-0.0014918967549371518   -0.035070958382406925   -0.0008026266423647079
-0.0010256412865384743   -0.03136296486283657   -0.0006390800745007441
-0.0015208325978367263   -0.03513717092876123   -0.000763325449453118
0.0002703584505526745   -0.03497341131103929   -0.0006961604193691592
-0.0010256412865384743   -0.03136296486283657   -0.0006390800745007441
0.001265983285929813   -0.0312951202263327   -0.0005285989361539824
0.0012001014260111598   -0.03137281926567294   -0.00046193533808161686
0.0002703584505526745   -0.03497341131103929   -0.0006961604193691592
-0.0010256412865384743   -0.03136296486283657   -0.0006390800745007441
0.0012001014260111598   -0.03137281926567294   -0.00046193533808161686
-0.0015208325978367263   -0.03513717092876123   -0.000763325449453118
0.0002703584505526745   -0.03497341131103929   -0.0006961604193691592
0.001265983285929813   -0.0312951202263327   -0.0005285989361539824
-0.0014918967549371518   -0.035070958382406925   -0.0008026266423647079
0.00035124209302846734   -0.034927978072512966   -0.0007794999688635697
0.001265983285929813   -0.0312951202263327   -0.0005285989361539824
-0.0010256412865384743   -0.03136296486283657   -0.0006390800745007441
-0.0014918967549371518   -0.035070958382406925   -0.0008026266423647079
-0.0010177016341324514   -0.0313156712279669   -0.0006623528596035102
0.00035124209302846734   -0.034927978072512966   -0.0007794999688635697
-0.0014588476843847172   -0.03502818531295846   -0.0008374211299301608
-0.0010177016341324514   -0.0313156712279669   -0.0006623528596035102
-0.0014918967549371518   -0.035070958382406925   -0.0008026266423647079
0.00035124209302846734   -0.034927978072512966   -0.0007794999688635697
-0.0010177016341324514   -0.0313156712279669   -0.0006623528596035102
0.0013082712695983937   -0.031244685105614654   -0.0005894138350234864
0.001265983285929813   -0.0312951202263327   -0.0005285989361539824
0.00035124209302846734   -0.034927978072512966   -0.0007794999688635697
-0.0010177016341324514   -0.0313156712279669   -0.0006623528596035102
0.001265983285929813   -0.0312951202263327   -0.0005285989361539824
-0.0014918967549371518   -0.035070958382406925   -0.0008026266423647079
0.00035124209302846734   -0.034927978072512966   -0.0007794999688635697
0.0013082712695983937   -0.031244685105614654   -0.0005894138350234864
-0.0014588476843847172   -0.03502818531295846   -0.0008374211299301608
0.00043810101323000876   -0.034906409196635915   -0.0008565046861653394
0.0013082712695983937   -0.031244685105614654   -0.0005894138350234864
-0.0010177016341324514   -0.0313156712279669   -0.0006623528596035102
-0.0014588476843847172   -0.03502818531295846   -0.0008374211299301608
-0.001021134963471987   -0.03128540916816959   -0.0006817907557441423
0.00043810101323000876   -0.034906409196635915   -0.0008565046861653394
-0.0014390769889450073   -0.03500756955346485   -0.00086815455412189
-0.001021134963471987   -0.03128540916816959   -0.0006817907557441423
-0.0014588476843847172   -0.03502818531295846   -0.0008374211299301608
0.00043810101323000876   -0.034906409196635915   -0.0008565046861653394
-0.001021134963471987   -0.03128540916816959   -0.0006817907557441423
0.0013519454125011643   -0.031211580973042014   -0.0006445063916951427
0.0013082712695983937   -0.031244685105614654   -0.0005894138350234864
0.00043810101323000876   -0.034906409196635915   -0.0008565046861653394
-0.001021134963471987   -0.03128540916816959   -0.0006817907557441423
0.0013082712695983937   -0.031244685105614654   -0.0005894138350234864
-0.0014588476843847172   -0.03502818531295846   -0.0008374211299301608
-0.0015208325978367263   -0.03513717092876123   -0.000763325449453118
-0.0010318583632413683   -0.0314288288915407   -0.0006116713869426652
-0.0031492469924257137   -0.03515332136481817   -0.0008922420254493742
-0.0014918967549371518   -0.035070958382406925   -0.0008026266423647079
-0.0010318583632413683   -0.0314288288915407   -0.0006116713869426652
-0.003181209040111864   -0.031429311920735795   -0.0007347942081889204
-0.0031492469924257137   -0.03515332136481817   -0.0008922420254493742
-0.0031813881435490817   -0.03137370688625556   -0.0007321968401489826
-0.0014918967549371518   -0.035070958382406925   -0.0008026266423647079
-0.003128048590828691   -0.03509655220637009   -0.0008931698539847748
-0.0031813881435490817   -0.03137370688625556   -0.0007321968401489826
-0.0031492469924257137   -0.03515332136481817   -0.0008922420254493742
-0.0014918967549371518   -0.035070958382406925   -0.0008026266423647079
-0.0031813881435490817   -0.03137370688625556   -0.0007321968401489826
-0.0010256412865384743   -0.03136296486283657   -0.0006390800745007441
-0.0010318583632413683   -0.0314288288915407   -0.0006116713869426652
-0.0014918967549371518   -0.035070958382406925   -0.0008026266423647079
-0.0031813881435490817   -0.03137370688625556   -0.0007321968401489826
-0.0010318583632413683   -0.0314288288915407   -0.0006116713869426652
-0.0031492469924257137   -0.03515332136481817   -0.0008922420254493742
-0.0014918967549371518   -0.035070958382406925   -0.0008026266423647079
-0.0010256412865384743   -0.03136296486283657   -0.0006390800745007441
-0.003128048590828691   -0.03509655220637009   -0.0008931698539847748
-0.0014588476843847172   -0.03502818531295846   -0.0008374211299301608
-0.0010256412865384743   -0.03136296486283657   -0.0006390800745007441
-0.0031813881435490817   -0.03137370688625556   -0.0007321968401489826
-0.003128048590828691   -0.03509655220637009   -0.0008931698539847748
-0.0031814168235832154   -0.03133446623684737   -0.0007254753391549558
-0.0014588476843847172   -0.03502818531295846   -0.0008374211299301608
-0.0031062372915043753   -0.03506075538441545   -0.0008897758510158606
-0.0031814168235832154   -0.03133446623684737   -0.0007254753391549558
-0.003128048590828691   -0.03509655220637009   -0.0008931698539847748
-0.0014588476843847172   -0.03502818531295846   -0.0008374211299301608
-0.0031814168235832154   -0.03133446623684737   -0.0007254753391549558
-0.0010177016341324514   -0.0313156712279669   -0.0006623528596035102
-0.0010256412865384743   -0.03136296486283657   -0.0006390800745007441
-0.0014588476843847172   -0.03502818531295846   -0.0008374211299301608
-0.0031814168235832154   -0.03133446623684737   -0.0007254753391549558
-0.0010256412865384743   -0.03136296486283657   -0.0006390800745007441
-0.003128048590828691   -0.03509655220637009   -0.0008931698539847748
-0.0014588476843847172   -0.03502818531295846   -0.0008374211299301608
-0.0010177016341324514   -0.0313156712279669   -0.0006623528596035102
-0.0031062372915043753   -0.03506075538441545   -0.0008897758510158606
-0.0014390769889450073   -0.03500756955346485   -0.00086815455412189
-0.0010177016341324514   -0.0313156712279669   -0.0006623528596035102
-0.0031814168235832154   -0.03133446623684737   -0.0007254753391549558
-0.0031062372915043753   -0.03506075538441545   -0.0008897758510158606
-0.0031843078430626587   -0.03131162071926693   -0.0007148493089974034
-0.0014390769889450073   -0.03500756955346485   -0.00086815455412189
-0.003087165166215346   -0.03504559624611623   -0.0008823539510289676
-0.0031843078430626587   -0.03131162071926693   -0.0007148493089974034
-0.0031062372915043753   -0.03506075538441545   -0.0008897758510158606
-0.0014390769889450073   -0.03500756955346485   -0.00086815455412189
-0.0031843078430626587   -0.03131162071926693   -0.0007148493089974034
-0.001021134963471987   -0.03128540916816959   -0.0006817907557441423
-0.0010177016341324514   -0.0313156712279669   -0.0006623528596035102
-0.0014390769889450073   -0.03500756955346485   -0.00086815455412189
-0.0031843078430626587   -0.03131162071926693   -0.0007148493089974034
-0.0010177016341324514   -0.0313156712279669   -0.0006623528596035102
-0.0031062372915043753   -0.03506075538441545   -0.0008897758510158606
-0.0031492469924257137   -0.03515332136481817   -0.0008922420254493742
-0.003181209040111864   -0.031429311920735795   -0.0007347942081889204
-0.004752469367534503   -0.03510127380263582   -0.0010085814151202781
-0.003128048590828691   -0.03509655220637009   -0.0008931698539847748
-0.003181209040111864   -0.031429311920735795   -0.0007347942081889204
-0.005294430684189243   -0.0313756639412668   -0.0008425303920534884
-0.004752469367534503   -0.03510127380263582   -0.0010085814151202781
-0.005296213757874087   -0.03132903564991804   -0.0008102939130208101
-0.003128048590828691   -0.03509655220637009   -0.0008931698539847748
-0.004732740990281943   -0.03505231797872598   -0.0009720561261836407
-0.005296213757874087   -0.03132903564991804   -0.0008102939130208101
-0.004752469367534503   -0.03510127380263582   -0.0010085814151202781
-0.003128048590828691   -0.03509655220637009   -0.0008931698539847748
-0.005296213757874087   -0.03132903564991804   -0.0008102939130208101
-0.0031813881435490817   -0.03137370688625556   -0.0007321968401489826
-0.003181209040111864   -0.031429311920735795   -0.0007347942081889204
-0.003128048590828691   -0.03509655220637009   -0.0008931698539847748
-0.005296213757874087   -0.03132903564991804   -0.0008102939130208101
-0.003181209040111864   -0.031429311920735795   -0.0007347942081889204
-0.004752469367534503   -0.03510127380263582   -0.0010085814151202781
-0.003128048590828691   -0.03509655220637009   -0.0008931698539847748
-0.0031813881435490817   -0.03137370688625556   -0.0007321968401489826
-0.004732740990281943   -0.03505231797872598   -0.0009720561261836407
-0.0031062372915043753   -0.03506075538441545   -0.0008897758510158606
-0.0031813881435490817   -0.03137370688625556   -0.0007321968401489826
-0.005296213757874087   -0.03132903564991804   -0.0008102939130208101
-0.004732740990281943   -0.03505231797872598   -0.0009720561261836407
-0.005294405536947382   -0.03129862751277608   -0.0007740163289339163
-0.0031062372915043753   -0.03506075538441545   -0.0008897758510158606
-0.004708894396469047   -0.035024105874351785   -0.0009313062043277868
-0.005294405536947382   -0.03129862751277608   -0.0007740163289339163
-0.004732740990281943   -0.03505231797872598   -0.0009720561261836407
-0.0031062372915043753   -0.03506075538441545   -0.0008897758510158606
-0.005294405536947382   -0.03129862751277608   -0.0007740163289339163
-0.0031814168235832154   -0.03133446623684737   -0.0007254753391549558
-0.0031813881435490817   -0.03137370688625556   -0.0007321968401489826
-0.0031062372915043753   -0.03506075538441545   -0.0008897758510158606
-0.005294405536947382   -0.03129862751277608   -0.0007740163289339163
-0.0031813881435490817   -0.03137370688625556   -0.0007321968401489826
-0.004732740990281943   -0.03505231797872598   -0.0009720561261836407
-0.0031062372915043753   -0.03506075538441545   -0.0008897758510158606
-0.0031814168235832154   -0.03133446623684737   -0.0007254753391549558
-0.004708894396469047   -0.035024105874351785   -0.0009313062043277868
-0.003087165166215346   -0.03504559624611623   -0.0008823539510289676
-0.0031814168235832154   -0.03133446623684737   -0.0007254753391549558
-0.005294405536947382   -0.03129862751277608   -0.0007740163289339163
-0.004708894396469047   -0.035024105874351785   -0.0009313062043277868
-0.005293258219329277   -0.03128416040310136   -0.0007338140162684167
-0.003087165166215346   -0.03504559624611623   -0.0008823539510289676
-0.004685726857208277   -0.035015695227891726   -0.0008864609103245135
-0.005293258219329277   -0.03128416040310136   -0.0007338140162684167
-0.004708894396469047   -0.035024105874351785   -0.0009313062043277868
-0.003087165166215346   -0.03504559624611623   -0.0008823539510289676
-0.005293258219329277   -0.03128416040310136   -0.0007338140162684167
-0.0031843078430626587   -0.03131162071926693   -0.0007148493089974034
-0.0031814168235832154   -0.03133446623684737   -0.0007254753391549558
-0.003087165166215346   -0.03504559624611623   -0.0008823539510289676
-0.005293258219329277   -0.03128416040310136   -0.0007338140162684167
-0.0031814168235832154   -0.03133446623684737   -0.0007254753391549558
-0.004708894396469047   -0.035024105874351785   -0.0009313062043277868
-0.004752469367534503   -0.03510127380263582   -0.0010085814151202781
-0.005294430684189243   -0.0313756639412668   -0.0008425303920534884
-0.006432042505446516   -0.0349828166006545   -0.001111969930022853
-0.004732740990281943   -0.03505231797872598   -0.0009720561261836407
-0.005294430684189243   -0.0313756639412668   -0.0008425303920534884
-0.007473272589971534   -0.03126987045331652   -0.0009351371218070301
-0.006432042505446516   -0.0349828166006545   -0.001111969930022853
-0.007470547514741799   -0.031231806672620793   -0.0008729020615920537
-0.004732740990281943   -0.03505231797872598   -0.0009720561261836407
-0.006406154692249586   -0.03494128217661943   -0.0010379254885611539
-0.007470547514741799   -0.031231806672620793   -0.0008729020615920537
-0.006432042505446516   -0.0349828166006545   -0.001111969930022853
-0.004732740990281943   -0.03505231797872598   -0.0009720561261836407
-0.007470547514741799   -0.031231806672620793   -0.0008729020615920537
-0.005296213757874087   -0.03132903564991804   -0.0008102939130208101
-0.005294430684189243   -0.0313756639412668   -0.0008425303920534884
-0.004732740990281943   -0.03505231797872598   -0.0009720561261836407
-0.007470547514741799   -0.031231806672620793   -0.0008729020615920537
-0.005294430684189243   -0.0313756639412668   -0.0008425303920534884
-0.006432042505446516   -0.0349828166006545   -0.001111969930022853
-0.004732740990281943   -0.03505231797872598   -0.0009720561261836407
-0.005296213757874087   -0.03132903564991804   -0.0008102939130208101
-0.006406154692249586   -0.03494128217661943   -0.0010379254885611539
-0.004708894396469047   -0.035024105874351785   -0.0009313062043277868
-0.005296213757874087   -0.03132903564991804   -0.0008102939130208101
-0.007470547514741799   -0.031231806672620793   -0.0008729020615920537
-0.006406154692249586   -0.03494128217661943   -0.0010379254885611539
-0.007452067945191153   -0.031209408846520844   -0.0008072370402133603
-0.004708894396469047   -0.035024105874351785   -0.0009313062043277868
-0.006362202031186114   -0.0349199459560034   -0.000960311093017722
-0.007452067945191153   -0.031209408846520844   -0.0008072370402133603
-0.006406154692249586   -0.03494128217661943   -0.0010379254885611539
-0.004708894396469047   -0.035024105874351785   -0.0009313062043277868
-0.007452067945191153   -0.031209408846520844   -0.0008072370402133603
-0.005294405536947382   -0.03129862751277608   -0.0007740163289339163
-0.005296213757874087   -0.03132903564991804   -0.0008102939130208101
-0.004708894396469047   -0.035024105874351785   -0.0009313062043277868
-0.007452067945191153   -0.031209408846520844   -0.0008072370402133603
-0.005296213757874087   -0.03132903564991804   -0.0008102939130208101
-0.006406154692249586   -0.03494128217661943   -0.0010379254885611539
-0.004708894396469047   -0.035024105874351785   -0.0009313062043277868
-0.005294405536947382   -0.03129862751277608   -0.0007740163289339163
-0.006362202031186114   -0.0349199459560034   -0.000960311093017722
-0.004685726857208277   -0.035015695227891726   -0.0008864609103245135
-0.005294405536947382   -0.03129862751277608   -0.0007740163289339163
-0.007452067945191153   -0.031209408846520844   -0.0008072370402133603
-0.006362202031186114   -0.0349199459560034   -0.000960311093017722
-0.007439765631771081   -0.03120429765472456   -0.0007373287269686951
-0.004685726857208277   -0.035015695227891726   -0.0008864609103245135
-0.0063266384263218345   -0.03491996338618338   -0.000878002080732864
-0.007439765631771081   -0.03120429765472456   -0.0007373287269686951
-0.006362202031186114   -0.0349199459560034   -0.000960311093017722
-0.004685726857208277   -0.035015695227891726   -0.0008864609103245135
-0.007439765631771081   -0.03120429765472456   -0.0007373287269686951
-0.005293258219329277   -0.03128416040310136   -0.0007338140162684167
-0.005294405536947382   -0.03129862751277608   -0.0007740163289339163
-0.004685726857208277   -0.035015695227891726   -0.0008864609103245135
-0.007439765631771081   -0.03120429765472456   -0.0007373287269686951
-0.005294405536947382   -0.03129862751277608   -0.0007740163289339163
-0.006362202031186114   -0.0349199459560034   -0.000960311093017722
-0.006432042505446516   -0.0349828166006545   -0.001111969930022853
-0.007473272589971534   -0.03126987045331652   -0.0009351371218070301
-0.008390536890493216   -0.034811878461004406   -0.0012087066050865303
-0.006406154692249586   -0.03494128217661943   -0.0010379254885611539
-0.007473272589971534   -0.03126987045331652   -0.0009351371218070301
-0.00990709937397723   -0.03112367320055922   -0.0010188319468079584
-0.008390536890493216   -0.034811878461004406   -0.0012087066050865303
-0.009815033660593418   -0.031086223875738637   -0.0009235124926573882
-0.006406154692249586   -0.03494128217661943   -0.0010379254885611539
-0.008256783437473249   -0.034768406197910204   -0.0010927293280466202
-0.009815033660593418   -0.031086223875738637   -0.0009235124926573882
-0.008390536890493216   -0.034811878461004406   -0.0012087066050865303
-0.006406154692249586   -0.03494128217661943   -0.0010379254885611539
-0.009815033660593418   -0.031086223875738637   -0.0009235124926573882
-0.007470547514741799   -0.031231806672620793   -0.0008729020615920537
-0.007473272589971534   -0.03126987045331652   -0.0009351371218070301
-0.006406154692249586   -0.03494128217661943   -0.0010379254885611539
-0.009815033660593418   -0.031086223875738637   -0.0009235124926573882
-0.007473272589971534   -0.03126987045331652   -0.0009351371218070301
-0.008390536890493216   -0.034811878461004406   -0.0012087066050865303
-0.006406154692249586   -0.03494128217661943   -0.0010379254885611539
-0.007470547514741799   -0.031231806672620793   -0.0008729020615920537
-0.008256783437473249   -0.034768406197910204   -0.0010927293280466202
-0.006362202031186114   -0.0349199459560034   -0.000960311093017722
-0.007470547514741799   -0.031231806672620793   -0.0008729020615920537
-0.009815033660593418   -0.031086223875738637   -0.0009235124926573882
-0.008256783437473249   -0.034768406197910204   -0.0010927293280466202
-0.00973643560401823   -0.031066754000127022   -0.0008224149628532714
-0.006362202031186114   -0.0349199459560034   -0.000960311093017722
-0.008140916027322842   -0.03474893770801231   -0.0009708497785704403
-0.00973643560401823   -0.031066754000127022   -0.0008224149628532714
-0.008256783437473249   -0.034768406197910204   -0.0010927293280466202
-0.006362202031186114   -0.0349199459560034   -0.000960311093017722
-0.00973643560401823   -0.031066754000127022   -0.0008224149628532714
-0.007452067945191153   -0.031209408846520844   -0.0008072370402133603
-0.007470547514741799   -0.031231806672620793   -0.0008729020615920537
-0.006362202031186114   -0.0349199459560034   -0.000960311093017722
-0.00973643560401823   -0.031066754000127022   -0.0008224149628532714
-0.007470547514741799   -0.031231806672620793   -0.0008729020615920537
-0.008256783437473249   -0.034768406197910204   -0.0010927293280466202
-0.006362202031186114   -0.0349199459560034   -0.000960311093017722
-0.007452067945191153   -0.031209408846520844   -0.0008072370402133603
-0.008140916027322842   -0.03474893770801231   -0.0009708497785704403
-0.0063266384263218345   -0.03491996338618338   -0.000878002080732864
-0.007452067945191153   -0.031209408846520844   -0.0008072370402133603
-0.00973643560401823   -0.031066754000127022   -0.0008224149628532714
-0.008140916027322842   -0.03474893770801231   -0.0009708497785704403
-0.00962319613088174   -0.031074651607606467   -0.0007163374974591443
-0.0063266384263218345   -0.03491996338618338   -0.000878002080732864
-0.007984905725592649   -0.034762052352669603   -0.0008438415422070756
-0.00962319613088174   -0.031074651607606467   -0.0007163374974591443
-0.008140916027322842   -0.03474893770801231   -0.0009708497785704403
-0.0063266384263218345   -0.03491996338618338   -0.000878002080732864
-0.00962319613088174   -0.031074651607606467   -0.0007163374974591443
-0.007439765631771081   -0.03120429765472456   -0.0007373287269686951
-0.007452067945191153   -0.031209408846520844   -0.0008072370402133603
-0.0063266384263218345   -0.03491996338618338   -0.000878002080732864
-0.00962319613088174   -0.031074651607606467   -0.0007163374974591443
-0.007452067945191153   -0.031209408846520844   -0.0008072370402133603
-0.008140916027322842   -0.03474893770801231   -0.0009708497785704403
0.0012001014260111598   -0.03137281926567294   -0.00046193533808161686
0.0019211413783496096   -0.026934894623362505   -0.0003079411547895307
-0.0010318583632413683   -0.0314288288915407   -0.0006116713869426652
0.001265983285929813   -0.0312951202263327   -0.0005285989361539824
0.0019211413783496096   -0.026934894623362505   -0.0003079411547895307
-0.0007323710097179715   -0.02696283824655712   -0.0004487817728987873
-0.0010318583632413683   -0.0314288288915407   -0.0006116713869426652
-0.0007444866807842579   -0.026898605367119112   -0.00046373730115249393
0.001265983285929813   -0.0312951202263327   -0.0005285989361539824
-0.0010256412865384743   -0.03136296486283657   -0.0006390800745007441
-0.0007444866807842579   -0.026898605367119112   -0.00046373730115249393
-0.0010318583632413683   -0.0314288288915407   -0.0006116713869426652
0.001265983285929813   -0.0312951202263327   -0.0005285989361539824
-0.0007444866807842579   -0.026898605367119112   -0.00046373730115249393
0.0019479223882152635   -0.026860031248777238   -0.0003519704997928243
0.0019211413783496096   -0.026934894623362505   -0.0003079411547895307
0.001265983285929813   -0.0312951202263327   -0.0005285989361539824
-0.0007444866807842579   -0.026898605367119112   -0.00046373730115249393
0.0019211413783496096   -0.026934894623362505   -0.0003079411547895307
-0.0010318583632413683   -0.0314288288915407   -0.0006116713869426652
0.001265983285929813   -0.0312951202263327   -0.0005285989361539824
0.0019479223882152635   -0.026860031248777238   -0.0003519704997928243
-0.0010256412865384743   -0.03136296486283657   -0.0006390800745007441
0.0013082712695983937   -0.031244685105614654   -0.0005894138350234864
0.0019479223882152635   -0.026860031248777238   -0.0003519704997928243
-0.0007444866807842579   -0.026898605367119112   -0.00046373730115249393
-0.0010256412865384743   -0.03136296486283657   -0.0006390800745007441
-0.0007571753065432769   -0.0268482058821618   -0.00047498264506699834
0.0013082712695983937   -0.031244685105614654   -0.0005894138350234864
-0.0010177016341324514   -0.0313156712279669   -0.0006623528596035102
-0.0007571753065432769   -0.0268482058821618   -0.00047498264506699834
-0.0010256412865384743   -0.03136296486283657   -0.0006390800745007441
0.0013082712695983937   -0.031244685105614654   -0.0005894138350234864
-0.0007571753065432769   -0.0268482058821618   -0.00047498264506699834
0.0019566060616883403   -0.026805995912396383   -0.0003905217927015976
0.0019479223882152635   -0.026860031248777238   -0.0003519704997928243
0.0013082712695983937   -0.031244685105614654   -0.0005894138350234864
-0.0007571753065432769   -0.0268482058821618   -0.00047498264506699834
0.0019479223882152635   -0.026860031248777238   -0.0003519704997928243
-0.0010256412865384743   -0.03136296486283657   -0.0006390800745007441
0.0013082712695983937   -0.031244685105614654   -0.0005894138350234864
0.0019566060616883403   -0.026805995912396383   -0.0003905217927015976
-0.0010177016341324514   -0.0313156712279669   -0.0006623528596035102
0.0013519454125011643   -0.031211580973042014   -0.0006445063916951427
0.0019566060616883403   -0.026805995912396383   -0.0003905217927015976
-0.0007571753065432769   -0.0268482058821618   -0.00047498264506699834
-0.0010177016341324514   -0.0313156712279669   -0.0006623528596035102
-0.0007791157941001311   -0.02681002638025066   -0.00048264225386150065
0.0013519454125011643   -0.031211580973042014   -0.0006445063916951427
-0.001021134963471987   -0.03128540916816959   -0.0006817907557441423
-0.0007791157941001311   -0.02681002638025066   -0.00048264225386150065
-0.0010177016341324514   -0.0313156712279669   -0.0006623528596035102
0.0013519454125011643   -0.031211580973042014   -0.0006445063916951427
-0.0007791157941001311   -0.02681002638025066   -0.00048264225386150065
0.001962099691691213   -0.026763086214992085   -0.00042385653847865133
0.0019566060616883403   -0.026805995912396383   -0.0003905217927015976
0.0013519454125011643   -0.031211580973042014   -0.0006445063916951427
-0.0007791157941001311   -0.02681002638025066   -0.00048264225386150065
0.0019566060616883403   -0.026805995912396383   -0.0003905217927015976
-0.0010177016341324514   -0.0313156712279669   -0.0006623528596035102
-0.0010318583632413683   -0.0314288288915407   -0.0006116713869426652
-0.0007323710097179715   -0.02696283824655712   -0.0004487817728987873
-0.003181209040111864   -0.031429311920735795   -0.0007347942081889204
-0.0010256412865384743   -0.03136296486283657   -0.0006390800745007441
-0.0007323710097179715   -0.02696283824655712   -0.0004487817728987873
-0.0032769495660236497   -0.02694900769696833   -0.000564320003825598
-0.003181209040111864   -0.031429311920735795   -0.0007347942081889204
-0.0032939904805831077   -0.026895494767684734   -0.0005574744422390272
-0.0010256412865384743   -0.03136296486283657   -0.0006390800745007441
-0.0031813881435490817   -0.03137370688625556   -0.0007321968401489826
-0.0032939904805831077   -0.026895494767684734   -0.0005574744422390272
-0.003181209040111864   -0.031429311920735795   -0.0007347942081889204
-0.0010256412865384743   -0.03136296486283657   -0.0006390800745007441
-0.0032939904805831077   -0.026895494767684734   -0.0005574744422390272
-0.0007444866807842579   -0.026898605367119112   -0.00046373730115249393
-0.0007323710097179715   -0.02696283824655712   -0.0004487817728987873
-0.0010256412865384743   -0.03136296486283657   -0.0006390800745007441
-0.0032939904805831077   -0.026895494767684734   -0.0005574744422390272
-0.0007323710097179715   -0.02696283824655712   -0.0004487817728987873
-0.003181209040111864   -0.031429311920735795   -0.0007347942081889204
-0.0010256412865384743   -0.03136296486283657   -0.0006390800745007441
-0.0007444866807842579   -0.026898605367119112   -0.00046373730115249393
-0.0031813881435490817   -0.03137370688625556   -0.0007321968401489826
-0.0010177016341324514   -0.0313156712279669   -0.0006623528596035102
-0.0007444866807842579   -0.026898605367119112   -0.00046373730115249393
-0.0032939904805831077   -0.026895494767684734   -0.0005574744422390272
-0.0031813881435490817   -0.03137370688625556   -0.0007321968401489826
-0.003311267646238259   -0.026853835478515806   -0.0005468051724341152
-0.0010177016341324514   -0.0313156712279669   -0.0006623528596035102
-0.0031814168235832154   -0.03133446623684737   -0.0007254753391549558
-0.003311267646238259   -0.026853835478515806   -0.0005468051724341152
-0.0031813881435490817   -0.03137370688625556   -0.0007321968401489826
-0.0010177016341324514   -0.0313156712279669   -0.0006623528596035102
-0.003311267646238259   -0.026853835478515806   -0.0005468051724341152
-0.0007571753065432769   -0.0268482058821618   -0.00047498264506699834
-0.0007444866807842579   -0.026898605367119112   -0.00046373730115249393
-0.0010177016341324514   -0.0313156712279669   -0.0006623528596035102
-0.003311267646238259   -0.026853835478515806   -0.0005468051724341152
-0.0007444866807842579   -0.026898605367119112   -0.00046373730115249393
-0.0031813881435490817   -0.03137370688625556   -0.0007321968401489826
-0.0010177016341324514   -0.0313156712279669   -0.0006623528596035102
-0.0007571753065432769   -0.0268482058821618   -0.00047498264506699834
-0.0031814168235832154   -0.03133446623684737   -0.0007254753391549558
-0.001021134963471987   -0.03128540916816959   -0.0006817907557441423
-0.0007571753065432769   -0.0268482058821618   -0.00047498264506699834
-0.003311267646238259   -0.026853835478515806   -0.0005468051724341152
-0.0031814168235832154   -0.03133446623684737   -0.0007254753391549558
-0.0033312687072868   -0.026824228965195405   -0.0005325018006320769
-0.001021134963471987   -0.03128540916816959   -0.0006817907557441423
-0.0031843078430626587   -0.03131162071926693   -0.0007148493089974034
-0.0033312687072868   -0.026824228965195405   -0.0005325018006320769
-0.0031814168235832154   -0.03133446623684737   -0.0007254753391549558
-0.001021134963471987   -0.03128540916816959   -0.0006817907557441423
-0.0033312687072868   -0.026824228965195405   -0.0005325018006320769
-0.0007791157941001311   -0.02681002638025066   -0.00048264225386150065
-0.0007571753065432769   -0.0268482058821618   -0.00047498264506699834
-0.001021134963471987   -0.03128540916816959   -0.0006817907557441423
-0.0033312687072868   -0.026824228965195405   -0.0005325018006320769
-0.0007571753065432769   -0.0268482058821618   -0.00047498264506699834
-0.0031814168235832154   -0.03133446623684737   -0.0007254753391549558
-0.003181209040111864   -0.031429311920735795   -0.0007347942081889204
-0.0032769495660236497   -0.02694900769696833   -0.000564320003825598
-0.005294430684189243   -0.0313756639412668   -0.0008425303920534884
-0.0031813881435490817   -0.03137370688625556   -0.0007321968401489826
-0.0032769495660236497   -0.02694900769696833   -0.000564320003825598
-0.005778755688681391   -0.026896105812097854   -0.0006629774229643305
-0.005294430684189243   -0.0313756639412668   -0.0008425303920534884
-0.005797192859465579   -0.02685229886390842   -0.0006344467249397199
-0.0031813881435490817   -0.03137370688625556   -0.0007321968401489826
-0.005296213757874087   -0.03132903564991804   -0.0008102939130208101
-0.005797192859465579   -0.02685229886390842   -0.0006344467249397199
-0.005294430684189243   -0.0313756639412668   -0.0008425303920534884
-0.0031813881435490817   -0.03137370688625556   -0.0007321968401489826
-0.005797192859465579   -0.02685229886390842   -0.0006344467249397199
-0.0032939904805831077   -0.026895494767684734   -0.0005574744422390272
-0.0032769495660236497   -0.02694900769696833   -0.000564320003825598
-0.0031813881435490817   -0.03137370688625556   -0.0007321968401489826
-0.005797192859465579   -0.02685229886390842   -0.0006344467249397199
-0.0032769495660236497   -0.02694900769696833   -0.000564320003825598
-0.005294430684189243   -0.0313756639412668   -0.0008425303920534884
-0.0031813881435490817   -0.03137370688625556   -0.0007321968401489826
-0.0032939904805831077   -0.026895494767684734   -0.0005574744422390272
-0.005296213757874087   -0.03132903564991804   -0.0008102939130208101
-0.0031814168235832154   -0.03133446623684737   -0.0007254753391549558
-0.0032939904805831077   -0.026895494767684734   -0.0005574744422390272
-0.005797192859465579   -0.02685229886390842   -0.0006344467249397199
-0.005296213757874087   -0.03132903564991804   -0.0008102939130208101
-0.00581243181762324   -0.026820233106193386   -0.0006021624498100163
-0.0031814168235832154   -0.03133446623684737   -0.0007254753391549558
-0.005294405536947382   -0.03129862751277608   -0.0007740163289339163
-0.00581243181762324   -0.026820233106193386   -0.0006021624498100163
-0.005296213757874087   -0.03132903564991804   -0.0008102939130208101
-0.0031814168235832154   -0.03133446623684737   -0.0007254753391549558
-0.00581243181762324   -0.026820233106193386   -0.0006021624498100163
-0.003311267646238259   -0.026853835478515806   -0.0005468051724341152
-0.0032939904805831077   -0.026895494767684734   -0.0005574744422390272
-0.0031814168235832154   -0.03133446623684737   -0.0007254753391549558
-0.00581243181762324   -0.026820233106193386   -0.0006021624498100163
-0.0032939904805831077   -0.026895494767684734   -0.0005574744422390272
-0.005296213757874087   -0.03132903564991804   -0.0008102939130208101
-0.0031814168235832154   -0.03133446623684737   -0.0007254753391549558
-0.003311267646238259   -0.026853835478515806   -0.0005468051724341152
-0.005294405536947382   -0.03129862751277608   -0.0007740163289339163
-0.0031843078430626587   -0.03131162071926693   -0.0007148493089974034
-0.003311267646238259   -0.026853835478515806   -0.0005468051724341152
-0.00581243181762324   -0.026820233106193386   -0.0006021624498100163
-0.005294405536947382   -0.03129862751277608   -0.0007740163289339163
-0.005828125777206839   -0.026799857521618564   -0.0005662334412292564
-0.0031843078430626587   -0.03131162071926693   -0.0007148493089974034
-0.005293258219329277   -0.03128416040310136   -0.0007338140162684167
-0.005828125777206839   -0.026799857521618564   -0.0005662334412292564
-0.005294405536947382   -0.03129862751277608   -0.0007740163289339163
-0.0031843078430626587   -0.03131162071926693   -0.0007148493089974034
-0.005828125777206839   -0.026799857521618564   -0.0005662334412292564
-0.0033312687072868   -0.026824228965195405   -0.0005325018006320769
-0.003311267646238259   -0.026853835478515806   -0.0005468051724341152
-0.0031843078430626587   -0.03131162071926693   -0.0007148493089974034
-0.005828125777206839   -0.026799857521618564   -0.0005662334412292564
-0.003311267646238259   -0.026853835478515806   -0.0005468051724341152
-0.005294405536947382   -0.03129862751277608   -0.0007740163289339163
-0.005294430684189243   -0.0313756639412668   -0.0008425303920534884
-0.005778755688681391   -0.026896105812097854   -0.0006629774229643305
-0.007473272589971534   -0.03126987045331652   -0.0009351371218070301
-0.005296213757874087   -0.03132903564991804   -0.0008102939130208101
-0.005778755688681391   -0.026896105812097854   -0.0006629774229643305
-0.008340038625933716   -0.026805166885613473   -0.0007451742856215056
-0.007473272589971534   -0.03126987045331652   -0.0009351371218070301
-0.008355199931050272   -0.026770817196861488   -0.0006946581947903208
-0.005296213757874087   -0.03132903564991804   -0.0008102939130208101
-0.007470547514741799   -0.031231806672620793   -0.0008729020615920537
-0.008355199931050272   -0.026770817196861488   -0.0006946581947903208
-0.007473272589971534   -0.03126987045331652   -0.0009351371218070301
-0.005296213757874087   -0.03132903564991804   -0.0008102939130208101
-0.008355199931050272   -0.026770817196861488   -0.0006946581947903208
-0.005797192859465579   -0.02685229886390842   -0.0006344467249397199
-0.005778755688681391   -0.026896105812097854   -0.0006629774229643305
-0.005296213757874087   -0.03132903564991804   -0.0008102939130208101
-0.008355199931050272   -0.026770817196861488   -0.0006946581947903208
-0.005778755688681391   -0.026896105812097854   -0.0006629774229643305
-0.007473272589971534   -0.03126987045331652   -0.0009351371218070301
-0.005296213757874087   -0.03132903564991804   -0.0008102939130208101
-0.005797192859465579   -0.02685229886390842   -0.0006344467249397199
-0.007470547514741799   -0.031231806672620793   -0.0008729020615920537
-0.005294405536947382   -0.03129862751277608   -0.0007740163289339163
-0.005797192859465579   -0.02685229886390842   -0.0006344467249397199
-0.008355199931050272   -0.026770817196861488   -0.0006946581947903208
-0.007470547514741799   -0.031231806672620793   -0.0008729020615920537
-0.008356830046274605   -0.02674752807587339   -0.000640907070056224
-0.005294405536947382   -0.03129862751277608   -0.0007740163289339163
-0.007452067945191153   -0.031209408846520844   -0.0008072370402133603
-0.008356830046274605   -0.02674752807587339   -0.000640907070056224
-0.007470547514741799   -0.031231806672620793   -0.0008729020615920537
-0.005294405536947382   -0.03129862751277608   -0.0007740163289339163
-0.008356830046274605   -0.02674752807587339   -0.000640907070056224
-0.00581243181762324   -0.026820233106193386   -0.0006021624498100163
-0.005797192859465579   -0.02685229886390842   -0.0006344467249397199
-0.005294405536947382   -0.03129862751277608   -0.0007740163289339163
-0.008356830046274605   -0.02674752807587339   -0.000640907070056224
-0.005797192859465579   -0.02685229886390842   -0.0006344467249397199
-0.007470547514741799   -0.031231806672620793   -0.0008729020615920537
-0.005294405536947382   -0.03129862751277608   -0.0007740163289339163
-0.00581243181762324   -0.026820233106193386   -0.0006021624498100163
-0.007452067945191153   -0.031209408846520844   -0.0008072370402133603
-0.005293258219329277   -0.03128416040310136   -0.0007338140162684167
-0.00581243181762324   -0.026820233106193386   -0.0006021624498100163
-0.008356830046274605   -0.02674752807587339   -0.000640907070056224
-0.007452067945191153   -0.031209408846520844   -0.0008072370402133603
-0.008362374935467293   -0.02673698914113478   -0.0005832330884662662
-0.005293258219329277   -0.03128416040310136   -0.0007338140162684167
-0.007439765631771081   -0.03120429765472456   -0.0007373287269686951
-0.008362374935467293   -0.02673698914113478   -0.0005832330884662662
-0.007452067945191153   -0.031209408846520844   -0.0008072370402133603
-0.005293258219329277   -0.03128416040310136   -0.0007338140162684167
-0.008362374935467293   -0.02673698914113478   -0.0005832330884662662
-0.005828125777206839   -0.026799857521618564   -0.0005662334412292564
-0.00581243181762324   -0.026820233106193386   -0.0006021624498100163
-0.005293258219329277   -0.03128416040310136   -0.0007338140162684167
-0.008362374935467293   -0.02673698914113478   -0.0005832330884662662
-0.00581243181762324   -0.026820233106193386   -0.0006021624498100163
-0.007452067945191153   -0.031209408846520844   -0.0008072370402133603
-0.007473272589971534   -0.03126987045331652   -0.0009351371218070301
-0.008340038625933716   -0.026805166885613473   -0.0007451742856215056
-0.00990709937397723   -0.03112367320055922   -0.0010188319468079584
-0.007470547514741799   -0.031231806672620793   -0.0008729020615920537
-0.008340038625933716   -0.026805166885613473   -0.0007451742856215056
-0.011133604045523361   -0.026685504944312197   -0.0008154107872140071
-0.00990709937397723   -0.03112367320055922   -0.0010188319468079584
-0.011079018701038817   -0.02665412350430211   -0.0007415306948669835
-0.007470547514741799   -0.031231806672620793   -0.0008729020615920537
-0.009815033660593418   -0.031086223875738637   -0.0009235124926573882
-0.011079018701038817   -0.02665412350430211   -0.0007415306948669835
-0.00990709937397723   -0.03112367320055922   -0.0010188319468079584
-0.007470547514741799   -0.031231806672620793   -0.0008729020615920537
-0.011079018701038817   -0.02665412350430211   -0.0007415306948669835
-0.008355199931050272   -0.026770817196861488   -0.0006946581947903208
-0.008340038625933716   -0.026805166885613473   -0.0007451742856215056
-0.007470547514741799   -0.031231806672620793   -0.0008729020615920537
-0.011079018701038817   -0.02665412350430211   -0.0007415306948669835
-0.008340038625933716   -0.026805166885613473   -0.0007451742856215056
-0.00990709937397723   -0.03112367320055922   -0.0010188319468079584
-0.007470547514741799   -0.031231806672620793   -0.0008729020615920537
-0.008355199931050272   -0.026770817196861488   -0.0006946581947903208
-0.009815033660593418   -0.031086223875738637   -0.0009235124926573882
-0.007452067945191153   -0.031209408846520844   -0.0008072370402133603
-0.008355199931050272   -0.026770817196861488   -0.0006946581947903208
-0.011079018701038817   -0.02665412350430211   -0.0007415306948669835
-0.009815033660593418   -0.031086223875738637   -0.0009235124926573882
-0.011033066756692113   -0.026634560840963533   -0.0006619947531302471
-0.007452067945191153   -0.031209408846520844   -0.0008072370402133603
-0.00973643560401823   -0.031066754000127022   -0.0008224149628532714
-0.011033066756692113   -0.026634560840963533   -0.0006619947531302471
-0.009815033660593418   -0.031086223875738637   -0.0009235124926573882
-0.007452067945191153   -0.031209408846520844   -0.0008072370402133603
-0.011033066756692113   -0.026634560840963533   -0.0006619947531302471
-0.008356830046274605   -0.02674752807587339   -0.000640907070056224
-0.008355199931050272   -0.026770817196861488   -0.0006946581947903208
-0.007452067945191153   -0.031209408846520844   -0.0008072370402133603
-0.011033066756692113   -0.026634560840963533   -0.0006619947531302471
-0.008355199931050272   -0.026770817196861488   -0.0006946581947903208
-0.009815033660593418   -0.031086223875738637   -0.0009235124926573882
-0.007452067945191153   -0.031209408846520844   -0.0008072370402133603
-0.008356830046274605   -0.02674752807587339   -0.000640907070056224
-0.00973643560401823   -0.031066754000127022   -0.0008224149628532714
-0.007439765631771081   -0.03120429765472456   -0.0007373287269686951
-0.008356830046274605   -0.02674752807587339   -0.000640907070056224
-0.011033066756692113   -0.026634560840963533   -0.0006619947531302471
-0.00973643560401823   -0.031066754000127022   -0.0008224149628532714
-0.010957648860166973   -0.026636603601323874   -0.0005775103571237264
-0.007439765631771081   -0.03120429765472456   -0.0007373287269686951
-0.00962319613088174   -0.031074651607606467   -0.0007163374974591443
-0.010957648860166973   -0.026636603601323874   -0.0005775103571237264
-0.00973643560401823   -0.031066754000127022   -0.0008224149628532714
-0.007439765631771081   -0.03120429765472456   -0.0007373287269686951
-0.010957648860166973   -0.026636603601323874   -0.0005775103571237264
-0.008362374935467293   -0.02673698914113478   -0.0005832330884662662
-0.008356830046274605   -0.02674752807587339   -0.000640907070056224
-0.007439765631771081   -0.03120429765472456   -0.0007373287269686951
-0.010957648860166973   -0.026636603601323874   -0.0005775103571237264
-0.008356830046274605   -0.02674752807587339   -0.000640907070056224
-0.00973643560401823   -0.031066754000127022   -0.0008224149628532714
0.0019211413783496096   -0.026934894623362505   -0.0003079411547895307
0.0023266460898563393   -0.02194456298702125   -0.00015752736625940152
-0.0007323710097179715   -0.02696283824655712   -0.0004487817728987873
0.0019479223882152635   -0.026860031248777238   -0.0003519704997928243
0.0023266460898563393   -0.02194456298702125   -0.00015752736625940152
-0.0006243671725974346   -0.021944595721583447   -0.0002879836175367424
-0.0007323710097179715   -0.02696283824655712   -0.0004487817728987873
-0.000650276680914216   -0.02188252884861108   -0.00029026329577113466
0.0019479223882152635   -0.026860031248777238   -0.0003519704997928243
-0.0007444866807842579   -0.026898605367119112   -0.00046373730115249393
-0.000650276680914216   -0.02188252884861108   -0.00029026329577113466
-0.0007323710097179715   -0.02696283824655712   -0.0004487817728987873
0.0019479223882152635   -0.026860031248777238   -0.0003519704997928243
-0.000650276680914216   -0.02188252884861108   -0.00029026329577113466
0.0023192732358897536   -0.02187294103650699   -0.00017906261321195077
0.0023266460898563393   -0.02194456298702125   -0.00015752736625940152
0.0019479223882152635   -0.026860031248777238   -0.0003519704997928243
-0.000650276680914216   -0.02188252884861108   -0.00029026329577113466
0.0023266460898563393   -0.02194456298702125   -0.00015752736625940152
-0.0007323710097179715   -0.02696283824655712   -0.0004487817728987873
0.0019479223882152635   -0.026860031248777238   -0.0003519704997928243
0.0023192732358897536   -0.02187294103650699   -0.00017906261321195077
-0.0007444866807842579   -0.026898605367119112   -0.00046373730115249393
0.0019566060616883403   -0.026805995912396383   -0.0003905217927015976
0.0023192732358897536   -0.02187294103650699   -0.00017906261321195077
-0.000650276680914216   -0.02188252884861108   -0.00029026329577113466
-0.0007444866807842579   -0.026898605367119112   -0.00046373730115249393
-0.0006790758489876739   -0.021829452695406   -0.000289235321401866
0.0019566060616883403   -0.026805995912396383   -0.0003905217927015976
-0.0007571753065432769   -0.0268482058821618   -0.00047498264506699834
-0.0006790758489876739   -0.021829452695406   -0.000289235321401866
-0.0007444866807842579   -0.026898605367119112   -0.00046373730115249393
0.0019566060616883403   -0.026805995912396383   -0.0003905217927015976
-0.0006790758489876739   -0.021829452695406   -0.000289235321401866
0.0022989990143249387   -0.021815778619992378   -0.0001952961499080565
0.0023192732358897536   -0.02187294103650699   -0.00017906261321195077
0.0019566060616883403   -0.026805995912396383   -0.0003905217927015976
-0.0006790758489876739   -0.021829452695406   -0.000289235321401866
0.0023192732358897536   -0.02187294103650699   -0.00017906261321195077
-0.0007444866807842579   -0.026898605367119112   -0.00046373730115249393
0.0019566060616883403   -0.026805995912396383   -0.0003905217927015976
0.0022989990143249387   -0.021815778619992378   -0.0001952961499080565
-0.0007571753065432769   -0.0268482058821618   -0.00047498264506699834
0.001962099691691213   -0.026763086214992085   -0.00042385653847865133
0.0022989990143249387   -0.021815778619992378   -0.0001952961499080565
-0.0006790758489876739   -0.021829452695406   -0.000289235321401866
-0.0007571753065432769   -0.0268482058821618   -0.00047498264506699834
-0.0007149929439686558   -0.02178396432572856   -0.00028476929353975976
0.001962099691691213   -0.026763086214992085   -0.00042385653847865133
-0.0007791157941001311   -0.02681002638025066   -0.00048264225386150065
-0.0007149929439686558   -0.02178396432572856   -0.00028476929353975976
-0.0007571753065432769   -0.0268482058821618   -0.00047498264506699834
0.001962099691691213   -0.026763086214992085   -0.00042385653847865133
-0.0007149929439686558   -0.02178396432572856   -0.00028476929353975976
0.002270525288997901   -0.02176354705636393   -0.00020659840317484217
0.0022989990143249387   -0.021815778619992378   -0.0001952961499080565
0.001962099691691213   -0.026763086214992085   -0.00042385653847865133
-0.0007149929439686558   -0.02178396432572856   -0.00028476929353975976
0.0022989990143249387   -0.021815778619992378   -0.0001952961499080565
-0.0007571753065432769   -0.0268482058821618   -0.00047498264506699834
-0.0007323710097179715   -0.02696283824655712   -0.0004487817728987873
-0.0006243671725974346   -0.021944595721583447   -0.0002879836175367424
-0.0032769495660236497   -0.02694900769696833   -0.000564320003825598
-0.0007444866807842579   -0.026898605367119112   -0.00046373730115249393
-0.0006243671725974346   -0.021944595721583447   -0.0002879836175367424
-0.0034396498923946763   -0.02191805850094781   -0.0003951515133216115
-0.0032769495660236497   -0.02694900769696833   -0.000564320003825598
-0.003468827378151723   -0.02186674433347931   -0.0003836784667113486
-0.0007444866807842579   -0.026898605367119112   -0.00046373730115249393
-0.0032939904805831077   -0.026895494767684734   -0.0005574744422390272
-0.003468827378151723   -0.02186674433347931   -0.0003836784667113486
-0.0032769495660236497   -0.02694900769696833   -0.000564320003825598
-0.0007444866807842579   -0.026898605367119112   -0.00046373730115249393
-0.003468827378151723   -0.02186674433347931   -0.0003836784667113486
-0.000650276680914216   -0.02188252884861108   -0.00029026329577113466
-0.0006243671725974346   -0.021944595721583447   -0.0002879836175367424
-0.0007444866807842579   -0.026898605367119112   -0.00046373730115249393
-0.003468827378151723   -0.02186674433347931   -0.0003836784667113486
-0.0006243671725974346   -0.021944595721583447   -0.0002879836175367424
-0.0032769495660236497   -0.02694900769696833   -0.000564320003825598
-0.0007444866807842579   -0.026898605367119112   -0.00046373730115249393
-0.000650276680914216   -0.02188252884861108   -0.00029026329577113466
-0.0032939904805831077   -0.026895494767684734   -0.0005574744422390272
-0.0007571753065432769   -0.0268482058821618   -0.00047498264506699834
-0.000650276680914216   -0.02188252884861108   -0.00029026329577113466
-0.003468827378151723   -0.02186674433347931   -0.0003836784667113486
-0.0032939904805831077   -0.026895494767684734   -0.0005574744422390272
-0.0034986035044578855   -0.02182274799993297   -0.00036875552867439676
-0.0007571753065432769   -0.0268482058821618   -0.00047498264506699834
-0.003311267646238259   -0.026853835478515806   -0.0005468051724341152
-0.0034986035044578855   -0.02182274799993297   -0.00036875552867439676
-0.0032939904805831077   -0.026895494767684734   -0.0005574744422390272
-0.0007571753065432769   -0.0268482058821618   -0.00047498264506699834
-0.0034986035044578855   -0.02182274799993297   -0.00036875552867439676
-0.0006790758489876739   -0.021829452695406   -0.000289235321401866
-0.000650276680914216   -0.02188252884861108   -0.00029026329577113466
-0.0007571753065432769   -0.0268482058821618   -0.00047498264506699834
-0.0034986035044578855   -0.02182274799993297   -0.00036875552867439676
-0.000650276680914216   -0.02188252884861108   -0.00029026329577113466
-0.0032939904805831077   -0.026895494767684734   -0.0005574744422390272
-0.0007571753065432769   -0.0268482058821618   -0.00047498264506699834
-0.0006790758489876739   -0.021829452695406   -0.000289235321401866
-0.003311267646238259   -0.026853835478515806   -0.0005468051724341152
-0.0007791157941001311   -0.02681002638025066   -0.00048264225386150065
-0.0006790758489876739   -0.021829452695406   -0.000289235321401866
-0.0034986035044578855   -0.02182274799993297   -0.00036875552867439676
-0.003311267646238259   -0.026853835478515806   -0.0005468051724341152
-0.003530926173868928   -0.0217864980263027   -0.0003505495604252143
-0.0007791157941001311   -0.02681002638025066   -0.00048264225386150065
-0.0033312687072868   -0.026824228965195405   -0.0005325018006320769
-0.003530926173868928   -0.0217864980263027   -0.0003505495604252143
-0.003311267646238259   -0.026853835478515806   -0.0005468051724341152
-0.0007791157941001311   -0.02681002638025066   -0.00048264225386150065
-0.003530926173868928   -0.0217864980263027   -0.0003505495604252143
-0.0007149929439686558   -0.02178396432572856   -0.00028476929353975976
-0.0006790758489876739   -0.021829452695406   -0.000289235321401866
-0.0007791157941001311   -0.02681002638025066   -0.00048264225386150065
-0.003530926173868928   -0.0217864980263027   -0.0003505495604252143
-0.0006790758489876739   -0.021829452695406   -0.000289235321401866
-0.003311267646238259   -0.026853835478515806   -0.0005468051724341152
-0.0032769495660236497   -0.02694900769696833   -0.000564320003825598
-0.0034396498923946763   -0.02191805850094781   -0.0003951515133216115
-0.005778755688681391   -0.026896105812097854   -0.0006629774229643305
-0.0032939904805831077   -0.026895494767684734   -0.0005574744422390272
-0.0034396498923946763   -0.02191805850094781   -0.0003951515133216115
-0.0062073573420552905   -0.021868084062453563   -0.00048528403573447457
-0.005778755688681391   -0.026896105812097854   -0.0006629774229643305
-0.006237456370141087   -0.021826649347326404   -0.0004600983368557717
-0.0032939904805831077   -0.026895494767684734   -0.0005574744422390272
-0.005797192859465579   -0.02685229886390842   -0.0006344467249397199
-0.006237456370141087   -0.021826649347326404   -0.0004600983368557717
-0.005778755688681391   -0.026896105812097854   -0.0006629774229643305
-0.0032939904805831077   -0.026895494767684734   -0.0005574744422390272
-0.006237456370141087   -0.021826649347326404   -0.0004600983368557717
-0.003468827378151723   -0.02186674433347931   -0.0003836784667113486
-0.0034396498923946763   -0.02191805850094781   -0.0003951515133216115
-0.0032939904805831077   -0.026895494767684734   -0.0005574744422390272
-0.006237456370141087   -0.021826649347326404   -0.0004600983368557717
-0.0034396498923946763   -0.02191805850094781   -0.0003951515133216115
-0.005778755688681391   -0.026896105812097854   -0.0006629774229643305
-0.0032939904805831077   -0.026895494767684734   -0.0005574744422390272
-0.003468827378151723   -0.02186674433347931   -0.0003836784667113486
-0.005797192859465579   -0.02685229886390842   -0.0006344467249397199
-0.003311267646238259   -0.026853835478515806   -0.0005468051724341152
-0.003468827378151723   -0.02186674433347931   -0.0003836784667113486
-0.006237456370141087   -0.021826649347326404   -0.0004600983368557717
-0.005797192859465579   -0.02685229886390842   -0.0006344467249397199
-0.006264732999971572   -0.021792480884739982   -0.00043154478052096585
-0.003311267646238259   -0.026853835478515806   -0.0005468051724341152
-0.00581243181762324   -0.026820233106193386   -0.0006021624498100163
-0.006264732999971572   -0.021792480884739982   -0.00043154478052096585
-0.005797192859465579   -0.02685229886390842   -0.0006344467249397199
-0.003311267646238259   -0.026853835478515806   -0.0005468051724341152
-0.006264732999971572   -0.021792480884739982   -0.00043154478052096585
-0.0034986035044578855   -0.02182274799993297   -0.00036875552867439676
-0.003468827378151723   -0.02186674433347931   -0.0003836784667113486
-0.003311267646238259   -0.026853835478515806   -0.0005468051724341152
-0.006264732999971572   -0.021792480884739982   -0.00043154478052096585
-0.003468827378151723   -0.02186674433347931   -0.0003836784667113486
-0.005797192859465579   -0.02685229886390842   -0.0006344467249397199
-0.003311267646238259   -0.026853835478515806   -0.0005468051724341152
-0.0034986035044578855   -0.02182274799993297   -0.00036875552867439676
-0.00581243181762324   -0.026820233106193386   -0.0006021624498100163
-0.0033312687072868   -0.026824228965195405   -0.0005325018006320769
-0.0034986035044578855   -0.02182274799993297   -0.00036875552867439676
-0.006264732999971572   -0.021792480884739982   -0.00043154478052096585
-0.00581243181762324   -0.026820233106193386   -0.0006021624498100163
-0.006292272161932747   -0.02176563257909407   -0.0003997498406622143
-0.0033312687072868   -0.026824228965195405   -0.0005325018006320769
-0.005828125777206839   -0.026799857521618564   -0.0005662334412292564
-0.006292272161932747   -0.02176563257909407   -0.0003997498406622143
-0.00581243181762324   -0.026820233106193386   -0.0006021624498100163
-0.0033312687072868   -0.026824228965195405   -0.0005325018006320769
-0.006292272161932747   -0.02176563257909407   -0.0003997498406622143
-0.003530926173868928   -0.0217864980263027   -0.0003505495604252143
-0.0034986035044578855   -0.02182274799993297   -0.00036875552867439676
-0.0033312687072868   -0.026824228965195405   -0.0005325018006320769
-0.006292272161932747   -0.02176563257909407   -0.0003997498406622143
-0.0034986035044578855   -0.02182274799993297   -0.00036875552867439676
-0.00581243181762324   -0.026820233106193386   -0.0006021624498100163
-0.005778755688681391   -0.026896105812097854   -0.0006629774229643305
-0.0062073573420552905   -0.021868084062453563   -0.00048528403573447457
-0.008340038625933716   -0.026805166885613473   -0.0007451742856215056
-0.005797192859465579   -0.02685229886390842   -0.0006344467249397199
-0.0062073573420552905   -0.021868084062453563   -0.00048528403573447457
-0.009030007781524541   -0.021793618658401247   -0.0005586161929551953
-0.008340038625933716   -0.026805166885613473   -0.0007451742856215056
-0.00905789886516646   -0.021762131883926197   -0.0005196102438124035
-0.005797192859465579   -0.02685229886390842   -0.0006344467249397199
-0.008355199931050272   -0.026770817196861488   -0.0006946581947903208
-0.00905789886516646   -0.021762131883926197   -0.0005196102438124035
-0.008340038625933716   -0.026805166885613473   -0.0007451742856215056
-0.005797192859465579   -0.02685229886390842   -0.0006344467249397199
-0.00905789886516646   -0.021762131883926197   -0.0005196102438124035
-0.006237456370141087   -0.021826649347326404   -0.0004600983368557717
-0.0062073573420552905   -0.021868084062453563   -0.00048528403573447457
-0.005797192859465579   -0.02685229886390842   -0.0006344467249397199
-0.00905789886516646   -0.021762131883926197   -0.0005196102438124035
-0.0062073573420552905   -0.021868084062453563   -0.00048528403573447457
-0.008340038625933716   -0.026805166885613473   -0.0007451742856215056
-0.005797192859465579   -0.02685229886390842   -0.0006344467249397199
-0.006237456370141087   -0.021826649347326404   -0.0004600983368557717
-0.008355199931050272   -0.026770817196861488   -0.0006946581947903208
-0.00581243181762324   -0.026820233106193386   -0.0006021624498100163
-0.006237456370141087   -0.021826649347326404   -0.0004600983368557717
-0.00905789886516646   -0.021762131883926197   -0.0005196102438124035
-0.008355199931050272   -0.026770817196861488   -0.0006946581947903208
-0.009074582357136379   -0.021737029381911792   -0.00047768655099956103
-0.00581243181762324   -0.026820233106193386   -0.0006021624498100163
-0.008356830046274605   -0.02674752807587339   -0.000640907070056224
-0.009074582357136379   -0.021737029381911792   -0.00047768655099956103
-0.008355199931050272   -0.026770817196861488   -0.0006946581947903208
-0.00581243181762324   -0.026820233106193386   -0.0006021624498100163
-0.009074582357136379   -0.021737029381911792   -0.00047768655099956103
-0.006264732999971572   -0.021792480884739982   -0.00043154478052096585
-0.006237456370141087   -0.021826649347326404   -0.0004600983368557717
-0.00581243181762324   -0.026820233106193386   -0.0006021624498100163
-0.009074582357136379   -0.021737029381911792   -0.00047768655099956103
-0.006237456370141087   -0.021826649347326404   -0.0004600983368557717
-0.008355199931050272   -0.026770817196861488   -0.0006946581947903208
-0.00581243181762324   -0.026820233106193386   -0.0006021624498100163
-0.006264732999971572   -0.021792480884739982   -0.00043154478052096585
-0.008356830046274605   -0.02674752807587339   -0.000640907070056224
-0.005828125777206839   -0.026799857521618564   -0.0005662334412292564
-0.006264732999971572   -0.021792480884739982   -0.00043154478052096585
-0.009074582357136379   -0.021737029381911792   -0.00047768655099956103
-0.008356830046274605   -0.02674752807587339   -0.000640907070056224
-0.009093016814040615   -0.021719892364918246   -0.00043224392002319675
-0.005828125777206839   -0.026799857521618564   -0.0005662334412292564
-0.008362374935467293   -0.02673698914113478   -0.0005832330884662662
-0.009093016814040615   -0.021719892364918246   -0.00043224392002319675
-0.008356830046274605   -0.02674752807587339   -0.000640907070056224
-0.005828125777206839   -0.026799857521618564   -0.0005662334412292564
-0.009093016814040615   -0.021719892364918246   -0.00043224392002319675
-0.006292272161932747   -0.02176563257909407   -0.0003997498406622143
-0.006264732999971572   -0.021792480884739982   -0.00043154478052096585
-0.005828125777206839   -0.026799857521618564   -0.0005662334412292564
-0.009093016814040615   -0.021719892364918246   -0.00043224392002319675
-0.006264732999971572   -0.021792480884739982   -0.00043154478052096585
-0.008356830046274605   -0.02674752807587339   -0.000640907070056224
-0.008340038625933716   -0.026805166885613473   -0.0007451742856215056
-0.009030007781524541   -0.021793618658401247   -0.0005586161929551953
-0.011133604045523361   -0.026685504944312197   -0.0008154107872140071
-0.008355199931050272   -0.026770817196861488   -0.0006946581947903208
-0.009030007781524541   -0.021793618658401247   -0.0005586161929551953
-0.012060437383621163   -0.02170164882640152   -0.000616728703860489
-0.011133604045523361   -0.026685504944312197   -0.0008154107872140071
-0.012038535824217631   -0.02167522603138845   -0.0005645429344617737
-0.008355199931050272   -0.026770817196861488   -0.0006946581947903208
-0.011079018701038817   -0.02665412350430211   -0.0007415306948669835
-0.012038535824217631   -0.02167522603138845   -0.0005645429344617737
-0.011133604045523361   -0.026685504944312197   -0.0008154107872140071
-0.008355199931050272   -0.026770817196861488   -0.0006946581947903208
-0.012038535824217631   -0.02167522603138845   -0.0005645429344617737
-0.00905789886516646   -0.021762131883926197   -0.0005196102438124035
-0.009030007781524541   -0.021793618658401247   -0.0005586161929551953
-0.008355199931050272   -0.026770817196861488   -0.0006946581947903208
-0.012038535824217631   -0.02167522603138845   -0.0005645429344617737
-0.009030007781524541   -0.021793618658401247   -0.0005586161929551953
-0.011133604045523361   -0.026685504944312197   -0.0008154107872140071
-0.008355199931050272   -0.026770817196861488   -0.0006946581947903208
-0.00905789886516646   -0.021762131883926197   -0.0005196102438124035
-0.011079018701038817   -0.02665412350430211   -0.0007415306948669835
-0.008356830046274605   -0.02674752807587339   -0.000640907070056224
-0.00905789886516646   -0.021762131883926197   -0.0005196102438124035
-0.012038535824217631   -0.02167522603138845   -0.0005645429344617737
-0.011079018701038817   -0.02665412350430211   -0.0007415306948669835
-0.01202067306310179   -0.02165439865979909   -0.0005070025160500958
-0.008356830046274605   -0.02674752807587339   -0.000640907070056224
-0.011033066756692113   -0.026634560840963533   -0.0006619947531302471
-0.01202067306310179   -0.02165439865979909   -0.0005070025160500958
-0.011079018701038817   -0.02665412350430211   -0.0007415306948669835
-0.008356830046274605   -0.02674752807587339   -0.000640907070056224
-0.01202067306310179   -0.02165439865979909   -0.0005070025160500958
-0.009074582357136379   -0.021737029381911792   -0.00047768655099956103
-0.00905789886516646   -0.021762131883926197   -0.0005196102438124035
-0.008356830046274605   -0.02674752807587339   -0.000640907070056224
-0.01202067306310179   -0.02165439865979909   -0.0005070025160500958
-0.00905789886516646   -0.021762131883926197   -0.0005196102438124035
-0.011079018701038817   -0.02665412350430211   -0.0007415306948669835
-0.008356830046274605   -0.02674752807587339   -0.000640907070056224
-0.009074582357136379   -0.021737029381911792   -0.00047768655099956103
-0.011033066756692113   -0.026634560840963533   -0.0006619947531302471
-0.008362374935467293   -0.02673698914113478   -0.0005832330884662662
-0.009074582357136379   -0.021737029381911792   -0.00047768655099956103
-0.01202067306310179   -0.02165439865979909   -0.0005070025160500958
-0.011033066756692113   -0.026634560840963533   -0.0006619947531302471
-0.011978816678682317   -0.02164896130078711   -0.00044471683645864026
-0.008362374935467293   -0.02673698914113478   -0.0005832330884662662
-0.010957648860166973   -0.026636603601323874   -0.0005775103571237264
-0.011978816678682317   -0.02164896130078711   -0.00044471683645864026
-0.011033066756692113   -0.026634560840963533   -0.0006619947531302471
-0.008362374935467293   -0.02673698914113478   -0.0005832330884662662
-0.011978816678682317   -0.02164896130078711   -0.00044471683645864026
-0.009093016814040615   -0.021719892364918246   -0.00043224392002319675
-0.009074582357136379   -0.021737029381911792   -0.00047768655099956103
-0.008362374935467293   -0.02673698914113478   -0.0005832330884662662
-0.011978816678682317   -0.02164896130078711   -0.00044471683645864026
-0.009074582357136379   -0.021737029381911792   -0.00047768655099956103
-0.011033066756692113   -0.026634560840963533   -0.0006619947531302471
0.0023266460898563393   -0.02194456298702125   -0.00015752736625940152
0.0024152134113343948   -0.016599871582488778   -2.5933070988737485e-05
-0.0006243671725974346   -0.021944595721583447   -0.0002879836175367424
0.0023192732358897536   -0.02187294103650699   -0.00017906261321195077
0.0024152134113343948   -0.016599871582488778   -2.5933070988737485e-05
-0.00070822352609371   -0.016572997755790075   -0.00014292378194600986
-0.0006243671725974346   -0.021944595721583447   -0.0002879836175367424
-0.0007440139374030847   -0.016513698589785884   -0.00013246308848959703
0.0023192732358897536   -0.02187294103650699   -0.00017906261321195077
-0.000650276680914216   -0.02188252884861108   -0.00029026329577113466
-0.0007440139374030847   -0.016513698589785884   -0.00013246308848959703
-0.0006243671725974346   -0.021944595721583447   -0.0002879836175367424
0.0023192732358897536   -0.02187294103650699   -0.00017906261321195077
-0.0007440139374030847   -0.016513698589785884   -0.00013246308848959703
0.0023778607172615113   -0.01653165416669516   -2.4482535591439584e-05
0.0024152134113343948   -0.016599871582488778   -2.5933070988737485e-05
0.0023192732358897536   -0.02187294103650699   -0.00017906261321195077
-0.0007440139374030847   -0.016513698589785884   -0.00013246308848959703
0.0024152134113343948   -0.016599871582488778   -2.5933070988737485e-05
-0.0006243671725974346   -0.021944595721583447   -0.0002879836175367424
0.0023192732358897536   -0.02187294103650699   -0.00017906261321195077
0.0023778607172615113   -0.01653165416669516   -2.4482535591439584e-05
-0.000650276680914216   -0.02188252884861108   -0.00029026329577113466
0.0022989990143249387   -0.021815778619992378   -0.0001952961499080565
0.0023778607172615113   -0.01653165416669516   -2.4482535591439584e-05
-0.0007440139374030847   -0.016513698589785884   -0.00013246308848959703
-0.000650276680914216   -0.02188252884861108   -0.00029026329577113466
-0.0007850379153501026   -0.016457978595233267   -0.00011898754347911771
0.0022989990143249387   -0.021815778619992378   -0.0001952961499080565
-0.0006790758489876739   -0.021829452695406   -0.000289235321401866
-0.0007850379153501026   -0.016457978595233267   -0.00011898754347911771
-0.000650276680914216   -0.02188252884861108   -0.00029026329577113466
0.0022989990143249387   -0.021815778619992378   -0.0001952961499080565
-0.0007850379153501026   -0.016457978595233267   -0.00011898754347911771
0.0023315226750376503   -0.01647107243061763   -1.6882413393584716e-05
0.0023778607172615113   -0.01653165416669516   -2.4482535591439584e-05
0.0022989990143249387   -0.021815778619992378   -0.0001952961499080565
-0.0007850379153501026   -0.016457978595233267   -0.00011898754347911771
0.0023778607172615113   -0.01653165416669516   -2.4482535591439584e-05
-0.000650276680914216   -0.02188252884861108   -0.00029026329577113466
0.0022989990143249387   -0.021815778619992378   -0.0001952961499080565
0.0023315226750376503   -0.01647107243061763   -1.6882413393584716e-05
-0.0006790758489876739   -0.021829452695406   -0.000289235321401866
0.002270525288997901   -0.02176354705636393   -0.00020659840317484217
0.0023315226750376503   -0.01647107243061763   -1.6882413393584716e-05
-0.0007850379153501026   -0.016457978595233267   -0.00011898754347911771
-0.0006790758489876739   -0.021829452695406   -0.000289235321401866
-0.0008312037156049303   -0.01640506248446369   -0.00010174347021281426
0.002270525288997901   -0.02176354705636393   -0.00020659840317484217
-0.0007149929439686558   -0.02178396432572856   -0.00028476929353975976
-0.0008312037156049303   -0.01640506248446369   -0.00010174347021281426
-0.0006790758489876739   -0.021829452695406   -0.000289235321401866
0.002270525288997901   -0.02176354705636393   -0.00020659840317484217
-0.0008312037156049303   -0.01640506248446369   -0.00010174347021281426
0.0022703115513787674   -0.016407890687815802   -3.4076983838918763e-06
0.0023315226750376503   -0.01647107243061763   -1.6882413393584716e-05
0.002270525288997901   -0.02176354705636393   -0.00020659840317484217
-0.0008312037156049303   -0.01640506248446369   -0.00010174347021281426
0.0023315226750376503   -0.01647107243061763   -1.6882413393584716e-05
-0.0006790758489876739   -0.021829452695406   -0.000289235321401866
-0.0006243671725974346   -0.021944595721583447   -0.0002879836175367424
-0.00070822352609371   -0.016572997755790075   -0.00014292378194600986
-0.0034396498923946763   -0.02191805850094781   -0.0003951515133216115
-0.000650276680914216   -0.02188252884861108   -0.00029026329577113466
-0.00070822352609371   -0.016572997755790075   -0.00014292378194600986
-0.0036676706104930594   -0.016541061488591673   -0.00024141307236182912
-0.0034396498923946763   -0.02191805850094781   -0.0003951515133216115
-0.0037043391460791337   -0.016491696128328133   -0.00022498692400523492
-0.000650276680914216   -0.02188252884861108   -0.00029026329577113466
-0.003468827378151723   -0.02186674433347931   -0.0003836784667113486
-0.0037043391460791337   -0.016491696128328133   -0.00022498692400523492
-0.0034396498923946763   -0.02191805850094781   -0.0003951515133216115
-0.000650276680914216   -0.02188252884861108   -0.00029026329577113466
-0.0037043391460791337   -0.016491696128328133   -0.00022498692400523492
-0.0007440139374030847   -0.016513698589785884   -0.00013246308848959703
-0.00070822352609371   -0.016572997755790075   -0.00014292378194600986
-0.000650276680914216   -0.02188252884861108   -0.00029026329577113466
-0.0037043391460791337   -0.016491696128328133   -0.00022498692400523492
-0.00070822352609371   -0.016572997755790075   -0.00014292378194600986
-0.0034396498923946763   -0.02191805850094781   -0.0003951515133216115
-0.000650276680914216   -0.02188252884861108   -0.00029026329577113466
-0.0007440139374030847   -0.016513698589785884   -0.00013246308848959703
-0.003468827378151723   -0.02186674433347931   -0.0003836784667113486
-0.0006790758489876739   -0.021829452695406   -0.000289235321401866
-0.0007440139374030847   -0.016513698589785884   -0.00013246308848959703
-0.0037043391460791337   -0.016491696128328133   -0.00022498692400523492
-0.003468827378151723   -0.02186674433347931   -0.0003836784667113486
-0.0037418475051060156   -0.01644510345510648   -0.00020567934371741326
-0.0006790758489876739   -0.021829452695406   -0.000289235321401866
-0.0034986035044578855   -0.02182274799993297   -0.00036875552867439676
-0.0037418475051060156   -0.01644510345510648   -0.00020567934371741326
-0.003468827378151723   -0.02186674433347931   -0.0003836784667113486
-0.0006790758489876739   -0.021829452695406   -0.000289235321401866
-0.0037418475051060156   -0.01644510345510648   -0.00020567934371741326
-0.0007850379153501026   -0.016457978595233267   -0.00011898754347911771
-0.0007440139374030847   -0.016513698589785884   -0.00013246308848959703
-0.0006790758489876739   -0.021829452695406   -0.000289235321401866
-0.0037418475051060156   -0.01644510345510648   -0.00020567934371741326
-0.0007440139374030847   -0.016513698589785884   -0.00013246308848959703
-0.003468827378151723   -0.02186674433347931   -0.0003836784667113486
-0.0006790758489876739   -0.021829452695406   -0.000289235321401866
-0.0007850379153501026   -0.016457978595233267   -0.00011898754347911771
-0.0034986035044578855   -0.02182274799993297   -0.00036875552867439676
-0.0007149929439686558   -0.02178396432572856   -0.00028476929353975976
-0.0007850379153501026   -0.016457978595233267   -0.00011898754347911771
-0.0037418475051060156   -0.01644510345510648   -0.00020567934371741326
-0.0034986035044578855   -0.02182274799993297   -0.00036875552867439676
-0.0037817699475647887   -0.01640203059105309   -0.00018346565459197465
-0.0007149929439686558   -0.02178396432572856   -0.00028476929353975976
-0.003530926173868928   -0.0217864980263027   -0.0003505495604252143
-0.0037817699475647887   -0.01640203059105309   -0.00018346565459197465
-0.0034986035044578855   -0.02182274799993297   -0.00036875552867439676
-0.0007149929439686558   -0.02178396432572856   -0.00028476929353975976
-0.0037817699475647887   -0.01640203059105309   -0.00018346565459197465
-0.0008312037156049303   -0.01640506248446369   -0.00010174347021281426
-0.0007850379153501026   -0.016457978595233267   -0.00011898754347911771
-0.0007149929439686558   -0.02178396432572856   -0.00028476929353975976
-0.0037817699475647887   -0.01640203059105309   -0.00018346565459197465
-0.0007850379153501026   -0.016457978595233267   -0.00011898754347911771
-0.0034986035044578855   -0.02182274799993297   -0.00036875552867439676
-0.0034396498923946763   -0.02191805850094781   -0.0003951515133216115
-0.0036676706104930594   -0.016541061488591673   -0.00024141307236182912
-0.0062073573420552905   -0.021868084062453563   -0.00048528403573447457
-0.003468827378151723   -0.02186674433347931   -0.0003836784667113486
-0.0036676706104930594   -0.016541061488591673   -0.00024141307236182912
-0.006578652651856486   -0.016502482617313956   -0.0003247460216189708
-0.0062073573420552905   -0.021868084062453563   -0.00048528403573447457
-0.0066151176626447795   -0.01646228920121694   -0.00030238295990191936
-0.003468827378151723   -0.02186674433347931   -0.0003836784667113486
-0.006237456370141087   -0.021826649347326404   -0.0004600983368557717
-0.0066151176626447795   -0.01646228920121694   -0.00030238295990191936
-0.0062073573420552905   -0.021868084062453563   -0.00048528403573447457
-0.003468827378151723   -0.02186674433347931   -0.0003836784667113486
-0.0066151176626447795   -0.01646228920121694   -0.00030238295990191936
-0.0037043391460791337   -0.016491696128328133   -0.00022498692400523492
-0.0036676706104930594   -0.016541061488591673   -0.00024141307236182912
-0.003468827378151723   -0.02186674433347931   -0.0003836784667113486
-0.0066151176626447795   -0.01646228920121694   -0.00030238295990191936
-0.0036676706104930594   -0.016541061488591673   -0.00024141307236182912
-0.0062073573420552905   -0.021868084062453563   -0.00048528403573447457
-0.003468827378151723   -0.02186674433347931   -0.0003836784667113486
-0.0037043391460791337   -0.016491696128328133   -0.00022498692400523492
-0.006237456370141087   -0.021826649347326404   -0.0004600983368557717
-0.0034986035044578855   -0.02182274799993297   -0.00036875552867439676
-0.0037043391460791337   -0.016491696128328133   -0.00022498692400523492
-0.0066151176626447795   -0.01646228920121694   -0.00030238295990191936
-0.006237456370141087   -0.021826649347326404   -0.0004600983368557717
-0.00664920580957399   -0.016425014895320902   -0.0002772365917305507
-0.0034986035044578855   -0.02182274799993297   -0.00036875552867439676
-0.006264732999971572   -0.021792480884739982   -0.00043154478052096585
-0.00664920580957399   -0.016425014895320902   -0.0002772365917305507
-0.006237456370141087   -0.021826649347326404   -0.0004600983368557717
-0.0034986035044578855   -0.02182274799993297   -0.00036875552867439676
-0.00664920580957399   -0.016425014895320902   -0.0002772365917305507
-0.0037418475051060156   -0.01644510345510648   -0.00020567934371741326
-0.0037043391460791337   -0.016491696128328133   -0.00022498692400523492
-0.0034986035044578855   -0.02182274799993297   -0.00036875552867439676
-0.00664920580957399   -0.016425014895320902   -0.0002772365917305507
-0.0037043391460791337   -0.016491696128328133   -0.00022498692400523492
-0.006237456370141087   -0.021826649347326404   -0.0004600983368557717
-0.0034986035044578855   -0.02182274799993297   -0.00036875552867439676
-0.0037418475051060156   -0.01644510345510648   -0.00020567934371741326
-0.006264732999971572   -0.021792480884739982   -0.00043154478052096585
-0.003530926173868928   -0.0217864980263027   -0.0003505495604252143
-0.0037418475051060156   -0.01644510345510648   -0.00020567934371741326
-0.00664920580957399   -0.016425014895320902   -0.0002772365917305507
-0.006264732999971572   -0.021792480884739982   -0.00043154478052096585
-0.006683416468033243   -0.016390759034084438   -0.0002494428528135284
-0.003530926173868928   -0.0217864980263027   -0.0003505495604252143
-0.006292272161932747   -0.02176563257909407   -0.0003997498406622143
-0.006683416468033243   -0.016390759034084438   -0.0002494428528135284
-0.006264732999971572   -0.021792480884739982   -0.00043154478052096585
-0.003530926173868928   -0.0217864980263027   -0.0003505495604252143
-0.006683416468033243   -0.016390759034084438   -0.0002494428528135284
-0.0037817699475647887   -0.01640203059105309   -0.00018346565459197465
-0.0037418475051060156   -0.01644510345510648   -0.00020567934371741326
-0.003530926173868928   -0.0217864980263027   -0.0003505495604252143
-0.006683416468033243   -0.016390759034084438   -0.0002494428528135284
-0.0037418475051060156   -0.01644510345510648   -0.00020567934371741326
-0.006264732999971572   -0.021792480884739982   -0.00043154478052096585
-0.0062073573420552905   -0.021868084062453563   -0.00048528403573447457
-0.006578652651856486   -0.016502482617313956   -0.0003247460216189708
-0.009030007781524541   -0.021793618658401247   -0.0005586161929551953
-0.006237456370141087   -0.021826649347326404   -0.0004600983368557717
-0.006578652651856486   -0.016502482617313956   -0.0003247460216189708
-0.009542406100231377   -0.0164501455448321   -0.00039220569561763176
-0.009030007781524541   -0.021793618658401247   -0.0005586161929551953
-0.009577300849048391   -0.01641959768810838   -0.0003639776376468613
-0.006237456370141087   -0.021826649347326404   -0.0004600983368557717
-0.00905789886516646   -0.021762131883926197   -0.0005196102438124035
-0.009577300849048391   -0.01641959768810838   -0.0003639776376468613
-0.009030007781524541   -0.021793618658401247   -0.0005586161929551953
-0.006237456370141087   -0.021826649347326404   -0.0004600983368557717
-0.009577300849048391   -0.01641959768810838   -0.0003639776376468613
-0.0066151176626447795   -0.01646228920121694   -0.00030238295990191936
-0.006578652651856486   -0.016502482617313956   -0.0003247460216189708
-0.006237456370141087   -0.021826649347326404   -0.0004600983368557717
-0.009577300849048391   -0.01641959768810838   -0.0003639776376468613
-0.006578652651856486   -0.016502482617313956   -0.0003247460216189708
-0.009030007781524541   -0.021793618658401247   -0.0005586161929551953
-0.006237456370141087   -0.021826649347326404   -0.0004600983368557717
-0.0066151176626447795   -0.01646228920121694   -0.00030238295990191936
-0.00905789886516646   -0.021762131883926197   -0.0005196102438124035
-0.006264732999971572   -0.021792480884739982   -0.00043154478052096585
-0.0066151176626447795   -0.01646228920121694   -0.00030238295990191936
-0.009577300849048391   -0.01641959768810838   -0.0003639776376468613
-0.00905789886516646   -0.021762131883926197   -0.0005196102438124035
-0.009603609650635335   -0.016390921127672244   -0.00033341654988758534
-0.006264732999971572   -0.021792480884739982   -0.00043154478052096585
-0.009074582357136379   -0.021737029381911792   -0.00047768655099956103
-0.009603609650635335   -0.016390921127672244   -0.00033341654988758534
-0.00905789886516646   -0.021762131883926197   -0.0005196102438124035
-0.006264732999971572   -0.021792480884739982   -0.00043154478052096585
-0.009603609650635335   -0.016390921127672244   -0.00033341654988758534
-0.00664920580957399   -0.016425014895320902   -0.0002772365917305507
-0.0066151176626447795   -0.01646228920121694   -0.00030238295990191936
-0.006264732999971572   -0.021792480884739982   -0.00043154478052096585
-0.009603609650635335   -0.016390921127672244   -0.00033341654988758534
-0.0066151176626447795   -0.01646228920121694   -0.00030238295990191936
-0.00905789886516646   -0.021762131883926197   -0.0005196102438124035
-0.006264732999971572   -0.021792480884739982   -0.00043154478052096585
-0.00664920580957399   -0.016425014895320902   -0.0002772365917305507
-0.009074582357136379   -0.021737029381911792   -0.00047768655099956103
-0.006292272161932747   -0.02176563257909407   -0.0003997498406622143
-0.00664920580957399   -0.016425014895320902   -0.0002772365917305507
-0.009603609650635335   -0.016390921127672244   -0.00033341654988758534
-0.009074582357136379   -0.021737029381911792   -0.00047768655099956103
-0.009629748022554912   -0.01636544170693137   -0.0002999216921961636
-0.006292272161932747   -0.02176563257909407   -0.0003997498406622143
-0.009093016814040615   -0.021719892364918246   -0.00043224392002319675
-0.009629748022554912   -0.01636544170693137   -0.0002999216921961636
-0.009074582357136379   -0.021737029381911792   -0.00047768655099956103
-0.006292272161932747   -0.02176563257909407   -0.0003997498406622143
-0.009629748022554912   -0.01636544170693137   -0.0002999216921961636
-0.006683416468033243   -0.016390759034084438   -0.0002494428528135284
-0.00664920580957399   -0.016425014895320902   -0.0002772365917305507
-0.006292272161932747   -0.02176563257909407   -0.0003997498406622143
-0.009629748022554912   -0.01636544170693137   -0.0002999216921961636
-0.00664920580957399   -0.016425014895320902   -0.0002772365917305507
-0.009074582357136379   -0.021737029381911792   -0.00047768655099956103
-0.009030007781524541   -0.021793618658401247   -0.0005586161929551953
-0.009542406100231377   -0.0164501455448321   -0.00039220569561763176
-0.012060437383621163   -0.02170164882640152   -0.000616728703860489
-0.00905789886516646   -0.021762131883926197   -0.0005196102438124035
-0.009542406100231377   -0.0164501455448321   -0.00039220569561763176
-0.012684991312119743   -0.01638799461431344   -0.00044183034304845985
-0.012060437383621163   -0.02170164882640152   -0.000616728703860489
-0.01268948798259268   -0.01636386042352256   -0.00041037911518432003
-0.00905789886516646   -0.021762131883926197   -0.0005196102438124035
-0.012038535824217631   -0.02167522603138845   -0.0005645429344617737
-0.01268948798259268   -0.01636386042352256   -0.00041037911518432003
-0.012060437383621163   -0.02170164882640152   -0.000616728703860489
-0.00905789886516646   -0.021762131883926197   -0.0005196102438124035
-0.01268948798259268   -0.01636386042352256   -0.00041037911518432003
-0.009577300849048391   -0.01641959768810838   -0.0003639776376468613
-0.009542406100231377   -0.0164501455448321   -0.00039220569561763176
-0.00905789886516646   -0.021762131883926197   -0.0005196102438124035
-0.01268948798259268   -0.01636386042352256   -0.00041037911518432003
-0.009542406100231377   -0.0164501455448321   -0.00039220569561763176
-0.012060437383621163   -0.02170164882640152   -0.000616728703860489
-0.00905789886516646   -0.021762131883926197   -0.0005196102438124035
-0.009577300849048391   -0.01641959768810838   -0.0003639776376468613
-0.012038535824217631   -0.02167522603138845   -0.0005645429344617737
-0.009074582357136379   -0.021737029381911792   -0.00047768655099956103
-0.009577300849048391   -0.01641959768810838   -0.0003639776376468613
-0.01268948798259268   -0.01636386042352256   -0.00041037911518432003
-0.012038535824217631   -0.02167522603138845   -0.0005645429344617737
-0.01269424886520734   -0.016339603535385196   -0.00037424068678210685
-0.009074582357136379   -0.021737029381911792   -0.00047768655099956103
-0.01202067306310179   -0.02165439865979909   -0.0005070025160500958
-0.01269424886520734   -0.016339603535385196   -0.00037424068678210685
-0.012038535824217631   -0.02167522603138845   -0.0005645429344617737
-0.009074582357136379   -0.021737029381911792   -0.00047768655099956103
-0.01269424886520734   -0.016339603535385196   -0.00037424068678210685
-0.009603609650635335   -0.016390921127672244   -0.00033341654988758534
-0.009577300849048391   -0.01641959768810838   -0.0003639776376468613
-0.009074582357136379   -0.021737029381911792   -0.00047768655099956103
-0.01269424886520734   -0.016339603535385196   -0.00037424068678210685
-0.009577300849048391   -0.01641959768810838   -0.0003639776376468613
-0.012038535824217631   -0.02167522603138845   -0.0005645429344617737
-0.009074582357136379   -0.021737029381911792   -0.00047768655099956103
-0.009603609650635335   -0.016390921127672244   -0.00033341654988758534
-0.01202067306310179   -0.02165439865979909   -0.0005070025160500958
-0.009093016814040615   -0.021719892364918246   -0.00043224392002319675
-0.009603609650635335   -0.016390921127672244   -0.00033341654988758534
-0.01269424886520734   -0.016339603535385196   -0.00037424068678210685
-0.01202067306310179   -0.02165439865979909   -0.0005070025160500958
-0.01268111079712786   -0.0163243466382374   -0.00033396531428293505
-0.009093016814040615   -0.021719892364918246   -0.00043224392002319675
-0.011978816678682317   -0.02164896130078711   -0.00044471683645864026
-0.01268111079712786   -0.0163243466382374   -0.00033396531428293505
-0.01202067306310179   -0.02165439865979909   -0.0005070025160500958
-0.009093016814040615   -0.021719892364918246   -0.00043224392002319675
-0.01268111079712786   -0.0163243466382374   -0.00033396531428293505
-0.009629748022554912   -0.01636544170693137   -0.0002999216921961636
-0.009603609650635335   -0.016390921127672244   -0.00033341654988758534
-0.009093016814040615   -0.021719892364918246   -0.00043224392002319675
-0.01268111079712786   -0.0163243466382374   -0.00033396531428293505
-0.009603609650635335   -0.016390921127672244   -0.00033341654988758534
-0.01202067306310179   -0.02165439865979909   -0.0005070025160500958
0.0024152134113343948   -0.016599871582488778   -2.5933070988737485e-05
0.0021718020005480304   -0.011087511699466077   6.498757343901542e-05
-0.00070822352609371   -0.016572997755790075   -0.00014292378194600986
0.0023778607172615113   -0.01653165416669516   -2.4482535591439584e-05
0.0021718020005480304   -0.011087511699466077   6.498757343901542e-05
-0.0009797700065580228   -0.011036168224217994   -2.734097792041173e-05
-0.00070822352609371   -0.016572997755790075   -0.00014292378194600986
-0.0010228133582216097   -0.010982650149988681   -5.075050641979668e-06
0.0023778607172615113   -0.01653165416669516   -2.4482535591439584e-05
-0.0007440139374030847   -0.016513698589785884   -0.00013246308848959703
-0.0010228133582216097   -0.010982650149988681   -5.075050641979668e-06
-0.00070822352609371   -0.016572997755790075   -0.00014292378194600986
0.0023778607172615113   -0.01653165416669516   -2.4482535591439584e-05
-0.0010228133582216097   -0.010982650149988681   -5.075050641979668e-06
0.002104455712281692   -0.011022646524476314   9.231718126031377e-05
0.0021718020005480304   -0.011087511699466077   6.498757343901542e-05
0.0023778607172615113   -0.01653165416669516   -2.4482535591439584e-05
-0.0010228133582216097   -0.010982650149988681   -5.075050641979668e-06
0.0021718020005480304   -0.011087511699466077   6.498757343901542e-05
-0.00070822352609371   -0.016572997755790075   -0.00014292378194600986
0.0023778607172615113   -0.01653165416669516   -2.4482535591439584e-05
0.002104455712281692   -0.011022646524476314   9.231718126031377e-05
-0.0007440139374030847   -0.016513698589785884   -0.00013246308848959703
0.0023315226750376503   -0.01647107243061763   -1.6882413393584716e-05
0.002104455712281692   -0.011022646524476314   9.231718126031377e-05
-0.0010228133582216097   -0.010982650149988681   -5.075050641979668e-06
-0.0007440139374030847   -0.016513698589785884   -0.00013246308848959703
-0.0010732405848324872   -0.010926263414801478   2.1211049845250774e-05
0.0023315226750376503   -0.01647107243061763   -1.6882413393584716e-05
-0.0007850379153501026   -0.016457978595233267   -0.00011898754347911771
-0.0010732405848324872   -0.010926263414801478   2.1211049845250774e-05
-0.0007440139374030847   -0.016513698589785884   -0.00013246308848959703
0.0023315226750376503   -0.01647107243061763   -1.6882413393584716e-05
-0.0010732405848324872   -0.010926263414801478   2.1211049845250774e-05
0.002028883939759185   -0.010958461630044087   0.00013191897098385264
0.002104455712281692   -0.011022646524476314   9.231718126031377e-05
0.0023315226750376503   -0.01647107243061763   -1.6882413393584716e-05
-0.0010732405848324872   -0.010926263414801478   2.1211049845250774e-05
0.002104455712281692   -0.011022646524476314   9.231718126031377e-05
-0.0007440139374030847   -0.016513698589785884   -0.00013246308848959703
0.0023315226750376503   -0.01647107243061763   -1.6882413393584716e-05
0.002028883939759185   -0.010958461630044087   0.00013191897098385264
-0.0007850379153501026   -0.016457978595233267   -0.00011898754347911771
0.0022703115513787674   -0.016407890687815802   -3.4076983838918763e-06
0.002028883939759185   -0.010958461630044087   0.00013191897098385264
-0.0010732405848324872   -0.010926263414801478   2.1211049845250774e-05
-0.0007850379153501026   -0.016457978595233267   -0.00011898754347911771
-0.0011254889117926852   -0.010866480329436944   5.14754877232859e-05
0.0022703115513787674   -0.016407890687815802   -3.4076983838918763e-06
-0.0008312037156049303   -0.01640506248446369   -0.00010174347021281426
-0.0011254889117926852   -0.010866480329436944   5.14754877232859e-05
-0.0007850379153501026   -0.016457978595233267   -0.00011898754347911771
0.0022703115513787674   -0.016407890687815802   -3.4076983838918763e-06
-0.0011254889117926852   -0.010866480329436944   5.14754877232859e-05
0.0019365076311049015   -0.010879523745372932   0.0001755558596959989
0.002028883939759185   -0.010958461630044087   0.00013191897098385264
0.0022703115513787674   -0.016407890687815802   -3.4076983838918763e-06
-0.0011254889117926852   -0.010866480329436944   5.14754877232859e-05
0.002028883939759185   -0.010958461630044087   0.00013191897098385264
-0.0007850379153501026   -0.016457978595233267   -0.00011898754347911771
-0.00070822352609371   -0.016572997755790075   -0.00014292378194600986
-0.0009797700065580228   -0.011036168224217994   -2.734097792041173e-05
-0.0036676706104930594   -0.016541061488591673   -0.00024141307236182912
-0.0007440139374030847   -0.016513698589785884   -0.00013246308848959703
-0.0009797700065580228   -0.011036168224217994   -2.734097792041173e-05
-0.003946196072870045   -0.011022848703901385   -0.00011605111313643004
-0.0036676706104930594   -0.016541061488591673   -0.00024141307236182912
-0.003985251291173561   -0.01097635532119871   -9.514794195994032e-05
-0.0007440139374030847   -0.016513698589785884   -0.00013246308848959703
-0.0037043391460791337   -0.016491696128328133   -0.00022498692400523492
-0.003985251291173561   -0.01097635532119871   -9.514794195994032e-05
-0.0036676706104930594   -0.016541061488591673   -0.00024141307236182912
-0.0007440139374030847   -0.016513698589785884   -0.00013246308848959703
-0.003985251291173561   -0.01097635532119871   -9.514794195994032e-05
-0.0010228133582216097   -0.010982650149988681   -5.075050641979668e-06
-0.0009797700065580228   -0.011036168224217994   -2.734097792041173e-05
-0.0007440139374030847   -0.016513698589785884   -0.00013246308848959703
-0.003985251291173561   -0.01097635532119871   -9.514794195994032e-05
-0.0009797700065580228   -0.011036168224217994   -2.734097792041173e-05
-0.0036676706104930594   -0.016541061488591673   -0.00024141307236182912
-0.0007440139374030847   -0.016513698589785884   -0.00013246308848959703
-0.0010228133582216097   -0.010982650149988681   -5.075050641979668e-06
-0.0037043391460791337   -0.016491696128328133   -0.00022498692400523492
-0.0007850379153501026   -0.016457978595233267   -0.00011898754347911771
-0.0010228133582216097   -0.010982650149988681   -5.075050641979668e-06
-0.003985251291173561   -0.01097635532119871   -9.514794195994032e-05
-0.0037043391460791337   -0.016491696128328133   -0.00022498692400523492
-0.004025688642729262   -0.010928031153710396   -7.213540004948124e-05
-0.0007850379153501026   -0.016457978595233267   -0.00011898754347911771
-0.0037418475051060156   -0.01644510345510648   -0.00020567934371741326
-0.004025688642729262   -0.010928031153710396   -7.213540004948124e-05
-0.0037043391460791337   -0.016491696128328133   -0.00022498692400523492
-0.0007850379153501026   -0.016457978595233267   -0.00011898754347911771
-0.004025688642729262   -0.010928031153710396   -7.213540004948124e-05
-0.0010732405848324872   -0.010926263414801478   2.1211049845250774e-05
-0.0010228133582216097   -0.010982650149988681   -5.075050641979668e-06
-0.0007850379153501026   -0.016457978595233267   -0.00011898754347911771
-0.004025688642729262   -0.010928031153710396   -7.213540004948124e-05
-0.0010228133582216097   -0.010982650149988681   -5.075050641979668e-06
-0.0037043391460791337   -0.016491696128328133   -0.00022498692400523492
-0.0007850379153501026   -0.016457978595233267   -0.00011898754347911771
-0.0010732405848324872   -0.010926263414801478   2.1211049845250774e-05
-0.0037418475051060156   -0.01644510345510648   -0.00020567934371741326
-0.0008312037156049303   -0.01640506248446369   -0.00010174347021281426
-0.0010732405848324872   -0.010926263414801478   2.1211049845250774e-05
-0.004025688642729262   -0.010928031153710396   -7.213540004948124e-05
-0.0037418475051060156   -0.01644510345510648   -0.00020567934371741326
-0.004067823972178076   -0.010878791853341578   -4.660006622003776e-05
-0.0008312037156049303   -0.01640506248446369   -0.00010174347021281426
-0.0037817699475647887   -0.01640203059105309   -0.00018346565459197465
-0.004067823972178076   -0.010878791853341578   -4.660006622003776e-05
-0.0037418475051060156   -0.01644510345510648   -0.00020567934371741326
-0.0008312037156049303   -0.01640506248446369   -0.00010174347021281426
-0.004067823972178076   -0.010878791853341578   -4.660006622003776e-05
-0.0011254889117926852   -0.010866480329436944   5.14754877232859e-05
-0.0010732405848324872   -0.010926263414801478   2.1211049845250774e-05
-0.0008312037156049303   -0.01640506248446369   -0.00010174347021281426
-0.004067823972178076   -0.010878791853341578   -4.660006622003776e-05
-0.0010732405848324872   -0.010926263414801478   2.1211049845250774e-05
-0.0037418475051060156   -0.01644510345510648   -0.00020567934371741326
-0.0036676706104930594   -0.016541061488591673   -0.00024141307236182912
-0.003946196072870045   -0.011022848703901385   -0.00011605111313643004
-0.006578652651856486   -0.016502482617313956   -0.0003247460216189708
-0.0037043391460791337   -0.016491696128328133   -0.00022498692400523492
-0.003946196072870045   -0.011022848703901385   -0.00011605111313643004
-0.006881244483219714   -0.011019100462284756   -0.000196058736958198
-0.006578652651856486   -0.016502482617313956   -0.0003247460216189708
-0.006918653465840694   -0.010978489448956345   -0.00017595809452605692
-0.0037043391460791337   -0.016491696128328133   -0.00022498692400523492
-0.0066151176626447795   -0.01646228920121694   -0.00030238295990191936
-0.006918653465840694   -0.010978489448956345   -0.00017595809452605692
-0.006578652651856486   -0.016502482617313956   -0.0003247460216189708
-0.0037043391460791337   -0.016491696128328133   -0.00022498692400523492
-0.006918653465840694   -0.010978489448956345   -0.00017595809452605692
-0.003985251291173561   -0.01097635532119871   -9.514794195994032e-05
-0.003946196072870045   -0.011022848703901385   -0.00011605111313643004
-0.0037043391460791337   -0.016491696128328133   -0.00022498692400523492
-0.006918653465840694   -0.010978489448956345   -0.00017595809452605692
-0.003946196072870045   -0.011022848703901385   -0.00011605111313643004
-0.006578652651856486   -0.016502482617313956   -0.0003247460216189708
-0.0037043391460791337   -0.016491696128328133   -0.00022498692400523492
-0.003985251291173561   -0.01097635532119871   -9.514794195994032e-05
-0.0066151176626447795   -0.01646228920121694   -0.00030238295990191936
-0.0037418475051060156   -0.01644510345510648   -0.00020567934371741326
-0.003985251291173561   -0.01097635532119871   -9.514794195994032e-05
-0.006918653465840694   -0.010978489448956345   -0.00017595809452605692
-0.0066151176626447795   -0.01646228920121694   -0.00030238295990191936
-0.006954293741602631   -0.010937205350883352   -0.00015400698643970676
-0.0037418475051060156   -0.01644510345510648   -0.00020567934371741326
-0.00664920580957399   -0.016425014895320902   -0.0002772365917305507
-0.006954293741602631   -0.010937205350883352   -0.00015400698643970676
-0.0066151176626447795   -0.01646228920121694   -0.00030238295990191936
-0.0037418475051060156   -0.01644510345510648   -0.00020567934371741326
-0.006954293741602631   -0.010937205350883352   -0.00015400698643970676
-0.004025688642729262   -0.010928031153710396   -7.213540004948124e-05
-0.003985251291173561   -0.01097635532119871   -9.514794195994032e-05
-0.0037418475051060156   -0.01644510345510648   -0.00020567934371741326
-0.006954293741602631   -0.010937205350883352   -0.00015400698643970676
-0.003985251291173561   -0.01097635532119871   -9.514794195994032e-05
-0.0066151176626447795   -0.01646228920121694   -0.00030238295990191936
-0.0037418475051060156   -0.01644510345510648   -0.00020567934371741326
-0.004025688642729262   -0.010928031153710396   -7.213540004948124e-05
-0.00664920580957399   -0.016425014895320902   -0.0002772365917305507
-0.0037817699475647887   -0.01640203059105309   -0.00018346565459197465
-0.004025688642729262   -0.010928031153710396   -7.213540004948124e-05
-0.006954293741602631   -0.010937205350883352   -0.00015400698643970676
-0.00664920580957399   -0.016425014895320902   -0.0002772365917305507
-0.006989579485897969   -0.010895003113097861   -0.00013030472538384146
-0.0037817699475647887   -0.01640203059105309   -0.00018346565459197465
-0.006683416468033243   -0.016390759034084438   -0.0002494428528135284
-0.006989579485897969   -0.010895003113097861   -0.00013030472538384146
-0.00664920580957399   -0.016425014895320902   -0.0002772365917305507
-0.0037817699475647887   -0.01640203059105309   -0.00018346565459197465
-0.006989579485897969   -0.010895003113097861   -0.00013030472538384146
-0.004067823972178076   -0.010878791853341578   -4.660006622003776e-05
-0.004025688642729262   -0.010928031153710396   -7.213540004948124e-05
-0.0037817699475647887   -0.01640203059105309   -0.00018346565459197465
-0.006989579485897969   -0.010895003113097861   -0.00013030472538384146
-0.004025688642729262   -0.010928031153710396   -7.213540004948124e-05
-0.00664920580957399   -0.016425014895320902   -0.0002772365917305507
-0.006578652651856486   -0.016502482617313956   -0.0003247460216189708
-0.006881244483219714   -0.011019100462284756   -0.000196058736958198
-0.009542406100231377   -0.0164501455448321   -0.00039220569561763176
-0.0066151176626447795   -0.01646228920121694   -0.00030238295990191936
-0.006881244483219714   -0.011019100462284756   -0.000196058736958198
-0.00987861130939817   -0.011001825861194593   -0.00026291013218185475
-0.009542406100231377   -0.0164501455448321   -0.00039220569561763176
-0.009914271512059265   -0.01096898228523955   -0.00024373365192462956
-0.0066151176626447795   -0.01646228920121694   -0.00030238295990191936
-0.009577300849048391   -0.01641959768810838   -0.0003639776376468613
-0.009914271512059265   -0.01096898228523955   -0.00024373365192462956
-0.009542406100231377   -0.0164501455448321   -0.00039220569561763176
-0.0066151176626447795   -0.01646228920121694   -0.00030238295990191936
-0.009914271512059265   -0.01096898228523955   -0.00024373365192462956
-0.006918653465840694   -0.010978489448956345   -0.00017595809452605692
-0.006881244483219714   -0.011019100462284756   -0.000196058736958198
-0.0066151176626447795   -0.01646228920121694   -0.00030238295990191936
-0.009914271512059265   -0.01096898228523955   -0.00024373365192462956
-0.006881244483219714   -0.011019100462284756   -0.000196058736958198
-0.009542406100231377   -0.0164501455448321   -0.00039220569561763176
-0.0066151176626447795   -0.01646228920121694   -0.00030238295990191936
-0.006918653465840694   -0.010978489448956345   -0.00017595809452605692
-0.009577300849048391   -0.01641959768810838   -0.0003639776376468613
-0.00664920580957399   -0.016425014895320902   -0.0002772365917305507
-0.006918653465840694   -0.010978489448956345   -0.00017595809452605692
-0.009914271512059265   -0.01096898228523955   -0.00024373365192462956
-0.009577300849048391   -0.01641959768810838   -0.0003639776376468613
-0.009944407257963738   -0.010934359044803514   -0.00022322568933396352
-0.00664920580957399   -0.016425014895320902   -0.0002772365917305507
-0.009603609650635335   -0.016390921127672244   -0.00033341654988758534
-0.009944407257963738   -0.010934359044803514   -0.00022322568933396352
-0.009577300849048391   -0.01641959768810838   -0.0003639776376468613
-0.00664920580957399   -0.016425014895320902   -0.0002772365917305507
-0.009944407257963738   -0.010934359044803514   -0.00022322568933396352
-0.006954293741602631   -0.010937205350883352   -0.00015400698643970676
-0.006918653465840694   -0.010978489448956345   -0.00017595809452605692
-0.00664920580957399   -0.016425014895320902   -0.0002772365917305507
-0.009944407257963738   -0.010934359044803514   -0.00022322568933396352
-0.006918653465840694   -0.010978489448956345   -0.00017595809452605692
-0.009577300849048391   -0.01641959768810838   -0.0003639776376468613
-0.00664920580957399   -0.016425014895320902   -0.0002772365917305507
-0.006954293741602631   -0.010937205350883352   -0.00015400698643970676
-0.009603609650635335   -0.016390921127672244   -0.00033341654988758534
-0.006683416468033243   -0.016390759034084438   -0.0002494428528135284
-0.006954293741602631   -0.010937205350883352   -0.00015400698643970676
-0.009944407257963738   -0.010934359044803514   -0.00022322568933396352
-0.009603609650635335   -0.016390921127672244   -0.00033341654988758534
-0.00997288543060605   -0.010898877766585309   -0.0002008229132820762
-0.006683416468033243   -0.016390759034084438   -0.0002494428528135284
-0.009629748022554912   -0.01636544170693137   -0.0002999216921961636
-0.00997288543060605   -0.010898877766585309   -0.0002008229132820762
-0.009603609650635335   -0.016390921127672244   -0.00033341654988758534
-0.006683416468033243   -0.016390759034084438   -0.0002494428528135284
-0.00997288543060605   -0.010898877766585309   -0.0002008229132820762
-0.006989579485897969   -0.010895003113097861   -0.00013030472538384146
-0.006954293741602631   -0.010937205350883352   -0.00015400698643970676
-0.006683416468033243   -0.016390759034084438   -0.0002494428528135284
-0.00997288543060605   -0.010898877766585309   -0.0002008229132820762
-0.006954293741602631   -0.010937205350883352   -0.00015400698643970676
-0.009603609650635335   -0.016390921127672244   -0.00033341654988758534
-0.009542406100231377   -0.0164501455448321   -0.00039220569561763176
-0.00987861130939817   -0.011001825861194593   -0.00026291013218185475
-0.012684991312119743   -0.01638799461431344   -0.00044183034304845985
-0.009577300849048391   -0.01641959768810838   -0.0003639776376468613
-0.00987861130939817   -0.011001825861194593   -0.00026291013218185475
-0.01302005646816602   -0.010973139037472778   -0.00031179871696877034
-0.012684991312119743   -0.01638799461431344   -0.00044183034304845985
-0.01304179784118776   -0.010945819708007013   -0.00029716189003249616
-0.009577300849048391   -0.01641959768810838   -0.0003639776376468613
-0.01268948798259268   -0.01636386042352256   -0.00041037911518432003
-0.01304179784118776   -0.010945819708007013   -0.00029716189003249616
-0.012684991312119743   -0.01638799461431344   -0.00044183034304845985
-0.009577300849048391   -0.01641959768810838   -0.0003639776376468613
-0.01304179784118776   -0.010945819708007013   -0.00029716189003249616
-0.009914271512059265   -0.01096898228523955   -0.00024373365192462956
-0.00987861130939817   -0.011001825861194593   -0.00026291013218185475
-0.009577300849048391   -0.01641959768810838   -0.0003639776376468613
-0.01304179784118776   -0.010945819708007013   -0.00029716189003249616
-0.00987861130939817   -0.011001825861194593   -0.00026291013218185475
-0.012684991312119743   -0.01638799461431344   -0.00044183034304845985
-0.009577300849048391   -0.01641959768810838   -0.0003639776376468613
-0.009914271512059265   -0.01096898228523955   -0.00024373365192462956
-0.01268948798259268   -0.01636386042352256   -0.00041037911518432003
-0.009603609650635335   -0.016390921127672244   -0.00033341654988758534
-0.009914271512059265   -0.01096898228523955   -0.00024373365192462956
-0.01304179784118776   -0.010945819708007013   -0.00029716189003249616
-0.01268948798259268   -0.01636386042352256   -0.00041037911518432003
-0.01306167810362198   -0.010914801782463908   -0.0002792942231763241
-0.009603609650635335   -0.016390921127672244   -0.00033341654988758534
-0.01269424886520734   -0.016339603535385196   -0.00037424068678210685
-0.01306167810362198   -0.010914801782463908   -0.0002792942231763241
-0.01268948798259268   -0.01636386042352256   -0.00041037911518432003
-0.009603609650635335   -0.016390921127672244   -0.00033341654988758534
-0.01306167810362198   -0.010914801782463908   -0.0002792942231763241
-0.009944407257963738   -0.010934359044803514   -0.00022322568933396352
-0.009914271512059265   -0.01096898228523955   -0.00024373365192462956
-0.009603609650635335   -0.016390921127672244   -0.00033341654988758534
-0.01306167810362198   -0.010914801782463908   -0.0002792942231763241
-0.009914271512059265   -0.01096898228523955   -0.00024373365192462956
-0.01268948798259268   -0.01636386042352256   -0.00041037911518432003
-0.009603609650635335   -0.016390921127672244   -0.00033341654988758534
-0.009944407257963738   -0.010934359044803514   -0.00022322568933396352
-0.01269424886520734   -0.016339603535385196   -0.00037424068678210685
-0.009629748022554912   -0.01636544170693137   -0.0002999216921961636
-0.009944407257963738   -0.010934359044803514   -0.00022322568933396352
-0.01306167810362198   -0.010914801782463908   -0.0002792942231763241
-0.01269424886520734   -0.016339603535385196   -0.00037424068678210685
-0.013070839785862992   -0.010886651296480917   -0.0002589835749109896
-0.009629748022554912   -0.01636544170693137   -0.0002999216921961636
-0.01268111079712786   -0.0163243466382374   -0.00033396531428293505
-0.013070839785862992   -0.010886651296480917   -0.0002589835749109896
-0.01269424886520734   -0.016339603535385196   -0.00037424068678210685
-0.009629748022554912   -0.01636544170693137   -0.0002999216921961636
-0.013070839785862992   -0.010886651296480917   -0.0002589835749109896
-0.00997288543060605   -0.010898877766585309   -0.0002008229132820762
-0.009944407257963738   -0.010934359044803514   -0.00022322568933396352
-0.009629748022554912   -0.01636544170693137   -0.0002999216921961636
-0.013070839785862992   -0.010886651296480917   -0.0002589835749109896
-0.009944407257963738   -0.010934359044803514   -0.00022322568933396352
-0.01269424886520734   -0.016339603535385196   -0.00037424068678210685
0.0021718020005480304   -0.011087511699466077   6.498757343901542e-05
0.0015260488416522064   -0.00557645840958461   7.03407833659921e-05
-0.0009797700065580228   -0.011036168224217994   -2.734097792041173e-05
0.002104455712281692   -0.011022646524476314   9.231718126031377e-05
0.0015260488416522064   -0.00557645840958461   7.03407833659921e-05
-0.0014181399184525615   -0.005505541524896366   3.805731804565664e-05
-0.0009797700065580228   -0.011036168224217994   -2.734097792041173e-05
-0.001461140684011978   -0.0054792187300747065   6.927617784725621e-05
0.002104455712281692   -0.011022646524476314   9.231718126031377e-05
-0.0010228133582216097   -0.010982650149988681   -5.075050641979668e-06
-0.001461140684011978   -0.0054792187300747065   6.927617784725621e-05
-0.0009797700065580228   -0.011036168224217994   -2.734097792041173e-05
0.002104455712281692   -0.011022646524476314   9.231718126031377e-05
-0.001461140684011978   -0.0054792187300747065   6.927617784725621e-05
0.0013918132207444462   -0.00550723586501453   0.0001473482238926737
0.0015260488416522064   -0.00557645840958461   7.03407833659921e-05
0.002104455712281692   -0.011022646524476314   9.231718126031377e-05
-0.001461140684011978   -0.0054792187300747065   6.927617784725621e-05
0.0015260488416522064   -0.00557645840958461   7.03407833659921e-05
-0.0009797700065580228   -0.011036168224217994   -2.734097792041173e-05
0.002104455712281692   -0.011022646524476314   9.231718126031377e-05
0.0013918132207444462   -0.00550723586501453   0.0001473482238926737
-0.0010228133582216097   -0.010982650149988681   -5.075050641979668e-06
0.002028883939759185   -0.010958461630044087   0.00013191897098385264
0.0013918132207444462   -0.00550723586501453   0.0001473482238926737
-0.001461140684011978   -0.0054792187300747065   6.927617784725621e-05
-0.0010228133582216097   -0.010982650149988681   -5.075050641979668e-06
-0.0015179709810426933   -0.005431268861087375   0.00010727591855968423
0.002028883939759185   -0.010958461630044087   0.00013191897098385264
-0.0010732405848324872   -0.010926263414801478   2.1211049845250774e-05
-0.0015179709810426933   -0.005431268861087375   0.00010727591855968423
-0.0010228133582216097   -0.010982650149988681   -5.075050641979668e-06
0.002028883939759185   -0.010958461630044087   0.00013191897098385264
-0.0015179709810426933   -0.005431268861087375   0.00010727591855968423
0.0013133491164650018   -0.005451120717028828   0.000204639844207298
0.0013918132207444462   -0.00550723586501453   0.0001473482238926737
0.002028883939759185   -0.010958461630044087   0.00013191897098385264
-0.0015179709810426933   -0.005431268861087375   0.00010727591855968423
0.0013918132207444462   -0.00550723586501453   0.0001473482238926737
-0.0010228133582216097   -0.010982650149988681   -5.075050641979668e-06
0.002028883939759185   -0.010958461630044087   0.00013191897098385264
0.0013133491164650018   -0.005451120717028828   0.000204639844207298
-0.0010732405848324872   -0.010926263414801478   2.1211049845250774e-05
0.0019365076311049015   -0.010879523745372932   0.0001755558596959989
0.0013133491164650018   -0.005451120717028828   0.000204639844207298
-0.0015179709810426933   -0.005431268861087375   0.00010727591855968423
-0.0010732405848324872   -0.010926263414801478   2.1211049845250774e-05
-0.0015658893702411698   -0.005379904508278082   0.00014070752898150032
0.0019365076311049015   -0.010879523745372932   0.0001755558596959989
-0.0011254889117926852   -0.010866480329436944   5.14754877232859e-05
-0.0015658893702411698   -0.005379904508278082   0.00014070752898150032
-0.0010732405848324872   -0.010926263414801478   2.1211049845250774e-05
0.0019365076311049015   -0.010879523745372932   0.0001755558596959989
-0.0015658893702411698   -0.005379904508278082   0.00014070752898150032
0.0012125661118790655   -0.0053648831852129986   0.0002703236838027283
0.0013133491164650018   -0.005451120717028828   0.000204639844207298
0.0019365076311049015   -0.010879523745372932   0.0001755558596959989
-0.0015658893702411698   -0.005379904508278082   0.00014070752898150032
0.0013133491164650018   -0.005451120717028828   0.000204639844207298
-0.0010732405848324872   -0.010926263414801478   2.1211049845250774e-05
-0.0009797700065580228   -0.011036168224217994   -2.734097792041173e-05
-0.0014181399184525615   -0.005505541524896366   3.805731804565664e-05
-0.003946196072870045   -0.011022848703901385   -0.00011605111313643004
-0.0010228133582216097   -0.010982650149988681   -5.075050641979668e-06
-0.0014181399184525615   -0.005505541524896366   3.805731804565664e-05
-0.00421633497191224   -0.005587911084839578   -3.1800343271047066e-05
-0.003946196072870045   -0.011022848703901385   -0.00011605111313643004
-0.0042562100139895125   -0.005546904087100166   -9.572263008341476e-06
-0.0010228133582216097   -0.010982650149988681   -5.075050641979668e-06
-0.003985251291173561   -0.01097635532119871   -9.514794195994032e-05
-0.0042562100139895125   -0.005546904087100166   -9.572263008341476e-06
-0.003946196072870045   -0.011022848703901385   -0.00011605111313643004
-0.0010228133582216097   -0.010982650149988681   -5.075050641979668e-06
-0.0042562100139895125   -0.005546904087100166   -9.572263008341476e-06
-0.001461140684011978   -0.0054792187300747065   6.927617784725621e-05
-0.0014181399184525615   -0.005505541524896366   3.805731804565664e-05
-0.0010228133582216097   -0.010982650149988681   -5.075050641979668e-06
-0.0042562100139895125   -0.005546904087100166   -9.572263008341476e-06
-0.0014181399184525615   -0.005505541524896366   3.805731804565664e-05
-0.003946196072870045   -0.011022848703901385   -0.00011605111313643004
-0.0010228133582216097   -0.010982650149988681   -5.075050641979668e-06
-0.001461140684011978   -0.0054792187300747065   6.927617784725621e-05
-0.003985251291173561   -0.01097635532119871   -9.514794195994032e-05
-0.0010732405848324872   -0.010926263414801478   2.1211049845250774e-05
-0.001461140684011978   -0.0054792187300747065   6.927617784725621e-05
-0.0042562100139895125   -0.005546904087100166   -9.572263008341476e-06
-0.003985251291173561   -0.01097635532119871   -9.514794195994032e-05
-0.0042981004815838076   -0.005500408978271009   1.4028603195013293e-05
-0.0010732405848324872   -0.010926263414801478   2.1211049845250774e-05
-0.004025688642729262   -0.010928031153710396   -7.213540004948124e-05
-0.0042981004815838076   -0.005500408978271009   1.4028603195013293e-05
-0.003985251291173561   -0.01097635532119871   -9.514794195994032e-05
-0.0010732405848324872   -0.010926263414801478   2.1211049845250774e-05
-0.0042981004815838076   -0.005500408978271009   1.4028603195013293e-05
-0.0015179709810426933   -0.005431268861087375   0.00010727591855968423
-0.001461140684011978   -0.0054792187300747065   6.927617784725621e-05
-0.0010732405848324872   -0.010926263414801478   2.1211049845250774e-05
-0.0042981004815838076   -0.005500408978271009   1.4028603195013293e-05
-0.001461140684011978   -0.0054792187300747065   6.927617784725621e-05
-0.003985251291173561   -0.01097635532119871   -9.514794195994032e-05
-0.0010732405848324872   -0.010926263414801478   2.1211049845250774e-05
-0.0015179709810426933   -0.005431268861087375   0.00010727591855968423
-0.004025688642729262   -0.010928031153710396   -7.213540004948124e-05
-0.0011254889117926852   -0.010866480329436944   5.14754877232859e-05
-0.0015179709810426933   -0.005431268861087375   0.00010727591855968423
-0.0042981004815838076   -0.005500408978271009   1.4028603195013293e-05
-0.004025688642729262   -0.010928031153710396   -7.213540004948124e-05
-0.004338043175466919   -0.0054494480664744605   4.010220080234686e-05
-0.0011254889117926852   -0.010866480329436944   5.14754877232859e-05
-0.004067823972178076   -0.010878791853341578   -4.660006622003776e-05
-0.004338043175466919   -0.0054494480664744605   4.010220080234686e-05
-0.004025688642729262   -0.010928031153710396   -7.213540004948124e-05
-0.0011254889117926852   -0.010866480329436944   5.14754877232859e-05
-0.004338043175466919   -0.0054494480664744605   4.010220080234686e-05
-0.0015658893702411698   -0.005379904508278082   0.00014070752898150032
-0.0015179709810426933   -0.005431268861087375   0.00010727591855968423
-0.0011254889117926852   -0.010866480329436944   5.14754877232859e-05
-0.004338043175466919   -0.0054494480664744605   4.010220080234686e-05
-0.0015179709810426933   -0.005431268861087375   0.00010727591855968423
-0.004025688642729262   -0.010928031153710396   -7.213540004948124e-05
-0.003946196072870045   -0.011022848703901385   -0.00011605111313643004
-0.00421633497191224   -0.005587911084839578   -3.1800343271047066e-05
-0.006881244483219714   -0.011019100462284756   -0.000196058736958198
-0.003985251291173561   -0.01097635532119871   -9.514794195994032e-05
-0.00421633497191224   -0.005587911084839578   -3.1800343271047066e-05
-0.0070814286461108955   -0.005652284060076014   -0.00010971322760554664
-0.006881244483219714   -0.011019100462284756   -0.000196058736958198
-0.007117365310938751   -0.0056101269711782325   -9.239491667800347e-05
-0.003985251291173561   -0.01097635532119871   -9.514794195994032e-05
-0.006918653465840694   -0.010978489448956345   -0.00017595809452605692
-0.007117365310938751   -0.0056101269711782325   -9.239491667800347e-05
-0.006881244483219714   -0.011019100462284756   -0.000196058736958198
-0.003985251291173561   -0.01097635532119871   -9.514794195994032e-05
-0.007117365310938751   -0.0056101269711782325   -9.239491667800347e-05
-0.0042562100139895125   -0.005546904087100166   -9.572263008341476e-06
-0.00421633497191224   -0.005587911084839578   -3.1800343271047066e-05
-0.003985251291173561   -0.01097635532119871   -9.514794195994032e-05
-0.007117365310938751   -0.0056101269711782325   -9.239491667800347e-05
-0.00421633497191224   -0.005587911084839578   -3.1800343271047066e-05
-0.006881244483219714   -0.011019100462284756   -0.000196058736958198
-0.003985251291173561   -0.01097635532119871   -9.514794195994032e-05
-0.0042562100139895125   -0.005546904087100166   -9.572263008341476e-06
-0.006918653465840694   -0.010978489448956345   -0.00017595809452605692
-0.004025688642729262   -0.010928031153710396   -7.213540004948124e-05
-0.0042562100139895125   -0.005546904087100166   -9.572263008341476e-06
-0.007117365310938751   -0.0056101269711782325   -9.239491667800347e-05
-0.006918653465840694   -0.010978489448956345   -0.00017595809452605692
-0.007151849252212926   -0.005565515988945733   -7.507832394425497e-05
-0.004025688642729262   -0.010928031153710396   -7.213540004948124e-05
-0.006954293741602631   -0.010937205350883352   -0.00015400698643970676
-0.007151849252212926   -0.005565515988945733   -7.507832394425497e-05
-0.006918653465840694   -0.010978489448956345   -0.00017595809452605692
-0.004025688642729262   -0.010928031153710396   -7.213540004948124e-05
-0.007151849252212926   -0.005565515988945733   -7.507832394425497e-05
-0.0042981004815838076   -0.005500408978271009   1.4028603195013293e-05
-0.0042562100139895125   -0.005546904087100166   -9.572263008341476e-06
-0.004025688642729262   -0.010928031153710396   -7.213540004948124e-05
-0.007151849252212926   -0.005565515988945733   -7.507832394425497e-05
-0.0042562100139895125   -0.005546904087100166   -9.572263008341476e-06
-0.006918653465840694   -0.010978489448956345   -0.00017595809452605692
-0.004025688642729262   -0.010928031153710396   -7.213540004948124e-05
-0.0042981004815838076   -0.005500408978271009   1.4028603195013293e-05
-0.006954293741602631   -0.010937205350883352   -0.00015400698643970676
-0.004067823972178076   -0.010878791853341578   -4.660006622003776e-05
-0.0042981004815838076   -0.005500408978271009   1.4028603195013293e-05
-0.007151849252212926   -0.005565515988945733   -7.507832394425497e-05
-0.006954293741602631   -0.010937205350883352   -0.00015400698643970676
-0.007183705449790437   -0.00551714846299645   -5.616794423052714e-05
-0.004067823972178076   -0.010878791853341578   -4.660006622003776e-05
-0.006989579485897969   -0.010895003113097861   -0.00013030472538384146
-0.007183705449790437   -0.00551714846299645   -5.616794423052714e-05
-0.006954293741602631   -0.010937205350883352   -0.00015400698643970676
-0.004067823972178076   -0.010878791853341578   -4.660006622003776e-05
-0.007183705449790437   -0.00551714846299645   -5.616794423052714e-05
-0.004338043175466919   -0.0054494480664744605   4.010220080234686e-05
-0.0042981004815838076   -0.005500408978271009   1.4028603195013293e-05
-0.004067823972178076   -0.010878791853341578   -4.660006622003776e-05
-0.007183705449790437   -0.00551714846299645   -5.616794423052714e-05
-0.0042981004815838076   -0.005500408978271009   1.4028603195013293e-05
-0.006954293741602631   -0.010937205350883352   -0.00015400698643970676
-0.006881244483219714   -0.011019100462284756   -0.000196058736958198
-0.0070814286461108955   -0.005652284060076014   -0.00010971322760554664
-0.00987861130939817   -0.011001825861194593   -0.00026291013218185475
-0.006918653465840694   -0.010978489448956345   -0.00017595809452605692
-0.0070814286461108955   -0.005652284060076014   -0.00010971322760554664
-0.010047212153853007   -0.005678785911758077   -0.0001815262807498518
-0.00987861130939817   -0.011001825861194593   -0.00026291013218185475
-0.010079615091416205   -0.005641068064092243   -0.00016882466925580687
-0.006918653465840694   -0.010978489448956345   -0.00017595809452605692
-0.009914271512059265   -0.01096898228523955   -0.00024373365192462956
-0.010079615091416205   -0.005641068064092243   -0.00016882466925580687
-0.00987861130939817   -0.011001825861194593   -0.00026291013218185475
-0.006918653465840694   -0.010978489448956345   -0.00017595809452605692
-0.010079615091416205   -0.005641068064092243   -0.00016882466925580687
-0.007117365310938751   -0.0056101269711782325   -9.239491667800347e-05
-0.0070814286461108955   -0.005652284060076014   -0.00010971322760554664
-0.006918653465840694   -0.010978489448956345   -0.00017595809452605692
-0.010079615091416205   -0.005641068064092243   -0.00016882466925580687
-0.0070814286461108955   -0.005652284060076014   -0.00010971322760554664
-0.00987861130939817   -0.011001825861194593   -0.00026291013218185475
-0.006918653465840694   -0.010978489448956345   -0.00017595809452605692
-0.007117365310938751   -0.0056101269711782325   -9.239491667800347e-05
-0.009914271512059265   -0.01096898228523955   -0.00024373365192462956
-0.006954293741602631   -0.010937205350883352   -0.00015400698643970676
-0.007117365310938751   -0.0056101269711782325   -9.239491667800347e-05
-0.010079615091416205   -0.005641068064092243   -0.00016882466925580687
-0.009914271512059265   -0.01096898228523955   -0.00024373365192462956
-0.010108495036059796   -0.005599871079149444   -0.00015643518801028162
-0.006954293741602631   -0.010937205350883352   -0.00015400698643970676
-0.009944407257963738   -0.010934359044803514   -0.00022322568933396352
-0.010108495036059796   -0.005599871079149444   -0.00015643518801028162
-0.009914271512059265   -0.01096898228523955   -0.00024373365192462956
-0.006954293741602631   -0.010937205350883352   -0.00015400698643970676
-0.010108495036059796   -0.005599871079149444   -0.00015643518801028162
-0.007151849252212926   -0.005565515988945733   -7.507832394425497e-05
-0.007117365310938751   -0.0056101269711782325   -9.239491667800347e-05
-0.006954293741602631   -0.010937205350883352   -0.00015400698643970676
-0.010108495036059796   -0.005599871079149444   -0.00015643518801028162
-0.007117365310938751   -0.0056101269711782325   -9.239491667800347e-05
-0.009914271512059265   -0.01096898228523955   -0.00024373365192462956
-0.006954293741602631   -0.010937205350883352   -0.00015400698643970676
-0.007151849252212926   -0.005565515988945733   -7.507832394425497e-05
-0.009944407257963738   -0.010934359044803514   -0.00022322568933396352
-0.006989579485897969   -0.010895003113097861   -0.00013030472538384146
-0.007151849252212926   -0.005565515988945733   -7.507832394425497e-05
-0.010108495036059796   -0.005599871079149444   -0.00015643518801028162
-0.009944407257963738   -0.010934359044803514   -0.00022322568933396352
-0.01013466773462995   -0.005555960520848858   -0.00014361943073604822
-0.006989579485897969   -0.010895003113097861   -0.00013030472538384146
-0.00997288543060605   -0.010898877766585309   -0.0002008229132820762
-0.01013466773462995   -0.005555960520848858   -0.00014361943073604822
-0.009944407257963738   -0.010934359044803514   -0.00022322568933396352
-0.006989579485897969   -0.010895003113097861   -0.00013030472538384146
-0.01013466773462995   -0.005555960520848858   -0.00014361943073604822
-0.007183705449790437   -0.00551714846299645   -5.616794423052714e-05
-0.007151849252212926   -0.005565515988945733   -7.507832394425497e-05
-0.006989579485897969   -0.010895003113097861   -0.00013030472538384146
-0.01013466773462995   -0.005555960520848858   -0.00014361943073604822
-0.007151849252212926   -0.005565515988945733   -7.507832394425497e-05
-0.009944407257963738   -0.010934359044803514   -0.00022322568933396352
-0.00987861130939817   -0.011001825861194593   -0.00026291013218185475
-0.010047212153853007   -0.005678785911758077   -0.0001815262807498518
-0.01302005646816602   -0.010973139037472778   -0.00031179871696877034
-0.009914271512059265   -0.01096898228523955   -0.00024373365192462956
-0.010047212153853007   -0.005678785911758077   -0.0001815262807498518
-0.01312019312463309   -0.005681610233922408   -0.0002407587509932407
-0.01302005646816602   -0.010973139037472778   -0.00031179871696877034
-0.0131479080498692   -0.005645065024462078   -0.00023515737327046087
-0.009914271512059265   -0.01096898228523955   -0.00024373365192462956
-0.01304179784118776   -0.010945819708007013   -0.00029716189003249616
-0.0131479080498692   -0.005645065024462078   -0.00023515737327046087
-0.01302005646816602   -0.010973139037472778   -0.00031179871696877034
-0.009914271512059265   -0.01096898228523955   -0.00024373365192462956
-0.0131479080498692   -0.005645065024462078   -0.00023515737327046087
-0.010079615091416205   -0.005641068064092243   -0.00016882466925580687
-0.010047212153853007   -0.005678785911758077   -0.0001815262807498518
-0.009914271512059265   -0.01096898228523955   -0.00024373365192462956
-0.0131479080498692   -0.005645065024462078   -0.00023515737327046087
-0.010047212153853007   -0.005678785911758077   -0.0001815262807498518
-0.01302005646816602   -0.010973139037472778   -0.00031179871696877034
-0.009914271512059265   -0.01096898228523955   -0.00024373365192462956
-0.010079615091416205   -0.005641068064092243   -0.00016882466925580687
-0.01304179784118776   -0.010945819708007013   -0.00029716189003249616
-0.009944407257963738   -0.010934359044803514   -0.00022322568933396352
-0.010079615091416205   -0.005641068064092243   -0.00016882466925580687
-0.0131479080498692   -0.005645065024462078   -0.00023515737327046087
-0.01304179784118776   -0.010945819708007013   -0.00029716189003249616
-0.01317273835339622   -0.005605435833892486   -0.00022857876493017446
-0.009944407257963738   -0.010934359044803514   -0.00022322568933396352
-0.01306167810362198   -0.010914801782463908   -0.0002792942231763241
-0.01317273835339622   -0.005605435833892486   -0.00022857876493017446
-0.01304179784118776   -0.010945819708007013   -0.00029716189003249616
-0.009944407257963738   -0.010934359044803514   -0.00022322568933396352
-0.01317273835339622   -0.005605435833892486   -0.00022857876493017446
-0.010108495036059796   -0.005599871079149444   -0.00015643518801028162
-0.010079615091416205   -0.005641068064092243   -0.00016882466925580687
-0.009944407257963738   -0.010934359044803514   -0.00022322568933396352
-0.01317273835339622   -0.005605435833892486   -0.00022857876493017446
-0.010079615091416205   -0.005641068064092243   -0.00016882466925580687
-0.01304179784118776   -0.010945819708007013   -0.00029716189003249616
-0.009944407257963738   -0.010934359044803514   -0.00022322568933396352
-0.010108495036059796   -0.005599871079149444   -0.00015643518801028162
-0.01306167810362198   -0.010914801782463908   -0.0002792942231763241
-0.00997288543060605   -0.010898877766585309   -0.0002008229132820762
-0.010108495036059796   -0.005599871079149444   -0.00015643518801028162
-0.01317273835339622   -0.005605435833892486   -0.00022857876493017446
-0.01306167810362198   -0.010914801782463908   -0.0002792942231763241
-0.013193456759522621   -0.005563494438510079   -0.00022236598218539332
-0.00997288543060605   -0.010898877766585309   -0.0002008229132820762
-0.013070839785862992   -0.010886651296480917   -0.0002589835749109896
-0.013193456759522621   -0.005563494438510079   -0.00022236598218539332
-0.01306167810362198   -0.010914801782463908   -0.0002792942231763241
-0.00997288543060605   -0.010898877766585309   -0.0002008229132820762
-0.013193456759522621   -0.005563494438510079   -0.00022236598218539332
-0.01013466773462995   -0.005555960520848858   -0.00014361943073604822
-0.010108495036059796   -0.005599871079149444   -0.00015643518801028162
-0.00997288543060605   -0.010898877766585309   -0.0002008229132820762
-0.013193456759522621   -0.005563494438510079   -0.00022236598218539332
-0.010108495036059796   -0.005599871079149444   -0.00015643518801028162
-0.01306167810362198   -0.010914801782463908   -0.0002792942231763241
0.0015260488416522064   -0.00557645840958461   7.03407833659921e-05
0.0   0.0   0.0
-0.0014181399184525615   -0.005505541524896366   3.805731804565664e-05
0.0013918132207444462   -0.00550723586501453   0.0001473482238926737
0.0   0.0   0.0
-0.0017751095421518264   -0.00045884198124072597   -1.2880643876067398e-05
-0.0014181399184525615   -0.005505541524896366   3.805731804565664e-05
-0.001881355250871134   -0.00035835904380001157   4.9158419689064134e-05
0.0013918132207444462   -0.00550723586501453   0.0001473482238926737
-0.001461140684011978   -0.0054792187300747065   6.927617784725621e-05
-0.001881355250871134   -0.00035835904380001157   4.9158419689064134e-05
-0.0014181399184525615   -0.005505541524896366   3.805731804565664e-05
0.0013918132207444462   -0.00550723586501453   0.0001473482238926737
-0.001881355250871134   -0.00035835904380001157   4.9158419689064134e-05
0.0   0.0   0.0
0.0   0.0   0.0
0.0013918132207444462   -0.00550723586501453   0.0001473482238926737
-0.001881355250871134   -0.00035835904380001157   4.9158419689064134e-05
0.0   0.0   0.0
-0.0014181399184525615   -0.005505541524896366   3.805731804565664e-05
0.0013918132207444462   -0.00550723586501453   0.0001473482238926737
0.0   0.0   0.0
-0.001461140684011978   -0.0054792187300747065   6.927617784725621e-05
0.0013133491164650018   -0.005451120717028828   0.000204639844207298
0.0   0.0   0.0
-0.001881355250871134   -0.00035835904380001157   4.9158419689064134e-05
-0.001461140684011978   -0.0054792187300747065   6.927617784725621e-05
-0.0019482989342370638   -0.000310170837888709   8.52644872035247e-05
0.0013133491164650018   -0.005451120717028828   0.000204639844207298
-0.0015179709810426933   -0.005431268861087375   0.00010727591855968423
-0.0019482989342370638   -0.000310170837888709   8.52644872035247e-05
-0.001461140684011978   -0.0054792187300747065   6.927617784725621e-05
0.0013133491164650018   -0.005451120717028828   0.000204639844207298
-0.0019482989342370638   -0.000310170837888709   8.52644872035247e-05
0.0   0.0   0.0
0.0   0.0   0.0
0.0013133491164650018   -0.005451120717028828   0.000204639844207298
-0.0019482989342370638   -0.000310170837888709   8.52644872035247e-05
0.0   0.0   0.0
-0.001461140684011978   -0.0054792187300747065   6.927617784725621e-05
0.0013133491164650018   -0.005451120717028828   0.000204639844207298
0.0   0.0   0.0
-0.0015179709810426933   -0.005431268861087375   0.00010727591855968423
0.0012125661118790655   -0.0053648831852129986   0.0002703236838027283
0.0   0.0   0.0
-0.0019482989342370638   -0.000310170837888709   8.52644872035247e-05
-0.0015179709810426933   -0.005431268861087375   0.00010727591855968423
-0.0020385136124732857   -0.00024602969214016954   0.0001267645415196023
0.0012125661118790655   -0.0053648831852129986   0.0002703236838027283
-0.0015658893702411698   -0.005379904508278082   0.00014070752898150032
-0.0020385136124732857   -0.00024602969214016954   0.0001267645415196023
-0.0015179709810426933   -0.005431268861087375   0.00010727591855968423
0.0012125661118790655   -0.0053648831852129986   0.0002703236838027283
-0.0020385136124732857   -0.00024602969214016954   0.0001267645415196023
0.0   0.0   0.0
0.0   0.0   0.0
0.0012125661118790655   -0.0053648831852129986   0.0002703236838027283
-0.0020385136124732857   -0.00024602969214016954   0.0001267645415196023
0.0   0.0   0.0
-0.0015179709810426933   -0.005431268861087375   0.00010727591855968423
-0.0014181399184525615   -0.005505541524896366   3.805731804565664e-05
-0.0017751095421518264   -0.00045884198124072597   -1.2880643876067398e-05
-0.00421633497191224   -0.005587911084839578   -3.1800343271047066e-05
-0.001461140684011978   -0.0054792187300747065   6.927617784725621e-05
-0.0017751095421518264   -0.00045884198124072597   -1.2880643876067398e-05
-0.004340159131196167   -0.0006042359463307844   -9.13333669830903e-06
-0.00421633497191224   -0.005587911084839578   -3.1800343271047066e-05
-0.004395253540729373   -0.0005498084600367373   7.164886509140069e-06
-0.001461140684011978   -0.0054792187300747065   6.927617784725621e-05
-0.0042562100139895125   -0.005546904087100166   -9.572263008341476e-06
-0.004395253540729373   -0.0005498084600367373   7.164886509140069e-06
-0.00421633497191224   -0.005587911084839578   -3.1800343271047066e-05
-0.001461140684011978   -0.0054792187300747065   6.927617784725621e-05
-0.004395253540729373   -0.0005498084600367373   7.164886509140069e-06
-0.001881355250871134   -0.00035835904380001157   4.9158419689064134e-05
-0.0017751095421518264   -0.00045884198124072597   -1.2880643876067398e-05
-0.001461140684011978   -0.0054792187300747065   6.927617784725621e-05
-0.004395253540729373   -0.0005498084600367373   7.164886509140069e-06
-0.0017751095421518264   -0.00045884198124072597   -1.2880643876067398e-05
-0.00421633497191224   -0.005587911084839578   -3.1800343271047066e-05
-0.001461140684011978   -0.0054792187300747065   6.927617784725621e-05
-0.001881355250871134   -0.00035835904380001157   4.9158419689064134e-05
-0.0042562100139895125   -0.005546904087100166   -9.572263008341476e-06
-0.0015179709810426933   -0.005431268861087375   0.00010727591855968423
-0.001881355250871134   -0.00035835904380001157   4.9158419689064134e-05
-0.004395253540729373   -0.0005498084600367373   7.164886509140069e-06
-0.0042562100139895125   -0.005546904087100166   -9.572263008341476e-06
-0.004450238446884893   -0.0004859958449789609   3.605973964878595e-05
-0.0015179709810426933   -0.005431268861087375   0.00010727591855968423
-0.0042981004815838076   -0.005500408978271009   1.4028603195013293e-05
-0.004450238446884893   -0.0004859958449789609   3.605973964878595e-05
-0.0042562100139895125   -0.005546904087100166   -9.572263008341476e-06
-0.0015179709810426933   -0.005431268861087375   0.00010727591855968423
-0.004450238446884893   -0.0004859958449789609   3.605973964878595e-05
-0.0019482989342370638   -0.000310170837888709   8.52644872035247e-05
-0.001881355250871134   -0.00035835904380001157   4.9158419689064134e-05
-0.0015179709810426933   -0.005431268861087375   0.00010727591855968423
-0.004450238446884893   -0.0004859958449789609   3.605973964878595e-05
-0.001881355250871134   -0.00035835904380001157   4.9158419689064134e-05
-0.0042562100139895125   -0.005546904087100166   -9.572263008341476e-06
-0.0015179709810426933   -0.005431268861087375   0.00010727591855968423
-0.0019482989342370638   -0.000310170837888709   8.52644872035247e-05
-0.0042981004815838076   -0.005500408978271009   1.4028603195013293e-05
-0.0015658893702411698   -0.005379904508278082   0.00014070752898150032
-0.0019482989342370638   -0.000310170837888709   8.52644872035247e-05
-0.004450238446884893   -0.0004859958449789609   3.605973964878595e-05
-0.0042981004815838076   -0.005500408978271009   1.4028603195013293e-05
-0.004511601802210143   -0.00041192232908757376   6.391348376516914e-05
-0.0015658893702411698   -0.005379904508278082   0.00014070752898150032
-0.004338043175466919   -0.0054494480664744605   4.010220080234686e-05
-0.004511601802210143   -0.00041192232908757376   6.391348376516914e-05
-0.0042981004815838076   -0.005500408978271009   1.4028603195013293e-05
-0.0015658893702411698   -0.005379904508278082   0.00014070752898150032
-0.004511601802210143   -0.00041192232908757376   6.391348376516914e-05
-0.0020385136124732857   -0.00024602969214016954   0.0001267645415196023
-0.0019482989342370638   -0.000310170837888709   8.52644872035247e-05
-0.0015658893702411698   -0.005379904508278082   0.00014070752898150032
-0.004511601802210143   -0.00041192232908757376   6.391348376516914e-05
-0.0019482989342370638   -0.000310170837888709   8.52644872035247e-05
-0.0042981004815838076   -0.005500408978271009   1.4028603195013293e-05
-0.00421633497191224   -0.005587911084839578   -3.1800343271047066e-05
-0.004340159131196167   -0.0006042359463307844   -9.13333669830903e-06
-0.0070814286461108955   -0.005652284060076014   -0.00010971322760554664
-0.0042562100139895125   -0.005546904087100166   -9.572263008341476e-06
-0.004340159131196167   -0.0006042359463307844   -9.13333669830903e-06
-0.007150836900805885   -0.0006466399002436704   -5.734479493418994e-05
-0.0070814286461108955   -0.005652284060076014   -0.00010971322760554664
-0.0071844549345723065   -0.0006047277617089782   -5.2662411595731766e-05
-0.0042562100139895125   -0.005546904087100166   -9.572263008341476e-06
-0.007117365310938751   -0.0056101269711782325   -9.239491667800347e-05
-0.0071844549345723065   -0.0006047277617089782   -5.2662411595731766e-05
-0.0070814286461108955   -0.005652284060076014   -0.00010971322760554664
-0.0042562100139895125   -0.005546904087100166   -9.572263008341476e-06
-0.0071844549345723065   -0.0006047277617089782   -5.2662411595731766e-05
-0.004395253540729373   -0.0005498084600367373   7.164886509140069e-06
-0.004340159131196167   -0.0006042359463307844   -9.13333669830903e-06
-0.0042562100139895125   -0.005546904087100166   -9.572263008341476e-06
-0.0071844549345723065   -0.0006047277617089782   -5.2662411595731766e-05
-0.004340159131196167   -0.0006042359463307844   -9.13333669830903e-06
-0.0070814286461108955   -0.005652284060076014   -0.00010971322760554664
-0.0042562100139895125   -0.005546904087100166   -9.572263008341476e-06
-0.004395253540729373   -0.0005498084600367373   7.164886509140069e-06
-0.007117365310938751   -0.0056101269711782325   -9.239491667800347e-05
-0.0042981004815838076   -0.005500408978271009   1.4028603195013293e-05
-0.004395253540729373   -0.0005498084600367373   7.164886509140069e-06
-0.0071844549345723065   -0.0006047277617089782   -5.2662411595731766e-05
-0.007117365310938751   -0.0056101269711782325   -9.239491667800347e-05
-0.007219445345302071   -0.0005558187124200158   -4.45412409985949e-05
-0.0042981004815838076   -0.005500408978271009   1.4028603195013293e-05
-0.007151849252212926   -0.005565515988945733   -7.507832394425497e-05
-0.007219445345302071   -0.0005558187124200158   -4.45412409985949e-05
-0.007117365310938751   -0.0056101269711782325   -9.239491667800347e-05
-0.0042981004815838076   -0.005500408978271009   1.4028603195013293e-05
-0.007219445345302071   -0.0005558187124200158   -4.45412409985949e-05
-0.004450238446884893   -0.0004859958449789609   3.605973964878595e-05
-0.004395253540729373   -0.0005498084600367373   7.164886509140069e-06
-0.0042981004815838076   -0.005500408978271009   1.4028603195013293e-05
-0.007219445345302071   -0.0005558187124200158   -4.45412409985949e-05
-0.004395253540729373   -0.0005498084600367373   7.164886509140069e-06
-0.007117365310938751   -0.0056101269711782325   -9.239491667800347e-05
-0.0042981004815838076   -0.005500408978271009   1.4028603195013293e-05
-0.004450238446884893   -0.0004859958449789609   3.605973964878595e-05
-0.007151849252212926   -0.005565515988945733   -7.507832394425497e-05
-0.004338043175466919   -0.0054494480664744605   4.010220080234686e-05
-0.004450238446884893   -0.0004859958449789609   3.605973964878595e-05
-0.007219445345302071   -0.0005558187124200158   -4.45412409985949e-05
-0.007151849252212926   -0.005565515988945733   -7.507832394425497e-05
-0.007253039354033972   -0.0004958734986479994   -3.3794681510565865e-05
-0.004338043175466919   -0.0054494480664744605   4.010220080234686e-05
-0.007183705449790437   -0.00551714846299645   -5.616794423052714e-05
-0.007253039354033972   -0.0004958734986479994   -3.3794681510565865e-05
-0.007151849252212926   -0.005565515988945733   -7.507832394425497e-05
-0.004338043175466919   -0.0054494480664744605   4.010220080234686e-05
-0.007253039354033972   -0.0004958734986479994   -3.3794681510565865e-05
-0.004511601802210143   -0.00041192232908757376   6.391348376516914e-05
-0.004450238446884893   -0.0004859958449789609   3.605973964878595e-05
-0.004338043175466919   -0.0054494480664744605   4.010220080234686e-05
-0.007253039354033972   -0.0004958734986479994   -3.3794681510565865e-05
-0.004450238446884893   -0.0004859958449789609   3.605973964878595e-05
-0.007151849252212926   -0.005565515988945733   -7.507832394425497e-05
-0.0070814286461108955   -0.005652284060076014   -0.00010971322760554664
-0.007150836900805885   -0.0006466399002436704   -5.734479493418994e-05
-0.010047212153853007   -0.005678785911758077   -0.0001815262807498518
-0.007117365310938751   -0.0056101269711782325   -9.239491667800347e-05
-0.007150836900805885   -0.0006466399002436704   -5.734479493418994e-05
-0.010099500411806643   -0.0006413797598942196   -0.0001280472976304652
-0.010047212153853007   -0.005678785911758077   -0.0001815262807498518
-0.010122255897168942   -0.0006041126702325385   -0.00012601726019189347
-0.007117365310938751   -0.0056101269711782325   -9.239491667800347e-05
-0.010079615091416205   -0.005641068064092243   -0.00016882466925580687
-0.010122255897168942   -0.0006041126702325385   -0.00012601726019189347
-0.010047212153853007   -0.005678785911758077   -0.0001815262807498518
-0.007117365310938751   -0.0056101269711782325   -9.239491667800347e-05
-0.010122255897168942   -0.0006041126702325385   -0.00012601726019189347
-0.0071844549345723065   -0.0006047277617089782   -5.2662411595731766e-05
-0.007150836900805885   -0.0006466399002436704   -5.734479493418994e-05
-0.007117365310938751   -0.0056101269711782325   -9.239491667800347e-05
-0.010122255897168942   -0.0006041126702325385   -0.00012601726019189347
-0.007150836900805885   -0.0006466399002436704   -5.734479493418994e-05
-0.010047212153853007   -0.005678785911758077   -0.0001815262807498518
-0.007117365310938751   -0.0056101269711782325   -9.239491667800347e-05
-0.0071844549345723065   -0.0006047277617089782   -5.2662411595731766e-05
-0.010079615091416205   -0.005641068064092243   -0.00016882466925580687
-0.007151849252212926   -0.005565515988945733   -7.507832394425497e-05
-0.0071844549345723065   -0.0006047277617089782   -5.2662411595731766e-05
-0.010122255897168942   -0.0006041126702325385   -0.00012601726019189347
-0.010079615091416205   -0.005641068064092243   -0.00016882466925580687
-0.010145984916527321   -0.0005623782342153419   -0.00012446348323940748
-0.007151849252212926   -0.005565515988945733   -7.507832394425497e-05
-0.010108495036059796   -0.005599871079149444   -0.00015643518801028162
-0.010145984916527321   -0.0005623782342153419   -0.00012446348323940748
-0.010079615091416205   -0.005641068064092243   -0.00016882466925580687
-0.007151849252212926   -0.005565515988945733   -7.507832394425497e-05
-0.010145984916527321   -0.0005623782342153419   -0.00012446348323940748
-0.007219445345302071   -0.0005558187124200158   -4.45412409985949e-05
-0.0071844549345723065   -0.0006047277617089782   -5.2662411595731766e-05
-0.007151849252212926   -0.005565515988945733   -7.507832394425497e-05
-0.010145984916527321   -0.0005623782342153419   -0.00012446348323940748
-0.0071844549345723065   -0.0006047277617089782   -5.2662411595731766e-05
-0.010079615091416205   -0.005641068064092243   -0.00016882466925580687
-0.007151849252212926   -0.005565515988945733   -7.507832394425497e-05
-0.007219445345302071   -0.0005558187124200158   -4.45412409985949e-05
-0.010108495036059796   -0.005599871079149444   -0.00015643518801028162
-0.007183705449790437   -0.00551714846299645   -5.616794423052714e-05
-0.007219445345302071   -0.0005558187124200158   -4.45412409985949e-05
-0.010145984916527321   -0.0005623782342153419   -0.00012446348323940748
-0.010108495036059796   -0.005599871079149444   -0.00015643518801028162
-0.010164277323443672   -0.000516932140526249   -0.00012347357730830866
-0.007183705449790437   -0.00551714846299645   -5.616794423052714e-05
-0.01013466773462995   -0.005555960520848858   -0.00014361943073604822
-0.010164277323443672   -0.000516932140526249   -0.00012347357730830866
-0.010108495036059796   -0.005599871079149444   -0.00015643518801028162
-0.007183705449790437   -0.00551714846299645   -5.616794423052714e-05
-0.010164277323443672   -0.000516932140526249   -0.00012347357730830866
-0.007253039354033972   -0.0004958734986479994   -3.3794681510565865e-05
-0.007219445345302071   -0.0005558187124200158   -4.45412409985949e-05
-0.007183705449790437   -0.00551714846299645   -5.616794423052714e-05
-0.010164277323443672   -0.000516932140526249   -0.00012347357730830866
-0.007219445345302071   -0.0005558187124200158   -4.45412409985949e-05
-0.010108495036059796   -0.005599871079149444   -0.00015643518801028162
-0.010047212153853007   -0.005678785911758077   -0.0001815262807498518
-0.010099500411806643   -0.0006413797598942196   -0.0001280472976304652
-0.01312019312463309   -0.005681610233922408   -0.0002407587509932407
-0.010079615091416205   -0.005641068064092243   -0.00016882466925580687
-0.010099500411806643   -0.0006413797598942196   -0.0001280472976304652
-0.013130707571412244   -0.0006370777278559292   -0.00019777707163664773
-0.01312019312463309   -0.005681610233922408   -0.0002407587509932407
-0.013148977965518931   -0.0005967451622269168   -0.00019765922600074116
-0.010079615091416205   -0.005641068064092243   -0.00016882466925580687
-0.0131479080498692   -0.005645065024462078   -0.00023515737327046087
-0.013148977965518931   -0.0005967451622269168   -0.00019765922600074116
-0.01312019312463309   -0.005681610233922408   -0.0002407587509932407
-0.010079615091416205   -0.005641068064092243   -0.00016882466925580687
-0.013148977965518931   -0.0005967451622269168   -0.00019765922600074116
-0.010122255897168942   -0.0006041126702325385   -0.00012601726019189347
-0.010099500411806643   -0.0006413797598942196   -0.0001280472976304652
-0.010079615091416205   -0.005641068064092243   -0.00016882466925580687
-0.013148977965518931   -0.0005967451622269168   -0.00019765922600074116
-0.010099500411806643   -0.0006413797598942196   -0.0001280472976304652
-0.01312019312463309   -0.005681610233922408   -0.0002407587509932407
-0.010079615091416205   -0.005641068064092243   -0.00016882466925580687
-0.010122255897168942   -0.0006041126702325385   -0.00012601726019189347
-0.0131479080498692   -0.005645065024462078   -0.00023515737327046087
-0.010108495036059796   -0.005599871079149444   -0.00015643518801028162
-0.010122255897168942   -0.0006041126702325385   -0.00012601726019189347
-0.013148977965518931   -0.0005967451622269168   -0.00019765922600074116
-0.0131479080498692   -0.005645065024462078   -0.00023515737327046087
-0.013169010742753602   -0.0005562802576248146   -0.00020069760038156996
-0.010108495036059796   -0.005599871079149444   -0.00015643518801028162
-0.01317273835339622   -0.005605435833892486   -0.00022857876493017446
-0.013169010742753602   -0.0005562802576248146   -0.00020069760038156996
-0.0131479080498692   -0.005645065024462078   -0.00023515737327046087
-0.010108495036059796   -0.005599871079149444   -0.00015643518801028162
-0.013169010742753602   -0.0005562802576248146   -0.00020069760038156996
-0.010145984916527321   -0.0005623782342153419   -0.00012446348323940748
-0.010122255897168942   -0.0006041126702325385   -0.00012601726019189347
-0.010108495036059796   -0.005599871079149444   -0.00015643518801028162
-0.013169010742753602   -0.0005562802576248146   -0.00020069760038156996
-0.010122255897168942   -0.0006041126702325385   -0.00012601726019189347
-0.0131479080498692   -0.005645065024462078   -0.00023515737327046087
-0.010108495036059796   -0.005599871079149444   -0.00015643518801028162
-0.010145984916527321   -0.0005623782342153419   -0.00012446348323940748
-0.01317273835339622   -0.005605435833892486   -0.00022857876493017446
-0.01013466773462995   -0.005555960520848858   -0.00014361943073604822
-0.010145984916527321   -0.0005623782342153419   -0.00012446348323940748
-0.013169010742753602   -0.0005562802576248146   -0.00020069760038156996
-0.01317273835339622   -0.005605435833892486   -0.00022857876493017446
-0.013183857930579754   -0.0005121050088166419   -0.00020388759594312052
-0.01013466773462995   -0.005555960520848858   -0.00014361943073604822
-0.013193456759522621   -0.005563494438510079   -0.00022236598218539332
-0.013183857930579754   -0.0005121050088166419   -0.00020388759594312052
-0.01317273835339622   -0.005605435833892486   -0.00022857876493017446
-0.01013466773462995   -0.005555960520848858   -0.00014361943073604822
-0.013183857930579754   -0.0005121050088166419   -0.00020388759594312052
-0.010164277323443672   -0.000516932140526249   -0.00012347357730830866
-0.010145984916527321   -0.0005623782342153419   -0.00012446348323940748
-0.01013466773462995   -0.005555960520848858   -0.00014361943073604822
-0.013183857930579754   -0.0005121050088166419   -0.00020388759594312052
-0.010145984916527321   -0.0005623782342153419   -0.00012446348323940748
-0.01317273835339622   -0.005605435833892486   -0.00022857876493017446
              </DataArray>   
          </PointData>  
       </Piece>  
   </UnstructuredGrid> 
</VTKFile> 
