<?xml version="1.0"?> 
<VTKFile type="UnstructuredGrid"> 
   <UnstructuredGrid> 
      <Piece NumberOfPoints="6000"  NumberOfCells="1500">  
          <Points>  
             <DataArray type="Float64" NumberOfComponents="3" format="ascii">   
-500.0   0.0   0.0
-450.0   0.0   0.0
-500.0   30.0   0.0
-500.0   0.0   16.666666666666668
-450.0   0.0   0.0
-450.0   30.0   0.0
-500.0   30.0   0.0
-450.0   30.0   16.666666666666668
-500.0   0.0   16.666666666666668
-500.0   30.0   16.666666666666668
-450.0   30.0   16.666666666666668
-500.0   30.0   0.0
-500.0   0.0   16.666666666666668
-450.0   30.0   16.666666666666668
-450.0   0.0   16.666666666666668
-450.0   0.0   0.0
-500.0   0.0   16.666666666666668
-450.0   30.0   16.666666666666668
-450.0   0.0   0.0
-500.0   30.0   0.0
-500.0   0.0   16.666666666666668
-450.0   0.0   16.666666666666668
-500.0   30.0   16.666666666666668
-500.0   0.0   33.333333333333336
-450.0   0.0   16.666666666666668
-450.0   30.0   16.666666666666668
-500.0   30.0   16.666666666666668
-450.0   30.0   33.333333333333336
-500.0   0.0   33.333333333333336
-500.0   30.0   33.333333333333336
-450.0   30.0   33.333333333333336
-500.0   30.0   16.666666666666668
-500.0   0.0   33.333333333333336
-450.0   30.0   33.333333333333336
-450.0   0.0   33.333333333333336
-450.0   0.0   16.666666666666668
-500.0   0.0   33.333333333333336
-450.0   30.0   33.333333333333336
-450.0   0.0   16.666666666666668
-500.0   30.0   16.666666666666668
-500.0   0.0   33.333333333333336
-450.0   0.0   33.333333333333336
-500.0   30.0   33.333333333333336
-500.0   0.0   50.0
-450.0   0.0   33.333333333333336
-450.0   30.0   33.333333333333336
-500.0   30.0   33.333333333333336
-450.0   30.0   50.0
-500.0   0.0   50.0
-500.0   30.0   50.0
-450.0   30.0   50.0
-500.0   30.0   33.333333333333336
-500.0   0.0   50.0
-450.0   30.0   50.0
-450.0   0.0   50.0
-450.0   0.0   33.333333333333336
-500.0   0.0   50.0
-450.0   30.0   50.0
-450.0   0.0   33.333333333333336
-500.0   30.0   33.333333333333336
-500.0   30.0   0.0
-450.0   30.0   0.0
-500.0   60.0   0.0
-500.0   30.0   16.666666666666668
-450.0   30.0   0.0
-450.0   60.0   0.0
-500.0   60.0   0.0
-450.0   60.0   16.666666666666668
-500.0   30.0   16.666666666666668
-500.0   60.0   16.666666666666668
-450.0   60.0   16.666666666666668
-500.0   60.0   0.0
-500.0   30.0   16.666666666666668
-450.0   60.0   16.666666666666668
-450.0   30.0   16.666666666666668
-450.0   30.0   0.0
-500.0   30.0   16.666666666666668
-450.0   60.0   16.666666666666668
-450.0   30.0   0.0
-500.0   60.0   0.0
-500.0   30.0   16.666666666666668
-450.0   30.0   16.666666666666668
-500.0   60.0   16.666666666666668
-500.0   30.0   33.333333333333336
-450.0   30.0   16.666666666666668
-450.0   60.0   16.666666666666668
-500.0   60.0   16.666666666666668
-450.0   60.0   33.333333333333336
-500.0   30.0   33.333333333333336
-500.0   60.0   33.333333333333336
-450.0   60.0   33.333333333333336
-500.0   60.0   16.666666666666668
-500.0   30.0   33.333333333333336
-450.0   60.0   33.333333333333336
-450.0   30.0   33.333333333333336
-450.0   30.0   16.666666666666668
-500.0   30.0   33.333333333333336
-450.0   60.0   33.333333333333336
-450.0   30.0   16.666666666666668
-500.0   60.0   16.666666666666668
-500.0   30.0   33.333333333333336
-450.0   30.0   33.333333333333336
-500.0   60.0   33.333333333333336
-500.0   30.0   50.0
-450.0   30.0   33.333333333333336
-450.0   60.0   33.333333333333336
-500.0   60.0   33.333333333333336
-450.0   60.0   50.0
-500.0   30.0   50.0
-500.0   60.0   50.0
-450.0   60.0   50.0
-500.0   60.0   33.333333333333336
-500.0   30.0   50.0
-450.0   60.0   50.0
-450.0   30.0   50.0
-450.0   30.0   33.333333333333336
-500.0   30.0   50.0
-450.0   60.0   50.0
-450.0   30.0   33.333333333333336
-500.0   60.0   33.333333333333336
-500.0   60.0   0.0
-450.0   60.0   0.0
-500.0   90.0   0.0
-500.0   60.0   16.666666666666668
-450.0   60.0   0.0
-450.0   90.0   0.0
-500.0   90.0   0.0
-450.0   90.0   16.666666666666668
-500.0   60.0   16.666666666666668
-500.0   90.0   16.666666666666668
-450.0   90.0   16.666666666666668
-500.0   90.0   0.0
-500.0   60.0   16.666666666666668
-450.0   90.0   16.666666666666668
-450.0   60.0   16.666666666666668
-450.0   60.0   0.0
-500.0   60.0   16.666666666666668
-450.0   90.0   16.666666666666668
-450.0   60.0   0.0
-500.0   90.0   0.0
-500.0   60.0   16.666666666666668
-450.0   60.0   16.666666666666668
-500.0   90.0   16.666666666666668
-500.0   60.0   33.333333333333336
-450.0   60.0   16.666666666666668
-450.0   90.0   16.666666666666668
-500.0   90.0   16.666666666666668
-450.0   90.0   33.333333333333336
-500.0   60.0   33.333333333333336
-500.0   90.0   33.333333333333336
-450.0   90.0   33.333333333333336
-500.0   90.0   16.666666666666668
-500.0   60.0   33.333333333333336
-450.0   90.0   33.333333333333336
-450.0   60.0   33.333333333333336
-450.0   60.0   16.666666666666668
-500.0   60.0   33.333333333333336
-450.0   90.0   33.333333333333336
-450.0   60.0   16.666666666666668
-500.0   90.0   16.666666666666668
-500.0   60.0   33.333333333333336
-450.0   60.0   33.333333333333336
-500.0   90.0   33.333333333333336
-500.0   60.0   50.0
-450.0   60.0   33.333333333333336
-450.0   90.0   33.333333333333336
-500.0   90.0   33.333333333333336
-450.0   90.0   50.0
-500.0   60.0   50.0
-500.0   90.0   50.0
-450.0   90.0   50.0
-500.0   90.0   33.333333333333336
-500.0   60.0   50.0
-450.0   90.0   50.0
-450.0   60.0   50.0
-450.0   60.0   33.333333333333336
-500.0   60.0   50.0
-450.0   90.0   50.0
-450.0   60.0   33.333333333333336
-500.0   90.0   33.333333333333336
-500.0   90.0   0.0
-450.0   90.0   0.0
-500.0   120.0   0.0
-500.0   90.0   16.666666666666668
-450.0   90.0   0.0
-450.0   120.0   0.0
-500.0   120.0   0.0
-450.0   120.0   16.666666666666668
-500.0   90.0   16.666666666666668
-500.0   120.0   16.666666666666668
-450.0   120.0   16.666666666666668
-500.0   120.0   0.0
-500.0   90.0   16.666666666666668
-450.0   120.0   16.666666666666668
-450.0   90.0   16.666666666666668
-450.0   90.0   0.0
-500.0   90.0   16.666666666666668
-450.0   120.0   16.666666666666668
-450.0   90.0   0.0
-500.0   120.0   0.0
-500.0   90.0   16.666666666666668
-450.0   90.0   16.666666666666668
-500.0   120.0   16.666666666666668
-500.0   90.0   33.333333333333336
-450.0   90.0   16.666666666666668
-450.0   120.0   16.666666666666668
-500.0   120.0   16.666666666666668
-450.0   120.0   33.333333333333336
-500.0   90.0   33.333333333333336
-500.0   120.0   33.333333333333336
-450.0   120.0   33.333333333333336
-500.0   120.0   16.666666666666668
-500.0   90.0   33.333333333333336
-450.0   120.0   33.333333333333336
-450.0   90.0   33.333333333333336
-450.0   90.0   16.666666666666668
-500.0   90.0   33.333333333333336
-450.0   120.0   33.333333333333336
-450.0   90.0   16.666666666666668
-500.0   120.0   16.666666666666668
-500.0   90.0   33.333333333333336
-450.0   90.0   33.333333333333336
-500.0   120.0   33.333333333333336
-500.0   90.0   50.0
-450.0   90.0   33.333333333333336
-450.0   120.0   33.333333333333336
-500.0   120.0   33.333333333333336
-450.0   120.0   50.0
-500.0   90.0   50.0
-500.0   120.0   50.0
-450.0   120.0   50.0
-500.0   120.0   33.333333333333336
-500.0   90.0   50.0
-450.0   120.0   50.0
-450.0   90.0   50.0
-450.0   90.0   33.333333333333336
-500.0   90.0   50.0
-450.0   120.0   50.0
-450.0   90.0   33.333333333333336
-500.0   120.0   33.333333333333336
-500.0   120.0   0.0
-450.0   120.0   0.0
-500.0   150.0   0.0
-500.0   120.0   16.666666666666668
-450.0   120.0   0.0
-450.0   150.0   0.0
-500.0   150.0   0.0
-450.0   150.0   16.666666666666668
-500.0   120.0   16.666666666666668
-500.0   150.0   16.666666666666668
-450.0   150.0   16.666666666666668
-500.0   150.0   0.0
-500.0   120.0   16.666666666666668
-450.0   150.0   16.666666666666668
-450.0   120.0   16.666666666666668
-450.0   120.0   0.0
-500.0   120.0   16.666666666666668
-450.0   150.0   16.666666666666668
-450.0   120.0   0.0
-500.0   150.0   0.0
-500.0   120.0   16.666666666666668
-450.0   120.0   16.666666666666668
-500.0   150.0   16.666666666666668
-500.0   120.0   33.333333333333336
-450.0   120.0   16.666666666666668
-450.0   150.0   16.666666666666668
-500.0   150.0   16.666666666666668
-450.0   150.0   33.333333333333336
-500.0   120.0   33.333333333333336
-500.0   150.0   33.333333333333336
-450.0   150.0   33.333333333333336
-500.0   150.0   16.666666666666668
-500.0   120.0   33.333333333333336
-450.0   150.0   33.333333333333336
-450.0   120.0   33.333333333333336
-450.0   120.0   16.666666666666668
-500.0   120.0   33.333333333333336
-450.0   150.0   33.333333333333336
-450.0   120.0   16.666666666666668
-500.0   150.0   16.666666666666668
-500.0   120.0   33.333333333333336
-450.0   120.0   33.333333333333336
-500.0   150.0   33.333333333333336
-500.0   120.0   50.0
-450.0   120.0   33.333333333333336
-450.0   150.0   33.333333333333336
-500.0   150.0   33.333333333333336
-450.0   150.0   50.0
-500.0   120.0   50.0
-500.0   150.0   50.0
-450.0   150.0   50.0
-500.0   150.0   33.333333333333336
-500.0   120.0   50.0
-450.0   150.0   50.0
-450.0   120.0   50.0
-450.0   120.0   33.333333333333336
-500.0   120.0   50.0
-450.0   150.0   50.0
-450.0   120.0   33.333333333333336
-500.0   150.0   33.333333333333336
-450.0   0.0   0.0
-400.0   0.0   0.0
-450.0   30.0   0.0
-450.0   0.0   16.666666666666668
-400.0   0.0   0.0
-400.0   30.0   0.0
-450.0   30.0   0.0
-400.0   30.0   16.666666666666668
-450.0   0.0   16.666666666666668
-450.0   30.0   16.666666666666668
-400.0   30.0   16.666666666666668
-450.0   30.0   0.0
-450.0   0.0   16.666666666666668
-400.0   30.0   16.666666666666668
-400.0   0.0   16.666666666666668
-400.0   0.0   0.0
-450.0   0.0   16.666666666666668
-400.0   30.0   16.666666666666668
-400.0   0.0   0.0
-450.0   30.0   0.0
-450.0   0.0   16.666666666666668
-400.0   0.0   16.666666666666668
-450.0   30.0   16.666666666666668
-450.0   0.0   33.333333333333336
-400.0   0.0   16.666666666666668
-400.0   30.0   16.666666666666668
-450.0   30.0   16.666666666666668
-400.0   30.0   33.333333333333336
-450.0   0.0   33.333333333333336
-450.0   30.0   33.333333333333336
-400.0   30.0   33.333333333333336
-450.0   30.0   16.666666666666668
-450.0   0.0   33.333333333333336
-400.0   30.0   33.333333333333336
-400.0   0.0   33.333333333333336
-400.0   0.0   16.666666666666668
-450.0   0.0   33.333333333333336
-400.0   30.0   33.333333333333336
-400.0   0.0   16.666666666666668
-450.0   30.0   16.666666666666668
-450.0   0.0   33.333333333333336
-400.0   0.0   33.333333333333336
-450.0   30.0   33.333333333333336
-450.0   0.0   50.0
-400.0   0.0   33.333333333333336
-400.0   30.0   33.333333333333336
-450.0   30.0   33.333333333333336
-400.0   30.0   50.0
-450.0   0.0   50.0
-450.0   30.0   50.0
-400.0   30.0   50.0
-450.0   30.0   33.333333333333336
-450.0   0.0   50.0
-400.0   30.0   50.0
-400.0   0.0   50.0
-400.0   0.0   33.333333333333336
-450.0   0.0   50.0
-400.0   30.0   50.0
-400.0   0.0   33.333333333333336
-450.0   30.0   33.333333333333336
-450.0   30.0   0.0
-400.0   30.0   0.0
-450.0   60.0   0.0
-450.0   30.0   16.666666666666668
-400.0   30.0   0.0
-400.0   60.0   0.0
-450.0   60.0   0.0
-400.0   60.0   16.666666666666668
-450.0   30.0   16.666666666666668
-450.0   60.0   16.666666666666668
-400.0   60.0   16.666666666666668
-450.0   60.0   0.0
-450.0   30.0   16.666666666666668
-400.0   60.0   16.666666666666668
-400.0   30.0   16.666666666666668
-400.0   30.0   0.0
-450.0   30.0   16.666666666666668
-400.0   60.0   16.666666666666668
-400.0   30.0   0.0
-450.0   60.0   0.0
-450.0   30.0   16.666666666666668
-400.0   30.0   16.666666666666668
-450.0   60.0   16.666666666666668
-450.0   30.0   33.333333333333336
-400.0   30.0   16.666666666666668
-400.0   60.0   16.666666666666668
-450.0   60.0   16.666666666666668
-400.0   60.0   33.333333333333336
-450.0   30.0   33.333333333333336
-450.0   60.0   33.333333333333336
-400.0   60.0   33.333333333333336
-450.0   60.0   16.666666666666668
-450.0   30.0   33.333333333333336
-400.0   60.0   33.333333333333336
-400.0   30.0   33.333333333333336
-400.0   30.0   16.666666666666668
-450.0   30.0   33.333333333333336
-400.0   60.0   33.333333333333336
-400.0   30.0   16.666666666666668
-450.0   60.0   16.666666666666668
-450.0   30.0   33.333333333333336
-400.0   30.0   33.333333333333336
-450.0   60.0   33.333333333333336
-450.0   30.0   50.0
-400.0   30.0   33.333333333333336
-400.0   60.0   33.333333333333336
-450.0   60.0   33.333333333333336
-400.0   60.0   50.0
-450.0   30.0   50.0
-450.0   60.0   50.0
-400.0   60.0   50.0
-450.0   60.0   33.333333333333336
-450.0   30.0   50.0
-400.0   60.0   50.0
-400.0   30.0   50.0
-400.0   30.0   33.333333333333336
-450.0   30.0   50.0
-400.0   60.0   50.0
-400.0   30.0   33.333333333333336
-450.0   60.0   33.333333333333336
-450.0   60.0   0.0
-400.0   60.0   0.0
-450.0   90.0   0.0
-450.0   60.0   16.666666666666668
-400.0   60.0   0.0
-400.0   90.0   0.0
-450.0   90.0   0.0
-400.0   90.0   16.666666666666668
-450.0   60.0   16.666666666666668
-450.0   90.0   16.666666666666668
-400.0   90.0   16.666666666666668
-450.0   90.0   0.0
-450.0   60.0   16.666666666666668
-400.0   90.0   16.666666666666668
-400.0   60.0   16.666666666666668
-400.0   60.0   0.0
-450.0   60.0   16.666666666666668
-400.0   90.0   16.666666666666668
-400.0   60.0   0.0
-450.0   90.0   0.0
-450.0   60.0   16.666666666666668
-400.0   60.0   16.666666666666668
-450.0   90.0   16.666666666666668
-450.0   60.0   33.333333333333336
-400.0   60.0   16.666666666666668
-400.0   90.0   16.666666666666668
-450.0   90.0   16.666666666666668
-400.0   90.0   33.333333333333336
-450.0   60.0   33.333333333333336
-450.0   90.0   33.333333333333336
-400.0   90.0   33.333333333333336
-450.0   90.0   16.666666666666668
-450.0   60.0   33.333333333333336
-400.0   90.0   33.333333333333336
-400.0   60.0   33.333333333333336
-400.0   60.0   16.666666666666668
-450.0   60.0   33.333333333333336
-400.0   90.0   33.333333333333336
-400.0   60.0   16.666666666666668
-450.0   90.0   16.666666666666668
-450.0   60.0   33.333333333333336
-400.0   60.0   33.333333333333336
-450.0   90.0   33.333333333333336
-450.0   60.0   50.0
-400.0   60.0   33.333333333333336
-400.0   90.0   33.333333333333336
-450.0   90.0   33.333333333333336
-400.0   90.0   50.0
-450.0   60.0   50.0
-450.0   90.0   50.0
-400.0   90.0   50.0
-450.0   90.0   33.333333333333336
-450.0   60.0   50.0
-400.0   90.0   50.0
-400.0   60.0   50.0
-400.0   60.0   33.333333333333336
-450.0   60.0   50.0
-400.0   90.0   50.0
-400.0   60.0   33.333333333333336
-450.0   90.0   33.333333333333336
-450.0   90.0   0.0
-400.0   90.0   0.0
-450.0   120.0   0.0
-450.0   90.0   16.666666666666668
-400.0   90.0   0.0
-400.0   120.0   0.0
-450.0   120.0   0.0
-400.0   120.0   16.666666666666668
-450.0   90.0   16.666666666666668
-450.0   120.0   16.666666666666668
-400.0   120.0   16.666666666666668
-450.0   120.0   0.0
-450.0   90.0   16.666666666666668
-400.0   120.0   16.666666666666668
-400.0   90.0   16.666666666666668
-400.0   90.0   0.0
-450.0   90.0   16.666666666666668
-400.0   120.0   16.666666666666668
-400.0   90.0   0.0
-450.0   120.0   0.0
-450.0   90.0   16.666666666666668
-400.0   90.0   16.666666666666668
-450.0   120.0   16.666666666666668
-450.0   90.0   33.333333333333336
-400.0   90.0   16.666666666666668
-400.0   120.0   16.666666666666668
-450.0   120.0   16.666666666666668
-400.0   120.0   33.333333333333336
-450.0   90.0   33.333333333333336
-450.0   120.0   33.333333333333336
-400.0   120.0   33.333333333333336
-450.0   120.0   16.666666666666668
-450.0   90.0   33.333333333333336
-400.0   120.0   33.333333333333336
-400.0   90.0   33.333333333333336
-400.0   90.0   16.666666666666668
-450.0   90.0   33.333333333333336
-400.0   120.0   33.333333333333336
-400.0   90.0   16.666666666666668
-450.0   120.0   16.666666666666668
-450.0   90.0   33.333333333333336
-400.0   90.0   33.333333333333336
-450.0   120.0   33.333333333333336
-450.0   90.0   50.0
-400.0   90.0   33.333333333333336
-400.0   120.0   33.333333333333336
-450.0   120.0   33.333333333333336
-400.0   120.0   50.0
-450.0   90.0   50.0
-450.0   120.0   50.0
-400.0   120.0   50.0
-450.0   120.0   33.333333333333336
-450.0   90.0   50.0
-400.0   120.0   50.0
-400.0   90.0   50.0
-400.0   90.0   33.333333333333336
-450.0   90.0   50.0
-400.0   120.0   50.0
-400.0   90.0   33.333333333333336
-450.0   120.0   33.333333333333336
-450.0   120.0   0.0
-400.0   120.0   0.0
-450.0   150.0   0.0
-450.0   120.0   16.666666666666668
-400.0   120.0   0.0
-400.0   150.0   0.0
-450.0   150.0   0.0
-400.0   150.0   16.666666666666668
-450.0   120.0   16.666666666666668
-450.0   150.0   16.666666666666668
-400.0   150.0   16.666666666666668
-450.0   150.0   0.0
-450.0   120.0   16.666666666666668
-400.0   150.0   16.666666666666668
-400.0   120.0   16.666666666666668
-400.0   120.0   0.0
-450.0   120.0   16.666666666666668
-400.0   150.0   16.666666666666668
-400.0   120.0   0.0
-450.0   150.0   0.0
-450.0   120.0   16.666666666666668
-400.0   120.0   16.666666666666668
-450.0   150.0   16.666666666666668
-450.0   120.0   33.333333333333336
-400.0   120.0   16.666666666666668
-400.0   150.0   16.666666666666668
-450.0   150.0   16.666666666666668
-400.0   150.0   33.333333333333336
-450.0   120.0   33.333333333333336
-450.0   150.0   33.333333333333336
-400.0   150.0   33.333333333333336
-450.0   150.0   16.666666666666668
-450.0   120.0   33.333333333333336
-400.0   150.0   33.333333333333336
-400.0   120.0   33.333333333333336
-400.0   120.0   16.666666666666668
-450.0   120.0   33.333333333333336
-400.0   150.0   33.333333333333336
-400.0   120.0   16.666666666666668
-450.0   150.0   16.666666666666668
-450.0   120.0   33.333333333333336
-400.0   120.0   33.333333333333336
-450.0   150.0   33.333333333333336
-450.0   120.0   50.0
-400.0   120.0   33.333333333333336
-400.0   150.0   33.333333333333336
-450.0   150.0   33.333333333333336
-400.0   150.0   50.0
-450.0   120.0   50.0
-450.0   150.0   50.0
-400.0   150.0   50.0
-450.0   150.0   33.333333333333336
-450.0   120.0   50.0
-400.0   150.0   50.0
-400.0   120.0   50.0
-400.0   120.0   33.333333333333336
-450.0   120.0   50.0
-400.0   150.0   50.0
-400.0   120.0   33.333333333333336
-450.0   150.0   33.333333333333336
-400.0   0.0   0.0
-350.0   0.0   0.0
-400.0   30.0   0.0
-400.0   0.0   16.666666666666668
-350.0   0.0   0.0
-350.0   30.0   0.0
-400.0   30.0   0.0
-350.0   30.0   16.666666666666668
-400.0   0.0   16.666666666666668
-400.0   30.0   16.666666666666668
-350.0   30.0   16.666666666666668
-400.0   30.0   0.0
-400.0   0.0   16.666666666666668
-350.0   30.0   16.666666666666668
-350.0   0.0   16.666666666666668
-350.0   0.0   0.0
-400.0   0.0   16.666666666666668
-350.0   30.0   16.666666666666668
-350.0   0.0   0.0
-400.0   30.0   0.0
-400.0   0.0   16.666666666666668
-350.0   0.0   16.666666666666668
-400.0   30.0   16.666666666666668
-400.0   0.0   33.333333333333336
-350.0   0.0   16.666666666666668
-350.0   30.0   16.666666666666668
-400.0   30.0   16.666666666666668
-350.0   30.0   33.333333333333336
-400.0   0.0   33.333333333333336
-400.0   30.0   33.333333333333336
-350.0   30.0   33.333333333333336
-400.0   30.0   16.666666666666668
-400.0   0.0   33.333333333333336
-350.0   30.0   33.333333333333336
-350.0   0.0   33.333333333333336
-350.0   0.0   16.666666666666668
-400.0   0.0   33.333333333333336
-350.0   30.0   33.333333333333336
-350.0   0.0   16.666666666666668
-400.0   30.0   16.666666666666668
-400.0   0.0   33.333333333333336
-350.0   0.0   33.333333333333336
-400.0   30.0   33.333333333333336
-400.0   0.0   50.0
-350.0   0.0   33.333333333333336
-350.0   30.0   33.333333333333336
-400.0   30.0   33.333333333333336
-350.0   30.0   50.0
-400.0   0.0   50.0
-400.0   30.0   50.0
-350.0   30.0   50.0
-400.0   30.0   33.333333333333336
-400.0   0.0   50.0
-350.0   30.0   50.0
-350.0   0.0   50.0
-350.0   0.0   33.333333333333336
-400.0   0.0   50.0
-350.0   30.0   50.0
-350.0   0.0   33.333333333333336
-400.0   30.0   33.333333333333336
-400.0   30.0   0.0
-350.0   30.0   0.0
-400.0   60.0   0.0
-400.0   30.0   16.666666666666668
-350.0   30.0   0.0
-350.0   60.0   0.0
-400.0   60.0   0.0
-350.0   60.0   16.666666666666668
-400.0   30.0   16.666666666666668
-400.0   60.0   16.666666666666668
-350.0   60.0   16.666666666666668
-400.0   60.0   0.0
-400.0   30.0   16.666666666666668
-350.0   60.0   16.666666666666668
-350.0   30.0   16.666666666666668
-350.0   30.0   0.0
-400.0   30.0   16.666666666666668
-350.0   60.0   16.666666666666668
-350.0   30.0   0.0
-400.0   60.0   0.0
-400.0   30.0   16.666666666666668
-350.0   30.0   16.666666666666668
-400.0   60.0   16.666666666666668
-400.0   30.0   33.333333333333336
-350.0   30.0   16.666666666666668
-350.0   60.0   16.666666666666668
-400.0   60.0   16.666666666666668
-350.0   60.0   33.333333333333336
-400.0   30.0   33.333333333333336
-400.0   60.0   33.333333333333336
-350.0   60.0   33.333333333333336
-400.0   60.0   16.666666666666668
-400.0   30.0   33.333333333333336
-350.0   60.0   33.333333333333336
-350.0   30.0   33.333333333333336
-350.0   30.0   16.666666666666668
-400.0   30.0   33.333333333333336
-350.0   60.0   33.333333333333336
-350.0   30.0   16.666666666666668
-400.0   60.0   16.666666666666668
-400.0   30.0   33.333333333333336
-350.0   30.0   33.333333333333336
-400.0   60.0   33.333333333333336
-400.0   30.0   50.0
-350.0   30.0   33.333333333333336
-350.0   60.0   33.333333333333336
-400.0   60.0   33.333333333333336
-350.0   60.0   50.0
-400.0   30.0   50.0
-400.0   60.0   50.0
-350.0   60.0   50.0
-400.0   60.0   33.333333333333336
-400.0   30.0   50.0
-350.0   60.0   50.0
-350.0   30.0   50.0
-350.0   30.0   33.333333333333336
-400.0   30.0   50.0
-350.0   60.0   50.0
-350.0   30.0   33.333333333333336
-400.0   60.0   33.333333333333336
-400.0   60.0   0.0
-350.0   60.0   0.0
-400.0   90.0   0.0
-400.0   60.0   16.666666666666668
-350.0   60.0   0.0
-350.0   90.0   0.0
-400.0   90.0   0.0
-350.0   90.0   16.666666666666668
-400.0   60.0   16.666666666666668
-400.0   90.0   16.666666666666668
-350.0   90.0   16.666666666666668
-400.0   90.0   0.0
-400.0   60.0   16.666666666666668
-350.0   90.0   16.666666666666668
-350.0   60.0   16.666666666666668
-350.0   60.0   0.0
-400.0   60.0   16.666666666666668
-350.0   90.0   16.666666666666668
-350.0   60.0   0.0
-400.0   90.0   0.0
-400.0   60.0   16.666666666666668
-350.0   60.0   16.666666666666668
-400.0   90.0   16.666666666666668
-400.0   60.0   33.333333333333336
-350.0   60.0   16.666666666666668
-350.0   90.0   16.666666666666668
-400.0   90.0   16.666666666666668
-350.0   90.0   33.333333333333336
-400.0   60.0   33.333333333333336
-400.0   90.0   33.333333333333336
-350.0   90.0   33.333333333333336
-400.0   90.0   16.666666666666668
-400.0   60.0   33.333333333333336
-350.0   90.0   33.333333333333336
-350.0   60.0   33.333333333333336
-350.0   60.0   16.666666666666668
-400.0   60.0   33.333333333333336
-350.0   90.0   33.333333333333336
-350.0   60.0   16.666666666666668
-400.0   90.0   16.666666666666668
-400.0   60.0   33.333333333333336
-350.0   60.0   33.333333333333336
-400.0   90.0   33.333333333333336
-400.0   60.0   50.0
-350.0   60.0   33.333333333333336
-350.0   90.0   33.333333333333336
-400.0   90.0   33.333333333333336
-350.0   90.0   50.0
-400.0   60.0   50.0
-400.0   90.0   50.0
-350.0   90.0   50.0
-400.0   90.0   33.333333333333336
-400.0   60.0   50.0
-350.0   90.0   50.0
-350.0   60.0   50.0
-350.0   60.0   33.333333333333336
-400.0   60.0   50.0
-350.0   90.0   50.0
-350.0   60.0   33.333333333333336
-400.0   90.0   33.333333333333336
-400.0   90.0   0.0
-350.0   90.0   0.0
-400.0   120.0   0.0
-400.0   90.0   16.666666666666668
-350.0   90.0   0.0
-350.0   120.0   0.0
-400.0   120.0   0.0
-350.0   120.0   16.666666666666668
-400.0   90.0   16.666666666666668
-400.0   120.0   16.666666666666668
-350.0   120.0   16.666666666666668
-400.0   120.0   0.0
-400.0   90.0   16.666666666666668
-350.0   120.0   16.666666666666668
-350.0   90.0   16.666666666666668
-350.0   90.0   0.0
-400.0   90.0   16.666666666666668
-350.0   120.0   16.666666666666668
-350.0   90.0   0.0
-400.0   120.0   0.0
-400.0   90.0   16.666666666666668
-350.0   90.0   16.666666666666668
-400.0   120.0   16.666666666666668
-400.0   90.0   33.333333333333336
-350.0   90.0   16.666666666666668
-350.0   120.0   16.666666666666668
-400.0   120.0   16.666666666666668
-350.0   120.0   33.333333333333336
-400.0   90.0   33.333333333333336
-400.0   120.0   33.333333333333336
-350.0   120.0   33.333333333333336
-400.0   120.0   16.666666666666668
-400.0   90.0   33.333333333333336
-350.0   120.0   33.333333333333336
-350.0   90.0   33.333333333333336
-350.0   90.0   16.666666666666668
-400.0   90.0   33.333333333333336
-350.0   120.0   33.333333333333336
-350.0   90.0   16.666666666666668
-400.0   120.0   16.666666666666668
-400.0   90.0   33.333333333333336
-350.0   90.0   33.333333333333336
-400.0   120.0   33.333333333333336
-400.0   90.0   50.0
-350.0   90.0   33.333333333333336
-350.0   120.0   33.333333333333336
-400.0   120.0   33.333333333333336
-350.0   120.0   50.0
-400.0   90.0   50.0
-400.0   120.0   50.0
-350.0   120.0   50.0
-400.0   120.0   33.333333333333336
-400.0   90.0   50.0
-350.0   120.0   50.0
-350.0   90.0   50.0
-350.0   90.0   33.333333333333336
-400.0   90.0   50.0
-350.0   120.0   50.0
-350.0   90.0   33.333333333333336
-400.0   120.0   33.333333333333336
-400.0   120.0   0.0
-350.0   120.0   0.0
-400.0   150.0   0.0
-400.0   120.0   16.666666666666668
-350.0   120.0   0.0
-350.0   150.0   0.0
-400.0   150.0   0.0
-350.0   150.0   16.666666666666668
-400.0   120.0   16.666666666666668
-400.0   150.0   16.666666666666668
-350.0   150.0   16.666666666666668
-400.0   150.0   0.0
-400.0   120.0   16.666666666666668
-350.0   150.0   16.666666666666668
-350.0   120.0   16.666666666666668
-350.0   120.0   0.0
-400.0   120.0   16.666666666666668
-350.0   150.0   16.666666666666668
-350.0   120.0   0.0
-400.0   150.0   0.0
-400.0   120.0   16.666666666666668
-350.0   120.0   16.666666666666668
-400.0   150.0   16.666666666666668
-400.0   120.0   33.333333333333336
-350.0   120.0   16.666666666666668
-350.0   150.0   16.666666666666668
-400.0   150.0   16.666666666666668
-350.0   150.0   33.333333333333336
-400.0   120.0   33.333333333333336
-400.0   150.0   33.333333333333336
-350.0   150.0   33.333333333333336
-400.0   150.0   16.666666666666668
-400.0   120.0   33.333333333333336
-350.0   150.0   33.333333333333336
-350.0   120.0   33.333333333333336
-350.0   120.0   16.666666666666668
-400.0   120.0   33.333333333333336
-350.0   150.0   33.333333333333336
-350.0   120.0   16.666666666666668
-400.0   150.0   16.666666666666668
-400.0   120.0   33.333333333333336
-350.0   120.0   33.333333333333336
-400.0   150.0   33.333333333333336
-400.0   120.0   50.0
-350.0   120.0   33.333333333333336
-350.0   150.0   33.333333333333336
-400.0   150.0   33.333333333333336
-350.0   150.0   50.0
-400.0   120.0   50.0
-400.0   150.0   50.0
-350.0   150.0   50.0
-400.0   150.0   33.333333333333336
-400.0   120.0   50.0
-350.0   150.0   50.0
-350.0   120.0   50.0
-350.0   120.0   33.333333333333336
-400.0   120.0   50.0
-350.0   150.0   50.0
-350.0   120.0   33.333333333333336
-400.0   150.0   33.333333333333336
-350.0   0.0   0.0
-300.0   0.0   0.0
-350.0   30.0   0.0
-350.0   0.0   16.666666666666668
-300.0   0.0   0.0
-300.0   30.0   0.0
-350.0   30.0   0.0
-300.0   30.0   16.666666666666668
-350.0   0.0   16.666666666666668
-350.0   30.0   16.666666666666668
-300.0   30.0   16.666666666666668
-350.0   30.0   0.0
-350.0   0.0   16.666666666666668
-300.0   30.0   16.666666666666668
-300.0   0.0   16.666666666666668
-300.0   0.0   0.0
-350.0   0.0   16.666666666666668
-300.0   30.0   16.666666666666668
-300.0   0.0   0.0
-350.0   30.0   0.0
-350.0   0.0   16.666666666666668
-300.0   0.0   16.666666666666668
-350.0   30.0   16.666666666666668
-350.0   0.0   33.333333333333336
-300.0   0.0   16.666666666666668
-300.0   30.0   16.666666666666668
-350.0   30.0   16.666666666666668
-300.0   30.0   33.333333333333336
-350.0   0.0   33.333333333333336
-350.0   30.0   33.333333333333336
-300.0   30.0   33.333333333333336
-350.0   30.0   16.666666666666668
-350.0   0.0   33.333333333333336
-300.0   30.0   33.333333333333336
-300.0   0.0   33.333333333333336
-300.0   0.0   16.666666666666668
-350.0   0.0   33.333333333333336
-300.0   30.0   33.333333333333336
-300.0   0.0   16.666666666666668
-350.0   30.0   16.666666666666668
-350.0   0.0   33.333333333333336
-300.0   0.0   33.333333333333336
-350.0   30.0   33.333333333333336
-350.0   0.0   50.0
-300.0   0.0   33.333333333333336
-300.0   30.0   33.333333333333336
-350.0   30.0   33.333333333333336
-300.0   30.0   50.0
-350.0   0.0   50.0
-350.0   30.0   50.0
-300.0   30.0   50.0
-350.0   30.0   33.333333333333336
-350.0   0.0   50.0
-300.0   30.0   50.0
-300.0   0.0   50.0
-300.0   0.0   33.333333333333336
-350.0   0.0   50.0
-300.0   30.0   50.0
-300.0   0.0   33.333333333333336
-350.0   30.0   33.333333333333336
-350.0   30.0   0.0
-300.0   30.0   0.0
-350.0   60.0   0.0
-350.0   30.0   16.666666666666668
-300.0   30.0   0.0
-300.0   60.0   0.0
-350.0   60.0   0.0
-300.0   60.0   16.666666666666668
-350.0   30.0   16.666666666666668
-350.0   60.0   16.666666666666668
-300.0   60.0   16.666666666666668
-350.0   60.0   0.0
-350.0   30.0   16.666666666666668
-300.0   60.0   16.666666666666668
-300.0   30.0   16.666666666666668
-300.0   30.0   0.0
-350.0   30.0   16.666666666666668
-300.0   60.0   16.666666666666668
-300.0   30.0   0.0
-350.0   60.0   0.0
-350.0   30.0   16.666666666666668
-300.0   30.0   16.666666666666668
-350.0   60.0   16.666666666666668
-350.0   30.0   33.333333333333336
-300.0   30.0   16.666666666666668
-300.0   60.0   16.666666666666668
-350.0   60.0   16.666666666666668
-300.0   60.0   33.333333333333336
-350.0   30.0   33.333333333333336
-350.0   60.0   33.333333333333336
-300.0   60.0   33.333333333333336
-350.0   60.0   16.666666666666668
-350.0   30.0   33.333333333333336
-300.0   60.0   33.333333333333336
-300.0   30.0   33.333333333333336
-300.0   30.0   16.666666666666668
-350.0   30.0   33.333333333333336
-300.0   60.0   33.333333333333336
-300.0   30.0   16.666666666666668
-350.0   60.0   16.666666666666668
-350.0   30.0   33.333333333333336
-300.0   30.0   33.333333333333336
-350.0   60.0   33.333333333333336
-350.0   30.0   50.0
-300.0   30.0   33.333333333333336
-300.0   60.0   33.333333333333336
-350.0   60.0   33.333333333333336
-300.0   60.0   50.0
-350.0   30.0   50.0
-350.0   60.0   50.0
-300.0   60.0   50.0
-350.0   60.0   33.333333333333336
-350.0   30.0   50.0
-300.0   60.0   50.0
-300.0   30.0   50.0
-300.0   30.0   33.333333333333336
-350.0   30.0   50.0
-300.0   60.0   50.0
-300.0   30.0   33.333333333333336
-350.0   60.0   33.333333333333336
-350.0   60.0   0.0
-300.0   60.0   0.0
-350.0   90.0   0.0
-350.0   60.0   16.666666666666668
-300.0   60.0   0.0
-300.0   90.0   0.0
-350.0   90.0   0.0
-300.0   90.0   16.666666666666668
-350.0   60.0   16.666666666666668
-350.0   90.0   16.666666666666668
-300.0   90.0   16.666666666666668
-350.0   90.0   0.0
-350.0   60.0   16.666666666666668
-300.0   90.0   16.666666666666668
-300.0   60.0   16.666666666666668
-300.0   60.0   0.0
-350.0   60.0   16.666666666666668
-300.0   90.0   16.666666666666668
-300.0   60.0   0.0
-350.0   90.0   0.0
-350.0   60.0   16.666666666666668
-300.0   60.0   16.666666666666668
-350.0   90.0   16.666666666666668
-350.0   60.0   33.333333333333336
-300.0   60.0   16.666666666666668
-300.0   90.0   16.666666666666668
-350.0   90.0   16.666666666666668
-300.0   90.0   33.333333333333336
-350.0   60.0   33.333333333333336
-350.0   90.0   33.333333333333336
-300.0   90.0   33.333333333333336
-350.0   90.0   16.666666666666668
-350.0   60.0   33.333333333333336
-300.0   90.0   33.333333333333336
-300.0   60.0   33.333333333333336
-300.0   60.0   16.666666666666668
-350.0   60.0   33.333333333333336
-300.0   90.0   33.333333333333336
-300.0   60.0   16.666666666666668
-350.0   90.0   16.666666666666668
-350.0   60.0   33.333333333333336
-300.0   60.0   33.333333333333336
-350.0   90.0   33.333333333333336
-350.0   60.0   50.0
-300.0   60.0   33.333333333333336
-300.0   90.0   33.333333333333336
-350.0   90.0   33.333333333333336
-300.0   90.0   50.0
-350.0   60.0   50.0
-350.0   90.0   50.0
-300.0   90.0   50.0
-350.0   90.0   33.333333333333336
-350.0   60.0   50.0
-300.0   90.0   50.0
-300.0   60.0   50.0
-300.0   60.0   33.333333333333336
-350.0   60.0   50.0
-300.0   90.0   50.0
-300.0   60.0   33.333333333333336
-350.0   90.0   33.333333333333336
-350.0   90.0   0.0
-300.0   90.0   0.0
-350.0   120.0   0.0
-350.0   90.0   16.666666666666668
-300.0   90.0   0.0
-300.0   120.0   0.0
-350.0   120.0   0.0
-300.0   120.0   16.666666666666668
-350.0   90.0   16.666666666666668
-350.0   120.0   16.666666666666668
-300.0   120.0   16.666666666666668
-350.0   120.0   0.0
-350.0   90.0   16.666666666666668
-300.0   120.0   16.666666666666668
-300.0   90.0   16.666666666666668
-300.0   90.0   0.0
-350.0   90.0   16.666666666666668
-300.0   120.0   16.666666666666668
-300.0   90.0   0.0
-350.0   120.0   0.0
-350.0   90.0   16.666666666666668
-300.0   90.0   16.666666666666668
-350.0   120.0   16.666666666666668
-350.0   90.0   33.333333333333336
-300.0   90.0   16.666666666666668
-300.0   120.0   16.666666666666668
-350.0   120.0   16.666666666666668
-300.0   120.0   33.333333333333336
-350.0   90.0   33.333333333333336
-350.0   120.0   33.333333333333336
-300.0   120.0   33.333333333333336
-350.0   120.0   16.666666666666668
-350.0   90.0   33.333333333333336
-300.0   120.0   33.333333333333336
-300.0   90.0   33.333333333333336
-300.0   90.0   16.666666666666668
-350.0   90.0   33.333333333333336
-300.0   120.0   33.333333333333336
-300.0   90.0   16.666666666666668
-350.0   120.0   16.666666666666668
-350.0   90.0   33.333333333333336
-300.0   90.0   33.333333333333336
-350.0   120.0   33.333333333333336
-350.0   90.0   50.0
-300.0   90.0   33.333333333333336
-300.0   120.0   33.333333333333336
-350.0   120.0   33.333333333333336
-300.0   120.0   50.0
-350.0   90.0   50.0
-350.0   120.0   50.0
-300.0   120.0   50.0
-350.0   120.0   33.333333333333336
-350.0   90.0   50.0
-300.0   120.0   50.0
-300.0   90.0   50.0
-300.0   90.0   33.333333333333336
-350.0   90.0   50.0
-300.0   120.0   50.0
-300.0   90.0   33.333333333333336
-350.0   120.0   33.333333333333336
-350.0   120.0   0.0
-300.0   120.0   0.0
-350.0   150.0   0.0
-350.0   120.0   16.666666666666668
-300.0   120.0   0.0
-300.0   150.0   0.0
-350.0   150.0   0.0
-300.0   150.0   16.666666666666668
-350.0   120.0   16.666666666666668
-350.0   150.0   16.666666666666668
-300.0   150.0   16.666666666666668
-350.0   150.0   0.0
-350.0   120.0   16.666666666666668
-300.0   150.0   16.666666666666668
-300.0   120.0   16.666666666666668
-300.0   120.0   0.0
-350.0   120.0   16.666666666666668
-300.0   150.0   16.666666666666668
-300.0   120.0   0.0
-350.0   150.0   0.0
-350.0   120.0   16.666666666666668
-300.0   120.0   16.666666666666668
-350.0   150.0   16.666666666666668
-350.0   120.0   33.333333333333336
-300.0   120.0   16.666666666666668
-300.0   150.0   16.666666666666668
-350.0   150.0   16.666666666666668
-300.0   150.0   33.333333333333336
-350.0   120.0   33.333333333333336
-350.0   150.0   33.333333333333336
-300.0   150.0   33.333333333333336
-350.0   150.0   16.666666666666668
-350.0   120.0   33.333333333333336
-300.0   150.0   33.333333333333336
-300.0   120.0   33.333333333333336
-300.0   120.0   16.666666666666668
-350.0   120.0   33.333333333333336
-300.0   150.0   33.333333333333336
-300.0   120.0   16.666666666666668
-350.0   150.0   16.666666666666668
-350.0   120.0   33.333333333333336
-300.0   120.0   33.333333333333336
-350.0   150.0   33.333333333333336
-350.0   120.0   50.0
-300.0   120.0   33.333333333333336
-300.0   150.0   33.333333333333336
-350.0   150.0   33.333333333333336
-300.0   150.0   50.0
-350.0   120.0   50.0
-350.0   150.0   50.0
-300.0   150.0   50.0
-350.0   150.0   33.333333333333336
-350.0   120.0   50.0
-300.0   150.0   50.0
-300.0   120.0   50.0
-300.0   120.0   33.333333333333336
-350.0   120.0   50.0
-300.0   150.0   50.0
-300.0   120.0   33.333333333333336
-350.0   150.0   33.333333333333336
-300.0   0.0   0.0
-250.0   0.0   0.0
-300.0   30.0   0.0
-300.0   0.0   16.666666666666668
-250.0   0.0   0.0
-250.0   30.0   0.0
-300.0   30.0   0.0
-250.0   30.0   16.666666666666668
-300.0   0.0   16.666666666666668
-300.0   30.0   16.666666666666668
-250.0   30.0   16.666666666666668
-300.0   30.0   0.0
-300.0   0.0   16.666666666666668
-250.0   30.0   16.666666666666668
-250.0   0.0   16.666666666666668
-250.0   0.0   0.0
-300.0   0.0   16.666666666666668
-250.0   30.0   16.666666666666668
-250.0   0.0   0.0
-300.0   30.0   0.0
-300.0   0.0   16.666666666666668
-250.0   0.0   16.666666666666668
-300.0   30.0   16.666666666666668
-300.0   0.0   33.333333333333336
-250.0   0.0   16.666666666666668
-250.0   30.0   16.666666666666668
-300.0   30.0   16.666666666666668
-250.0   30.0   33.333333333333336
-300.0   0.0   33.333333333333336
-300.0   30.0   33.333333333333336
-250.0   30.0   33.333333333333336
-300.0   30.0   16.666666666666668
-300.0   0.0   33.333333333333336
-250.0   30.0   33.333333333333336
-250.0   0.0   33.333333333333336
-250.0   0.0   16.666666666666668
-300.0   0.0   33.333333333333336
-250.0   30.0   33.333333333333336
-250.0   0.0   16.666666666666668
-300.0   30.0   16.666666666666668
-300.0   0.0   33.333333333333336
-250.0   0.0   33.333333333333336
-300.0   30.0   33.333333333333336
-300.0   0.0   50.0
-250.0   0.0   33.333333333333336
-250.0   30.0   33.333333333333336
-300.0   30.0   33.333333333333336
-250.0   30.0   50.0
-300.0   0.0   50.0
-300.0   30.0   50.0
-250.0   30.0   50.0
-300.0   30.0   33.333333333333336
-300.0   0.0   50.0
-250.0   30.0   50.0
-250.0   0.0   50.0
-250.0   0.0   33.333333333333336
-300.0   0.0   50.0
-250.0   30.0   50.0
-250.0   0.0   33.333333333333336
-300.0   30.0   33.333333333333336
-300.0   30.0   0.0
-250.0   30.0   0.0
-300.0   60.0   0.0
-300.0   30.0   16.666666666666668
-250.0   30.0   0.0
-250.0   60.0   0.0
-300.0   60.0   0.0
-250.0   60.0   16.666666666666668
-300.0   30.0   16.666666666666668
-300.0   60.0   16.666666666666668
-250.0   60.0   16.666666666666668
-300.0   60.0   0.0
-300.0   30.0   16.666666666666668
-250.0   60.0   16.666666666666668
-250.0   30.0   16.666666666666668
-250.0   30.0   0.0
-300.0   30.0   16.666666666666668
-250.0   60.0   16.666666666666668
-250.0   30.0   0.0
-300.0   60.0   0.0
-300.0   30.0   16.666666666666668
-250.0   30.0   16.666666666666668
-300.0   60.0   16.666666666666668
-300.0   30.0   33.333333333333336
-250.0   30.0   16.666666666666668
-250.0   60.0   16.666666666666668
-300.0   60.0   16.666666666666668
-250.0   60.0   33.333333333333336
-300.0   30.0   33.333333333333336
-300.0   60.0   33.333333333333336
-250.0   60.0   33.333333333333336
-300.0   60.0   16.666666666666668
-300.0   30.0   33.333333333333336
-250.0   60.0   33.333333333333336
-250.0   30.0   33.333333333333336
-250.0   30.0   16.666666666666668
-300.0   30.0   33.333333333333336
-250.0   60.0   33.333333333333336
-250.0   30.0   16.666666666666668
-300.0   60.0   16.666666666666668
-300.0   30.0   33.333333333333336
-250.0   30.0   33.333333333333336
-300.0   60.0   33.333333333333336
-300.0   30.0   50.0
-250.0   30.0   33.333333333333336
-250.0   60.0   33.333333333333336
-300.0   60.0   33.333333333333336
-250.0   60.0   50.0
-300.0   30.0   50.0
-300.0   60.0   50.0
-250.0   60.0   50.0
-300.0   60.0   33.333333333333336
-300.0   30.0   50.0
-250.0   60.0   50.0
-250.0   30.0   50.0
-250.0   30.0   33.333333333333336
-300.0   30.0   50.0
-250.0   60.0   50.0
-250.0   30.0   33.333333333333336
-300.0   60.0   33.333333333333336
-300.0   60.0   0.0
-250.0   60.0   0.0
-300.0   90.0   0.0
-300.0   60.0   16.666666666666668
-250.0   60.0   0.0
-250.0   90.0   0.0
-300.0   90.0   0.0
-250.0   90.0   16.666666666666668
-300.0   60.0   16.666666666666668
-300.0   90.0   16.666666666666668
-250.0   90.0   16.666666666666668
-300.0   90.0   0.0
-300.0   60.0   16.666666666666668
-250.0   90.0   16.666666666666668
-250.0   60.0   16.666666666666668
-250.0   60.0   0.0
-300.0   60.0   16.666666666666668
-250.0   90.0   16.666666666666668
-250.0   60.0   0.0
-300.0   90.0   0.0
-300.0   60.0   16.666666666666668
-250.0   60.0   16.666666666666668
-300.0   90.0   16.666666666666668
-300.0   60.0   33.333333333333336
-250.0   60.0   16.666666666666668
-250.0   90.0   16.666666666666668
-300.0   90.0   16.666666666666668
-250.0   90.0   33.333333333333336
-300.0   60.0   33.333333333333336
-300.0   90.0   33.333333333333336
-250.0   90.0   33.333333333333336
-300.0   90.0   16.666666666666668
-300.0   60.0   33.333333333333336
-250.0   90.0   33.333333333333336
-250.0   60.0   33.333333333333336
-250.0   60.0   16.666666666666668
-300.0   60.0   33.333333333333336
-250.0   90.0   33.333333333333336
-250.0   60.0   16.666666666666668
-300.0   90.0   16.666666666666668
-300.0   60.0   33.333333333333336
-250.0   60.0   33.333333333333336
-300.0   90.0   33.333333333333336
-300.0   60.0   50.0
-250.0   60.0   33.333333333333336
-250.0   90.0   33.333333333333336
-300.0   90.0   33.333333333333336
-250.0   90.0   50.0
-300.0   60.0   50.0
-300.0   90.0   50.0
-250.0   90.0   50.0
-300.0   90.0   33.333333333333336
-300.0   60.0   50.0
-250.0   90.0   50.0
-250.0   60.0   50.0
-250.0   60.0   33.333333333333336
-300.0   60.0   50.0
-250.0   90.0   50.0
-250.0   60.0   33.333333333333336
-300.0   90.0   33.333333333333336
-300.0   90.0   0.0
-250.0   90.0   0.0
-300.0   120.0   0.0
-300.0   90.0   16.666666666666668
-250.0   90.0   0.0
-250.0   120.0   0.0
-300.0   120.0   0.0
-250.0   120.0   16.666666666666668
-300.0   90.0   16.666666666666668
-300.0   120.0   16.666666666666668
-250.0   120.0   16.666666666666668
-300.0   120.0   0.0
-300.0   90.0   16.666666666666668
-250.0   120.0   16.666666666666668
-250.0   90.0   16.666666666666668
-250.0   90.0   0.0
-300.0   90.0   16.666666666666668
-250.0   120.0   16.666666666666668
-250.0   90.0   0.0
-300.0   120.0   0.0
-300.0   90.0   16.666666666666668
-250.0   90.0   16.666666666666668
-300.0   120.0   16.666666666666668
-300.0   90.0   33.333333333333336
-250.0   90.0   16.666666666666668
-250.0   120.0   16.666666666666668
-300.0   120.0   16.666666666666668
-250.0   120.0   33.333333333333336
-300.0   90.0   33.333333333333336
-300.0   120.0   33.333333333333336
-250.0   120.0   33.333333333333336
-300.0   120.0   16.666666666666668
-300.0   90.0   33.333333333333336
-250.0   120.0   33.333333333333336
-250.0   90.0   33.333333333333336
-250.0   90.0   16.666666666666668
-300.0   90.0   33.333333333333336
-250.0   120.0   33.333333333333336
-250.0   90.0   16.666666666666668
-300.0   120.0   16.666666666666668
-300.0   90.0   33.333333333333336
-250.0   90.0   33.333333333333336
-300.0   120.0   33.333333333333336
-300.0   90.0   50.0
-250.0   90.0   33.333333333333336
-250.0   120.0   33.333333333333336
-300.0   120.0   33.333333333333336
-250.0   120.0   50.0
-300.0   90.0   50.0
-300.0   120.0   50.0
-250.0   120.0   50.0
-300.0   120.0   33.333333333333336
-300.0   90.0   50.0
-250.0   120.0   50.0
-250.0   90.0   50.0
-250.0   90.0   33.333333333333336
-300.0   90.0   50.0
-250.0   120.0   50.0
-250.0   90.0   33.333333333333336
-300.0   120.0   33.333333333333336
-300.0   120.0   0.0
-250.0   120.0   0.0
-300.0   150.0   0.0
-300.0   120.0   16.666666666666668
-250.0   120.0   0.0
-250.0   150.0   0.0
-300.0   150.0   0.0
-250.0   150.0   16.666666666666668
-300.0   120.0   16.666666666666668
-300.0   150.0   16.666666666666668
-250.0   150.0   16.666666666666668
-300.0   150.0   0.0
-300.0   120.0   16.666666666666668
-250.0   150.0   16.666666666666668
-250.0   120.0   16.666666666666668
-250.0   120.0   0.0
-300.0   120.0   16.666666666666668
-250.0   150.0   16.666666666666668
-250.0   120.0   0.0
-300.0   150.0   0.0
-300.0   120.0   16.666666666666668
-250.0   120.0   16.666666666666668
-300.0   150.0   16.666666666666668
-300.0   120.0   33.333333333333336
-250.0   120.0   16.666666666666668
-250.0   150.0   16.666666666666668
-300.0   150.0   16.666666666666668
-250.0   150.0   33.333333333333336
-300.0   120.0   33.333333333333336
-300.0   150.0   33.333333333333336
-250.0   150.0   33.333333333333336
-300.0   150.0   16.666666666666668
-300.0   120.0   33.333333333333336
-250.0   150.0   33.333333333333336
-250.0   120.0   33.333333333333336
-250.0   120.0   16.666666666666668
-300.0   120.0   33.333333333333336
-250.0   150.0   33.333333333333336
-250.0   120.0   16.666666666666668
-300.0   150.0   16.666666666666668
-300.0   120.0   33.333333333333336
-250.0   120.0   33.333333333333336
-300.0   150.0   33.333333333333336
-300.0   120.0   50.0
-250.0   120.0   33.333333333333336
-250.0   150.0   33.333333333333336
-300.0   150.0   33.333333333333336
-250.0   150.0   50.0
-300.0   120.0   50.0
-300.0   150.0   50.0
-250.0   150.0   50.0
-300.0   150.0   33.333333333333336
-300.0   120.0   50.0
-250.0   150.0   50.0
-250.0   120.0   50.0
-250.0   120.0   33.333333333333336
-300.0   120.0   50.0
-250.0   150.0   50.0
-250.0   120.0   33.333333333333336
-300.0   150.0   33.333333333333336
-250.0   0.0   0.0
-200.0   0.0   0.0
-250.0   30.0   0.0
-250.0   0.0   16.666666666666668
-200.0   0.0   0.0
-200.0   30.0   0.0
-250.0   30.0   0.0
-200.0   30.0   16.666666666666668
-250.0   0.0   16.666666666666668
-250.0   30.0   16.666666666666668
-200.0   30.0   16.666666666666668
-250.0   30.0   0.0
-250.0   0.0   16.666666666666668
-200.0   30.0   16.666666666666668
-200.0   0.0   16.666666666666668
-200.0   0.0   0.0
-250.0   0.0   16.666666666666668
-200.0   30.0   16.666666666666668
-200.0   0.0   0.0
-250.0   30.0   0.0
-250.0   0.0   16.666666666666668
-200.0   0.0   16.666666666666668
-250.0   30.0   16.666666666666668
-250.0   0.0   33.333333333333336
-200.0   0.0   16.666666666666668
-200.0   30.0   16.666666666666668
-250.0   30.0   16.666666666666668
-200.0   30.0   33.333333333333336
-250.0   0.0   33.333333333333336
-250.0   30.0   33.333333333333336
-200.0   30.0   33.333333333333336
-250.0   30.0   16.666666666666668
-250.0   0.0   33.333333333333336
-200.0   30.0   33.333333333333336
-200.0   0.0   33.333333333333336
-200.0   0.0   16.666666666666668
-250.0   0.0   33.333333333333336
-200.0   30.0   33.333333333333336
-200.0   0.0   16.666666666666668
-250.0   30.0   16.666666666666668
-250.0   0.0   33.333333333333336
-200.0   0.0   33.333333333333336
-250.0   30.0   33.333333333333336
-250.0   0.0   50.0
-200.0   0.0   33.333333333333336
-200.0   30.0   33.333333333333336
-250.0   30.0   33.333333333333336
-200.0   30.0   50.0
-250.0   0.0   50.0
-250.0   30.0   50.0
-200.0   30.0   50.0
-250.0   30.0   33.333333333333336
-250.0   0.0   50.0
-200.0   30.0   50.0
-200.0   0.0   50.0
-200.0   0.0   33.333333333333336
-250.0   0.0   50.0
-200.0   30.0   50.0
-200.0   0.0   33.333333333333336
-250.0   30.0   33.333333333333336
-250.0   30.0   0.0
-200.0   30.0   0.0
-250.0   60.0   0.0
-250.0   30.0   16.666666666666668
-200.0   30.0   0.0
-200.0   60.0   0.0
-250.0   60.0   0.0
-200.0   60.0   16.666666666666668
-250.0   30.0   16.666666666666668
-250.0   60.0   16.666666666666668
-200.0   60.0   16.666666666666668
-250.0   60.0   0.0
-250.0   30.0   16.666666666666668
-200.0   60.0   16.666666666666668
-200.0   30.0   16.666666666666668
-200.0   30.0   0.0
-250.0   30.0   16.666666666666668
-200.0   60.0   16.666666666666668
-200.0   30.0   0.0
-250.0   60.0   0.0
-250.0   30.0   16.666666666666668
-200.0   30.0   16.666666666666668
-250.0   60.0   16.666666666666668
-250.0   30.0   33.333333333333336
-200.0   30.0   16.666666666666668
-200.0   60.0   16.666666666666668
-250.0   60.0   16.666666666666668
-200.0   60.0   33.333333333333336
-250.0   30.0   33.333333333333336
-250.0   60.0   33.333333333333336
-200.0   60.0   33.333333333333336
-250.0   60.0   16.666666666666668
-250.0   30.0   33.333333333333336
-200.0   60.0   33.333333333333336
-200.0   30.0   33.333333333333336
-200.0   30.0   16.666666666666668
-250.0   30.0   33.333333333333336
-200.0   60.0   33.333333333333336
-200.0   30.0   16.666666666666668
-250.0   60.0   16.666666666666668
-250.0   30.0   33.333333333333336
-200.0   30.0   33.333333333333336
-250.0   60.0   33.333333333333336
-250.0   30.0   50.0
-200.0   30.0   33.333333333333336
-200.0   60.0   33.333333333333336
-250.0   60.0   33.333333333333336
-200.0   60.0   50.0
-250.0   30.0   50.0
-250.0   60.0   50.0
-200.0   60.0   50.0
-250.0   60.0   33.333333333333336
-250.0   30.0   50.0
-200.0   60.0   50.0
-200.0   30.0   50.0
-200.0   30.0   33.333333333333336
-250.0   30.0   50.0
-200.0   60.0   50.0
-200.0   30.0   33.333333333333336
-250.0   60.0   33.333333333333336
-250.0   60.0   0.0
-200.0   60.0   0.0
-250.0   90.0   0.0
-250.0   60.0   16.666666666666668
-200.0   60.0   0.0
-200.0   90.0   0.0
-250.0   90.0   0.0
-200.0   90.0   16.666666666666668
-250.0   60.0   16.666666666666668
-250.0   90.0   16.666666666666668
-200.0   90.0   16.666666666666668
-250.0   90.0   0.0
-250.0   60.0   16.666666666666668
-200.0   90.0   16.666666666666668
-200.0   60.0   16.666666666666668
-200.0   60.0   0.0
-250.0   60.0   16.666666666666668
-200.0   90.0   16.666666666666668
-200.0   60.0   0.0
-250.0   90.0   0.0
-250.0   60.0   16.666666666666668
-200.0   60.0   16.666666666666668
-250.0   90.0   16.666666666666668
-250.0   60.0   33.333333333333336
-200.0   60.0   16.666666666666668
-200.0   90.0   16.666666666666668
-250.0   90.0   16.666666666666668
-200.0   90.0   33.333333333333336
-250.0   60.0   33.333333333333336
-250.0   90.0   33.333333333333336
-200.0   90.0   33.333333333333336
-250.0   90.0   16.666666666666668
-250.0   60.0   33.333333333333336
-200.0   90.0   33.333333333333336
-200.0   60.0   33.333333333333336
-200.0   60.0   16.666666666666668
-250.0   60.0   33.333333333333336
-200.0   90.0   33.333333333333336
-200.0   60.0   16.666666666666668
-250.0   90.0   16.666666666666668
-250.0   60.0   33.333333333333336
-200.0   60.0   33.333333333333336
-250.0   90.0   33.333333333333336
-250.0   60.0   50.0
-200.0   60.0   33.333333333333336
-200.0   90.0   33.333333333333336
-250.0   90.0   33.333333333333336
-200.0   90.0   50.0
-250.0   60.0   50.0
-250.0   90.0   50.0
-200.0   90.0   50.0
-250.0   90.0   33.333333333333336
-250.0   60.0   50.0
-200.0   90.0   50.0
-200.0   60.0   50.0
-200.0   60.0   33.333333333333336
-250.0   60.0   50.0
-200.0   90.0   50.0
-200.0   60.0   33.333333333333336
-250.0   90.0   33.333333333333336
-250.0   90.0   0.0
-200.0   90.0   0.0
-250.0   120.0   0.0
-250.0   90.0   16.666666666666668
-200.0   90.0   0.0
-200.0   120.0   0.0
-250.0   120.0   0.0
-200.0   120.0   16.666666666666668
-250.0   90.0   16.666666666666668
-250.0   120.0   16.666666666666668
-200.0   120.0   16.666666666666668
-250.0   120.0   0.0
-250.0   90.0   16.666666666666668
-200.0   120.0   16.666666666666668
-200.0   90.0   16.666666666666668
-200.0   90.0   0.0
-250.0   90.0   16.666666666666668
-200.0   120.0   16.666666666666668
-200.0   90.0   0.0
-250.0   120.0   0.0
-250.0   90.0   16.666666666666668
-200.0   90.0   16.666666666666668
-250.0   120.0   16.666666666666668
-250.0   90.0   33.333333333333336
-200.0   90.0   16.666666666666668
-200.0   120.0   16.666666666666668
-250.0   120.0   16.666666666666668
-200.0   120.0   33.333333333333336
-250.0   90.0   33.333333333333336
-250.0   120.0   33.333333333333336
-200.0   120.0   33.333333333333336
-250.0   120.0   16.666666666666668
-250.0   90.0   33.333333333333336
-200.0   120.0   33.333333333333336
-200.0   90.0   33.333333333333336
-200.0   90.0   16.666666666666668
-250.0   90.0   33.333333333333336
-200.0   120.0   33.333333333333336
-200.0   90.0   16.666666666666668
-250.0   120.0   16.666666666666668
-250.0   90.0   33.333333333333336
-200.0   90.0   33.333333333333336
-250.0   120.0   33.333333333333336
-250.0   90.0   50.0
-200.0   90.0   33.333333333333336
-200.0   120.0   33.333333333333336
-250.0   120.0   33.333333333333336
-200.0   120.0   50.0
-250.0   90.0   50.0
-250.0   120.0   50.0
-200.0   120.0   50.0
-250.0   120.0   33.333333333333336
-250.0   90.0   50.0
-200.0   120.0   50.0
-200.0   90.0   50.0
-200.0   90.0   33.333333333333336
-250.0   90.0   50.0
-200.0   120.0   50.0
-200.0   90.0   33.333333333333336
-250.0   120.0   33.333333333333336
-250.0   120.0   0.0
-200.0   120.0   0.0
-250.0   150.0   0.0
-250.0   120.0   16.666666666666668
-200.0   120.0   0.0
-200.0   150.0   0.0
-250.0   150.0   0.0
-200.0   150.0   16.666666666666668
-250.0   120.0   16.666666666666668
-250.0   150.0   16.666666666666668
-200.0   150.0   16.666666666666668
-250.0   150.0   0.0
-250.0   120.0   16.666666666666668
-200.0   150.0   16.666666666666668
-200.0   120.0   16.666666666666668
-200.0   120.0   0.0
-250.0   120.0   16.666666666666668
-200.0   150.0   16.666666666666668
-200.0   120.0   0.0
-250.0   150.0   0.0
-250.0   120.0   16.666666666666668
-200.0   120.0   16.666666666666668
-250.0   150.0   16.666666666666668
-250.0   120.0   33.333333333333336
-200.0   120.0   16.666666666666668
-200.0   150.0   16.666666666666668
-250.0   150.0   16.666666666666668
-200.0   150.0   33.333333333333336
-250.0   120.0   33.333333333333336
-250.0   150.0   33.333333333333336
-200.0   150.0   33.333333333333336
-250.0   150.0   16.666666666666668
-250.0   120.0   33.333333333333336
-200.0   150.0   33.333333333333336
-200.0   120.0   33.333333333333336
-200.0   120.0   16.666666666666668
-250.0   120.0   33.333333333333336
-200.0   150.0   33.333333333333336
-200.0   120.0   16.666666666666668
-250.0   150.0   16.666666666666668
-250.0   120.0   33.333333333333336
-200.0   120.0   33.333333333333336
-250.0   150.0   33.333333333333336
-250.0   120.0   50.0
-200.0   120.0   33.333333333333336
-200.0   150.0   33.333333333333336
-250.0   150.0   33.333333333333336
-200.0   150.0   50.0
-250.0   120.0   50.0
-250.0   150.0   50.0
-200.0   150.0   50.0
-250.0   150.0   33.333333333333336
-250.0   120.0   50.0
-200.0   150.0   50.0
-200.0   120.0   50.0
-200.0   120.0   33.333333333333336
-250.0   120.0   50.0
-200.0   150.0   50.0
-200.0   120.0   33.333333333333336
-250.0   150.0   33.333333333333336
-200.0   0.0   0.0
-150.0   0.0   0.0
-200.0   30.0   0.0
-200.0   0.0   16.666666666666668
-150.0   0.0   0.0
-150.0   30.0   0.0
-200.0   30.0   0.0
-150.0   30.0   16.666666666666668
-200.0   0.0   16.666666666666668
-200.0   30.0   16.666666666666668
-150.0   30.0   16.666666666666668
-200.0   30.0   0.0
-200.0   0.0   16.666666666666668
-150.0   30.0   16.666666666666668
-150.0   0.0   16.666666666666668
-150.0   0.0   0.0
-200.0   0.0   16.666666666666668
-150.0   30.0   16.666666666666668
-150.0   0.0   0.0
-200.0   30.0   0.0
-200.0   0.0   16.666666666666668
-150.0   0.0   16.666666666666668
-200.0   30.0   16.666666666666668
-200.0   0.0   33.333333333333336
-150.0   0.0   16.666666666666668
-150.0   30.0   16.666666666666668
-200.0   30.0   16.666666666666668
-150.0   30.0   33.333333333333336
-200.0   0.0   33.333333333333336
-200.0   30.0   33.333333333333336
-150.0   30.0   33.333333333333336
-200.0   30.0   16.666666666666668
-200.0   0.0   33.333333333333336
-150.0   30.0   33.333333333333336
-150.0   0.0   33.333333333333336
-150.0   0.0   16.666666666666668
-200.0   0.0   33.333333333333336
-150.0   30.0   33.333333333333336
-150.0   0.0   16.666666666666668
-200.0   30.0   16.666666666666668
-200.0   0.0   33.333333333333336
-150.0   0.0   33.333333333333336
-200.0   30.0   33.333333333333336
-200.0   0.0   50.0
-150.0   0.0   33.333333333333336
-150.0   30.0   33.333333333333336
-200.0   30.0   33.333333333333336
-150.0   30.0   50.0
-200.0   0.0   50.0
-200.0   30.0   50.0
-150.0   30.0   50.0
-200.0   30.0   33.333333333333336
-200.0   0.0   50.0
-150.0   30.0   50.0
-150.0   0.0   50.0
-150.0   0.0   33.333333333333336
-200.0   0.0   50.0
-150.0   30.0   50.0
-150.0   0.0   33.333333333333336
-200.0   30.0   33.333333333333336
-200.0   30.0   0.0
-150.0   30.0   0.0
-200.0   60.0   0.0
-200.0   30.0   16.666666666666668
-150.0   30.0   0.0
-150.0   60.0   0.0
-200.0   60.0   0.0
-150.0   60.0   16.666666666666668
-200.0   30.0   16.666666666666668
-200.0   60.0   16.666666666666668
-150.0   60.0   16.666666666666668
-200.0   60.0   0.0
-200.0   30.0   16.666666666666668
-150.0   60.0   16.666666666666668
-150.0   30.0   16.666666666666668
-150.0   30.0   0.0
-200.0   30.0   16.666666666666668
-150.0   60.0   16.666666666666668
-150.0   30.0   0.0
-200.0   60.0   0.0
-200.0   30.0   16.666666666666668
-150.0   30.0   16.666666666666668
-200.0   60.0   16.666666666666668
-200.0   30.0   33.333333333333336
-150.0   30.0   16.666666666666668
-150.0   60.0   16.666666666666668
-200.0   60.0   16.666666666666668
-150.0   60.0   33.333333333333336
-200.0   30.0   33.333333333333336
-200.0   60.0   33.333333333333336
-150.0   60.0   33.333333333333336
-200.0   60.0   16.666666666666668
-200.0   30.0   33.333333333333336
-150.0   60.0   33.333333333333336
-150.0   30.0   33.333333333333336
-150.0   30.0   16.666666666666668
-200.0   30.0   33.333333333333336
-150.0   60.0   33.333333333333336
-150.0   30.0   16.666666666666668
-200.0   60.0   16.666666666666668
-200.0   30.0   33.333333333333336
-150.0   30.0   33.333333333333336
-200.0   60.0   33.333333333333336
-200.0   30.0   50.0
-150.0   30.0   33.333333333333336
-150.0   60.0   33.333333333333336
-200.0   60.0   33.333333333333336
-150.0   60.0   50.0
-200.0   30.0   50.0
-200.0   60.0   50.0
-150.0   60.0   50.0
-200.0   60.0   33.333333333333336
-200.0   30.0   50.0
-150.0   60.0   50.0
-150.0   30.0   50.0
-150.0   30.0   33.333333333333336
-200.0   30.0   50.0
-150.0   60.0   50.0
-150.0   30.0   33.333333333333336
-200.0   60.0   33.333333333333336
-200.0   60.0   0.0
-150.0   60.0   0.0
-200.0   90.0   0.0
-200.0   60.0   16.666666666666668
-150.0   60.0   0.0
-150.0   90.0   0.0
-200.0   90.0   0.0
-150.0   90.0   16.666666666666668
-200.0   60.0   16.666666666666668
-200.0   90.0   16.666666666666668
-150.0   90.0   16.666666666666668
-200.0   90.0   0.0
-200.0   60.0   16.666666666666668
-150.0   90.0   16.666666666666668
-150.0   60.0   16.666666666666668
-150.0   60.0   0.0
-200.0   60.0   16.666666666666668
-150.0   90.0   16.666666666666668
-150.0   60.0   0.0
-200.0   90.0   0.0
-200.0   60.0   16.666666666666668
-150.0   60.0   16.666666666666668
-200.0   90.0   16.666666666666668
-200.0   60.0   33.333333333333336
-150.0   60.0   16.666666666666668
-150.0   90.0   16.666666666666668
-200.0   90.0   16.666666666666668
-150.0   90.0   33.333333333333336
-200.0   60.0   33.333333333333336
-200.0   90.0   33.333333333333336
-150.0   90.0   33.333333333333336
-200.0   90.0   16.666666666666668
-200.0   60.0   33.333333333333336
-150.0   90.0   33.333333333333336
-150.0   60.0   33.333333333333336
-150.0   60.0   16.666666666666668
-200.0   60.0   33.333333333333336
-150.0   90.0   33.333333333333336
-150.0   60.0   16.666666666666668
-200.0   90.0   16.666666666666668
-200.0   60.0   33.333333333333336
-150.0   60.0   33.333333333333336
-200.0   90.0   33.333333333333336
-200.0   60.0   50.0
-150.0   60.0   33.333333333333336
-150.0   90.0   33.333333333333336
-200.0   90.0   33.333333333333336
-150.0   90.0   50.0
-200.0   60.0   50.0
-200.0   90.0   50.0
-150.0   90.0   50.0
-200.0   90.0   33.333333333333336
-200.0   60.0   50.0
-150.0   90.0   50.0
-150.0   60.0   50.0
-150.0   60.0   33.333333333333336
-200.0   60.0   50.0
-150.0   90.0   50.0
-150.0   60.0   33.333333333333336
-200.0   90.0   33.333333333333336
-200.0   90.0   0.0
-150.0   90.0   0.0
-200.0   120.0   0.0
-200.0   90.0   16.666666666666668
-150.0   90.0   0.0
-150.0   120.0   0.0
-200.0   120.0   0.0
-150.0   120.0   16.666666666666668
-200.0   90.0   16.666666666666668
-200.0   120.0   16.666666666666668
-150.0   120.0   16.666666666666668
-200.0   120.0   0.0
-200.0   90.0   16.666666666666668
-150.0   120.0   16.666666666666668
-150.0   90.0   16.666666666666668
-150.0   90.0   0.0
-200.0   90.0   16.666666666666668
-150.0   120.0   16.666666666666668
-150.0   90.0   0.0
-200.0   120.0   0.0
-200.0   90.0   16.666666666666668
-150.0   90.0   16.666666666666668
-200.0   120.0   16.666666666666668
-200.0   90.0   33.333333333333336
-150.0   90.0   16.666666666666668
-150.0   120.0   16.666666666666668
-200.0   120.0   16.666666666666668
-150.0   120.0   33.333333333333336
-200.0   90.0   33.333333333333336
-200.0   120.0   33.333333333333336
-150.0   120.0   33.333333333333336
-200.0   120.0   16.666666666666668
-200.0   90.0   33.333333333333336
-150.0   120.0   33.333333333333336
-150.0   90.0   33.333333333333336
-150.0   90.0   16.666666666666668
-200.0   90.0   33.333333333333336
-150.0   120.0   33.333333333333336
-150.0   90.0   16.666666666666668
-200.0   120.0   16.666666666666668
-200.0   90.0   33.333333333333336
-150.0   90.0   33.333333333333336
-200.0   120.0   33.333333333333336
-200.0   90.0   50.0
-150.0   90.0   33.333333333333336
-150.0   120.0   33.333333333333336
-200.0   120.0   33.333333333333336
-150.0   120.0   50.0
-200.0   90.0   50.0
-200.0   120.0   50.0
-150.0   120.0   50.0
-200.0   120.0   33.333333333333336
-200.0   90.0   50.0
-150.0   120.0   50.0
-150.0   90.0   50.0
-150.0   90.0   33.333333333333336
-200.0   90.0   50.0
-150.0   120.0   50.0
-150.0   90.0   33.333333333333336
-200.0   120.0   33.333333333333336
-200.0   120.0   0.0
-150.0   120.0   0.0
-200.0   150.0   0.0
-200.0   120.0   16.666666666666668
-150.0   120.0   0.0
-150.0   150.0   0.0
-200.0   150.0   0.0
-150.0   150.0   16.666666666666668
-200.0   120.0   16.666666666666668
-200.0   150.0   16.666666666666668
-150.0   150.0   16.666666666666668
-200.0   150.0   0.0
-200.0   120.0   16.666666666666668
-150.0   150.0   16.666666666666668
-150.0   120.0   16.666666666666668
-150.0   120.0   0.0
-200.0   120.0   16.666666666666668
-150.0   150.0   16.666666666666668
-150.0   120.0   0.0
-200.0   150.0   0.0
-200.0   120.0   16.666666666666668
-150.0   120.0   16.666666666666668
-200.0   150.0   16.666666666666668
-200.0   120.0   33.333333333333336
-150.0   120.0   16.666666666666668
-150.0   150.0   16.666666666666668
-200.0   150.0   16.666666666666668
-150.0   150.0   33.333333333333336
-200.0   120.0   33.333333333333336
-200.0   150.0   33.333333333333336
-150.0   150.0   33.333333333333336
-200.0   150.0   16.666666666666668
-200.0   120.0   33.333333333333336
-150.0   150.0   33.333333333333336
-150.0   120.0   33.333333333333336
-150.0   120.0   16.666666666666668
-200.0   120.0   33.333333333333336
-150.0   150.0   33.333333333333336
-150.0   120.0   16.666666666666668
-200.0   150.0   16.666666666666668
-200.0   120.0   33.333333333333336
-150.0   120.0   33.333333333333336
-200.0   150.0   33.333333333333336
-200.0   120.0   50.0
-150.0   120.0   33.333333333333336
-150.0   150.0   33.333333333333336
-200.0   150.0   33.333333333333336
-150.0   150.0   50.0
-200.0   120.0   50.0
-200.0   150.0   50.0
-150.0   150.0   50.0
-200.0   150.0   33.333333333333336
-200.0   120.0   50.0
-150.0   150.0   50.0
-150.0   120.0   50.0
-150.0   120.0   33.333333333333336
-200.0   120.0   50.0
-150.0   150.0   50.0
-150.0   120.0   33.333333333333336
-200.0   150.0   33.333333333333336
-150.0   0.0   0.0
-100.0   0.0   0.0
-150.0   30.0   0.0
-150.0   0.0   16.666666666666668
-100.0   0.0   0.0
-100.0   30.0   0.0
-150.0   30.0   0.0
-100.0   30.0   16.666666666666668
-150.0   0.0   16.666666666666668
-150.0   30.0   16.666666666666668
-100.0   30.0   16.666666666666668
-150.0   30.0   0.0
-150.0   0.0   16.666666666666668
-100.0   30.0   16.666666666666668
-100.0   0.0   16.666666666666668
-100.0   0.0   0.0
-150.0   0.0   16.666666666666668
-100.0   30.0   16.666666666666668
-100.0   0.0   0.0
-150.0   30.0   0.0
-150.0   0.0   16.666666666666668
-100.0   0.0   16.666666666666668
-150.0   30.0   16.666666666666668
-150.0   0.0   33.333333333333336
-100.0   0.0   16.666666666666668
-100.0   30.0   16.666666666666668
-150.0   30.0   16.666666666666668
-100.0   30.0   33.333333333333336
-150.0   0.0   33.333333333333336
-150.0   30.0   33.333333333333336
-100.0   30.0   33.333333333333336
-150.0   30.0   16.666666666666668
-150.0   0.0   33.333333333333336
-100.0   30.0   33.333333333333336
-100.0   0.0   33.333333333333336
-100.0   0.0   16.666666666666668
-150.0   0.0   33.333333333333336
-100.0   30.0   33.333333333333336
-100.0   0.0   16.666666666666668
-150.0   30.0   16.666666666666668
-150.0   0.0   33.333333333333336
-100.0   0.0   33.333333333333336
-150.0   30.0   33.333333333333336
-150.0   0.0   50.0
-100.0   0.0   33.333333333333336
-100.0   30.0   33.333333333333336
-150.0   30.0   33.333333333333336
-100.0   30.0   50.0
-150.0   0.0   50.0
-150.0   30.0   50.0
-100.0   30.0   50.0
-150.0   30.0   33.333333333333336
-150.0   0.0   50.0
-100.0   30.0   50.0
-100.0   0.0   50.0
-100.0   0.0   33.333333333333336
-150.0   0.0   50.0
-100.0   30.0   50.0
-100.0   0.0   33.333333333333336
-150.0   30.0   33.333333333333336
-150.0   30.0   0.0
-100.0   30.0   0.0
-150.0   60.0   0.0
-150.0   30.0   16.666666666666668
-100.0   30.0   0.0
-100.0   60.0   0.0
-150.0   60.0   0.0
-100.0   60.0   16.666666666666668
-150.0   30.0   16.666666666666668
-150.0   60.0   16.666666666666668
-100.0   60.0   16.666666666666668
-150.0   60.0   0.0
-150.0   30.0   16.666666666666668
-100.0   60.0   16.666666666666668
-100.0   30.0   16.666666666666668
-100.0   30.0   0.0
-150.0   30.0   16.666666666666668
-100.0   60.0   16.666666666666668
-100.0   30.0   0.0
-150.0   60.0   0.0
-150.0   30.0   16.666666666666668
-100.0   30.0   16.666666666666668
-150.0   60.0   16.666666666666668
-150.0   30.0   33.333333333333336
-100.0   30.0   16.666666666666668
-100.0   60.0   16.666666666666668
-150.0   60.0   16.666666666666668
-100.0   60.0   33.333333333333336
-150.0   30.0   33.333333333333336
-150.0   60.0   33.333333333333336
-100.0   60.0   33.333333333333336
-150.0   60.0   16.666666666666668
-150.0   30.0   33.333333333333336
-100.0   60.0   33.333333333333336
-100.0   30.0   33.333333333333336
-100.0   30.0   16.666666666666668
-150.0   30.0   33.333333333333336
-100.0   60.0   33.333333333333336
-100.0   30.0   16.666666666666668
-150.0   60.0   16.666666666666668
-150.0   30.0   33.333333333333336
-100.0   30.0   33.333333333333336
-150.0   60.0   33.333333333333336
-150.0   30.0   50.0
-100.0   30.0   33.333333333333336
-100.0   60.0   33.333333333333336
-150.0   60.0   33.333333333333336
-100.0   60.0   50.0
-150.0   30.0   50.0
-150.0   60.0   50.0
-100.0   60.0   50.0
-150.0   60.0   33.333333333333336
-150.0   30.0   50.0
-100.0   60.0   50.0
-100.0   30.0   50.0
-100.0   30.0   33.333333333333336
-150.0   30.0   50.0
-100.0   60.0   50.0
-100.0   30.0   33.333333333333336
-150.0   60.0   33.333333333333336
-150.0   60.0   0.0
-100.0   60.0   0.0
-150.0   90.0   0.0
-150.0   60.0   16.666666666666668
-100.0   60.0   0.0
-100.0   90.0   0.0
-150.0   90.0   0.0
-100.0   90.0   16.666666666666668
-150.0   60.0   16.666666666666668
-150.0   90.0   16.666666666666668
-100.0   90.0   16.666666666666668
-150.0   90.0   0.0
-150.0   60.0   16.666666666666668
-100.0   90.0   16.666666666666668
-100.0   60.0   16.666666666666668
-100.0   60.0   0.0
-150.0   60.0   16.666666666666668
-100.0   90.0   16.666666666666668
-100.0   60.0   0.0
-150.0   90.0   0.0
-150.0   60.0   16.666666666666668
-100.0   60.0   16.666666666666668
-150.0   90.0   16.666666666666668
-150.0   60.0   33.333333333333336
-100.0   60.0   16.666666666666668
-100.0   90.0   16.666666666666668
-150.0   90.0   16.666666666666668
-100.0   90.0   33.333333333333336
-150.0   60.0   33.333333333333336
-150.0   90.0   33.333333333333336
-100.0   90.0   33.333333333333336
-150.0   90.0   16.666666666666668
-150.0   60.0   33.333333333333336
-100.0   90.0   33.333333333333336
-100.0   60.0   33.333333333333336
-100.0   60.0   16.666666666666668
-150.0   60.0   33.333333333333336
-100.0   90.0   33.333333333333336
-100.0   60.0   16.666666666666668
-150.0   90.0   16.666666666666668
-150.0   60.0   33.333333333333336
-100.0   60.0   33.333333333333336
-150.0   90.0   33.333333333333336
-150.0   60.0   50.0
-100.0   60.0   33.333333333333336
-100.0   90.0   33.333333333333336
-150.0   90.0   33.333333333333336
-100.0   90.0   50.0
-150.0   60.0   50.0
-150.0   90.0   50.0
-100.0   90.0   50.0
-150.0   90.0   33.333333333333336
-150.0   60.0   50.0
-100.0   90.0   50.0
-100.0   60.0   50.0
-100.0   60.0   33.333333333333336
-150.0   60.0   50.0
-100.0   90.0   50.0
-100.0   60.0   33.333333333333336
-150.0   90.0   33.333333333333336
-150.0   90.0   0.0
-100.0   90.0   0.0
-150.0   120.0   0.0
-150.0   90.0   16.666666666666668
-100.0   90.0   0.0
-100.0   120.0   0.0
-150.0   120.0   0.0
-100.0   120.0   16.666666666666668
-150.0   90.0   16.666666666666668
-150.0   120.0   16.666666666666668
-100.0   120.0   16.666666666666668
-150.0   120.0   0.0
-150.0   90.0   16.666666666666668
-100.0   120.0   16.666666666666668
-100.0   90.0   16.666666666666668
-100.0   90.0   0.0
-150.0   90.0   16.666666666666668
-100.0   120.0   16.666666666666668
-100.0   90.0   0.0
-150.0   120.0   0.0
-150.0   90.0   16.666666666666668
-100.0   90.0   16.666666666666668
-150.0   120.0   16.666666666666668
-150.0   90.0   33.333333333333336
-100.0   90.0   16.666666666666668
-100.0   120.0   16.666666666666668
-150.0   120.0   16.666666666666668
-100.0   120.0   33.333333333333336
-150.0   90.0   33.333333333333336
-150.0   120.0   33.333333333333336
-100.0   120.0   33.333333333333336
-150.0   120.0   16.666666666666668
-150.0   90.0   33.333333333333336
-100.0   120.0   33.333333333333336
-100.0   90.0   33.333333333333336
-100.0   90.0   16.666666666666668
-150.0   90.0   33.333333333333336
-100.0   120.0   33.333333333333336
-100.0   90.0   16.666666666666668
-150.0   120.0   16.666666666666668
-150.0   90.0   33.333333333333336
-100.0   90.0   33.333333333333336
-150.0   120.0   33.333333333333336
-150.0   90.0   50.0
-100.0   90.0   33.333333333333336
-100.0   120.0   33.333333333333336
-150.0   120.0   33.333333333333336
-100.0   120.0   50.0
-150.0   90.0   50.0
-150.0   120.0   50.0
-100.0   120.0   50.0
-150.0   120.0   33.333333333333336
-150.0   90.0   50.0
-100.0   120.0   50.0
-100.0   90.0   50.0
-100.0   90.0   33.333333333333336
-150.0   90.0   50.0
-100.0   120.0   50.0
-100.0   90.0   33.333333333333336
-150.0   120.0   33.333333333333336
-150.0   120.0   0.0
-100.0   120.0   0.0
-150.0   150.0   0.0
-150.0   120.0   16.666666666666668
-100.0   120.0   0.0
-100.0   150.0   0.0
-150.0   150.0   0.0
-100.0   150.0   16.666666666666668
-150.0   120.0   16.666666666666668
-150.0   150.0   16.666666666666668
-100.0   150.0   16.666666666666668
-150.0   150.0   0.0
-150.0   120.0   16.666666666666668
-100.0   150.0   16.666666666666668
-100.0   120.0   16.666666666666668
-100.0   120.0   0.0
-150.0   120.0   16.666666666666668
-100.0   150.0   16.666666666666668
-100.0   120.0   0.0
-150.0   150.0   0.0
-150.0   120.0   16.666666666666668
-100.0   120.0   16.666666666666668
-150.0   150.0   16.666666666666668
-150.0   120.0   33.333333333333336
-100.0   120.0   16.666666666666668
-100.0   150.0   16.666666666666668
-150.0   150.0   16.666666666666668
-100.0   150.0   33.333333333333336
-150.0   120.0   33.333333333333336
-150.0   150.0   33.333333333333336
-100.0   150.0   33.333333333333336
-150.0   150.0   16.666666666666668
-150.0   120.0   33.333333333333336
-100.0   150.0   33.333333333333336
-100.0   120.0   33.333333333333336
-100.0   120.0   16.666666666666668
-150.0   120.0   33.333333333333336
-100.0   150.0   33.333333333333336
-100.0   120.0   16.666666666666668
-150.0   150.0   16.666666666666668
-150.0   120.0   33.333333333333336
-100.0   120.0   33.333333333333336
-150.0   150.0   33.333333333333336
-150.0   120.0   50.0
-100.0   120.0   33.333333333333336
-100.0   150.0   33.333333333333336
-150.0   150.0   33.333333333333336
-100.0   150.0   50.0
-150.0   120.0   50.0
-150.0   150.0   50.0
-100.0   150.0   50.0
-150.0   150.0   33.333333333333336
-150.0   120.0   50.0
-100.0   150.0   50.0
-100.0   120.0   50.0
-100.0   120.0   33.333333333333336
-150.0   120.0   50.0
-100.0   150.0   50.0
-100.0   120.0   33.333333333333336
-150.0   150.0   33.333333333333336
-100.0   0.0   0.0
-50.0   0.0   0.0
-100.0   30.0   0.0
-100.0   0.0   16.666666666666668
-50.0   0.0   0.0
-50.0   30.0   0.0
-100.0   30.0   0.0
-50.0   30.0   16.666666666666668
-100.0   0.0   16.666666666666668
-100.0   30.0   16.666666666666668
-50.0   30.0   16.666666666666668
-100.0   30.0   0.0
-100.0   0.0   16.666666666666668
-50.0   30.0   16.666666666666668
-50.0   0.0   16.666666666666668
-50.0   0.0   0.0
-100.0   0.0   16.666666666666668
-50.0   30.0   16.666666666666668
-50.0   0.0   0.0
-100.0   30.0   0.0
-100.0   0.0   16.666666666666668
-50.0   0.0   16.666666666666668
-100.0   30.0   16.666666666666668
-100.0   0.0   33.333333333333336
-50.0   0.0   16.666666666666668
-50.0   30.0   16.666666666666668
-100.0   30.0   16.666666666666668
-50.0   30.0   33.333333333333336
-100.0   0.0   33.333333333333336
-100.0   30.0   33.333333333333336
-50.0   30.0   33.333333333333336
-100.0   30.0   16.666666666666668
-100.0   0.0   33.333333333333336
-50.0   30.0   33.333333333333336
-50.0   0.0   33.333333333333336
-50.0   0.0   16.666666666666668
-100.0   0.0   33.333333333333336
-50.0   30.0   33.333333333333336
-50.0   0.0   16.666666666666668
-100.0   30.0   16.666666666666668
-100.0   0.0   33.333333333333336
-50.0   0.0   33.333333333333336
-100.0   30.0   33.333333333333336
-100.0   0.0   50.0
-50.0   0.0   33.333333333333336
-50.0   30.0   33.333333333333336
-100.0   30.0   33.333333333333336
-50.0   30.0   50.0
-100.0   0.0   50.0
-100.0   30.0   50.0
-50.0   30.0   50.0
-100.0   30.0   33.333333333333336
-100.0   0.0   50.0
-50.0   30.0   50.0
-50.0   0.0   50.0
-50.0   0.0   33.333333333333336
-100.0   0.0   50.0
-50.0   30.0   50.0
-50.0   0.0   33.333333333333336
-100.0   30.0   33.333333333333336
-100.0   30.0   0.0
-50.0   30.0   0.0
-100.0   60.0   0.0
-100.0   30.0   16.666666666666668
-50.0   30.0   0.0
-50.0   60.0   0.0
-100.0   60.0   0.0
-50.0   60.0   16.666666666666668
-100.0   30.0   16.666666666666668
-100.0   60.0   16.666666666666668
-50.0   60.0   16.666666666666668
-100.0   60.0   0.0
-100.0   30.0   16.666666666666668
-50.0   60.0   16.666666666666668
-50.0   30.0   16.666666666666668
-50.0   30.0   0.0
-100.0   30.0   16.666666666666668
-50.0   60.0   16.666666666666668
-50.0   30.0   0.0
-100.0   60.0   0.0
-100.0   30.0   16.666666666666668
-50.0   30.0   16.666666666666668
-100.0   60.0   16.666666666666668
-100.0   30.0   33.333333333333336
-50.0   30.0   16.666666666666668
-50.0   60.0   16.666666666666668
-100.0   60.0   16.666666666666668
-50.0   60.0   33.333333333333336
-100.0   30.0   33.333333333333336
-100.0   60.0   33.333333333333336
-50.0   60.0   33.333333333333336
-100.0   60.0   16.666666666666668
-100.0   30.0   33.333333333333336
-50.0   60.0   33.333333333333336
-50.0   30.0   33.333333333333336
-50.0   30.0   16.666666666666668
-100.0   30.0   33.333333333333336
-50.0   60.0   33.333333333333336
-50.0   30.0   16.666666666666668
-100.0   60.0   16.666666666666668
-100.0   30.0   33.333333333333336
-50.0   30.0   33.333333333333336
-100.0   60.0   33.333333333333336
-100.0   30.0   50.0
-50.0   30.0   33.333333333333336
-50.0   60.0   33.333333333333336
-100.0   60.0   33.333333333333336
-50.0   60.0   50.0
-100.0   30.0   50.0
-100.0   60.0   50.0
-50.0   60.0   50.0
-100.0   60.0   33.333333333333336
-100.0   30.0   50.0
-50.0   60.0   50.0
-50.0   30.0   50.0
-50.0   30.0   33.333333333333336
-100.0   30.0   50.0
-50.0   60.0   50.0
-50.0   30.0   33.333333333333336
-100.0   60.0   33.333333333333336
-100.0   60.0   0.0
-50.0   60.0   0.0
-100.0   90.0   0.0
-100.0   60.0   16.666666666666668
-50.0   60.0   0.0
-50.0   90.0   0.0
-100.0   90.0   0.0
-50.0   90.0   16.666666666666668
-100.0   60.0   16.666666666666668
-100.0   90.0   16.666666666666668
-50.0   90.0   16.666666666666668
-100.0   90.0   0.0
-100.0   60.0   16.666666666666668
-50.0   90.0   16.666666666666668
-50.0   60.0   16.666666666666668
-50.0   60.0   0.0
-100.0   60.0   16.666666666666668
-50.0   90.0   16.666666666666668
-50.0   60.0   0.0
-100.0   90.0   0.0
-100.0   60.0   16.666666666666668
-50.0   60.0   16.666666666666668
-100.0   90.0   16.666666666666668
-100.0   60.0   33.333333333333336
-50.0   60.0   16.666666666666668
-50.0   90.0   16.666666666666668
-100.0   90.0   16.666666666666668
-50.0   90.0   33.333333333333336
-100.0   60.0   33.333333333333336
-100.0   90.0   33.333333333333336
-50.0   90.0   33.333333333333336
-100.0   90.0   16.666666666666668
-100.0   60.0   33.333333333333336
-50.0   90.0   33.333333333333336
-50.0   60.0   33.333333333333336
-50.0   60.0   16.666666666666668
-100.0   60.0   33.333333333333336
-50.0   90.0   33.333333333333336
-50.0   60.0   16.666666666666668
-100.0   90.0   16.666666666666668
-100.0   60.0   33.333333333333336
-50.0   60.0   33.333333333333336
-100.0   90.0   33.333333333333336
-100.0   60.0   50.0
-50.0   60.0   33.333333333333336
-50.0   90.0   33.333333333333336
-100.0   90.0   33.333333333333336
-50.0   90.0   50.0
-100.0   60.0   50.0
-100.0   90.0   50.0
-50.0   90.0   50.0
-100.0   90.0   33.333333333333336
-100.0   60.0   50.0
-50.0   90.0   50.0
-50.0   60.0   50.0
-50.0   60.0   33.333333333333336
-100.0   60.0   50.0
-50.0   90.0   50.0
-50.0   60.0   33.333333333333336
-100.0   90.0   33.333333333333336
-100.0   90.0   0.0
-50.0   90.0   0.0
-100.0   120.0   0.0
-100.0   90.0   16.666666666666668
-50.0   90.0   0.0
-50.0   120.0   0.0
-100.0   120.0   0.0
-50.0   120.0   16.666666666666668
-100.0   90.0   16.666666666666668
-100.0   120.0   16.666666666666668
-50.0   120.0   16.666666666666668
-100.0   120.0   0.0
-100.0   90.0   16.666666666666668
-50.0   120.0   16.666666666666668
-50.0   90.0   16.666666666666668
-50.0   90.0   0.0
-100.0   90.0   16.666666666666668
-50.0   120.0   16.666666666666668
-50.0   90.0   0.0
-100.0   120.0   0.0
-100.0   90.0   16.666666666666668
-50.0   90.0   16.666666666666668
-100.0   120.0   16.666666666666668
-100.0   90.0   33.333333333333336
-50.0   90.0   16.666666666666668
-50.0   120.0   16.666666666666668
-100.0   120.0   16.666666666666668
-50.0   120.0   33.333333333333336
-100.0   90.0   33.333333333333336
-100.0   120.0   33.333333333333336
-50.0   120.0   33.333333333333336
-100.0   120.0   16.666666666666668
-100.0   90.0   33.333333333333336
-50.0   120.0   33.333333333333336
-50.0   90.0   33.333333333333336
-50.0   90.0   16.666666666666668
-100.0   90.0   33.333333333333336
-50.0   120.0   33.333333333333336
-50.0   90.0   16.666666666666668
-100.0   120.0   16.666666666666668
-100.0   90.0   33.333333333333336
-50.0   90.0   33.333333333333336
-100.0   120.0   33.333333333333336
-100.0   90.0   50.0
-50.0   90.0   33.333333333333336
-50.0   120.0   33.333333333333336
-100.0   120.0   33.333333333333336
-50.0   120.0   50.0
-100.0   90.0   50.0
-100.0   120.0   50.0
-50.0   120.0   50.0
-100.0   120.0   33.333333333333336
-100.0   90.0   50.0
-50.0   120.0   50.0
-50.0   90.0   50.0
-50.0   90.0   33.333333333333336
-100.0   90.0   50.0
-50.0   120.0   50.0
-50.0   90.0   33.333333333333336
-100.0   120.0   33.333333333333336
-100.0   120.0   0.0
-50.0   120.0   0.0
-100.0   150.0   0.0
-100.0   120.0   16.666666666666668
-50.0   120.0   0.0
-50.0   150.0   0.0
-100.0   150.0   0.0
-50.0   150.0   16.666666666666668
-100.0   120.0   16.666666666666668
-100.0   150.0   16.666666666666668
-50.0   150.0   16.666666666666668
-100.0   150.0   0.0
-100.0   120.0   16.666666666666668
-50.0   150.0   16.666666666666668
-50.0   120.0   16.666666666666668
-50.0   120.0   0.0
-100.0   120.0   16.666666666666668
-50.0   150.0   16.666666666666668
-50.0   120.0   0.0
-100.0   150.0   0.0
-100.0   120.0   16.666666666666668
-50.0   120.0   16.666666666666668
-100.0   150.0   16.666666666666668
-100.0   120.0   33.333333333333336
-50.0   120.0   16.666666666666668
-50.0   150.0   16.666666666666668
-100.0   150.0   16.666666666666668
-50.0   150.0   33.333333333333336
-100.0   120.0   33.333333333333336
-100.0   150.0   33.333333333333336
-50.0   150.0   33.333333333333336
-100.0   150.0   16.666666666666668
-100.0   120.0   33.333333333333336
-50.0   150.0   33.333333333333336
-50.0   120.0   33.333333333333336
-50.0   120.0   16.666666666666668
-100.0   120.0   33.333333333333336
-50.0   150.0   33.333333333333336
-50.0   120.0   16.666666666666668
-100.0   150.0   16.666666666666668
-100.0   120.0   33.333333333333336
-50.0   120.0   33.333333333333336
-100.0   150.0   33.333333333333336
-100.0   120.0   50.0
-50.0   120.0   33.333333333333336
-50.0   150.0   33.333333333333336
-100.0   150.0   33.333333333333336
-50.0   150.0   50.0
-100.0   120.0   50.0
-100.0   150.0   50.0
-50.0   150.0   50.0
-100.0   150.0   33.333333333333336
-100.0   120.0   50.0
-50.0   150.0   50.0
-50.0   120.0   50.0
-50.0   120.0   33.333333333333336
-100.0   120.0   50.0
-50.0   150.0   50.0
-50.0   120.0   33.333333333333336
-100.0   150.0   33.333333333333336
-50.0   0.0   0.0
0.0   0.0   0.0
-50.0   30.0   0.0
-50.0   0.0   16.666666666666668
0.0   0.0   0.0
0.0   30.0   0.0
-50.0   30.0   0.0
0.0   30.0   16.666666666666668
-50.0   0.0   16.666666666666668
-50.0   30.0   16.666666666666668
0.0   30.0   16.666666666666668
-50.0   30.0   0.0
-50.0   0.0   16.666666666666668
0.0   30.0   16.666666666666668
0.0   0.0   16.666666666666668
0.0   0.0   0.0
-50.0   0.0   16.666666666666668
0.0   30.0   16.666666666666668
0.0   0.0   0.0
-50.0   30.0   0.0
-50.0   0.0   16.666666666666668
0.0   0.0   16.666666666666668
-50.0   30.0   16.666666666666668
-50.0   0.0   33.333333333333336
0.0   0.0   16.666666666666668
0.0   30.0   16.666666666666668
-50.0   30.0   16.666666666666668
0.0   30.0   33.333333333333336
-50.0   0.0   33.333333333333336
-50.0   30.0   33.333333333333336
0.0   30.0   33.333333333333336
-50.0   30.0   16.666666666666668
-50.0   0.0   33.333333333333336
0.0   30.0   33.333333333333336
0.0   0.0   33.333333333333336
0.0   0.0   16.666666666666668
-50.0   0.0   33.333333333333336
0.0   30.0   33.333333333333336
0.0   0.0   16.666666666666668
-50.0   30.0   16.666666666666668
-50.0   0.0   33.333333333333336
0.0   0.0   33.333333333333336
-50.0   30.0   33.333333333333336
-50.0   0.0   50.0
0.0   0.0   33.333333333333336
0.0   30.0   33.333333333333336
-50.0   30.0   33.333333333333336
0.0   30.0   50.0
-50.0   0.0   50.0
-50.0   30.0   50.0
0.0   30.0   50.0
-50.0   30.0   33.333333333333336
-50.0   0.0   50.0
0.0   30.0   50.0
0.0   0.0   50.0
0.0   0.0   33.333333333333336
-50.0   0.0   50.0
0.0   30.0   50.0
0.0   0.0   33.333333333333336
-50.0   30.0   33.333333333333336
-50.0   30.0   0.0
0.0   30.0   0.0
-50.0   60.0   0.0
-50.0   30.0   16.666666666666668
0.0   30.0   0.0
0.0   60.0   0.0
-50.0   60.0   0.0
0.0   60.0   16.666666666666668
-50.0   30.0   16.666666666666668
-50.0   60.0   16.666666666666668
0.0   60.0   16.666666666666668
-50.0   60.0   0.0
-50.0   30.0   16.666666666666668
0.0   60.0   16.666666666666668
0.0   30.0   16.666666666666668
0.0   30.0   0.0
-50.0   30.0   16.666666666666668
0.0   60.0   16.666666666666668
0.0   30.0   0.0
-50.0   60.0   0.0
-50.0   30.0   16.666666666666668
0.0   30.0   16.666666666666668
-50.0   60.0   16.666666666666668
-50.0   30.0   33.333333333333336
0.0   30.0   16.666666666666668
0.0   60.0   16.666666666666668
-50.0   60.0   16.666666666666668
0.0   60.0   33.333333333333336
-50.0   30.0   33.333333333333336
-50.0   60.0   33.333333333333336
0.0   60.0   33.333333333333336
-50.0   60.0   16.666666666666668
-50.0   30.0   33.333333333333336
0.0   60.0   33.333333333333336
0.0   30.0   33.333333333333336
0.0   30.0   16.666666666666668
-50.0   30.0   33.333333333333336
0.0   60.0   33.333333333333336
0.0   30.0   16.666666666666668
-50.0   60.0   16.666666666666668
-50.0   30.0   33.333333333333336
0.0   30.0   33.333333333333336
-50.0   60.0   33.333333333333336
-50.0   30.0   50.0
0.0   30.0   33.333333333333336
0.0   60.0   33.333333333333336
-50.0   60.0   33.333333333333336
0.0   60.0   50.0
-50.0   30.0   50.0
-50.0   60.0   50.0
0.0   60.0   50.0
-50.0   60.0   33.333333333333336
-50.0   30.0   50.0
0.0   60.0   50.0
0.0   30.0   50.0
0.0   30.0   33.333333333333336
-50.0   30.0   50.0
0.0   60.0   50.0
0.0   30.0   33.333333333333336
-50.0   60.0   33.333333333333336
-50.0   60.0   0.0
0.0   60.0   0.0
-50.0   90.0   0.0
-50.0   60.0   16.666666666666668
0.0   60.0   0.0
0.0   90.0   0.0
-50.0   90.0   0.0
0.0   90.0   16.666666666666668
-50.0   60.0   16.666666666666668
-50.0   90.0   16.666666666666668
0.0   90.0   16.666666666666668
-50.0   90.0   0.0
-50.0   60.0   16.666666666666668
0.0   90.0   16.666666666666668
0.0   60.0   16.666666666666668
0.0   60.0   0.0
-50.0   60.0   16.666666666666668
0.0   90.0   16.666666666666668
0.0   60.0   0.0
-50.0   90.0   0.0
-50.0   60.0   16.666666666666668
0.0   60.0   16.666666666666668
-50.0   90.0   16.666666666666668
-50.0   60.0   33.333333333333336
0.0   60.0   16.666666666666668
0.0   90.0   16.666666666666668
-50.0   90.0   16.666666666666668
0.0   90.0   33.333333333333336
-50.0   60.0   33.333333333333336
-50.0   90.0   33.333333333333336
0.0   90.0   33.333333333333336
-50.0   90.0   16.666666666666668
-50.0   60.0   33.333333333333336
0.0   90.0   33.333333333333336
0.0   60.0   33.333333333333336
0.0   60.0   16.666666666666668
-50.0   60.0   33.333333333333336
0.0   90.0   33.333333333333336
0.0   60.0   16.666666666666668
-50.0   90.0   16.666666666666668
-50.0   60.0   33.333333333333336
0.0   60.0   33.333333333333336
-50.0   90.0   33.333333333333336
-50.0   60.0   50.0
0.0   60.0   33.333333333333336
0.0   90.0   33.333333333333336
-50.0   90.0   33.333333333333336
0.0   90.0   50.0
-50.0   60.0   50.0
-50.0   90.0   50.0
0.0   90.0   50.0
-50.0   90.0   33.333333333333336
-50.0   60.0   50.0
0.0   90.0   50.0
0.0   60.0   50.0
0.0   60.0   33.333333333333336
-50.0   60.0   50.0
0.0   90.0   50.0
0.0   60.0   33.333333333333336
-50.0   90.0   33.333333333333336
-50.0   90.0   0.0
0.0   90.0   0.0
-50.0   120.0   0.0
-50.0   90.0   16.666666666666668
0.0   90.0   0.0
0.0   120.0   0.0
-50.0   120.0   0.0
0.0   120.0   16.666666666666668
-50.0   90.0   16.666666666666668
-50.0   120.0   16.666666666666668
0.0   120.0   16.666666666666668
-50.0   120.0   0.0
-50.0   90.0   16.666666666666668
0.0   120.0   16.666666666666668
0.0   90.0   16.666666666666668
0.0   90.0   0.0
-50.0   90.0   16.666666666666668
0.0   120.0   16.666666666666668
0.0   90.0   0.0
-50.0   120.0   0.0
-50.0   90.0   16.666666666666668
0.0   90.0   16.666666666666668
-50.0   120.0   16.666666666666668
-50.0   90.0   33.333333333333336
0.0   90.0   16.666666666666668
0.0   120.0   16.666666666666668
-50.0   120.0   16.666666666666668
0.0   120.0   33.333333333333336
-50.0   90.0   33.333333333333336
-50.0   120.0   33.333333333333336
0.0   120.0   33.333333333333336
-50.0   120.0   16.666666666666668
-50.0   90.0   33.333333333333336
0.0   120.0   33.333333333333336
0.0   90.0   33.333333333333336
0.0   90.0   16.666666666666668
-50.0   90.0   33.333333333333336
0.0   120.0   33.333333333333336
0.0   90.0   16.666666666666668
-50.0   120.0   16.666666666666668
-50.0   90.0   33.333333333333336
0.0   90.0   33.333333333333336
-50.0   120.0   33.333333333333336
-50.0   90.0   50.0
0.0   90.0   33.333333333333336
0.0   120.0   33.333333333333336
-50.0   120.0   33.333333333333336
0.0   120.0   50.0
-50.0   90.0   50.0
-50.0   120.0   50.0
0.0   120.0   50.0
-50.0   120.0   33.333333333333336
-50.0   90.0   50.0
0.0   120.0   50.0
0.0   90.0   50.0
0.0   90.0   33.333333333333336
-50.0   90.0   50.0
0.0   120.0   50.0
0.0   90.0   33.333333333333336
-50.0   120.0   33.333333333333336
-50.0   120.0   0.0
0.0   120.0   0.0
-50.0   150.0   0.0
-50.0   120.0   16.666666666666668
0.0   120.0   0.0
0.0   150.0   0.0
-50.0   150.0   0.0
0.0   150.0   16.666666666666668
-50.0   120.0   16.666666666666668
-50.0   150.0   16.666666666666668
0.0   150.0   16.666666666666668
-50.0   150.0   0.0
-50.0   120.0   16.666666666666668
0.0   150.0   16.666666666666668
0.0   120.0   16.666666666666668
0.0   120.0   0.0
-50.0   120.0   16.666666666666668
0.0   150.0   16.666666666666668
0.0   120.0   0.0
-50.0   150.0   0.0
-50.0   120.0   16.666666666666668
0.0   120.0   16.666666666666668
-50.0   150.0   16.666666666666668
-50.0   120.0   33.333333333333336
0.0   120.0   16.666666666666668
0.0   150.0   16.666666666666668
-50.0   150.0   16.666666666666668
0.0   150.0   33.333333333333336
-50.0   120.0   33.333333333333336
-50.0   150.0   33.333333333333336
0.0   150.0   33.333333333333336
-50.0   150.0   16.666666666666668
-50.0   120.0   33.333333333333336
0.0   150.0   33.333333333333336
0.0   120.0   33.333333333333336
0.0   120.0   16.666666666666668
-50.0   120.0   33.333333333333336
0.0   150.0   33.333333333333336
0.0   120.0   16.666666666666668
-50.0   150.0   16.666666666666668
-50.0   120.0   33.333333333333336
0.0   120.0   33.333333333333336
-50.0   150.0   33.333333333333336
-50.0   120.0   50.0
0.0   120.0   33.333333333333336
0.0   150.0   33.333333333333336
-50.0   150.0   33.333333333333336
0.0   150.0   50.0
-50.0   120.0   50.0
-50.0   150.0   50.0
0.0   150.0   50.0
-50.0   150.0   33.333333333333336
-50.0   120.0   50.0
0.0   150.0   50.0
0.0   120.0   50.0
0.0   120.0   33.333333333333336
-50.0   120.0   50.0
0.0   150.0   50.0
0.0   120.0   33.333333333333336
-50.0   150.0   33.333333333333336
0.0   0.0   0.0
50.0   0.0   0.0
0.0   30.0   0.0
0.0   0.0   16.666666666666668
50.0   0.0   0.0
50.0   30.0   0.0
0.0   30.0   0.0
50.0   30.0   16.666666666666668
0.0   0.0   16.666666666666668
0.0   30.0   16.666666666666668
50.0   30.0   16.666666666666668
0.0   30.0   0.0
0.0   0.0   16.666666666666668
50.0   30.0   16.666666666666668
50.0   0.0   16.666666666666668
50.0   0.0   0.0
0.0   0.0   16.666666666666668
50.0   30.0   16.666666666666668
50.0   0.0   0.0
0.0   30.0   0.0
0.0   0.0   16.666666666666668
50.0   0.0   16.666666666666668
0.0   30.0   16.666666666666668
0.0   0.0   33.333333333333336
50.0   0.0   16.666666666666668
50.0   30.0   16.666666666666668
0.0   30.0   16.666666666666668
50.0   30.0   33.333333333333336
0.0   0.0   33.333333333333336
0.0   30.0   33.333333333333336
50.0   30.0   33.333333333333336
0.0   30.0   16.666666666666668
0.0   0.0   33.333333333333336
50.0   30.0   33.333333333333336
50.0   0.0   33.333333333333336
50.0   0.0   16.666666666666668
0.0   0.0   33.333333333333336
50.0   30.0   33.333333333333336
50.0   0.0   16.666666666666668
0.0   30.0   16.666666666666668
0.0   0.0   33.333333333333336
50.0   0.0   33.333333333333336
0.0   30.0   33.333333333333336
0.0   0.0   50.0
50.0   0.0   33.333333333333336
50.0   30.0   33.333333333333336
0.0   30.0   33.333333333333336
50.0   30.0   50.0
0.0   0.0   50.0
0.0   30.0   50.0
50.0   30.0   50.0
0.0   30.0   33.333333333333336
0.0   0.0   50.0
50.0   30.0   50.0
50.0   0.0   50.0
50.0   0.0   33.333333333333336
0.0   0.0   50.0
50.0   30.0   50.0
50.0   0.0   33.333333333333336
0.0   30.0   33.333333333333336
0.0   30.0   0.0
50.0   30.0   0.0
0.0   60.0   0.0
0.0   30.0   16.666666666666668
50.0   30.0   0.0
50.0   60.0   0.0
0.0   60.0   0.0
50.0   60.0   16.666666666666668
0.0   30.0   16.666666666666668
0.0   60.0   16.666666666666668
50.0   60.0   16.666666666666668
0.0   60.0   0.0
0.0   30.0   16.666666666666668
50.0   60.0   16.666666666666668
50.0   30.0   16.666666666666668
50.0   30.0   0.0
0.0   30.0   16.666666666666668
50.0   60.0   16.666666666666668
50.0   30.0   0.0
0.0   60.0   0.0
0.0   30.0   16.666666666666668
50.0   30.0   16.666666666666668
0.0   60.0   16.666666666666668
0.0   30.0   33.333333333333336
50.0   30.0   16.666666666666668
50.0   60.0   16.666666666666668
0.0   60.0   16.666666666666668
50.0   60.0   33.333333333333336
0.0   30.0   33.333333333333336
0.0   60.0   33.333333333333336
50.0   60.0   33.333333333333336
0.0   60.0   16.666666666666668
0.0   30.0   33.333333333333336
50.0   60.0   33.333333333333336
50.0   30.0   33.333333333333336
50.0   30.0   16.666666666666668
0.0   30.0   33.333333333333336
50.0   60.0   33.333333333333336
50.0   30.0   16.666666666666668
0.0   60.0   16.666666666666668
0.0   30.0   33.333333333333336
50.0   30.0   33.333333333333336
0.0   60.0   33.333333333333336
0.0   30.0   50.0
50.0   30.0   33.333333333333336
50.0   60.0   33.333333333333336
0.0   60.0   33.333333333333336
50.0   60.0   50.0
0.0   30.0   50.0
0.0   60.0   50.0
50.0   60.0   50.0
0.0   60.0   33.333333333333336
0.0   30.0   50.0
50.0   60.0   50.0
50.0   30.0   50.0
50.0   30.0   33.333333333333336
0.0   30.0   50.0
50.0   60.0   50.0
50.0   30.0   33.333333333333336
0.0   60.0   33.333333333333336
0.0   60.0   0.0
50.0   60.0   0.0
0.0   90.0   0.0
0.0   60.0   16.666666666666668
50.0   60.0   0.0
50.0   90.0   0.0
0.0   90.0   0.0
50.0   90.0   16.666666666666668
0.0   60.0   16.666666666666668
0.0   90.0   16.666666666666668
50.0   90.0   16.666666666666668
0.0   90.0   0.0
0.0   60.0   16.666666666666668
50.0   90.0   16.666666666666668
50.0   60.0   16.666666666666668
50.0   60.0   0.0
0.0   60.0   16.666666666666668
50.0   90.0   16.666666666666668
50.0   60.0   0.0
0.0   90.0   0.0
0.0   60.0   16.666666666666668
50.0   60.0   16.666666666666668
0.0   90.0   16.666666666666668
0.0   60.0   33.333333333333336
50.0   60.0   16.666666666666668
50.0   90.0   16.666666666666668
0.0   90.0   16.666666666666668
50.0   90.0   33.333333333333336
0.0   60.0   33.333333333333336
0.0   90.0   33.333333333333336
50.0   90.0   33.333333333333336
0.0   90.0   16.666666666666668
0.0   60.0   33.333333333333336
50.0   90.0   33.333333333333336
50.0   60.0   33.333333333333336
50.0   60.0   16.666666666666668
0.0   60.0   33.333333333333336
50.0   90.0   33.333333333333336
50.0   60.0   16.666666666666668
0.0   90.0   16.666666666666668
0.0   60.0   33.333333333333336
50.0   60.0   33.333333333333336
0.0   90.0   33.333333333333336
0.0   60.0   50.0
50.0   60.0   33.333333333333336
50.0   90.0   33.333333333333336
0.0   90.0   33.333333333333336
50.0   90.0   50.0
0.0   60.0   50.0
0.0   90.0   50.0
50.0   90.0   50.0
0.0   90.0   33.333333333333336
0.0   60.0   50.0
50.0   90.0   50.0
50.0   60.0   50.0
50.0   60.0   33.333333333333336
0.0   60.0   50.0
50.0   90.0   50.0
50.0   60.0   33.333333333333336
0.0   90.0   33.333333333333336
0.0   90.0   0.0
50.0   90.0   0.0
0.0   120.0   0.0
0.0   90.0   16.666666666666668
50.0   90.0   0.0
50.0   120.0   0.0
0.0   120.0   0.0
50.0   120.0   16.666666666666668
0.0   90.0   16.666666666666668
0.0   120.0   16.666666666666668
50.0   120.0   16.666666666666668
0.0   120.0   0.0
0.0   90.0   16.666666666666668
50.0   120.0   16.666666666666668
50.0   90.0   16.666666666666668
50.0   90.0   0.0
0.0   90.0   16.666666666666668
50.0   120.0   16.666666666666668
50.0   90.0   0.0
0.0   120.0   0.0
0.0   90.0   16.666666666666668
50.0   90.0   16.666666666666668
0.0   120.0   16.666666666666668
0.0   90.0   33.333333333333336
50.0   90.0   16.666666666666668
50.0   120.0   16.666666666666668
0.0   120.0   16.666666666666668
50.0   120.0   33.333333333333336
0.0   90.0   33.333333333333336
0.0   120.0   33.333333333333336
50.0   120.0   33.333333333333336
0.0   120.0   16.666666666666668
0.0   90.0   33.333333333333336
50.0   120.0   33.333333333333336
50.0   90.0   33.333333333333336
50.0   90.0   16.666666666666668
0.0   90.0   33.333333333333336
50.0   120.0   33.333333333333336
50.0   90.0   16.666666666666668
0.0   120.0   16.666666666666668
0.0   90.0   33.333333333333336
50.0   90.0   33.333333333333336
0.0   120.0   33.333333333333336
0.0   90.0   50.0
50.0   90.0   33.333333333333336
50.0   120.0   33.333333333333336
0.0   120.0   33.333333333333336
50.0   120.0   50.0
0.0   90.0   50.0
0.0   120.0   50.0
50.0   120.0   50.0
0.0   120.0   33.333333333333336
0.0   90.0   50.0
50.0   120.0   50.0
50.0   90.0   50.0
50.0   90.0   33.333333333333336
0.0   90.0   50.0
50.0   120.0   50.0
50.0   90.0   33.333333333333336
0.0   120.0   33.333333333333336
0.0   120.0   0.0
50.0   120.0   0.0
0.0   150.0   0.0
0.0   120.0   16.666666666666668
50.0   120.0   0.0
50.0   150.0   0.0
0.0   150.0   0.0
50.0   150.0   16.666666666666668
0.0   120.0   16.666666666666668
0.0   150.0   16.666666666666668
50.0   150.0   16.666666666666668
0.0   150.0   0.0
0.0   120.0   16.666666666666668
50.0   150.0   16.666666666666668
50.0   120.0   16.666666666666668
50.0   120.0   0.0
0.0   120.0   16.666666666666668
50.0   150.0   16.666666666666668
50.0   120.0   0.0
0.0   150.0   0.0
0.0   120.0   16.666666666666668
50.0   120.0   16.666666666666668
0.0   150.0   16.666666666666668
0.0   120.0   33.333333333333336
50.0   120.0   16.666666666666668
50.0   150.0   16.666666666666668
0.0   150.0   16.666666666666668
50.0   150.0   33.333333333333336
0.0   120.0   33.333333333333336
0.0   150.0   33.333333333333336
50.0   150.0   33.333333333333336
0.0   150.0   16.666666666666668
0.0   120.0   33.333333333333336
50.0   150.0   33.333333333333336
50.0   120.0   33.333333333333336
50.0   120.0   16.666666666666668
0.0   120.0   33.333333333333336
50.0   150.0   33.333333333333336
50.0   120.0   16.666666666666668
0.0   150.0   16.666666666666668
0.0   120.0   33.333333333333336
50.0   120.0   33.333333333333336
0.0   150.0   33.333333333333336
0.0   120.0   50.0
50.0   120.0   33.333333333333336
50.0   150.0   33.333333333333336
0.0   150.0   33.333333333333336
50.0   150.0   50.0
0.0   120.0   50.0
0.0   150.0   50.0
50.0   150.0   50.0
0.0   150.0   33.333333333333336
0.0   120.0   50.0
50.0   150.0   50.0
50.0   120.0   50.0
50.0   120.0   33.333333333333336
0.0   120.0   50.0
50.0   150.0   50.0
50.0   120.0   33.333333333333336
0.0   150.0   33.333333333333336
50.0   0.0   0.0
100.0   0.0   0.0
50.0   30.0   0.0
50.0   0.0   16.666666666666668
100.0   0.0   0.0
100.0   30.0   0.0
50.0   30.0   0.0
100.0   30.0   16.666666666666668
50.0   0.0   16.666666666666668
50.0   30.0   16.666666666666668
100.0   30.0   16.666666666666668
50.0   30.0   0.0
50.0   0.0   16.666666666666668
100.0   30.0   16.666666666666668
100.0   0.0   16.666666666666668
100.0   0.0   0.0
50.0   0.0   16.666666666666668
100.0   30.0   16.666666666666668
100.0   0.0   0.0
50.0   30.0   0.0
50.0   0.0   16.666666666666668
100.0   0.0   16.666666666666668
50.0   30.0   16.666666666666668
50.0   0.0   33.333333333333336
100.0   0.0   16.666666666666668
100.0   30.0   16.666666666666668
50.0   30.0   16.666666666666668
100.0   30.0   33.333333333333336
50.0   0.0   33.333333333333336
50.0   30.0   33.333333333333336
100.0   30.0   33.333333333333336
50.0   30.0   16.666666666666668
50.0   0.0   33.333333333333336
100.0   30.0   33.333333333333336
100.0   0.0   33.333333333333336
100.0   0.0   16.666666666666668
50.0   0.0   33.333333333333336
100.0   30.0   33.333333333333336
100.0   0.0   16.666666666666668
50.0   30.0   16.666666666666668
50.0   0.0   33.333333333333336
100.0   0.0   33.333333333333336
50.0   30.0   33.333333333333336
50.0   0.0   50.0
100.0   0.0   33.333333333333336
100.0   30.0   33.333333333333336
50.0   30.0   33.333333333333336
100.0   30.0   50.0
50.0   0.0   50.0
50.0   30.0   50.0
100.0   30.0   50.0
50.0   30.0   33.333333333333336
50.0   0.0   50.0
100.0   30.0   50.0
100.0   0.0   50.0
100.0   0.0   33.333333333333336
50.0   0.0   50.0
100.0   30.0   50.0
100.0   0.0   33.333333333333336
50.0   30.0   33.333333333333336
50.0   30.0   0.0
100.0   30.0   0.0
50.0   60.0   0.0
50.0   30.0   16.666666666666668
100.0   30.0   0.0
100.0   60.0   0.0
50.0   60.0   0.0
100.0   60.0   16.666666666666668
50.0   30.0   16.666666666666668
50.0   60.0   16.666666666666668
100.0   60.0   16.666666666666668
50.0   60.0   0.0
50.0   30.0   16.666666666666668
100.0   60.0   16.666666666666668
100.0   30.0   16.666666666666668
100.0   30.0   0.0
50.0   30.0   16.666666666666668
100.0   60.0   16.666666666666668
100.0   30.0   0.0
50.0   60.0   0.0
50.0   30.0   16.666666666666668
100.0   30.0   16.666666666666668
50.0   60.0   16.666666666666668
50.0   30.0   33.333333333333336
100.0   30.0   16.666666666666668
100.0   60.0   16.666666666666668
50.0   60.0   16.666666666666668
100.0   60.0   33.333333333333336
50.0   30.0   33.333333333333336
50.0   60.0   33.333333333333336
100.0   60.0   33.333333333333336
50.0   60.0   16.666666666666668
50.0   30.0   33.333333333333336
100.0   60.0   33.333333333333336
100.0   30.0   33.333333333333336
100.0   30.0   16.666666666666668
50.0   30.0   33.333333333333336
100.0   60.0   33.333333333333336
100.0   30.0   16.666666666666668
50.0   60.0   16.666666666666668
50.0   30.0   33.333333333333336
100.0   30.0   33.333333333333336
50.0   60.0   33.333333333333336
50.0   30.0   50.0
100.0   30.0   33.333333333333336
100.0   60.0   33.333333333333336
50.0   60.0   33.333333333333336
100.0   60.0   50.0
50.0   30.0   50.0
50.0   60.0   50.0
100.0   60.0   50.0
50.0   60.0   33.333333333333336
50.0   30.0   50.0
100.0   60.0   50.0
100.0   30.0   50.0
100.0   30.0   33.333333333333336
50.0   30.0   50.0
100.0   60.0   50.0
100.0   30.0   33.333333333333336
50.0   60.0   33.333333333333336
50.0   60.0   0.0
100.0   60.0   0.0
50.0   90.0   0.0
50.0   60.0   16.666666666666668
100.0   60.0   0.0
100.0   90.0   0.0
50.0   90.0   0.0
100.0   90.0   16.666666666666668
50.0   60.0   16.666666666666668
50.0   90.0   16.666666666666668
100.0   90.0   16.666666666666668
50.0   90.0   0.0
50.0   60.0   16.666666666666668
100.0   90.0   16.666666666666668
100.0   60.0   16.666666666666668
100.0   60.0   0.0
50.0   60.0   16.666666666666668
100.0   90.0   16.666666666666668
100.0   60.0   0.0
50.0   90.0   0.0
50.0   60.0   16.666666666666668
100.0   60.0   16.666666666666668
50.0   90.0   16.666666666666668
50.0   60.0   33.333333333333336
100.0   60.0   16.666666666666668
100.0   90.0   16.666666666666668
50.0   90.0   16.666666666666668
100.0   90.0   33.333333333333336
50.0   60.0   33.333333333333336
50.0   90.0   33.333333333333336
100.0   90.0   33.333333333333336
50.0   90.0   16.666666666666668
50.0   60.0   33.333333333333336
100.0   90.0   33.333333333333336
100.0   60.0   33.333333333333336
100.0   60.0   16.666666666666668
50.0   60.0   33.333333333333336
100.0   90.0   33.333333333333336
100.0   60.0   16.666666666666668
50.0   90.0   16.666666666666668
50.0   60.0   33.333333333333336
100.0   60.0   33.333333333333336
50.0   90.0   33.333333333333336
50.0   60.0   50.0
100.0   60.0   33.333333333333336
100.0   90.0   33.333333333333336
50.0   90.0   33.333333333333336
100.0   90.0   50.0
50.0   60.0   50.0
50.0   90.0   50.0
100.0   90.0   50.0
50.0   90.0   33.333333333333336
50.0   60.0   50.0
100.0   90.0   50.0
100.0   60.0   50.0
100.0   60.0   33.333333333333336
50.0   60.0   50.0
100.0   90.0   50.0
100.0   60.0   33.333333333333336
50.0   90.0   33.333333333333336
50.0   90.0   0.0
100.0   90.0   0.0
50.0   120.0   0.0
50.0   90.0   16.666666666666668
100.0   90.0   0.0
100.0   120.0   0.0
50.0   120.0   0.0
100.0   120.0   16.666666666666668
50.0   90.0   16.666666666666668
50.0   120.0   16.666666666666668
100.0   120.0   16.666666666666668
50.0   120.0   0.0
50.0   90.0   16.666666666666668
100.0   120.0   16.666666666666668
100.0   90.0   16.666666666666668
100.0   90.0   0.0
50.0   90.0   16.666666666666668
100.0   120.0   16.666666666666668
100.0   90.0   0.0
50.0   120.0   0.0
50.0   90.0   16.666666666666668
100.0   90.0   16.666666666666668
50.0   120.0   16.666666666666668
50.0   90.0   33.333333333333336
100.0   90.0   16.666666666666668
100.0   120.0   16.666666666666668
50.0   120.0   16.666666666666668
100.0   120.0   33.333333333333336
50.0   90.0   33.333333333333336
50.0   120.0   33.333333333333336
100.0   120.0   33.333333333333336
50.0   120.0   16.666666666666668
50.0   90.0   33.333333333333336
100.0   120.0   33.333333333333336
100.0   90.0   33.333333333333336
100.0   90.0   16.666666666666668
50.0   90.0   33.333333333333336
100.0   120.0   33.333333333333336
100.0   90.0   16.666666666666668
50.0   120.0   16.666666666666668
50.0   90.0   33.333333333333336
100.0   90.0   33.333333333333336
50.0   120.0   33.333333333333336
50.0   90.0   50.0
100.0   90.0   33.333333333333336
100.0   120.0   33.333333333333336
50.0   120.0   33.333333333333336
100.0   120.0   50.0
50.0   90.0   50.0
50.0   120.0   50.0
100.0   120.0   50.0
50.0   120.0   33.333333333333336
50.0   90.0   50.0
100.0   120.0   50.0
100.0   90.0   50.0
100.0   90.0   33.333333333333336
50.0   90.0   50.0
100.0   120.0   50.0
100.0   90.0   33.333333333333336
50.0   120.0   33.333333333333336
50.0   120.0   0.0
100.0   120.0   0.0
50.0   150.0   0.0
50.0   120.0   16.666666666666668
100.0   120.0   0.0
100.0   150.0   0.0
50.0   150.0   0.0
100.0   150.0   16.666666666666668
50.0   120.0   16.666666666666668
50.0   150.0   16.666666666666668
100.0   150.0   16.666666666666668
50.0   150.0   0.0
50.0   120.0   16.666666666666668
100.0   150.0   16.666666666666668
100.0   120.0   16.666666666666668
100.0   120.0   0.0
50.0   120.0   16.666666666666668
100.0   150.0   16.666666666666668
100.0   120.0   0.0
50.0   150.0   0.0
50.0   120.0   16.666666666666668
100.0   120.0   16.666666666666668
50.0   150.0   16.666666666666668
50.0   120.0   33.333333333333336
100.0   120.0   16.666666666666668
100.0   150.0   16.666666666666668
50.0   150.0   16.666666666666668
100.0   150.0   33.333333333333336
50.0   120.0   33.333333333333336
50.0   150.0   33.333333333333336
100.0   150.0   33.333333333333336
50.0   150.0   16.666666666666668
50.0   120.0   33.333333333333336
100.0   150.0   33.333333333333336
100.0   120.0   33.333333333333336
100.0   120.0   16.666666666666668
50.0   120.0   33.333333333333336
100.0   150.0   33.333333333333336
100.0   120.0   16.666666666666668
50.0   150.0   16.666666666666668
50.0   120.0   33.333333333333336
100.0   120.0   33.333333333333336
50.0   150.0   33.333333333333336
50.0   120.0   50.0
100.0   120.0   33.333333333333336
100.0   150.0   33.333333333333336
50.0   150.0   33.333333333333336
100.0   150.0   50.0
50.0   120.0   50.0
50.0   150.0   50.0
100.0   150.0   50.0
50.0   150.0   33.333333333333336
50.0   120.0   50.0
100.0   150.0   50.0
100.0   120.0   50.0
100.0   120.0   33.333333333333336
50.0   120.0   50.0
100.0   150.0   50.0
100.0   120.0   33.333333333333336
50.0   150.0   33.333333333333336
100.0   0.0   0.0
150.0   0.0   0.0
100.0   30.0   0.0
100.0   0.0   16.666666666666668
150.0   0.0   0.0
150.0   30.0   0.0
100.0   30.0   0.0
150.0   30.0   16.666666666666668
100.0   0.0   16.666666666666668
100.0   30.0   16.666666666666668
150.0   30.0   16.666666666666668
100.0   30.0   0.0
100.0   0.0   16.666666666666668
150.0   30.0   16.666666666666668
150.0   0.0   16.666666666666668
150.0   0.0   0.0
100.0   0.0   16.666666666666668
150.0   30.0   16.666666666666668
150.0   0.0   0.0
100.0   30.0   0.0
100.0   0.0   16.666666666666668
150.0   0.0   16.666666666666668
100.0   30.0   16.666666666666668
100.0   0.0   33.333333333333336
150.0   0.0   16.666666666666668
150.0   30.0   16.666666666666668
100.0   30.0   16.666666666666668
150.0   30.0   33.333333333333336
100.0   0.0   33.333333333333336
100.0   30.0   33.333333333333336
150.0   30.0   33.333333333333336
100.0   30.0   16.666666666666668
100.0   0.0   33.333333333333336
150.0   30.0   33.333333333333336
150.0   0.0   33.333333333333336
150.0   0.0   16.666666666666668
100.0   0.0   33.333333333333336
150.0   30.0   33.333333333333336
150.0   0.0   16.666666666666668
100.0   30.0   16.666666666666668
100.0   0.0   33.333333333333336
150.0   0.0   33.333333333333336
100.0   30.0   33.333333333333336
100.0   0.0   50.0
150.0   0.0   33.333333333333336
150.0   30.0   33.333333333333336
100.0   30.0   33.333333333333336
150.0   30.0   50.0
100.0   0.0   50.0
100.0   30.0   50.0
150.0   30.0   50.0
100.0   30.0   33.333333333333336
100.0   0.0   50.0
150.0   30.0   50.0
150.0   0.0   50.0
150.0   0.0   33.333333333333336
100.0   0.0   50.0
150.0   30.0   50.0
150.0   0.0   33.333333333333336
100.0   30.0   33.333333333333336
100.0   30.0   0.0
150.0   30.0   0.0
100.0   60.0   0.0
100.0   30.0   16.666666666666668
150.0   30.0   0.0
150.0   60.0   0.0
100.0   60.0   0.0
150.0   60.0   16.666666666666668
100.0   30.0   16.666666666666668
100.0   60.0   16.666666666666668
150.0   60.0   16.666666666666668
100.0   60.0   0.0
100.0   30.0   16.666666666666668
150.0   60.0   16.666666666666668
150.0   30.0   16.666666666666668
150.0   30.0   0.0
100.0   30.0   16.666666666666668
150.0   60.0   16.666666666666668
150.0   30.0   0.0
100.0   60.0   0.0
100.0   30.0   16.666666666666668
150.0   30.0   16.666666666666668
100.0   60.0   16.666666666666668
100.0   30.0   33.333333333333336
150.0   30.0   16.666666666666668
150.0   60.0   16.666666666666668
100.0   60.0   16.666666666666668
150.0   60.0   33.333333333333336
100.0   30.0   33.333333333333336
100.0   60.0   33.333333333333336
150.0   60.0   33.333333333333336
100.0   60.0   16.666666666666668
100.0   30.0   33.333333333333336
150.0   60.0   33.333333333333336
150.0   30.0   33.333333333333336
150.0   30.0   16.666666666666668
100.0   30.0   33.333333333333336
150.0   60.0   33.333333333333336
150.0   30.0   16.666666666666668
100.0   60.0   16.666666666666668
100.0   30.0   33.333333333333336
150.0   30.0   33.333333333333336
100.0   60.0   33.333333333333336
100.0   30.0   50.0
150.0   30.0   33.333333333333336
150.0   60.0   33.333333333333336
100.0   60.0   33.333333333333336
150.0   60.0   50.0
100.0   30.0   50.0
100.0   60.0   50.0
150.0   60.0   50.0
100.0   60.0   33.333333333333336
100.0   30.0   50.0
150.0   60.0   50.0
150.0   30.0   50.0
150.0   30.0   33.333333333333336
100.0   30.0   50.0
150.0   60.0   50.0
150.0   30.0   33.333333333333336
100.0   60.0   33.333333333333336
100.0   60.0   0.0
150.0   60.0   0.0
100.0   90.0   0.0
100.0   60.0   16.666666666666668
150.0   60.0   0.0
150.0   90.0   0.0
100.0   90.0   0.0
150.0   90.0   16.666666666666668
100.0   60.0   16.666666666666668
100.0   90.0   16.666666666666668
150.0   90.0   16.666666666666668
100.0   90.0   0.0
100.0   60.0   16.666666666666668
150.0   90.0   16.666666666666668
150.0   60.0   16.666666666666668
150.0   60.0   0.0
100.0   60.0   16.666666666666668
150.0   90.0   16.666666666666668
150.0   60.0   0.0
100.0   90.0   0.0
100.0   60.0   16.666666666666668
150.0   60.0   16.666666666666668
100.0   90.0   16.666666666666668
100.0   60.0   33.333333333333336
150.0   60.0   16.666666666666668
150.0   90.0   16.666666666666668
100.0   90.0   16.666666666666668
150.0   90.0   33.333333333333336
100.0   60.0   33.333333333333336
100.0   90.0   33.333333333333336
150.0   90.0   33.333333333333336
100.0   90.0   16.666666666666668
100.0   60.0   33.333333333333336
150.0   90.0   33.333333333333336
150.0   60.0   33.333333333333336
150.0   60.0   16.666666666666668
100.0   60.0   33.333333333333336
150.0   90.0   33.333333333333336
150.0   60.0   16.666666666666668
100.0   90.0   16.666666666666668
100.0   60.0   33.333333333333336
150.0   60.0   33.333333333333336
100.0   90.0   33.333333333333336
100.0   60.0   50.0
150.0   60.0   33.333333333333336
150.0   90.0   33.333333333333336
100.0   90.0   33.333333333333336
150.0   90.0   50.0
100.0   60.0   50.0
100.0   90.0   50.0
150.0   90.0   50.0
100.0   90.0   33.333333333333336
100.0   60.0   50.0
150.0   90.0   50.0
150.0   60.0   50.0
150.0   60.0   33.333333333333336
100.0   60.0   50.0
150.0   90.0   50.0
150.0   60.0   33.333333333333336
100.0   90.0   33.333333333333336
100.0   90.0   0.0
150.0   90.0   0.0
100.0   120.0   0.0
100.0   90.0   16.666666666666668
150.0   90.0   0.0
150.0   120.0   0.0
100.0   120.0   0.0
150.0   120.0   16.666666666666668
100.0   90.0   16.666666666666668
100.0   120.0   16.666666666666668
150.0   120.0   16.666666666666668
100.0   120.0   0.0
100.0   90.0   16.666666666666668
150.0   120.0   16.666666666666668
150.0   90.0   16.666666666666668
150.0   90.0   0.0
100.0   90.0   16.666666666666668
150.0   120.0   16.666666666666668
150.0   90.0   0.0
100.0   120.0   0.0
100.0   90.0   16.666666666666668
150.0   90.0   16.666666666666668
100.0   120.0   16.666666666666668
100.0   90.0   33.333333333333336
150.0   90.0   16.666666666666668
150.0   120.0   16.666666666666668
100.0   120.0   16.666666666666668
150.0   120.0   33.333333333333336
100.0   90.0   33.333333333333336
100.0   120.0   33.333333333333336
150.0   120.0   33.333333333333336
100.0   120.0   16.666666666666668
100.0   90.0   33.333333333333336
150.0   120.0   33.333333333333336
150.0   90.0   33.333333333333336
150.0   90.0   16.666666666666668
100.0   90.0   33.333333333333336
150.0   120.0   33.333333333333336
150.0   90.0   16.666666666666668
100.0   120.0   16.666666666666668
100.0   90.0   33.333333333333336
150.0   90.0   33.333333333333336
100.0   120.0   33.333333333333336
100.0   90.0   50.0
150.0   90.0   33.333333333333336
150.0   120.0   33.333333333333336
100.0   120.0   33.333333333333336
150.0   120.0   50.0
100.0   90.0   50.0
100.0   120.0   50.0
150.0   120.0   50.0
100.0   120.0   33.333333333333336
100.0   90.0   50.0
150.0   120.0   50.0
150.0   90.0   50.0
150.0   90.0   33.333333333333336
100.0   90.0   50.0
150.0   120.0   50.0
150.0   90.0   33.333333333333336
100.0   120.0   33.333333333333336
100.0   120.0   0.0
150.0   120.0   0.0
100.0   150.0   0.0
100.0   120.0   16.666666666666668
150.0   120.0   0.0
150.0   150.0   0.0
100.0   150.0   0.0
150.0   150.0   16.666666666666668
100.0   120.0   16.666666666666668
100.0   150.0   16.666666666666668
150.0   150.0   16.666666666666668
100.0   150.0   0.0
100.0   120.0   16.666666666666668
150.0   150.0   16.666666666666668
150.0   120.0   16.666666666666668
150.0   120.0   0.0
100.0   120.0   16.666666666666668
150.0   150.0   16.666666666666668
150.0   120.0   0.0
100.0   150.0   0.0
100.0   120.0   16.666666666666668
150.0   120.0   16.666666666666668
100.0   150.0   16.666666666666668
100.0   120.0   33.333333333333336
150.0   120.0   16.666666666666668
150.0   150.0   16.666666666666668
100.0   150.0   16.666666666666668
150.0   150.0   33.333333333333336
100.0   120.0   33.333333333333336
100.0   150.0   33.333333333333336
150.0   150.0   33.333333333333336
100.0   150.0   16.666666666666668
100.0   120.0   33.333333333333336
150.0   150.0   33.333333333333336
150.0   120.0   33.333333333333336
150.0   120.0   16.666666666666668
100.0   120.0   33.333333333333336
150.0   150.0   33.333333333333336
150.0   120.0   16.666666666666668
100.0   150.0   16.666666666666668
100.0   120.0   33.333333333333336
150.0   120.0   33.333333333333336
100.0   150.0   33.333333333333336
100.0   120.0   50.0
150.0   120.0   33.333333333333336
150.0   150.0   33.333333333333336
100.0   150.0   33.333333333333336
150.0   150.0   50.0
100.0   120.0   50.0
100.0   150.0   50.0
150.0   150.0   50.0
100.0   150.0   33.333333333333336
100.0   120.0   50.0
150.0   150.0   50.0
150.0   120.0   50.0
150.0   120.0   33.333333333333336
100.0   120.0   50.0
150.0   150.0   50.0
150.0   120.0   33.333333333333336
100.0   150.0   33.333333333333336
150.0   0.0   0.0
200.0   0.0   0.0
150.0   30.0   0.0
150.0   0.0   16.666666666666668
200.0   0.0   0.0
200.0   30.0   0.0
150.0   30.0   0.0
200.0   30.0   16.666666666666668
150.0   0.0   16.666666666666668
150.0   30.0   16.666666666666668
200.0   30.0   16.666666666666668
150.0   30.0   0.0
150.0   0.0   16.666666666666668
200.0   30.0   16.666666666666668
200.0   0.0   16.666666666666668
200.0   0.0   0.0
150.0   0.0   16.666666666666668
200.0   30.0   16.666666666666668
200.0   0.0   0.0
150.0   30.0   0.0
150.0   0.0   16.666666666666668
200.0   0.0   16.666666666666668
150.0   30.0   16.666666666666668
150.0   0.0   33.333333333333336
200.0   0.0   16.666666666666668
200.0   30.0   16.666666666666668
150.0   30.0   16.666666666666668
200.0   30.0   33.333333333333336
150.0   0.0   33.333333333333336
150.0   30.0   33.333333333333336
200.0   30.0   33.333333333333336
150.0   30.0   16.666666666666668
150.0   0.0   33.333333333333336
200.0   30.0   33.333333333333336
200.0   0.0   33.333333333333336
200.0   0.0   16.666666666666668
150.0   0.0   33.333333333333336
200.0   30.0   33.333333333333336
200.0   0.0   16.666666666666668
150.0   30.0   16.666666666666668
150.0   0.0   33.333333333333336
200.0   0.0   33.333333333333336
150.0   30.0   33.333333333333336
150.0   0.0   50.0
200.0   0.0   33.333333333333336
200.0   30.0   33.333333333333336
150.0   30.0   33.333333333333336
200.0   30.0   50.0
150.0   0.0   50.0
150.0   30.0   50.0
200.0   30.0   50.0
150.0   30.0   33.333333333333336
150.0   0.0   50.0
200.0   30.0   50.0
200.0   0.0   50.0
200.0   0.0   33.333333333333336
150.0   0.0   50.0
200.0   30.0   50.0
200.0   0.0   33.333333333333336
150.0   30.0   33.333333333333336
150.0   30.0   0.0
200.0   30.0   0.0
150.0   60.0   0.0
150.0   30.0   16.666666666666668
200.0   30.0   0.0
200.0   60.0   0.0
150.0   60.0   0.0
200.0   60.0   16.666666666666668
150.0   30.0   16.666666666666668
150.0   60.0   16.666666666666668
200.0   60.0   16.666666666666668
150.0   60.0   0.0
150.0   30.0   16.666666666666668
200.0   60.0   16.666666666666668
200.0   30.0   16.666666666666668
200.0   30.0   0.0
150.0   30.0   16.666666666666668
200.0   60.0   16.666666666666668
200.0   30.0   0.0
150.0   60.0   0.0
150.0   30.0   16.666666666666668
200.0   30.0   16.666666666666668
150.0   60.0   16.666666666666668
150.0   30.0   33.333333333333336
200.0   30.0   16.666666666666668
200.0   60.0   16.666666666666668
150.0   60.0   16.666666666666668
200.0   60.0   33.333333333333336
150.0   30.0   33.333333333333336
150.0   60.0   33.333333333333336
200.0   60.0   33.333333333333336
150.0   60.0   16.666666666666668
150.0   30.0   33.333333333333336
200.0   60.0   33.333333333333336
200.0   30.0   33.333333333333336
200.0   30.0   16.666666666666668
150.0   30.0   33.333333333333336
200.0   60.0   33.333333333333336
200.0   30.0   16.666666666666668
150.0   60.0   16.666666666666668
150.0   30.0   33.333333333333336
200.0   30.0   33.333333333333336
150.0   60.0   33.333333333333336
150.0   30.0   50.0
200.0   30.0   33.333333333333336
200.0   60.0   33.333333333333336
150.0   60.0   33.333333333333336
200.0   60.0   50.0
150.0   30.0   50.0
150.0   60.0   50.0
200.0   60.0   50.0
150.0   60.0   33.333333333333336
150.0   30.0   50.0
200.0   60.0   50.0
200.0   30.0   50.0
200.0   30.0   33.333333333333336
150.0   30.0   50.0
200.0   60.0   50.0
200.0   30.0   33.333333333333336
150.0   60.0   33.333333333333336
150.0   60.0   0.0
200.0   60.0   0.0
150.0   90.0   0.0
150.0   60.0   16.666666666666668
200.0   60.0   0.0
200.0   90.0   0.0
150.0   90.0   0.0
200.0   90.0   16.666666666666668
150.0   60.0   16.666666666666668
150.0   90.0   16.666666666666668
200.0   90.0   16.666666666666668
150.0   90.0   0.0
150.0   60.0   16.666666666666668
200.0   90.0   16.666666666666668
200.0   60.0   16.666666666666668
200.0   60.0   0.0
150.0   60.0   16.666666666666668
200.0   90.0   16.666666666666668
200.0   60.0   0.0
150.0   90.0   0.0
150.0   60.0   16.666666666666668
200.0   60.0   16.666666666666668
150.0   90.0   16.666666666666668
150.0   60.0   33.333333333333336
200.0   60.0   16.666666666666668
200.0   90.0   16.666666666666668
150.0   90.0   16.666666666666668
200.0   90.0   33.333333333333336
150.0   60.0   33.333333333333336
150.0   90.0   33.333333333333336
200.0   90.0   33.333333333333336
150.0   90.0   16.666666666666668
150.0   60.0   33.333333333333336
200.0   90.0   33.333333333333336
200.0   60.0   33.333333333333336
200.0   60.0   16.666666666666668
150.0   60.0   33.333333333333336
200.0   90.0   33.333333333333336
200.0   60.0   16.666666666666668
150.0   90.0   16.666666666666668
150.0   60.0   33.333333333333336
200.0   60.0   33.333333333333336
150.0   90.0   33.333333333333336
150.0   60.0   50.0
200.0   60.0   33.333333333333336
200.0   90.0   33.333333333333336
150.0   90.0   33.333333333333336
200.0   90.0   50.0
150.0   60.0   50.0
150.0   90.0   50.0
200.0   90.0   50.0
150.0   90.0   33.333333333333336
150.0   60.0   50.0
200.0   90.0   50.0
200.0   60.0   50.0
200.0   60.0   33.333333333333336
150.0   60.0   50.0
200.0   90.0   50.0
200.0   60.0   33.333333333333336
150.0   90.0   33.333333333333336
150.0   90.0   0.0
200.0   90.0   0.0
150.0   120.0   0.0
150.0   90.0   16.666666666666668
200.0   90.0   0.0
200.0   120.0   0.0
150.0   120.0   0.0
200.0   120.0   16.666666666666668
150.0   90.0   16.666666666666668
150.0   120.0   16.666666666666668
200.0   120.0   16.666666666666668
150.0   120.0   0.0
150.0   90.0   16.666666666666668
200.0   120.0   16.666666666666668
200.0   90.0   16.666666666666668
200.0   90.0   0.0
150.0   90.0   16.666666666666668
200.0   120.0   16.666666666666668
200.0   90.0   0.0
150.0   120.0   0.0
150.0   90.0   16.666666666666668
200.0   90.0   16.666666666666668
150.0   120.0   16.666666666666668
150.0   90.0   33.333333333333336
200.0   90.0   16.666666666666668
200.0   120.0   16.666666666666668
150.0   120.0   16.666666666666668
200.0   120.0   33.333333333333336
150.0   90.0   33.333333333333336
150.0   120.0   33.333333333333336
200.0   120.0   33.333333333333336
150.0   120.0   16.666666666666668
150.0   90.0   33.333333333333336
200.0   120.0   33.333333333333336
200.0   90.0   33.333333333333336
200.0   90.0   16.666666666666668
150.0   90.0   33.333333333333336
200.0   120.0   33.333333333333336
200.0   90.0   16.666666666666668
150.0   120.0   16.666666666666668
150.0   90.0   33.333333333333336
200.0   90.0   33.333333333333336
150.0   120.0   33.333333333333336
150.0   90.0   50.0
200.0   90.0   33.333333333333336
200.0   120.0   33.333333333333336
150.0   120.0   33.333333333333336
200.0   120.0   50.0
150.0   90.0   50.0
150.0   120.0   50.0
200.0   120.0   50.0
150.0   120.0   33.333333333333336
150.0   90.0   50.0
200.0   120.0   50.0
200.0   90.0   50.0
200.0   90.0   33.333333333333336
150.0   90.0   50.0
200.0   120.0   50.0
200.0   90.0   33.333333333333336
150.0   120.0   33.333333333333336
150.0   120.0   0.0
200.0   120.0   0.0
150.0   150.0   0.0
150.0   120.0   16.666666666666668
200.0   120.0   0.0
200.0   150.0   0.0
150.0   150.0   0.0
200.0   150.0   16.666666666666668
150.0   120.0   16.666666666666668
150.0   150.0   16.666666666666668
200.0   150.0   16.666666666666668
150.0   150.0   0.0
150.0   120.0   16.666666666666668
200.0   150.0   16.666666666666668
200.0   120.0   16.666666666666668
200.0   120.0   0.0
150.0   120.0   16.666666666666668
200.0   150.0   16.666666666666668
200.0   120.0   0.0
150.0   150.0   0.0
150.0   120.0   16.666666666666668
200.0   120.0   16.666666666666668
150.0   150.0   16.666666666666668
150.0   120.0   33.333333333333336
200.0   120.0   16.666666666666668
200.0   150.0   16.666666666666668
150.0   150.0   16.666666666666668
200.0   150.0   33.333333333333336
150.0   120.0   33.333333333333336
150.0   150.0   33.333333333333336
200.0   150.0   33.333333333333336
150.0   150.0   16.666666666666668
150.0   120.0   33.333333333333336
200.0   150.0   33.333333333333336
200.0   120.0   33.333333333333336
200.0   120.0   16.666666666666668
150.0   120.0   33.333333333333336
200.0   150.0   33.333333333333336
200.0   120.0   16.666666666666668
150.0   150.0   16.666666666666668
150.0   120.0   33.333333333333336
200.0   120.0   33.333333333333336
150.0   150.0   33.333333333333336
150.0   120.0   50.0
200.0   120.0   33.333333333333336
200.0   150.0   33.333333333333336
150.0   150.0   33.333333333333336
200.0   150.0   50.0
150.0   120.0   50.0
150.0   150.0   50.0
200.0   150.0   50.0
150.0   150.0   33.333333333333336
150.0   120.0   50.0
200.0   150.0   50.0
200.0   120.0   50.0
200.0   120.0   33.333333333333336
150.0   120.0   50.0
200.0   150.0   50.0
200.0   120.0   33.333333333333336
150.0   150.0   33.333333333333336
200.0   0.0   0.0
250.0   0.0   0.0
200.0   30.0   0.0
200.0   0.0   16.666666666666668
250.0   0.0   0.0
250.0   30.0   0.0
200.0   30.0   0.0
250.0   30.0   16.666666666666668
200.0   0.0   16.666666666666668
200.0   30.0   16.666666666666668
250.0   30.0   16.666666666666668
200.0   30.0   0.0
200.0   0.0   16.666666666666668
250.0   30.0   16.666666666666668
250.0   0.0   16.666666666666668
250.0   0.0   0.0
200.0   0.0   16.666666666666668
250.0   30.0   16.666666666666668
250.0   0.0   0.0
200.0   30.0   0.0
200.0   0.0   16.666666666666668
250.0   0.0   16.666666666666668
200.0   30.0   16.666666666666668
200.0   0.0   33.333333333333336
250.0   0.0   16.666666666666668
250.0   30.0   16.666666666666668
200.0   30.0   16.666666666666668
250.0   30.0   33.333333333333336
200.0   0.0   33.333333333333336
200.0   30.0   33.333333333333336
250.0   30.0   33.333333333333336
200.0   30.0   16.666666666666668
200.0   0.0   33.333333333333336
250.0   30.0   33.333333333333336
250.0   0.0   33.333333333333336
250.0   0.0   16.666666666666668
200.0   0.0   33.333333333333336
250.0   30.0   33.333333333333336
250.0   0.0   16.666666666666668
200.0   30.0   16.666666666666668
200.0   0.0   33.333333333333336
250.0   0.0   33.333333333333336
200.0   30.0   33.333333333333336
200.0   0.0   50.0
250.0   0.0   33.333333333333336
250.0   30.0   33.333333333333336
200.0   30.0   33.333333333333336
250.0   30.0   50.0
200.0   0.0   50.0
200.0   30.0   50.0
250.0   30.0   50.0
200.0   30.0   33.333333333333336
200.0   0.0   50.0
250.0   30.0   50.0
250.0   0.0   50.0
250.0   0.0   33.333333333333336
200.0   0.0   50.0
250.0   30.0   50.0
250.0   0.0   33.333333333333336
200.0   30.0   33.333333333333336
200.0   30.0   0.0
250.0   30.0   0.0
200.0   60.0   0.0
200.0   30.0   16.666666666666668
250.0   30.0   0.0
250.0   60.0   0.0
200.0   60.0   0.0
250.0   60.0   16.666666666666668
200.0   30.0   16.666666666666668
200.0   60.0   16.666666666666668
250.0   60.0   16.666666666666668
200.0   60.0   0.0
200.0   30.0   16.666666666666668
250.0   60.0   16.666666666666668
250.0   30.0   16.666666666666668
250.0   30.0   0.0
200.0   30.0   16.666666666666668
250.0   60.0   16.666666666666668
250.0   30.0   0.0
200.0   60.0   0.0
200.0   30.0   16.666666666666668
250.0   30.0   16.666666666666668
200.0   60.0   16.666666666666668
200.0   30.0   33.333333333333336
250.0   30.0   16.666666666666668
250.0   60.0   16.666666666666668
200.0   60.0   16.666666666666668
250.0   60.0   33.333333333333336
200.0   30.0   33.333333333333336
200.0   60.0   33.333333333333336
250.0   60.0   33.333333333333336
200.0   60.0   16.666666666666668
200.0   30.0   33.333333333333336
250.0   60.0   33.333333333333336
250.0   30.0   33.333333333333336
250.0   30.0   16.666666666666668
200.0   30.0   33.333333333333336
250.0   60.0   33.333333333333336
250.0   30.0   16.666666666666668
200.0   60.0   16.666666666666668
200.0   30.0   33.333333333333336
250.0   30.0   33.333333333333336
200.0   60.0   33.333333333333336
200.0   30.0   50.0
250.0   30.0   33.333333333333336
250.0   60.0   33.333333333333336
200.0   60.0   33.333333333333336
250.0   60.0   50.0
200.0   30.0   50.0
200.0   60.0   50.0
250.0   60.0   50.0
200.0   60.0   33.333333333333336
200.0   30.0   50.0
250.0   60.0   50.0
250.0   30.0   50.0
250.0   30.0   33.333333333333336
200.0   30.0   50.0
250.0   60.0   50.0
250.0   30.0   33.333333333333336
200.0   60.0   33.333333333333336
200.0   60.0   0.0
250.0   60.0   0.0
200.0   90.0   0.0
200.0   60.0   16.666666666666668
250.0   60.0   0.0
250.0   90.0   0.0
200.0   90.0   0.0
250.0   90.0   16.666666666666668
200.0   60.0   16.666666666666668
200.0   90.0   16.666666666666668
250.0   90.0   16.666666666666668
200.0   90.0   0.0
200.0   60.0   16.666666666666668
250.0   90.0   16.666666666666668
250.0   60.0   16.666666666666668
250.0   60.0   0.0
200.0   60.0   16.666666666666668
250.0   90.0   16.666666666666668
250.0   60.0   0.0
200.0   90.0   0.0
200.0   60.0   16.666666666666668
250.0   60.0   16.666666666666668
200.0   90.0   16.666666666666668
200.0   60.0   33.333333333333336
250.0   60.0   16.666666666666668
250.0   90.0   16.666666666666668
200.0   90.0   16.666666666666668
250.0   90.0   33.333333333333336
200.0   60.0   33.333333333333336
200.0   90.0   33.333333333333336
250.0   90.0   33.333333333333336
200.0   90.0   16.666666666666668
200.0   60.0   33.333333333333336
250.0   90.0   33.333333333333336
250.0   60.0   33.333333333333336
250.0   60.0   16.666666666666668
200.0   60.0   33.333333333333336
250.0   90.0   33.333333333333336
250.0   60.0   16.666666666666668
200.0   90.0   16.666666666666668
200.0   60.0   33.333333333333336
250.0   60.0   33.333333333333336
200.0   90.0   33.333333333333336
200.0   60.0   50.0
250.0   60.0   33.333333333333336
250.0   90.0   33.333333333333336
200.0   90.0   33.333333333333336
250.0   90.0   50.0
200.0   60.0   50.0
200.0   90.0   50.0
250.0   90.0   50.0
200.0   90.0   33.333333333333336
200.0   60.0   50.0
250.0   90.0   50.0
250.0   60.0   50.0
250.0   60.0   33.333333333333336
200.0   60.0   50.0
250.0   90.0   50.0
250.0   60.0   33.333333333333336
200.0   90.0   33.333333333333336
200.0   90.0   0.0
250.0   90.0   0.0
200.0   120.0   0.0
200.0   90.0   16.666666666666668
250.0   90.0   0.0
250.0   120.0   0.0
200.0   120.0   0.0
250.0   120.0   16.666666666666668
200.0   90.0   16.666666666666668
200.0   120.0   16.666666666666668
250.0   120.0   16.666666666666668
200.0   120.0   0.0
200.0   90.0   16.666666666666668
250.0   120.0   16.666666666666668
250.0   90.0   16.666666666666668
250.0   90.0   0.0
200.0   90.0   16.666666666666668
250.0   120.0   16.666666666666668
250.0   90.0   0.0
200.0   120.0   0.0
200.0   90.0   16.666666666666668
250.0   90.0   16.666666666666668
200.0   120.0   16.666666666666668
200.0   90.0   33.333333333333336
250.0   90.0   16.666666666666668
250.0   120.0   16.666666666666668
200.0   120.0   16.666666666666668
250.0   120.0   33.333333333333336
200.0   90.0   33.333333333333336
200.0   120.0   33.333333333333336
250.0   120.0   33.333333333333336
200.0   120.0   16.666666666666668
200.0   90.0   33.333333333333336
250.0   120.0   33.333333333333336
250.0   90.0   33.333333333333336
250.0   90.0   16.666666666666668
200.0   90.0   33.333333333333336
250.0   120.0   33.333333333333336
250.0   90.0   16.666666666666668
200.0   120.0   16.666666666666668
200.0   90.0   33.333333333333336
250.0   90.0   33.333333333333336
200.0   120.0   33.333333333333336
200.0   90.0   50.0
250.0   90.0   33.333333333333336
250.0   120.0   33.333333333333336
200.0   120.0   33.333333333333336
250.0   120.0   50.0
200.0   90.0   50.0
200.0   120.0   50.0
250.0   120.0   50.0
200.0   120.0   33.333333333333336
200.0   90.0   50.0
250.0   120.0   50.0
250.0   90.0   50.0
250.0   90.0   33.333333333333336
200.0   90.0   50.0
250.0   120.0   50.0
250.0   90.0   33.333333333333336
200.0   120.0   33.333333333333336
200.0   120.0   0.0
250.0   120.0   0.0
200.0   150.0   0.0
200.0   120.0   16.666666666666668
250.0   120.0   0.0
250.0   150.0   0.0
200.0   150.0   0.0
250.0   150.0   16.666666666666668
200.0   120.0   16.666666666666668
200.0   150.0   16.666666666666668
250.0   150.0   16.666666666666668
200.0   150.0   0.0
200.0   120.0   16.666666666666668
250.0   150.0   16.666666666666668
250.0   120.0   16.666666666666668
250.0   120.0   0.0
200.0   120.0   16.666666666666668
250.0   150.0   16.666666666666668
250.0   120.0   0.0
200.0   150.0   0.0
200.0   120.0   16.666666666666668
250.0   120.0   16.666666666666668
200.0   150.0   16.666666666666668
200.0   120.0   33.333333333333336
250.0   120.0   16.666666666666668
250.0   150.0   16.666666666666668
200.0   150.0   16.666666666666668
250.0   150.0   33.333333333333336
200.0   120.0   33.333333333333336
200.0   150.0   33.333333333333336
250.0   150.0   33.333333333333336
200.0   150.0   16.666666666666668
200.0   120.0   33.333333333333336
250.0   150.0   33.333333333333336
250.0   120.0   33.333333333333336
250.0   120.0   16.666666666666668
200.0   120.0   33.333333333333336
250.0   150.0   33.333333333333336
250.0   120.0   16.666666666666668
200.0   150.0   16.666666666666668
200.0   120.0   33.333333333333336
250.0   120.0   33.333333333333336
200.0   150.0   33.333333333333336
200.0   120.0   50.0
250.0   120.0   33.333333333333336
250.0   150.0   33.333333333333336
200.0   150.0   33.333333333333336
250.0   150.0   50.0
200.0   120.0   50.0
200.0   150.0   50.0
250.0   150.0   50.0
200.0   150.0   33.333333333333336
200.0   120.0   50.0
250.0   150.0   50.0
250.0   120.0   50.0
250.0   120.0   33.333333333333336
200.0   120.0   50.0
250.0   150.0   50.0
250.0   120.0   33.333333333333336
200.0   150.0   33.333333333333336
250.0   0.0   0.0
300.0   0.0   0.0
250.0   30.0   0.0
250.0   0.0   16.666666666666668
300.0   0.0   0.0
300.0   30.0   0.0
250.0   30.0   0.0
300.0   30.0   16.666666666666668
250.0   0.0   16.666666666666668
250.0   30.0   16.666666666666668
300.0   30.0   16.666666666666668
250.0   30.0   0.0
250.0   0.0   16.666666666666668
300.0   30.0   16.666666666666668
300.0   0.0   16.666666666666668
300.0   0.0   0.0
250.0   0.0   16.666666666666668
300.0   30.0   16.666666666666668
300.0   0.0   0.0
250.0   30.0   0.0
250.0   0.0   16.666666666666668
300.0   0.0   16.666666666666668
250.0   30.0   16.666666666666668
250.0   0.0   33.333333333333336
300.0   0.0   16.666666666666668
300.0   30.0   16.666666666666668
250.0   30.0   16.666666666666668
300.0   30.0   33.333333333333336
250.0   0.0   33.333333333333336
250.0   30.0   33.333333333333336
300.0   30.0   33.333333333333336
250.0   30.0   16.666666666666668
250.0   0.0   33.333333333333336
300.0   30.0   33.333333333333336
300.0   0.0   33.333333333333336
300.0   0.0   16.666666666666668
250.0   0.0   33.333333333333336
300.0   30.0   33.333333333333336
300.0   0.0   16.666666666666668
250.0   30.0   16.666666666666668
250.0   0.0   33.333333333333336
300.0   0.0   33.333333333333336
250.0   30.0   33.333333333333336
250.0   0.0   50.0
300.0   0.0   33.333333333333336
300.0   30.0   33.333333333333336
250.0   30.0   33.333333333333336
300.0   30.0   50.0
250.0   0.0   50.0
250.0   30.0   50.0
300.0   30.0   50.0
250.0   30.0   33.333333333333336
250.0   0.0   50.0
300.0   30.0   50.0
300.0   0.0   50.0
300.0   0.0   33.333333333333336
250.0   0.0   50.0
300.0   30.0   50.0
300.0   0.0   33.333333333333336
250.0   30.0   33.333333333333336
250.0   30.0   0.0
300.0   30.0   0.0
250.0   60.0   0.0
250.0   30.0   16.666666666666668
300.0   30.0   0.0
300.0   60.0   0.0
250.0   60.0   0.0
300.0   60.0   16.666666666666668
250.0   30.0   16.666666666666668
250.0   60.0   16.666666666666668
300.0   60.0   16.666666666666668
250.0   60.0   0.0
250.0   30.0   16.666666666666668
300.0   60.0   16.666666666666668
300.0   30.0   16.666666666666668
300.0   30.0   0.0
250.0   30.0   16.666666666666668
300.0   60.0   16.666666666666668
300.0   30.0   0.0
250.0   60.0   0.0
250.0   30.0   16.666666666666668
300.0   30.0   16.666666666666668
250.0   60.0   16.666666666666668
250.0   30.0   33.333333333333336
300.0   30.0   16.666666666666668
300.0   60.0   16.666666666666668
250.0   60.0   16.666666666666668
300.0   60.0   33.333333333333336
250.0   30.0   33.333333333333336
250.0   60.0   33.333333333333336
300.0   60.0   33.333333333333336
250.0   60.0   16.666666666666668
250.0   30.0   33.333333333333336
300.0   60.0   33.333333333333336
300.0   30.0   33.333333333333336
300.0   30.0   16.666666666666668
250.0   30.0   33.333333333333336
300.0   60.0   33.333333333333336
300.0   30.0   16.666666666666668
250.0   60.0   16.666666666666668
250.0   30.0   33.333333333333336
300.0   30.0   33.333333333333336
250.0   60.0   33.333333333333336
250.0   30.0   50.0
300.0   30.0   33.333333333333336
300.0   60.0   33.333333333333336
250.0   60.0   33.333333333333336
300.0   60.0   50.0
250.0   30.0   50.0
250.0   60.0   50.0
300.0   60.0   50.0
250.0   60.0   33.333333333333336
250.0   30.0   50.0
300.0   60.0   50.0
300.0   30.0   50.0
300.0   30.0   33.333333333333336
250.0   30.0   50.0
300.0   60.0   50.0
300.0   30.0   33.333333333333336
250.0   60.0   33.333333333333336
250.0   60.0   0.0
300.0   60.0   0.0
250.0   90.0   0.0
250.0   60.0   16.666666666666668
300.0   60.0   0.0
300.0   90.0   0.0
250.0   90.0   0.0
300.0   90.0   16.666666666666668
250.0   60.0   16.666666666666668
250.0   90.0   16.666666666666668
300.0   90.0   16.666666666666668
250.0   90.0   0.0
250.0   60.0   16.666666666666668
300.0   90.0   16.666666666666668
300.0   60.0   16.666666666666668
300.0   60.0   0.0
250.0   60.0   16.666666666666668
300.0   90.0   16.666666666666668
300.0   60.0   0.0
250.0   90.0   0.0
250.0   60.0   16.666666666666668
300.0   60.0   16.666666666666668
250.0   90.0   16.666666666666668
250.0   60.0   33.333333333333336
300.0   60.0   16.666666666666668
300.0   90.0   16.666666666666668
250.0   90.0   16.666666666666668
300.0   90.0   33.333333333333336
250.0   60.0   33.333333333333336
250.0   90.0   33.333333333333336
300.0   90.0   33.333333333333336
250.0   90.0   16.666666666666668
250.0   60.0   33.333333333333336
300.0   90.0   33.333333333333336
300.0   60.0   33.333333333333336
300.0   60.0   16.666666666666668
250.0   60.0   33.333333333333336
300.0   90.0   33.333333333333336
300.0   60.0   16.666666666666668
250.0   90.0   16.666666666666668
250.0   60.0   33.333333333333336
300.0   60.0   33.333333333333336
250.0   90.0   33.333333333333336
250.0   60.0   50.0
300.0   60.0   33.333333333333336
300.0   90.0   33.333333333333336
250.0   90.0   33.333333333333336
300.0   90.0   50.0
250.0   60.0   50.0
250.0   90.0   50.0
300.0   90.0   50.0
250.0   90.0   33.333333333333336
250.0   60.0   50.0
300.0   90.0   50.0
300.0   60.0   50.0
300.0   60.0   33.333333333333336
250.0   60.0   50.0
300.0   90.0   50.0
300.0   60.0   33.333333333333336
250.0   90.0   33.333333333333336
250.0   90.0   0.0
300.0   90.0   0.0
250.0   120.0   0.0
250.0   90.0   16.666666666666668
300.0   90.0   0.0
300.0   120.0   0.0
250.0   120.0   0.0
300.0   120.0   16.666666666666668
250.0   90.0   16.666666666666668
250.0   120.0   16.666666666666668
300.0   120.0   16.666666666666668
250.0   120.0   0.0
250.0   90.0   16.666666666666668
300.0   120.0   16.666666666666668
300.0   90.0   16.666666666666668
300.0   90.0   0.0
250.0   90.0   16.666666666666668
300.0   120.0   16.666666666666668
300.0   90.0   0.0
250.0   120.0   0.0
250.0   90.0   16.666666666666668
300.0   90.0   16.666666666666668
250.0   120.0   16.666666666666668
250.0   90.0   33.333333333333336
300.0   90.0   16.666666666666668
300.0   120.0   16.666666666666668
250.0   120.0   16.666666666666668
300.0   120.0   33.333333333333336
250.0   90.0   33.333333333333336
250.0   120.0   33.333333333333336
300.0   120.0   33.333333333333336
250.0   120.0   16.666666666666668
250.0   90.0   33.333333333333336
300.0   120.0   33.333333333333336
300.0   90.0   33.333333333333336
300.0   90.0   16.666666666666668
250.0   90.0   33.333333333333336
300.0   120.0   33.333333333333336
300.0   90.0   16.666666666666668
250.0   120.0   16.666666666666668
250.0   90.0   33.333333333333336
300.0   90.0   33.333333333333336
250.0   120.0   33.333333333333336
250.0   90.0   50.0
300.0   90.0   33.333333333333336
300.0   120.0   33.333333333333336
250.0   120.0   33.333333333333336
300.0   120.0   50.0
250.0   90.0   50.0
250.0   120.0   50.0
300.0   120.0   50.0
250.0   120.0   33.333333333333336
250.0   90.0   50.0
300.0   120.0   50.0
300.0   90.0   50.0
300.0   90.0   33.333333333333336
250.0   90.0   50.0
300.0   120.0   50.0
300.0   90.0   33.333333333333336
250.0   120.0   33.333333333333336
250.0   120.0   0.0
300.0   120.0   0.0
250.0   150.0   0.0
250.0   120.0   16.666666666666668
300.0   120.0   0.0
300.0   150.0   0.0
250.0   150.0   0.0
300.0   150.0   16.666666666666668
250.0   120.0   16.666666666666668
250.0   150.0   16.666666666666668
300.0   150.0   16.666666666666668
250.0   150.0   0.0
250.0   120.0   16.666666666666668
300.0   150.0   16.666666666666668
300.0   120.0   16.666666666666668
300.0   120.0   0.0
250.0   120.0   16.666666666666668
300.0   150.0   16.666666666666668
300.0   120.0   0.0
250.0   150.0   0.0
250.0   120.0   16.666666666666668
300.0   120.0   16.666666666666668
250.0   150.0   16.666666666666668
250.0   120.0   33.333333333333336
300.0   120.0   16.666666666666668
300.0   150.0   16.666666666666668
250.0   150.0   16.666666666666668
300.0   150.0   33.333333333333336
250.0   120.0   33.333333333333336
250.0   150.0   33.333333333333336
300.0   150.0   33.333333333333336
250.0   150.0   16.666666666666668
250.0   120.0   33.333333333333336
300.0   150.0   33.333333333333336
300.0   120.0   33.333333333333336
300.0   120.0   16.666666666666668
250.0   120.0   33.333333333333336
300.0   150.0   33.333333333333336
300.0   120.0   16.666666666666668
250.0   150.0   16.666666666666668
250.0   120.0   33.333333333333336
300.0   120.0   33.333333333333336
250.0   150.0   33.333333333333336
250.0   120.0   50.0
300.0   120.0   33.333333333333336
300.0   150.0   33.333333333333336
250.0   150.0   33.333333333333336
300.0   150.0   50.0
250.0   120.0   50.0
250.0   150.0   50.0
300.0   150.0   50.0
250.0   150.0   33.333333333333336
250.0   120.0   50.0
300.0   150.0   50.0
300.0   120.0   50.0
300.0   120.0   33.333333333333336
250.0   120.0   50.0
300.0   150.0   50.0
300.0   120.0   33.333333333333336
250.0   150.0   33.333333333333336
300.0   0.0   0.0
350.0   0.0   0.0
300.0   30.0   0.0
300.0   0.0   16.666666666666668
350.0   0.0   0.0
350.0   30.0   0.0
300.0   30.0   0.0
350.0   30.0   16.666666666666668
300.0   0.0   16.666666666666668
300.0   30.0   16.666666666666668
350.0   30.0   16.666666666666668
300.0   30.0   0.0
300.0   0.0   16.666666666666668
350.0   30.0   16.666666666666668
350.0   0.0   16.666666666666668
350.0   0.0   0.0
300.0   0.0   16.666666666666668
350.0   30.0   16.666666666666668
350.0   0.0   0.0
300.0   30.0   0.0
300.0   0.0   16.666666666666668
350.0   0.0   16.666666666666668
300.0   30.0   16.666666666666668
300.0   0.0   33.333333333333336
350.0   0.0   16.666666666666668
350.0   30.0   16.666666666666668
300.0   30.0   16.666666666666668
350.0   30.0   33.333333333333336
300.0   0.0   33.333333333333336
300.0   30.0   33.333333333333336
350.0   30.0   33.333333333333336
300.0   30.0   16.666666666666668
300.0   0.0   33.333333333333336
350.0   30.0   33.333333333333336
350.0   0.0   33.333333333333336
350.0   0.0   16.666666666666668
300.0   0.0   33.333333333333336
350.0   30.0   33.333333333333336
350.0   0.0   16.666666666666668
300.0   30.0   16.666666666666668
300.0   0.0   33.333333333333336
350.0   0.0   33.333333333333336
300.0   30.0   33.333333333333336
300.0   0.0   50.0
350.0   0.0   33.333333333333336
350.0   30.0   33.333333333333336
300.0   30.0   33.333333333333336
350.0   30.0   50.0
300.0   0.0   50.0
300.0   30.0   50.0
350.0   30.0   50.0
300.0   30.0   33.333333333333336
300.0   0.0   50.0
350.0   30.0   50.0
350.0   0.0   50.0
350.0   0.0   33.333333333333336
300.0   0.0   50.0
350.0   30.0   50.0
350.0   0.0   33.333333333333336
300.0   30.0   33.333333333333336
300.0   30.0   0.0
350.0   30.0   0.0
300.0   60.0   0.0
300.0   30.0   16.666666666666668
350.0   30.0   0.0
350.0   60.0   0.0
300.0   60.0   0.0
350.0   60.0   16.666666666666668
300.0   30.0   16.666666666666668
300.0   60.0   16.666666666666668
350.0   60.0   16.666666666666668
300.0   60.0   0.0
300.0   30.0   16.666666666666668
350.0   60.0   16.666666666666668
350.0   30.0   16.666666666666668
350.0   30.0   0.0
300.0   30.0   16.666666666666668
350.0   60.0   16.666666666666668
350.0   30.0   0.0
300.0   60.0   0.0
300.0   30.0   16.666666666666668
350.0   30.0   16.666666666666668
300.0   60.0   16.666666666666668
300.0   30.0   33.333333333333336
350.0   30.0   16.666666666666668
350.0   60.0   16.666666666666668
300.0   60.0   16.666666666666668
350.0   60.0   33.333333333333336
300.0   30.0   33.333333333333336
300.0   60.0   33.333333333333336
350.0   60.0   33.333333333333336
300.0   60.0   16.666666666666668
300.0   30.0   33.333333333333336
350.0   60.0   33.333333333333336
350.0   30.0   33.333333333333336
350.0   30.0   16.666666666666668
300.0   30.0   33.333333333333336
350.0   60.0   33.333333333333336
350.0   30.0   16.666666666666668
300.0   60.0   16.666666666666668
300.0   30.0   33.333333333333336
350.0   30.0   33.333333333333336
300.0   60.0   33.333333333333336
300.0   30.0   50.0
350.0   30.0   33.333333333333336
350.0   60.0   33.333333333333336
300.0   60.0   33.333333333333336
350.0   60.0   50.0
300.0   30.0   50.0
300.0   60.0   50.0
350.0   60.0   50.0
300.0   60.0   33.333333333333336
300.0   30.0   50.0
350.0   60.0   50.0
350.0   30.0   50.0
350.0   30.0   33.333333333333336
300.0   30.0   50.0
350.0   60.0   50.0
350.0   30.0   33.333333333333336
300.0   60.0   33.333333333333336
300.0   60.0   0.0
350.0   60.0   0.0
300.0   90.0   0.0
300.0   60.0   16.666666666666668
350.0   60.0   0.0
350.0   90.0   0.0
300.0   90.0   0.0
350.0   90.0   16.666666666666668
300.0   60.0   16.666666666666668
300.0   90.0   16.666666666666668
350.0   90.0   16.666666666666668
300.0   90.0   0.0
300.0   60.0   16.666666666666668
350.0   90.0   16.666666666666668
350.0   60.0   16.666666666666668
350.0   60.0   0.0
300.0   60.0   16.666666666666668
350.0   90.0   16.666666666666668
350.0   60.0   0.0
300.0   90.0   0.0
300.0   60.0   16.666666666666668
350.0   60.0   16.666666666666668
300.0   90.0   16.666666666666668
300.0   60.0   33.333333333333336
350.0   60.0   16.666666666666668
350.0   90.0   16.666666666666668
300.0   90.0   16.666666666666668
350.0   90.0   33.333333333333336
300.0   60.0   33.333333333333336
300.0   90.0   33.333333333333336
350.0   90.0   33.333333333333336
300.0   90.0   16.666666666666668
300.0   60.0   33.333333333333336
350.0   90.0   33.333333333333336
350.0   60.0   33.333333333333336
350.0   60.0   16.666666666666668
300.0   60.0   33.333333333333336
350.0   90.0   33.333333333333336
350.0   60.0   16.666666666666668
300.0   90.0   16.666666666666668
300.0   60.0   33.333333333333336
350.0   60.0   33.333333333333336
300.0   90.0   33.333333333333336
300.0   60.0   50.0
350.0   60.0   33.333333333333336
350.0   90.0   33.333333333333336
300.0   90.0   33.333333333333336
350.0   90.0   50.0
300.0   60.0   50.0
300.0   90.0   50.0
350.0   90.0   50.0
300.0   90.0   33.333333333333336
300.0   60.0   50.0
350.0   90.0   50.0
350.0   60.0   50.0
350.0   60.0   33.333333333333336
300.0   60.0   50.0
350.0   90.0   50.0
350.0   60.0   33.333333333333336
300.0   90.0   33.333333333333336
300.0   90.0   0.0
350.0   90.0   0.0
300.0   120.0   0.0
300.0   90.0   16.666666666666668
350.0   90.0   0.0
350.0   120.0   0.0
300.0   120.0   0.0
350.0   120.0   16.666666666666668
300.0   90.0   16.666666666666668
300.0   120.0   16.666666666666668
350.0   120.0   16.666666666666668
300.0   120.0   0.0
300.0   90.0   16.666666666666668
350.0   120.0   16.666666666666668
350.0   90.0   16.666666666666668
350.0   90.0   0.0
300.0   90.0   16.666666666666668
350.0   120.0   16.666666666666668
350.0   90.0   0.0
300.0   120.0   0.0
300.0   90.0   16.666666666666668
350.0   90.0   16.666666666666668
300.0   120.0   16.666666666666668
300.0   90.0   33.333333333333336
350.0   90.0   16.666666666666668
350.0   120.0   16.666666666666668
300.0   120.0   16.666666666666668
350.0   120.0   33.333333333333336
300.0   90.0   33.333333333333336
300.0   120.0   33.333333333333336
350.0   120.0   33.333333333333336
300.0   120.0   16.666666666666668
300.0   90.0   33.333333333333336
350.0   120.0   33.333333333333336
350.0   90.0   33.333333333333336
350.0   90.0   16.666666666666668
300.0   90.0   33.333333333333336
350.0   120.0   33.333333333333336
350.0   90.0   16.666666666666668
300.0   120.0   16.666666666666668
300.0   90.0   33.333333333333336
350.0   90.0   33.333333333333336
300.0   120.0   33.333333333333336
300.0   90.0   50.0
350.0   90.0   33.333333333333336
350.0   120.0   33.333333333333336
300.0   120.0   33.333333333333336
350.0   120.0   50.0
300.0   90.0   50.0
300.0   120.0   50.0
350.0   120.0   50.0
300.0   120.0   33.333333333333336
300.0   90.0   50.0
350.0   120.0   50.0
350.0   90.0   50.0
350.0   90.0   33.333333333333336
300.0   90.0   50.0
350.0   120.0   50.0
350.0   90.0   33.333333333333336
300.0   120.0   33.333333333333336
300.0   120.0   0.0
350.0   120.0   0.0
300.0   150.0   0.0
300.0   120.0   16.666666666666668
350.0   120.0   0.0
350.0   150.0   0.0
300.0   150.0   0.0
350.0   150.0   16.666666666666668
300.0   120.0   16.666666666666668
300.0   150.0   16.666666666666668
350.0   150.0   16.666666666666668
300.0   150.0   0.0
300.0   120.0   16.666666666666668
350.0   150.0   16.666666666666668
350.0   120.0   16.666666666666668
350.0   120.0   0.0
300.0   120.0   16.666666666666668
350.0   150.0   16.666666666666668
350.0   120.0   0.0
300.0   150.0   0.0
300.0   120.0   16.666666666666668
350.0   120.0   16.666666666666668
300.0   150.0   16.666666666666668
300.0   120.0   33.333333333333336
350.0   120.0   16.666666666666668
350.0   150.0   16.666666666666668
300.0   150.0   16.666666666666668
350.0   150.0   33.333333333333336
300.0   120.0   33.333333333333336
300.0   150.0   33.333333333333336
350.0   150.0   33.333333333333336
300.0   150.0   16.666666666666668
300.0   120.0   33.333333333333336
350.0   150.0   33.333333333333336
350.0   120.0   33.333333333333336
350.0   120.0   16.666666666666668
300.0   120.0   33.333333333333336
350.0   150.0   33.333333333333336
350.0   120.0   16.666666666666668
300.0   150.0   16.666666666666668
300.0   120.0   33.333333333333336
350.0   120.0   33.333333333333336
300.0   150.0   33.333333333333336
300.0   120.0   50.0
350.0   120.0   33.333333333333336
350.0   150.0   33.333333333333336
300.0   150.0   33.333333333333336
350.0   150.0   50.0
300.0   120.0   50.0
300.0   150.0   50.0
350.0   150.0   50.0
300.0   150.0   33.333333333333336
300.0   120.0   50.0
350.0   150.0   50.0
350.0   120.0   50.0
350.0   120.0   33.333333333333336
300.0   120.0   50.0
350.0   150.0   50.0
350.0   120.0   33.333333333333336
300.0   150.0   33.333333333333336
350.0   0.0   0.0
400.0   0.0   0.0
350.0   30.0   0.0
350.0   0.0   16.666666666666668
400.0   0.0   0.0
400.0   30.0   0.0
350.0   30.0   0.0
400.0   30.0   16.666666666666668
350.0   0.0   16.666666666666668
350.0   30.0   16.666666666666668
400.0   30.0   16.666666666666668
350.0   30.0   0.0
350.0   0.0   16.666666666666668
400.0   30.0   16.666666666666668
400.0   0.0   16.666666666666668
400.0   0.0   0.0
350.0   0.0   16.666666666666668
400.0   30.0   16.666666666666668
400.0   0.0   0.0
350.0   30.0   0.0
350.0   0.0   16.666666666666668
400.0   0.0   16.666666666666668
350.0   30.0   16.666666666666668
350.0   0.0   33.333333333333336
400.0   0.0   16.666666666666668
400.0   30.0   16.666666666666668
350.0   30.0   16.666666666666668
400.0   30.0   33.333333333333336
350.0   0.0   33.333333333333336
350.0   30.0   33.333333333333336
400.0   30.0   33.333333333333336
350.0   30.0   16.666666666666668
350.0   0.0   33.333333333333336
400.0   30.0   33.333333333333336
400.0   0.0   33.333333333333336
400.0   0.0   16.666666666666668
350.0   0.0   33.333333333333336
400.0   30.0   33.333333333333336
400.0   0.0   16.666666666666668
350.0   30.0   16.666666666666668
350.0   0.0   33.333333333333336
400.0   0.0   33.333333333333336
350.0   30.0   33.333333333333336
350.0   0.0   50.0
400.0   0.0   33.333333333333336
400.0   30.0   33.333333333333336
350.0   30.0   33.333333333333336
400.0   30.0   50.0
350.0   0.0   50.0
350.0   30.0   50.0
400.0   30.0   50.0
350.0   30.0   33.333333333333336
350.0   0.0   50.0
400.0   30.0   50.0
400.0   0.0   50.0
400.0   0.0   33.333333333333336
350.0   0.0   50.0
400.0   30.0   50.0
400.0   0.0   33.333333333333336
350.0   30.0   33.333333333333336
350.0   30.0   0.0
400.0   30.0   0.0
350.0   60.0   0.0
350.0   30.0   16.666666666666668
400.0   30.0   0.0
400.0   60.0   0.0
350.0   60.0   0.0
400.0   60.0   16.666666666666668
350.0   30.0   16.666666666666668
350.0   60.0   16.666666666666668
400.0   60.0   16.666666666666668
350.0   60.0   0.0
350.0   30.0   16.666666666666668
400.0   60.0   16.666666666666668
400.0   30.0   16.666666666666668
400.0   30.0   0.0
350.0   30.0   16.666666666666668
400.0   60.0   16.666666666666668
400.0   30.0   0.0
350.0   60.0   0.0
350.0   30.0   16.666666666666668
400.0   30.0   16.666666666666668
350.0   60.0   16.666666666666668
350.0   30.0   33.333333333333336
400.0   30.0   16.666666666666668
400.0   60.0   16.666666666666668
350.0   60.0   16.666666666666668
400.0   60.0   33.333333333333336
350.0   30.0   33.333333333333336
350.0   60.0   33.333333333333336
400.0   60.0   33.333333333333336
350.0   60.0   16.666666666666668
350.0   30.0   33.333333333333336
400.0   60.0   33.333333333333336
400.0   30.0   33.333333333333336
400.0   30.0   16.666666666666668
350.0   30.0   33.333333333333336
400.0   60.0   33.333333333333336
400.0   30.0   16.666666666666668
350.0   60.0   16.666666666666668
350.0   30.0   33.333333333333336
400.0   30.0   33.333333333333336
350.0   60.0   33.333333333333336
350.0   30.0   50.0
400.0   30.0   33.333333333333336
400.0   60.0   33.333333333333336
350.0   60.0   33.333333333333336
400.0   60.0   50.0
350.0   30.0   50.0
350.0   60.0   50.0
400.0   60.0   50.0
350.0   60.0   33.333333333333336
350.0   30.0   50.0
400.0   60.0   50.0
400.0   30.0   50.0
400.0   30.0   33.333333333333336
350.0   30.0   50.0
400.0   60.0   50.0
400.0   30.0   33.333333333333336
350.0   60.0   33.333333333333336
350.0   60.0   0.0
400.0   60.0   0.0
350.0   90.0   0.0
350.0   60.0   16.666666666666668
400.0   60.0   0.0
400.0   90.0   0.0
350.0   90.0   0.0
400.0   90.0   16.666666666666668
350.0   60.0   16.666666666666668
350.0   90.0   16.666666666666668
400.0   90.0   16.666666666666668
350.0   90.0   0.0
350.0   60.0   16.666666666666668
400.0   90.0   16.666666666666668
400.0   60.0   16.666666666666668
400.0   60.0   0.0
350.0   60.0   16.666666666666668
400.0   90.0   16.666666666666668
400.0   60.0   0.0
350.0   90.0   0.0
350.0   60.0   16.666666666666668
400.0   60.0   16.666666666666668
350.0   90.0   16.666666666666668
350.0   60.0   33.333333333333336
400.0   60.0   16.666666666666668
400.0   90.0   16.666666666666668
350.0   90.0   16.666666666666668
400.0   90.0   33.333333333333336
350.0   60.0   33.333333333333336
350.0   90.0   33.333333333333336
400.0   90.0   33.333333333333336
350.0   90.0   16.666666666666668
350.0   60.0   33.333333333333336
400.0   90.0   33.333333333333336
400.0   60.0   33.333333333333336
400.0   60.0   16.666666666666668
350.0   60.0   33.333333333333336
400.0   90.0   33.333333333333336
400.0   60.0   16.666666666666668
350.0   90.0   16.666666666666668
350.0   60.0   33.333333333333336
400.0   60.0   33.333333333333336
350.0   90.0   33.333333333333336
350.0   60.0   50.0
400.0   60.0   33.333333333333336
400.0   90.0   33.333333333333336
350.0   90.0   33.333333333333336
400.0   90.0   50.0
350.0   60.0   50.0
350.0   90.0   50.0
400.0   90.0   50.0
350.0   90.0   33.333333333333336
350.0   60.0   50.0
400.0   90.0   50.0
400.0   60.0   50.0
400.0   60.0   33.333333333333336
350.0   60.0   50.0
400.0   90.0   50.0
400.0   60.0   33.333333333333336
350.0   90.0   33.333333333333336
350.0   90.0   0.0
400.0   90.0   0.0
350.0   120.0   0.0
350.0   90.0   16.666666666666668
400.0   90.0   0.0
400.0   120.0   0.0
350.0   120.0   0.0
400.0   120.0   16.666666666666668
350.0   90.0   16.666666666666668
350.0   120.0   16.666666666666668
400.0   120.0   16.666666666666668
350.0   120.0   0.0
350.0   90.0   16.666666666666668
400.0   120.0   16.666666666666668
400.0   90.0   16.666666666666668
400.0   90.0   0.0
350.0   90.0   16.666666666666668
400.0   120.0   16.666666666666668
400.0   90.0   0.0
350.0   120.0   0.0
350.0   90.0   16.666666666666668
400.0   90.0   16.666666666666668
350.0   120.0   16.666666666666668
350.0   90.0   33.333333333333336
400.0   90.0   16.666666666666668
400.0   120.0   16.666666666666668
350.0   120.0   16.666666666666668
400.0   120.0   33.333333333333336
350.0   90.0   33.333333333333336
350.0   120.0   33.333333333333336
400.0   120.0   33.333333333333336
350.0   120.0   16.666666666666668
350.0   90.0   33.333333333333336
400.0   120.0   33.333333333333336
400.0   90.0   33.333333333333336
400.0   90.0   16.666666666666668
350.0   90.0   33.333333333333336
400.0   120.0   33.333333333333336
400.0   90.0   16.666666666666668
350.0   120.0   16.666666666666668
350.0   90.0   33.333333333333336
400.0   90.0   33.333333333333336
350.0   120.0   33.333333333333336
350.0   90.0   50.0
400.0   90.0   33.333333333333336
400.0   120.0   33.333333333333336
350.0   120.0   33.333333333333336
400.0   120.0   50.0
350.0   90.0   50.0
350.0   120.0   50.0
400.0   120.0   50.0
350.0   120.0   33.333333333333336
350.0   90.0   50.0
400.0   120.0   50.0
400.0   90.0   50.0
400.0   90.0   33.333333333333336
350.0   90.0   50.0
400.0   120.0   50.0
400.0   90.0   33.333333333333336
350.0   120.0   33.333333333333336
350.0   120.0   0.0
400.0   120.0   0.0
350.0   150.0   0.0
350.0   120.0   16.666666666666668
400.0   120.0   0.0
400.0   150.0   0.0
350.0   150.0   0.0
400.0   150.0   16.666666666666668
350.0   120.0   16.666666666666668
350.0   150.0   16.666666666666668
400.0   150.0   16.666666666666668
350.0   150.0   0.0
350.0   120.0   16.666666666666668
400.0   150.0   16.666666666666668
400.0   120.0   16.666666666666668
400.0   120.0   0.0
350.0   120.0   16.666666666666668
400.0   150.0   16.666666666666668
400.0   120.0   0.0
350.0   150.0   0.0
350.0   120.0   16.666666666666668
400.0   120.0   16.666666666666668
350.0   150.0   16.666666666666668
350.0   120.0   33.333333333333336
400.0   120.0   16.666666666666668
400.0   150.0   16.666666666666668
350.0   150.0   16.666666666666668
400.0   150.0   33.333333333333336
350.0   120.0   33.333333333333336
350.0   150.0   33.333333333333336
400.0   150.0   33.333333333333336
350.0   150.0   16.666666666666668
350.0   120.0   33.333333333333336
400.0   150.0   33.333333333333336
400.0   120.0   33.333333333333336
400.0   120.0   16.666666666666668
350.0   120.0   33.333333333333336
400.0   150.0   33.333333333333336
400.0   120.0   16.666666666666668
350.0   150.0   16.666666666666668
350.0   120.0   33.333333333333336
400.0   120.0   33.333333333333336
350.0   150.0   33.333333333333336
350.0   120.0   50.0
400.0   120.0   33.333333333333336
400.0   150.0   33.333333333333336
350.0   150.0   33.333333333333336
400.0   150.0   50.0
350.0   120.0   50.0
350.0   150.0   50.0
400.0   150.0   50.0
350.0   150.0   33.333333333333336
350.0   120.0   50.0
400.0   150.0   50.0
400.0   120.0   50.0
400.0   120.0   33.333333333333336
350.0   120.0   50.0
400.0   150.0   50.0
400.0   120.0   33.333333333333336
350.0   150.0   33.333333333333336
400.0   0.0   0.0
450.0   0.0   0.0
400.0   30.0   0.0
400.0   0.0   16.666666666666668
450.0   0.0   0.0
450.0   30.0   0.0
400.0   30.0   0.0
450.0   30.0   16.666666666666668
400.0   0.0   16.666666666666668
400.0   30.0   16.666666666666668
450.0   30.0   16.666666666666668
400.0   30.0   0.0
400.0   0.0   16.666666666666668
450.0   30.0   16.666666666666668
450.0   0.0   16.666666666666668
450.0   0.0   0.0
400.0   0.0   16.666666666666668
450.0   30.0   16.666666666666668
450.0   0.0   0.0
400.0   30.0   0.0
400.0   0.0   16.666666666666668
450.0   0.0   16.666666666666668
400.0   30.0   16.666666666666668
400.0   0.0   33.333333333333336
450.0   0.0   16.666666666666668
450.0   30.0   16.666666666666668
400.0   30.0   16.666666666666668
450.0   30.0   33.333333333333336
400.0   0.0   33.333333333333336
400.0   30.0   33.333333333333336
450.0   30.0   33.333333333333336
400.0   30.0   16.666666666666668
400.0   0.0   33.333333333333336
450.0   30.0   33.333333333333336
450.0   0.0   33.333333333333336
450.0   0.0   16.666666666666668
400.0   0.0   33.333333333333336
450.0   30.0   33.333333333333336
450.0   0.0   16.666666666666668
400.0   30.0   16.666666666666668
400.0   0.0   33.333333333333336
450.0   0.0   33.333333333333336
400.0   30.0   33.333333333333336
400.0   0.0   50.0
450.0   0.0   33.333333333333336
450.0   30.0   33.333333333333336
400.0   30.0   33.333333333333336
450.0   30.0   50.0
400.0   0.0   50.0
400.0   30.0   50.0
450.0   30.0   50.0
400.0   30.0   33.333333333333336
400.0   0.0   50.0
450.0   30.0   50.0
450.0   0.0   50.0
450.0   0.0   33.333333333333336
400.0   0.0   50.0
450.0   30.0   50.0
450.0   0.0   33.333333333333336
400.0   30.0   33.333333333333336
400.0   30.0   0.0
450.0   30.0   0.0
400.0   60.0   0.0
400.0   30.0   16.666666666666668
450.0   30.0   0.0
450.0   60.0   0.0
400.0   60.0   0.0
450.0   60.0   16.666666666666668
400.0   30.0   16.666666666666668
400.0   60.0   16.666666666666668
450.0   60.0   16.666666666666668
400.0   60.0   0.0
400.0   30.0   16.666666666666668
450.0   60.0   16.666666666666668
450.0   30.0   16.666666666666668
450.0   30.0   0.0
400.0   30.0   16.666666666666668
450.0   60.0   16.666666666666668
450.0   30.0   0.0
400.0   60.0   0.0
400.0   30.0   16.666666666666668
450.0   30.0   16.666666666666668
400.0   60.0   16.666666666666668
400.0   30.0   33.333333333333336
450.0   30.0   16.666666666666668
450.0   60.0   16.666666666666668
400.0   60.0   16.666666666666668
450.0   60.0   33.333333333333336
400.0   30.0   33.333333333333336
400.0   60.0   33.333333333333336
450.0   60.0   33.333333333333336
400.0   60.0   16.666666666666668
400.0   30.0   33.333333333333336
450.0   60.0   33.333333333333336
450.0   30.0   33.333333333333336
450.0   30.0   16.666666666666668
400.0   30.0   33.333333333333336
450.0   60.0   33.333333333333336
450.0   30.0   16.666666666666668
400.0   60.0   16.666666666666668
400.0   30.0   33.333333333333336
450.0   30.0   33.333333333333336
400.0   60.0   33.333333333333336
400.0   30.0   50.0
450.0   30.0   33.333333333333336
450.0   60.0   33.333333333333336
400.0   60.0   33.333333333333336
450.0   60.0   50.0
400.0   30.0   50.0
400.0   60.0   50.0
450.0   60.0   50.0
400.0   60.0   33.333333333333336
400.0   30.0   50.0
450.0   60.0   50.0
450.0   30.0   50.0
450.0   30.0   33.333333333333336
400.0   30.0   50.0
450.0   60.0   50.0
450.0   30.0   33.333333333333336
400.0   60.0   33.333333333333336
400.0   60.0   0.0
450.0   60.0   0.0
400.0   90.0   0.0
400.0   60.0   16.666666666666668
450.0   60.0   0.0
450.0   90.0   0.0
400.0   90.0   0.0
450.0   90.0   16.666666666666668
400.0   60.0   16.666666666666668
400.0   90.0   16.666666666666668
450.0   90.0   16.666666666666668
400.0   90.0   0.0
400.0   60.0   16.666666666666668
450.0   90.0   16.666666666666668
450.0   60.0   16.666666666666668
450.0   60.0   0.0
400.0   60.0   16.666666666666668
450.0   90.0   16.666666666666668
450.0   60.0   0.0
400.0   90.0   0.0
400.0   60.0   16.666666666666668
450.0   60.0   16.666666666666668
400.0   90.0   16.666666666666668
400.0   60.0   33.333333333333336
450.0   60.0   16.666666666666668
450.0   90.0   16.666666666666668
400.0   90.0   16.666666666666668
450.0   90.0   33.333333333333336
400.0   60.0   33.333333333333336
400.0   90.0   33.333333333333336
450.0   90.0   33.333333333333336
400.0   90.0   16.666666666666668
400.0   60.0   33.333333333333336
450.0   90.0   33.333333333333336
450.0   60.0   33.333333333333336
450.0   60.0   16.666666666666668
400.0   60.0   33.333333333333336
450.0   90.0   33.333333333333336
450.0   60.0   16.666666666666668
400.0   90.0   16.666666666666668
400.0   60.0   33.333333333333336
450.0   60.0   33.333333333333336
400.0   90.0   33.333333333333336
400.0   60.0   50.0
450.0   60.0   33.333333333333336
450.0   90.0   33.333333333333336
400.0   90.0   33.333333333333336
450.0   90.0   50.0
400.0   60.0   50.0
400.0   90.0   50.0
450.0   90.0   50.0
400.0   90.0   33.333333333333336
400.0   60.0   50.0
450.0   90.0   50.0
450.0   60.0   50.0
450.0   60.0   33.333333333333336
400.0   60.0   50.0
450.0   90.0   50.0
450.0   60.0   33.333333333333336
400.0   90.0   33.333333333333336
400.0   90.0   0.0
450.0   90.0   0.0
400.0   120.0   0.0
400.0   90.0   16.666666666666668
450.0   90.0   0.0
450.0   120.0   0.0
400.0   120.0   0.0
450.0   120.0   16.666666666666668
400.0   90.0   16.666666666666668
400.0   120.0   16.666666666666668
450.0   120.0   16.666666666666668
400.0   120.0   0.0
400.0   90.0   16.666666666666668
450.0   120.0   16.666666666666668
450.0   90.0   16.666666666666668
450.0   90.0   0.0
400.0   90.0   16.666666666666668
450.0   120.0   16.666666666666668
450.0   90.0   0.0
400.0   120.0   0.0
400.0   90.0   16.666666666666668
450.0   90.0   16.666666666666668
400.0   120.0   16.666666666666668
400.0   90.0   33.333333333333336
450.0   90.0   16.666666666666668
450.0   120.0   16.666666666666668
400.0   120.0   16.666666666666668
450.0   120.0   33.333333333333336
400.0   90.0   33.333333333333336
400.0   120.0   33.333333333333336
450.0   120.0   33.333333333333336
400.0   120.0   16.666666666666668
400.0   90.0   33.333333333333336
450.0   120.0   33.333333333333336
450.0   90.0   33.333333333333336
450.0   90.0   16.666666666666668
400.0   90.0   33.333333333333336
450.0   120.0   33.333333333333336
450.0   90.0   16.666666666666668
400.0   120.0   16.666666666666668
400.0   90.0   33.333333333333336
450.0   90.0   33.333333333333336
400.0   120.0   33.333333333333336
400.0   90.0   50.0
450.0   90.0   33.333333333333336
450.0   120.0   33.333333333333336
400.0   120.0   33.333333333333336
450.0   120.0   50.0
400.0   90.0   50.0
400.0   120.0   50.0
450.0   120.0   50.0
400.0   120.0   33.333333333333336
400.0   90.0   50.0
450.0   120.0   50.0
450.0   90.0   50.0
450.0   90.0   33.333333333333336
400.0   90.0   50.0
450.0   120.0   50.0
450.0   90.0   33.333333333333336
400.0   120.0   33.333333333333336
400.0   120.0   0.0
450.0   120.0   0.0
400.0   150.0   0.0
400.0   120.0   16.666666666666668
450.0   120.0   0.0
450.0   150.0   0.0
400.0   150.0   0.0
450.0   150.0   16.666666666666668
400.0   120.0   16.666666666666668
400.0   150.0   16.666666666666668
450.0   150.0   16.666666666666668
400.0   150.0   0.0
400.0   120.0   16.666666666666668
450.0   150.0   16.666666666666668
450.0   120.0   16.666666666666668
450.0   120.0   0.0
400.0   120.0   16.666666666666668
450.0   150.0   16.666666666666668
450.0   120.0   0.0
400.0   150.0   0.0
400.0   120.0   16.666666666666668
450.0   120.0   16.666666666666668
400.0   150.0   16.666666666666668
400.0   120.0   33.333333333333336
450.0   120.0   16.666666666666668
450.0   150.0   16.666666666666668
400.0   150.0   16.666666666666668
450.0   150.0   33.333333333333336
400.0   120.0   33.333333333333336
400.0   150.0   33.333333333333336
450.0   150.0   33.333333333333336
400.0   150.0   16.666666666666668
400.0   120.0   33.333333333333336
450.0   150.0   33.333333333333336
450.0   120.0   33.333333333333336
450.0   120.0   16.666666666666668
400.0   120.0   33.333333333333336
450.0   150.0   33.333333333333336
450.0   120.0   16.666666666666668
400.0   150.0   16.666666666666668
400.0   120.0   33.333333333333336
450.0   120.0   33.333333333333336
400.0   150.0   33.333333333333336
400.0   120.0   50.0
450.0   120.0   33.333333333333336
450.0   150.0   33.333333333333336
400.0   150.0   33.333333333333336
450.0   150.0   50.0
400.0   120.0   50.0
400.0   150.0   50.0
450.0   150.0   50.0
400.0   150.0   33.333333333333336
400.0   120.0   50.0
450.0   150.0   50.0
450.0   120.0   50.0
450.0   120.0   33.333333333333336
400.0   120.0   50.0
450.0   150.0   50.0
450.0   120.0   33.333333333333336
400.0   150.0   33.333333333333336
450.0   0.0   0.0
500.0   0.0   0.0
450.0   30.0   0.0
450.0   0.0   16.666666666666668
500.0   0.0   0.0
500.0   30.0   0.0
450.0   30.0   0.0
500.0   30.0   16.666666666666668
450.0   0.0   16.666666666666668
450.0   30.0   16.666666666666668
500.0   30.0   16.666666666666668
450.0   30.0   0.0
450.0   0.0   16.666666666666668
500.0   30.0   16.666666666666668
500.0   0.0   16.666666666666668
500.0   0.0   0.0
450.0   0.0   16.666666666666668
500.0   30.0   16.666666666666668
500.0   0.0   0.0
450.0   30.0   0.0
450.0   0.0   16.666666666666668
500.0   0.0   16.666666666666668
450.0   30.0   16.666666666666668
450.0   0.0   33.333333333333336
500.0   0.0   16.666666666666668
500.0   30.0   16.666666666666668
450.0   30.0   16.666666666666668
500.0   30.0   33.333333333333336
450.0   0.0   33.333333333333336
450.0   30.0   33.333333333333336
500.0   30.0   33.333333333333336
450.0   30.0   16.666666666666668
450.0   0.0   33.333333333333336
500.0   30.0   33.333333333333336
500.0   0.0   33.333333333333336
500.0   0.0   16.666666666666668
450.0   0.0   33.333333333333336
500.0   30.0   33.333333333333336
500.0   0.0   16.666666666666668
450.0   30.0   16.666666666666668
450.0   0.0   33.333333333333336
500.0   0.0   33.333333333333336
450.0   30.0   33.333333333333336
450.0   0.0   50.0
500.0   0.0   33.333333333333336
500.0   30.0   33.333333333333336
450.0   30.0   33.333333333333336
500.0   30.0   50.0
450.0   0.0   50.0
450.0   30.0   50.0
500.0   30.0   50.0
450.0   30.0   33.333333333333336
450.0   0.0   50.0
500.0   30.0   50.0
500.0   0.0   50.0
500.0   0.0   33.333333333333336
450.0   0.0   50.0
500.0   30.0   50.0
500.0   0.0   33.333333333333336
450.0   30.0   33.333333333333336
450.0   30.0   0.0
500.0   30.0   0.0
450.0   60.0   0.0
450.0   30.0   16.666666666666668
500.0   30.0   0.0
500.0   60.0   0.0
450.0   60.0   0.0
500.0   60.0   16.666666666666668
450.0   30.0   16.666666666666668
450.0   60.0   16.666666666666668
500.0   60.0   16.666666666666668
450.0   60.0   0.0
450.0   30.0   16.666666666666668
500.0   60.0   16.666666666666668
500.0   30.0   16.666666666666668
500.0   30.0   0.0
450.0   30.0   16.666666666666668
500.0   60.0   16.666666666666668
500.0   30.0   0.0
450.0   60.0   0.0
450.0   30.0   16.666666666666668
500.0   30.0   16.666666666666668
450.0   60.0   16.666666666666668
450.0   30.0   33.333333333333336
500.0   30.0   16.666666666666668
500.0   60.0   16.666666666666668
450.0   60.0   16.666666666666668
500.0   60.0   33.333333333333336
450.0   30.0   33.333333333333336
450.0   60.0   33.333333333333336
500.0   60.0   33.333333333333336
450.0   60.0   16.666666666666668
450.0   30.0   33.333333333333336
500.0   60.0   33.333333333333336
500.0   30.0   33.333333333333336
500.0   30.0   16.666666666666668
450.0   30.0   33.333333333333336
500.0   60.0   33.333333333333336
500.0   30.0   16.666666666666668
450.0   60.0   16.666666666666668
450.0   30.0   33.333333333333336
500.0   30.0   33.333333333333336
450.0   60.0   33.333333333333336
450.0   30.0   50.0
500.0   30.0   33.333333333333336
500.0   60.0   33.333333333333336
450.0   60.0   33.333333333333336
500.0   60.0   50.0
450.0   30.0   50.0
450.0   60.0   50.0
500.0   60.0   50.0
450.0   60.0   33.333333333333336
450.0   30.0   50.0
500.0   60.0   50.0
500.0   30.0   50.0
500.0   30.0   33.333333333333336
450.0   30.0   50.0
500.0   60.0   50.0
500.0   30.0   33.333333333333336
450.0   60.0   33.333333333333336
450.0   60.0   0.0
500.0   60.0   0.0
450.0   90.0   0.0
450.0   60.0   16.666666666666668
500.0   60.0   0.0
500.0   90.0   0.0
450.0   90.0   0.0
500.0   90.0   16.666666666666668
450.0   60.0   16.666666666666668
450.0   90.0   16.666666666666668
500.0   90.0   16.666666666666668
450.0   90.0   0.0
450.0   60.0   16.666666666666668
500.0   90.0   16.666666666666668
500.0   60.0   16.666666666666668
500.0   60.0   0.0
450.0   60.0   16.666666666666668
500.0   90.0   16.666666666666668
500.0   60.0   0.0
450.0   90.0   0.0
450.0   60.0   16.666666666666668
500.0   60.0   16.666666666666668
450.0   90.0   16.666666666666668
450.0   60.0   33.333333333333336
500.0   60.0   16.666666666666668
500.0   90.0   16.666666666666668
450.0   90.0   16.666666666666668
500.0   90.0   33.333333333333336
450.0   60.0   33.333333333333336
450.0   90.0   33.333333333333336
500.0   90.0   33.333333333333336
450.0   90.0   16.666666666666668
450.0   60.0   33.333333333333336
500.0   90.0   33.333333333333336
500.0   60.0   33.333333333333336
500.0   60.0   16.666666666666668
450.0   60.0   33.333333333333336
500.0   90.0   33.333333333333336
500.0   60.0   16.666666666666668
450.0   90.0   16.666666666666668
450.0   60.0   33.333333333333336
500.0   60.0   33.333333333333336
450.0   90.0   33.333333333333336
450.0   60.0   50.0
500.0   60.0   33.333333333333336
500.0   90.0   33.333333333333336
450.0   90.0   33.333333333333336
500.0   90.0   50.0
450.0   60.0   50.0
450.0   90.0   50.0
500.0   90.0   50.0
450.0   90.0   33.333333333333336
450.0   60.0   50.0
500.0   90.0   50.0
500.0   60.0   50.0
500.0   60.0   33.333333333333336
450.0   60.0   50.0
500.0   90.0   50.0
500.0   60.0   33.333333333333336
450.0   90.0   33.333333333333336
450.0   90.0   0.0
500.0   90.0   0.0
450.0   120.0   0.0
450.0   90.0   16.666666666666668
500.0   90.0   0.0
500.0   120.0   0.0
450.0   120.0   0.0
500.0   120.0   16.666666666666668
450.0   90.0   16.666666666666668
450.0   120.0   16.666666666666668
500.0   120.0   16.666666666666668
450.0   120.0   0.0
450.0   90.0   16.666666666666668
500.0   120.0   16.666666666666668
500.0   90.0   16.666666666666668
500.0   90.0   0.0
450.0   90.0   16.666666666666668
500.0   120.0   16.666666666666668
500.0   90.0   0.0
450.0   120.0   0.0
450.0   90.0   16.666666666666668
500.0   90.0   16.666666666666668
450.0   120.0   16.666666666666668
450.0   90.0   33.333333333333336
500.0   90.0   16.666666666666668
500.0   120.0   16.666666666666668
450.0   120.0   16.666666666666668
500.0   120.0   33.333333333333336
450.0   90.0   33.333333333333336
450.0   120.0   33.333333333333336
500.0   120.0   33.333333333333336
450.0   120.0   16.666666666666668
450.0   90.0   33.333333333333336
500.0   120.0   33.333333333333336
500.0   90.0   33.333333333333336
500.0   90.0   16.666666666666668
450.0   90.0   33.333333333333336
500.0   120.0   33.333333333333336
500.0   90.0   16.666666666666668
450.0   120.0   16.666666666666668
450.0   90.0   33.333333333333336
500.0   90.0   33.333333333333336
450.0   120.0   33.333333333333336
450.0   90.0   50.0
500.0   90.0   33.333333333333336
500.0   120.0   33.333333333333336
450.0   120.0   33.333333333333336
500.0   120.0   50.0
450.0   90.0   50.0
450.0   120.0   50.0
500.0   120.0   50.0
450.0   120.0   33.333333333333336
450.0   90.0   50.0
500.0   120.0   50.0
500.0   90.0   50.0
500.0   90.0   33.333333333333336
450.0   90.0   50.0
500.0   120.0   50.0
500.0   90.0   33.333333333333336
450.0   120.0   33.333333333333336
450.0   120.0   0.0
500.0   120.0   0.0
450.0   150.0   0.0
450.0   120.0   16.666666666666668
500.0   120.0   0.0
500.0   150.0   0.0
450.0   150.0   0.0
500.0   150.0   16.666666666666668
450.0   120.0   16.666666666666668
450.0   150.0   16.666666666666668
500.0   150.0   16.666666666666668
450.0   150.0   0.0
450.0   120.0   16.666666666666668
500.0   150.0   16.666666666666668
500.0   120.0   16.666666666666668
500.0   120.0   0.0
450.0   120.0   16.666666666666668
500.0   150.0   16.666666666666668
500.0   120.0   0.0
450.0   150.0   0.0
450.0   120.0   16.666666666666668
500.0   120.0   16.666666666666668
450.0   150.0   16.666666666666668
450.0   120.0   33.333333333333336
500.0   120.0   16.666666666666668
500.0   150.0   16.666666666666668
450.0   150.0   16.666666666666668
500.0   150.0   33.333333333333336
450.0   120.0   33.333333333333336
450.0   150.0   33.333333333333336
500.0   150.0   33.333333333333336
450.0   150.0   16.666666666666668
450.0   120.0   33.333333333333336
500.0   150.0   33.333333333333336
500.0   120.0   33.333333333333336
500.0   120.0   16.666666666666668
450.0   120.0   33.333333333333336
500.0   150.0   33.333333333333336
500.0   120.0   16.666666666666668
450.0   150.0   16.666666666666668
450.0   120.0   33.333333333333336
500.0   120.0   33.333333333333336
450.0   150.0   33.333333333333336
450.0   120.0   50.0
500.0   120.0   33.333333333333336
500.0   150.0   33.333333333333336
450.0   150.0   33.333333333333336
500.0   150.0   50.0
450.0   120.0   50.0
450.0   150.0   50.0
500.0   150.0   50.0
450.0   150.0   33.333333333333336
450.0   120.0   50.0
500.0   150.0   50.0
500.0   120.0   50.0
500.0   120.0   33.333333333333336
450.0   120.0   50.0
500.0   150.0   50.0
500.0   120.0   33.333333333333336
450.0   150.0   33.333333333333336
             </DataArray>   
          </Points>  
          <Cells>  
             <DataArray type="Int32" Name="connectivity" format="ascii">   
0   1   2   3
4   5   6   7
8   9   10   11
12   13   14   15
16   17   18   19
20   21   22   23
24   25   26   27
28   29   30   31
32   33   34   35
36   37   38   39
40   41   42   43
44   45   46   47
48   49   50   51
52   53   54   55
56   57   58   59
60   61   62   63
64   65   66   67
68   69   70   71
72   73   74   75
76   77   78   79
80   81   82   83
84   85   86   87
88   89   90   91
92   93   94   95
96   97   98   99
100   101   102   103
104   105   106   107
108   109   110   111
112   113   114   115
116   117   118   119
120   121   122   123
124   125   126   127
128   129   130   131
132   133   134   135
136   137   138   139
140   141   142   143
144   145   146   147
148   149   150   151
152   153   154   155
156   157   158   159
160   161   162   163
164   165   166   167
168   169   170   171
172   173   174   175
176   177   178   179
180   181   182   183
184   185   186   187
188   189   190   191
192   193   194   195
196   197   198   199
200   201   202   203
204   205   206   207
208   209   210   211
212   213   214   215
216   217   218   219
220   221   222   223
224   225   226   227
228   229   230   231
232   233   234   235
236   237   238   239
240   241   242   243
244   245   246   247
248   249   250   251
252   253   254   255
256   257   258   259
260   261   262   263
264   265   266   267
268   269   270   271
272   273   274   275
276   277   278   279
280   281   282   283
284   285   286   287
288   289   290   291
292   293   294   295
296   297   298   299
300   301   302   303
304   305   306   307
308   309   310   311
312   313   314   315
316   317   318   319
320   321   322   323
324   325   326   327
328   329   330   331
332   333   334   335
336   337   338   339
340   341   342   343
344   345   346   347
348   349   350   351
352   353   354   355
356   357   358   359
360   361   362   363
364   365   366   367
368   369   370   371
372   373   374   375
376   377   378   379
380   381   382   383
384   385   386   387
388   389   390   391
392   393   394   395
396   397   398   399
400   401   402   403
404   405   406   407
408   409   410   411
412   413   414   415
416   417   418   419
420   421   422   423
424   425   426   427
428   429   430   431
432   433   434   435
436   437   438   439
440   441   442   443
444   445   446   447
448   449   450   451
452   453   454   455
456   457   458   459
460   461   462   463
464   465   466   467
468   469   470   471
472   473   474   475
476   477   478   479
480   481   482   483
484   485   486   487
488   489   490   491
492   493   494   495
496   497   498   499
500   501   502   503
504   505   506   507
508   509   510   511
512   513   514   515
516   517   518   519
520   521   522   523
524   525   526   527
528   529   530   531
532   533   534   535
536   537   538   539
540   541   542   543
544   545   546   547
548   549   550   551
552   553   554   555
556   557   558   559
560   561   562   563
564   565   566   567
568   569   570   571
572   573   574   575
576   577   578   579
580   581   582   583
584   585   586   587
588   589   590   591
592   593   594   595
596   597   598   599
600   601   602   603
604   605   606   607
608   609   610   611
612   613   614   615
616   617   618   619
620   621   622   623
624   625   626   627
628   629   630   631
632   633   634   635
636   637   638   639
640   641   642   643
644   645   646   647
648   649   650   651
652   653   654   655
656   657   658   659
660   661   662   663
664   665   666   667
668   669   670   671
672   673   674   675
676   677   678   679
680   681   682   683
684   685   686   687
688   689   690   691
692   693   694   695
696   697   698   699
700   701   702   703
704   705   706   707
708   709   710   711
712   713   714   715
716   717   718   719
720   721   722   723
724   725   726   727
728   729   730   731
732   733   734   735
736   737   738   739
740   741   742   743
744   745   746   747
748   749   750   751
752   753   754   755
756   757   758   759
760   761   762   763
764   765   766   767
768   769   770   771
772   773   774   775
776   777   778   779
780   781   782   783
784   785   786   787
788   789   790   791
792   793   794   795
796   797   798   799
800   801   802   803
804   805   806   807
808   809   810   811
812   813   814   815
816   817   818   819
820   821   822   823
824   825   826   827
828   829   830   831
832   833   834   835
836   837   838   839
840   841   842   843
844   845   846   847
848   849   850   851
852   853   854   855
856   857   858   859
860   861   862   863
864   865   866   867
868   869   870   871
872   873   874   875
876   877   878   879
880   881   882   883
884   885   886   887
888   889   890   891
892   893   894   895
896   897   898   899
900   901   902   903
904   905   906   907
908   909   910   911
912   913   914   915
916   917   918   919
920   921   922   923
924   925   926   927
928   929   930   931
932   933   934   935
936   937   938   939
940   941   942   943
944   945   946   947
948   949   950   951
952   953   954   955
956   957   958   959
960   961   962   963
964   965   966   967
968   969   970   971
972   973   974   975
976   977   978   979
980   981   982   983
984   985   986   987
988   989   990   991
992   993   994   995
996   997   998   999
1000   1001   1002   1003
1004   1005   1006   1007
1008   1009   1010   1011
1012   1013   1014   1015
1016   1017   1018   1019
1020   1021   1022   1023
1024   1025   1026   1027
1028   1029   1030   1031
1032   1033   1034   1035
1036   1037   1038   1039
1040   1041   1042   1043
1044   1045   1046   1047
1048   1049   1050   1051
1052   1053   1054   1055
1056   1057   1058   1059
1060   1061   1062   1063
1064   1065   1066   1067
1068   1069   1070   1071
1072   1073   1074   1075
1076   1077   1078   1079
1080   1081   1082   1083
1084   1085   1086   1087
1088   1089   1090   1091
1092   1093   1094   1095
1096   1097   1098   1099
1100   1101   1102   1103
1104   1105   1106   1107
1108   1109   1110   1111
1112   1113   1114   1115
1116   1117   1118   1119
1120   1121   1122   1123
1124   1125   1126   1127
1128   1129   1130   1131
1132   1133   1134   1135
1136   1137   1138   1139
1140   1141   1142   1143
1144   1145   1146   1147
1148   1149   1150   1151
1152   1153   1154   1155
1156   1157   1158   1159
1160   1161   1162   1163
1164   1165   1166   1167
1168   1169   1170   1171
1172   1173   1174   1175
1176   1177   1178   1179
1180   1181   1182   1183
1184   1185   1186   1187
1188   1189   1190   1191
1192   1193   1194   1195
1196   1197   1198   1199
1200   1201   1202   1203
1204   1205   1206   1207
1208   1209   1210   1211
1212   1213   1214   1215
1216   1217   1218   1219
1220   1221   1222   1223
1224   1225   1226   1227
1228   1229   1230   1231
1232   1233   1234   1235
1236   1237   1238   1239
1240   1241   1242   1243
1244   1245   1246   1247
1248   1249   1250   1251
1252   1253   1254   1255
1256   1257   1258   1259
1260   1261   1262   1263
1264   1265   1266   1267
1268   1269   1270   1271
1272   1273   1274   1275
1276   1277   1278   1279
1280   1281   1282   1283
1284   1285   1286   1287
1288   1289   1290   1291
1292   1293   1294   1295
1296   1297   1298   1299
1300   1301   1302   1303
1304   1305   1306   1307
1308   1309   1310   1311
1312   1313   1314   1315
1316   1317   1318   1319
1320   1321   1322   1323
1324   1325   1326   1327
1328   1329   1330   1331
1332   1333   1334   1335
1336   1337   1338   1339
1340   1341   1342   1343
1344   1345   1346   1347
1348   1349   1350   1351
1352   1353   1354   1355
1356   1357   1358   1359
1360   1361   1362   1363
1364   1365   1366   1367
1368   1369   1370   1371
1372   1373   1374   1375
1376   1377   1378   1379
1380   1381   1382   1383
1384   1385   1386   1387
1388   1389   1390   1391
1392   1393   1394   1395
1396   1397   1398   1399
1400   1401   1402   1403
1404   1405   1406   1407
1408   1409   1410   1411
1412   1413   1414   1415
1416   1417   1418   1419
1420   1421   1422   1423
1424   1425   1426   1427
1428   1429   1430   1431
1432   1433   1434   1435
1436   1437   1438   1439
1440   1441   1442   1443
1444   1445   1446   1447
1448   1449   1450   1451
1452   1453   1454   1455
1456   1457   1458   1459
1460   1461   1462   1463
1464   1465   1466   1467
1468   1469   1470   1471
1472   1473   1474   1475
1476   1477   1478   1479
1480   1481   1482   1483
1484   1485   1486   1487
1488   1489   1490   1491
1492   1493   1494   1495
1496   1497   1498   1499
1500   1501   1502   1503
1504   1505   1506   1507
1508   1509   1510   1511
1512   1513   1514   1515
1516   1517   1518   1519
1520   1521   1522   1523
1524   1525   1526   1527
1528   1529   1530   1531
1532   1533   1534   1535
1536   1537   1538   1539
1540   1541   1542   1543
1544   1545   1546   1547
1548   1549   1550   1551
1552   1553   1554   1555
1556   1557   1558   1559
1560   1561   1562   1563
1564   1565   1566   1567
1568   1569   1570   1571
1572   1573   1574   1575
1576   1577   1578   1579
1580   1581   1582   1583
1584   1585   1586   1587
1588   1589   1590   1591
1592   1593   1594   1595
1596   1597   1598   1599
1600   1601   1602   1603
1604   1605   1606   1607
1608   1609   1610   1611
1612   1613   1614   1615
1616   1617   1618   1619
1620   1621   1622   1623
1624   1625   1626   1627
1628   1629   1630   1631
1632   1633   1634   1635
1636   1637   1638   1639
1640   1641   1642   1643
1644   1645   1646   1647
1648   1649   1650   1651
1652   1653   1654   1655
1656   1657   1658   1659
1660   1661   1662   1663
1664   1665   1666   1667
1668   1669   1670   1671
1672   1673   1674   1675
1676   1677   1678   1679
1680   1681   1682   1683
1684   1685   1686   1687
1688   1689   1690   1691
1692   1693   1694   1695
1696   1697   1698   1699
1700   1701   1702   1703
1704   1705   1706   1707
1708   1709   1710   1711
1712   1713   1714   1715
1716   1717   1718   1719
1720   1721   1722   1723
1724   1725   1726   1727
1728   1729   1730   1731
1732   1733   1734   1735
1736   1737   1738   1739
1740   1741   1742   1743
1744   1745   1746   1747
1748   1749   1750   1751
1752   1753   1754   1755
1756   1757   1758   1759
1760   1761   1762   1763
1764   1765   1766   1767
1768   1769   1770   1771
1772   1773   1774   1775
1776   1777   1778   1779
1780   1781   1782   1783
1784   1785   1786   1787
1788   1789   1790   1791
1792   1793   1794   1795
1796   1797   1798   1799
1800   1801   1802   1803
1804   1805   1806   1807
1808   1809   1810   1811
1812   1813   1814   1815
1816   1817   1818   1819
1820   1821   1822   1823
1824   1825   1826   1827
1828   1829   1830   1831
1832   1833   1834   1835
1836   1837   1838   1839
1840   1841   1842   1843
1844   1845   1846   1847
1848   1849   1850   1851
1852   1853   1854   1855
1856   1857   1858   1859
1860   1861   1862   1863
1864   1865   1866   1867
1868   1869   1870   1871
1872   1873   1874   1875
1876   1877   1878   1879
1880   1881   1882   1883
1884   1885   1886   1887
1888   1889   1890   1891
1892   1893   1894   1895
1896   1897   1898   1899
1900   1901   1902   1903
1904   1905   1906   1907
1908   1909   1910   1911
1912   1913   1914   1915
1916   1917   1918   1919
1920   1921   1922   1923
1924   1925   1926   1927
1928   1929   1930   1931
1932   1933   1934   1935
1936   1937   1938   1939
1940   1941   1942   1943
1944   1945   1946   1947
1948   1949   1950   1951
1952   1953   1954   1955
1956   1957   1958   1959
1960   1961   1962   1963
1964   1965   1966   1967
1968   1969   1970   1971
1972   1973   1974   1975
1976   1977   1978   1979
1980   1981   1982   1983
1984   1985   1986   1987
1988   1989   1990   1991
1992   1993   1994   1995
1996   1997   1998   1999
2000   2001   2002   2003
2004   2005   2006   2007
2008   2009   2010   2011
2012   2013   2014   2015
2016   2017   2018   2019
2020   2021   2022   2023
2024   2025   2026   2027
2028   2029   2030   2031
2032   2033   2034   2035
2036   2037   2038   2039
2040   2041   2042   2043
2044   2045   2046   2047
2048   2049   2050   2051
2052   2053   2054   2055
2056   2057   2058   2059
2060   2061   2062   2063
2064   2065   2066   2067
2068   2069   2070   2071
2072   2073   2074   2075
2076   2077   2078   2079
2080   2081   2082   2083
2084   2085   2086   2087
2088   2089   2090   2091
2092   2093   2094   2095
2096   2097   2098   2099
2100   2101   2102   2103
2104   2105   2106   2107
2108   2109   2110   2111
2112   2113   2114   2115
2116   2117   2118   2119
2120   2121   2122   2123
2124   2125   2126   2127
2128   2129   2130   2131
2132   2133   2134   2135
2136   2137   2138   2139
2140   2141   2142   2143
2144   2145   2146   2147
2148   2149   2150   2151
2152   2153   2154   2155
2156   2157   2158   2159
2160   2161   2162   2163
2164   2165   2166   2167
2168   2169   2170   2171
2172   2173   2174   2175
2176   2177   2178   2179
2180   2181   2182   2183
2184   2185   2186   2187
2188   2189   2190   2191
2192   2193   2194   2195
2196   2197   2198   2199
2200   2201   2202   2203
2204   2205   2206   2207
2208   2209   2210   2211
2212   2213   2214   2215
2216   2217   2218   2219
2220   2221   2222   2223
2224   2225   2226   2227
2228   2229   2230   2231
2232   2233   2234   2235
2236   2237   2238   2239
2240   2241   2242   2243
2244   2245   2246   2247
2248   2249   2250   2251
2252   2253   2254   2255
2256   2257   2258   2259
2260   2261   2262   2263
2264   2265   2266   2267
2268   2269   2270   2271
2272   2273   2274   2275
2276   2277   2278   2279
2280   2281   2282   2283
2284   2285   2286   2287
2288   2289   2290   2291
2292   2293   2294   2295
2296   2297   2298   2299
2300   2301   2302   2303
2304   2305   2306   2307
2308   2309   2310   2311
2312   2313   2314   2315
2316   2317   2318   2319
2320   2321   2322   2323
2324   2325   2326   2327
2328   2329   2330   2331
2332   2333   2334   2335
2336   2337   2338   2339
2340   2341   2342   2343
2344   2345   2346   2347
2348   2349   2350   2351
2352   2353   2354   2355
2356   2357   2358   2359
2360   2361   2362   2363
2364   2365   2366   2367
2368   2369   2370   2371
2372   2373   2374   2375
2376   2377   2378   2379
2380   2381   2382   2383
2384   2385   2386   2387
2388   2389   2390   2391
2392   2393   2394   2395
2396   2397   2398   2399
2400   2401   2402   2403
2404   2405   2406   2407
2408   2409   2410   2411
2412   2413   2414   2415
2416   2417   2418   2419
2420   2421   2422   2423
2424   2425   2426   2427
2428   2429   2430   2431
2432   2433   2434   2435
2436   2437   2438   2439
2440   2441   2442   2443
2444   2445   2446   2447
2448   2449   2450   2451
2452   2453   2454   2455
2456   2457   2458   2459
2460   2461   2462   2463
2464   2465   2466   2467
2468   2469   2470   2471
2472   2473   2474   2475
2476   2477   2478   2479
2480   2481   2482   2483
2484   2485   2486   2487
2488   2489   2490   2491
2492   2493   2494   2495
2496   2497   2498   2499
2500   2501   2502   2503
2504   2505   2506   2507
2508   2509   2510   2511
2512   2513   2514   2515
2516   2517   2518   2519
2520   2521   2522   2523
2524   2525   2526   2527
2528   2529   2530   2531
2532   2533   2534   2535
2536   2537   2538   2539
2540   2541   2542   2543
2544   2545   2546   2547
2548   2549   2550   2551
2552   2553   2554   2555
2556   2557   2558   2559
2560   2561   2562   2563
2564   2565   2566   2567
2568   2569   2570   2571
2572   2573   2574   2575
2576   2577   2578   2579
2580   2581   2582   2583
2584   2585   2586   2587
2588   2589   2590   2591
2592   2593   2594   2595
2596   2597   2598   2599
2600   2601   2602   2603
2604   2605   2606   2607
2608   2609   2610   2611
2612   2613   2614   2615
2616   2617   2618   2619
2620   2621   2622   2623
2624   2625   2626   2627
2628   2629   2630   2631
2632   2633   2634   2635
2636   2637   2638   2639
2640   2641   2642   2643
2644   2645   2646   2647
2648   2649   2650   2651
2652   2653   2654   2655
2656   2657   2658   2659
2660   2661   2662   2663
2664   2665   2666   2667
2668   2669   2670   2671
2672   2673   2674   2675
2676   2677   2678   2679
2680   2681   2682   2683
2684   2685   2686   2687
2688   2689   2690   2691
2692   2693   2694   2695
2696   2697   2698   2699
2700   2701   2702   2703
2704   2705   2706   2707
2708   2709   2710   2711
2712   2713   2714   2715
2716   2717   2718   2719
2720   2721   2722   2723
2724   2725   2726   2727
2728   2729   2730   2731
2732   2733   2734   2735
2736   2737   2738   2739
2740   2741   2742   2743
2744   2745   2746   2747
2748   2749   2750   2751
2752   2753   2754   2755
2756   2757   2758   2759
2760   2761   2762   2763
2764   2765   2766   2767
2768   2769   2770   2771
2772   2773   2774   2775
2776   2777   2778   2779
2780   2781   2782   2783
2784   2785   2786   2787
2788   2789   2790   2791
2792   2793   2794   2795
2796   2797   2798   2799
2800   2801   2802   2803
2804   2805   2806   2807
2808   2809   2810   2811
2812   2813   2814   2815
2816   2817   2818   2819
2820   2821   2822   2823
2824   2825   2826   2827
2828   2829   2830   2831
2832   2833   2834   2835
2836   2837   2838   2839
2840   2841   2842   2843
2844   2845   2846   2847
2848   2849   2850   2851
2852   2853   2854   2855
2856   2857   2858   2859
2860   2861   2862   2863
2864   2865   2866   2867
2868   2869   2870   2871
2872   2873   2874   2875
2876   2877   2878   2879
2880   2881   2882   2883
2884   2885   2886   2887
2888   2889   2890   2891
2892   2893   2894   2895
2896   2897   2898   2899
2900   2901   2902   2903
2904   2905   2906   2907
2908   2909   2910   2911
2912   2913   2914   2915
2916   2917   2918   2919
2920   2921   2922   2923
2924   2925   2926   2927
2928   2929   2930   2931
2932   2933   2934   2935
2936   2937   2938   2939
2940   2941   2942   2943
2944   2945   2946   2947
2948   2949   2950   2951
2952   2953   2954   2955
2956   2957   2958   2959
2960   2961   2962   2963
2964   2965   2966   2967
2968   2969   2970   2971
2972   2973   2974   2975
2976   2977   2978   2979
2980   2981   2982   2983
2984   2985   2986   2987
2988   2989   2990   2991
2992   2993   2994   2995
2996   2997   2998   2999
3000   3001   3002   3003
3004   3005   3006   3007
3008   3009   3010   3011
3012   3013   3014   3015
3016   3017   3018   3019
3020   3021   3022   3023
3024   3025   3026   3027
3028   3029   3030   3031
3032   3033   3034   3035
3036   3037   3038   3039
3040   3041   3042   3043
3044   3045   3046   3047
3048   3049   3050   3051
3052   3053   3054   3055
3056   3057   3058   3059
3060   3061   3062   3063
3064   3065   3066   3067
3068   3069   3070   3071
3072   3073   3074   3075
3076   3077   3078   3079
3080   3081   3082   3083
3084   3085   3086   3087
3088   3089   3090   3091
3092   3093   3094   3095
3096   3097   3098   3099
3100   3101   3102   3103
3104   3105   3106   3107
3108   3109   3110   3111
3112   3113   3114   3115
3116   3117   3118   3119
3120   3121   3122   3123
3124   3125   3126   3127
3128   3129   3130   3131
3132   3133   3134   3135
3136   3137   3138   3139
3140   3141   3142   3143
3144   3145   3146   3147
3148   3149   3150   3151
3152   3153   3154   3155
3156   3157   3158   3159
3160   3161   3162   3163
3164   3165   3166   3167
3168   3169   3170   3171
3172   3173   3174   3175
3176   3177   3178   3179
3180   3181   3182   3183
3184   3185   3186   3187
3188   3189   3190   3191
3192   3193   3194   3195
3196   3197   3198   3199
3200   3201   3202   3203
3204   3205   3206   3207
3208   3209   3210   3211
3212   3213   3214   3215
3216   3217   3218   3219
3220   3221   3222   3223
3224   3225   3226   3227
3228   3229   3230   3231
3232   3233   3234   3235
3236   3237   3238   3239
3240   3241   3242   3243
3244   3245   3246   3247
3248   3249   3250   3251
3252   3253   3254   3255
3256   3257   3258   3259
3260   3261   3262   3263
3264   3265   3266   3267
3268   3269   3270   3271
3272   3273   3274   3275
3276   3277   3278   3279
3280   3281   3282   3283
3284   3285   3286   3287
3288   3289   3290   3291
3292   3293   3294   3295
3296   3297   3298   3299
3300   3301   3302   3303
3304   3305   3306   3307
3308   3309   3310   3311
3312   3313   3314   3315
3316   3317   3318   3319
3320   3321   3322   3323
3324   3325   3326   3327
3328   3329   3330   3331
3332   3333   3334   3335
3336   3337   3338   3339
3340   3341   3342   3343
3344   3345   3346   3347
3348   3349   3350   3351
3352   3353   3354   3355
3356   3357   3358   3359
3360   3361   3362   3363
3364   3365   3366   3367
3368   3369   3370   3371
3372   3373   3374   3375
3376   3377   3378   3379
3380   3381   3382   3383
3384   3385   3386   3387
3388   3389   3390   3391
3392   3393   3394   3395
3396   3397   3398   3399
3400   3401   3402   3403
3404   3405   3406   3407
3408   3409   3410   3411
3412   3413   3414   3415
3416   3417   3418   3419
3420   3421   3422   3423
3424   3425   3426   3427
3428   3429   3430   3431
3432   3433   3434   3435
3436   3437   3438   3439
3440   3441   3442   3443
3444   3445   3446   3447
3448   3449   3450   3451
3452   3453   3454   3455
3456   3457   3458   3459
3460   3461   3462   3463
3464   3465   3466   3467
3468   3469   3470   3471
3472   3473   3474   3475
3476   3477   3478   3479
3480   3481   3482   3483
3484   3485   3486   3487
3488   3489   3490   3491
3492   3493   3494   3495
3496   3497   3498   3499
3500   3501   3502   3503
3504   3505   3506   3507
3508   3509   3510   3511
3512   3513   3514   3515
3516   3517   3518   3519
3520   3521   3522   3523
3524   3525   3526   3527
3528   3529   3530   3531
3532   3533   3534   3535
3536   3537   3538   3539
3540   3541   3542   3543
3544   3545   3546   3547
3548   3549   3550   3551
3552   3553   3554   3555
3556   3557   3558   3559
3560   3561   3562   3563
3564   3565   3566   3567
3568   3569   3570   3571
3572   3573   3574   3575
3576   3577   3578   3579
3580   3581   3582   3583
3584   3585   3586   3587
3588   3589   3590   3591
3592   3593   3594   3595
3596   3597   3598   3599
3600   3601   3602   3603
3604   3605   3606   3607
3608   3609   3610   3611
3612   3613   3614   3615
3616   3617   3618   3619
3620   3621   3622   3623
3624   3625   3626   3627
3628   3629   3630   3631
3632   3633   3634   3635
3636   3637   3638   3639
3640   3641   3642   3643
3644   3645   3646   3647
3648   3649   3650   3651
3652   3653   3654   3655
3656   3657   3658   3659
3660   3661   3662   3663
3664   3665   3666   3667
3668   3669   3670   3671
3672   3673   3674   3675
3676   3677   3678   3679
3680   3681   3682   3683
3684   3685   3686   3687
3688   3689   3690   3691
3692   3693   3694   3695
3696   3697   3698   3699
3700   3701   3702   3703
3704   3705   3706   3707
3708   3709   3710   3711
3712   3713   3714   3715
3716   3717   3718   3719
3720   3721   3722   3723
3724   3725   3726   3727
3728   3729   3730   3731
3732   3733   3734   3735
3736   3737   3738   3739
3740   3741   3742   3743
3744   3745   3746   3747
3748   3749   3750   3751
3752   3753   3754   3755
3756   3757   3758   3759
3760   3761   3762   3763
3764   3765   3766   3767
3768   3769   3770   3771
3772   3773   3774   3775
3776   3777   3778   3779
3780   3781   3782   3783
3784   3785   3786   3787
3788   3789   3790   3791
3792   3793   3794   3795
3796   3797   3798   3799
3800   3801   3802   3803
3804   3805   3806   3807
3808   3809   3810   3811
3812   3813   3814   3815
3816   3817   3818   3819
3820   3821   3822   3823
3824   3825   3826   3827
3828   3829   3830   3831
3832   3833   3834   3835
3836   3837   3838   3839
3840   3841   3842   3843
3844   3845   3846   3847
3848   3849   3850   3851
3852   3853   3854   3855
3856   3857   3858   3859
3860   3861   3862   3863
3864   3865   3866   3867
3868   3869   3870   3871
3872   3873   3874   3875
3876   3877   3878   3879
3880   3881   3882   3883
3884   3885   3886   3887
3888   3889   3890   3891
3892   3893   3894   3895
3896   3897   3898   3899
3900   3901   3902   3903
3904   3905   3906   3907
3908   3909   3910   3911
3912   3913   3914   3915
3916   3917   3918   3919
3920   3921   3922   3923
3924   3925   3926   3927
3928   3929   3930   3931
3932   3933   3934   3935
3936   3937   3938   3939
3940   3941   3942   3943
3944   3945   3946   3947
3948   3949   3950   3951
3952   3953   3954   3955
3956   3957   3958   3959
3960   3961   3962   3963
3964   3965   3966   3967
3968   3969   3970   3971
3972   3973   3974   3975
3976   3977   3978   3979
3980   3981   3982   3983
3984   3985   3986   3987
3988   3989   3990   3991
3992   3993   3994   3995
3996   3997   3998   3999
4000   4001   4002   4003
4004   4005   4006   4007
4008   4009   4010   4011
4012   4013   4014   4015
4016   4017   4018   4019
4020   4021   4022   4023
4024   4025   4026   4027
4028   4029   4030   4031
4032   4033   4034   4035
4036   4037   4038   4039
4040   4041   4042   4043
4044   4045   4046   4047
4048   4049   4050   4051
4052   4053   4054   4055
4056   4057   4058   4059
4060   4061   4062   4063
4064   4065   4066   4067
4068   4069   4070   4071
4072   4073   4074   4075
4076   4077   4078   4079
4080   4081   4082   4083
4084   4085   4086   4087
4088   4089   4090   4091
4092   4093   4094   4095
4096   4097   4098   4099
4100   4101   4102   4103
4104   4105   4106   4107
4108   4109   4110   4111
4112   4113   4114   4115
4116   4117   4118   4119
4120   4121   4122   4123
4124   4125   4126   4127
4128   4129   4130   4131
4132   4133   4134   4135
4136   4137   4138   4139
4140   4141   4142   4143
4144   4145   4146   4147
4148   4149   4150   4151
4152   4153   4154   4155
4156   4157   4158   4159
4160   4161   4162   4163
4164   4165   4166   4167
4168   4169   4170   4171
4172   4173   4174   4175
4176   4177   4178   4179
4180   4181   4182   4183
4184   4185   4186   4187
4188   4189   4190   4191
4192   4193   4194   4195
4196   4197   4198   4199
4200   4201   4202   4203
4204   4205   4206   4207
4208   4209   4210   4211
4212   4213   4214   4215
4216   4217   4218   4219
4220   4221   4222   4223
4224   4225   4226   4227
4228   4229   4230   4231
4232   4233   4234   4235
4236   4237   4238   4239
4240   4241   4242   4243
4244   4245   4246   4247
4248   4249   4250   4251
4252   4253   4254   4255
4256   4257   4258   4259
4260   4261   4262   4263
4264   4265   4266   4267
4268   4269   4270   4271
4272   4273   4274   4275
4276   4277   4278   4279
4280   4281   4282   4283
4284   4285   4286   4287
4288   4289   4290   4291
4292   4293   4294   4295
4296   4297   4298   4299
4300   4301   4302   4303
4304   4305   4306   4307
4308   4309   4310   4311
4312   4313   4314   4315
4316   4317   4318   4319
4320   4321   4322   4323
4324   4325   4326   4327
4328   4329   4330   4331
4332   4333   4334   4335
4336   4337   4338   4339
4340   4341   4342   4343
4344   4345   4346   4347
4348   4349   4350   4351
4352   4353   4354   4355
4356   4357   4358   4359
4360   4361   4362   4363
4364   4365   4366   4367
4368   4369   4370   4371
4372   4373   4374   4375
4376   4377   4378   4379
4380   4381   4382   4383
4384   4385   4386   4387
4388   4389   4390   4391
4392   4393   4394   4395
4396   4397   4398   4399
4400   4401   4402   4403
4404   4405   4406   4407
4408   4409   4410   4411
4412   4413   4414   4415
4416   4417   4418   4419
4420   4421   4422   4423
4424   4425   4426   4427
4428   4429   4430   4431
4432   4433   4434   4435
4436   4437   4438   4439
4440   4441   4442   4443
4444   4445   4446   4447
4448   4449   4450   4451
4452   4453   4454   4455
4456   4457   4458   4459
4460   4461   4462   4463
4464   4465   4466   4467
4468   4469   4470   4471
4472   4473   4474   4475
4476   4477   4478   4479
4480   4481   4482   4483
4484   4485   4486   4487
4488   4489   4490   4491
4492   4493   4494   4495
4496   4497   4498   4499
4500   4501   4502   4503
4504   4505   4506   4507
4508   4509   4510   4511
4512   4513   4514   4515
4516   4517   4518   4519
4520   4521   4522   4523
4524   4525   4526   4527
4528   4529   4530   4531
4532   4533   4534   4535
4536   4537   4538   4539
4540   4541   4542   4543
4544   4545   4546   4547
4548   4549   4550   4551
4552   4553   4554   4555
4556   4557   4558   4559
4560   4561   4562   4563
4564   4565   4566   4567
4568   4569   4570   4571
4572   4573   4574   4575
4576   4577   4578   4579
4580   4581   4582   4583
4584   4585   4586   4587
4588   4589   4590   4591
4592   4593   4594   4595
4596   4597   4598   4599
4600   4601   4602   4603
4604   4605   4606   4607
4608   4609   4610   4611
4612   4613   4614   4615
4616   4617   4618   4619
4620   4621   4622   4623
4624   4625   4626   4627
4628   4629   4630   4631
4632   4633   4634   4635
4636   4637   4638   4639
4640   4641   4642   4643
4644   4645   4646   4647
4648   4649   4650   4651
4652   4653   4654   4655
4656   4657   4658   4659
4660   4661   4662   4663
4664   4665   4666   4667
4668   4669   4670   4671
4672   4673   4674   4675
4676   4677   4678   4679
4680   4681   4682   4683
4684   4685   4686   4687
4688   4689   4690   4691
4692   4693   4694   4695
4696   4697   4698   4699
4700   4701   4702   4703
4704   4705   4706   4707
4708   4709   4710   4711
4712   4713   4714   4715
4716   4717   4718   4719
4720   4721   4722   4723
4724   4725   4726   4727
4728   4729   4730   4731
4732   4733   4734   4735
4736   4737   4738   4739
4740   4741   4742   4743
4744   4745   4746   4747
4748   4749   4750   4751
4752   4753   4754   4755
4756   4757   4758   4759
4760   4761   4762   4763
4764   4765   4766   4767
4768   4769   4770   4771
4772   4773   4774   4775
4776   4777   4778   4779
4780   4781   4782   4783
4784   4785   4786   4787
4788   4789   4790   4791
4792   4793   4794   4795
4796   4797   4798   4799
4800   4801   4802   4803
4804   4805   4806   4807
4808   4809   4810   4811
4812   4813   4814   4815
4816   4817   4818   4819
4820   4821   4822   4823
4824   4825   4826   4827
4828   4829   4830   4831
4832   4833   4834   4835
4836   4837   4838   4839
4840   4841   4842   4843
4844   4845   4846   4847
4848   4849   4850   4851
4852   4853   4854   4855
4856   4857   4858   4859
4860   4861   4862   4863
4864   4865   4866   4867
4868   4869   4870   4871
4872   4873   4874   4875
4876   4877   4878   4879
4880   4881   4882   4883
4884   4885   4886   4887
4888   4889   4890   4891
4892   4893   4894   4895
4896   4897   4898   4899
4900   4901   4902   4903
4904   4905   4906   4907
4908   4909   4910   4911
4912   4913   4914   4915
4916   4917   4918   4919
4920   4921   4922   4923
4924   4925   4926   4927
4928   4929   4930   4931
4932   4933   4934   4935
4936   4937   4938   4939
4940   4941   4942   4943
4944   4945   4946   4947
4948   4949   4950   4951
4952   4953   4954   4955
4956   4957   4958   4959
4960   4961   4962   4963
4964   4965   4966   4967
4968   4969   4970   4971
4972   4973   4974   4975
4976   4977   4978   4979
4980   4981   4982   4983
4984   4985   4986   4987
4988   4989   4990   4991
4992   4993   4994   4995
4996   4997   4998   4999
5000   5001   5002   5003
5004   5005   5006   5007
5008   5009   5010   5011
5012   5013   5014   5015
5016   5017   5018   5019
5020   5021   5022   5023
5024   5025   5026   5027
5028   5029   5030   5031
5032   5033   5034   5035
5036   5037   5038   5039
5040   5041   5042   5043
5044   5045   5046   5047
5048   5049   5050   5051
5052   5053   5054   5055
5056   5057   5058   5059
5060   5061   5062   5063
5064   5065   5066   5067
5068   5069   5070   5071
5072   5073   5074   5075
5076   5077   5078   5079
5080   5081   5082   5083
5084   5085   5086   5087
5088   5089   5090   5091
5092   5093   5094   5095
5096   5097   5098   5099
5100   5101   5102   5103
5104   5105   5106   5107
5108   5109   5110   5111
5112   5113   5114   5115
5116   5117   5118   5119
5120   5121   5122   5123
5124   5125   5126   5127
5128   5129   5130   5131
5132   5133   5134   5135
5136   5137   5138   5139
5140   5141   5142   5143
5144   5145   5146   5147
5148   5149   5150   5151
5152   5153   5154   5155
5156   5157   5158   5159
5160   5161   5162   5163
5164   5165   5166   5167
5168   5169   5170   5171
5172   5173   5174   5175
5176   5177   5178   5179
5180   5181   5182   5183
5184   5185   5186   5187
5188   5189   5190   5191
5192   5193   5194   5195
5196   5197   5198   5199
5200   5201   5202   5203
5204   5205   5206   5207
5208   5209   5210   5211
5212   5213   5214   5215
5216   5217   5218   5219
5220   5221   5222   5223
5224   5225   5226   5227
5228   5229   5230   5231
5232   5233   5234   5235
5236   5237   5238   5239
5240   5241   5242   5243
5244   5245   5246   5247
5248   5249   5250   5251
5252   5253   5254   5255
5256   5257   5258   5259
5260   5261   5262   5263
5264   5265   5266   5267
5268   5269   5270   5271
5272   5273   5274   5275
5276   5277   5278   5279
5280   5281   5282   5283
5284   5285   5286   5287
5288   5289   5290   5291
5292   5293   5294   5295
5296   5297   5298   5299
5300   5301   5302   5303
5304   5305   5306   5307
5308   5309   5310   5311
5312   5313   5314   5315
5316   5317   5318   5319
5320   5321   5322   5323
5324   5325   5326   5327
5328   5329   5330   5331
5332   5333   5334   5335
5336   5337   5338   5339
5340   5341   5342   5343
5344   5345   5346   5347
5348   5349   5350   5351
5352   5353   5354   5355
5356   5357   5358   5359
5360   5361   5362   5363
5364   5365   5366   5367
5368   5369   5370   5371
5372   5373   5374   5375
5376   5377   5378   5379
5380   5381   5382   5383
5384   5385   5386   5387
5388   5389   5390   5391
5392   5393   5394   5395
5396   5397   5398   5399
5400   5401   5402   5403
5404   5405   5406   5407
5408   5409   5410   5411
5412   5413   5414   5415
5416   5417   5418   5419
5420   5421   5422   5423
5424   5425   5426   5427
5428   5429   5430   5431
5432   5433   5434   5435
5436   5437   5438   5439
5440   5441   5442   5443
5444   5445   5446   5447
5448   5449   5450   5451
5452   5453   5454   5455
5456   5457   5458   5459
5460   5461   5462   5463
5464   5465   5466   5467
5468   5469   5470   5471
5472   5473   5474   5475
5476   5477   5478   5479
5480   5481   5482   5483
5484   5485   5486   5487
5488   5489   5490   5491
5492   5493   5494   5495
5496   5497   5498   5499
5500   5501   5502   5503
5504   5505   5506   5507
5508   5509   5510   5511
5512   5513   5514   5515
5516   5517   5518   5519
5520   5521   5522   5523
5524   5525   5526   5527
5528   5529   5530   5531
5532   5533   5534   5535
5536   5537   5538   5539
5540   5541   5542   5543
5544   5545   5546   5547
5548   5549   5550   5551
5552   5553   5554   5555
5556   5557   5558   5559
5560   5561   5562   5563
5564   5565   5566   5567
5568   5569   5570   5571
5572   5573   5574   5575
5576   5577   5578   5579
5580   5581   5582   5583
5584   5585   5586   5587
5588   5589   5590   5591
5592   5593   5594   5595
5596   5597   5598   5599
5600   5601   5602   5603
5604   5605   5606   5607
5608   5609   5610   5611
5612   5613   5614   5615
5616   5617   5618   5619
5620   5621   5622   5623
5624   5625   5626   5627
5628   5629   5630   5631
5632   5633   5634   5635
5636   5637   5638   5639
5640   5641   5642   5643
5644   5645   5646   5647
5648   5649   5650   5651
5652   5653   5654   5655
5656   5657   5658   5659
5660   5661   5662   5663
5664   5665   5666   5667
5668   5669   5670   5671
5672   5673   5674   5675
5676   5677   5678   5679
5680   5681   5682   5683
5684   5685   5686   5687
5688   5689   5690   5691
5692   5693   5694   5695
5696   5697   5698   5699
5700   5701   5702   5703
5704   5705   5706   5707
5708   5709   5710   5711
5712   5713   5714   5715
5716   5717   5718   5719
5720   5721   5722   5723
5724   5725   5726   5727
5728   5729   5730   5731
5732   5733   5734   5735
5736   5737   5738   5739
5740   5741   5742   5743
5744   5745   5746   5747
5748   5749   5750   5751
5752   5753   5754   5755
5756   5757   5758   5759
5760   5761   5762   5763
5764   5765   5766   5767
5768   5769   5770   5771
5772   5773   5774   5775
5776   5777   5778   5779
5780   5781   5782   5783
5784   5785   5786   5787
5788   5789   5790   5791
5792   5793   5794   5795
5796   5797   5798   5799
5800   5801   5802   5803
5804   5805   5806   5807
5808   5809   5810   5811
5812   5813   5814   5815
5816   5817   5818   5819
5820   5821   5822   5823
5824   5825   5826   5827
5828   5829   5830   5831
5832   5833   5834   5835
5836   5837   5838   5839
5840   5841   5842   5843
5844   5845   5846   5847
5848   5849   5850   5851
5852   5853   5854   5855
5856   5857   5858   5859
5860   5861   5862   5863
5864   5865   5866   5867
5868   5869   5870   5871
5872   5873   5874   5875
5876   5877   5878   5879
5880   5881   5882   5883
5884   5885   5886   5887
5888   5889   5890   5891
5892   5893   5894   5895
5896   5897   5898   5899
5900   5901   5902   5903
5904   5905   5906   5907
5908   5909   5910   5911
5912   5913   5914   5915
5916   5917   5918   5919
5920   5921   5922   5923
5924   5925   5926   5927
5928   5929   5930   5931
5932   5933   5934   5935
5936   5937   5938   5939
5940   5941   5942   5943
5944   5945   5946   5947
5948   5949   5950   5951
5952   5953   5954   5955
5956   5957   5958   5959
5960   5961   5962   5963
5964   5965   5966   5967
5968   5969   5970   5971
5972   5973   5974   5975
5976   5977   5978   5979
5980   5981   5982   5983
5984   5985   5986   5987
5988   5989   5990   5991
5992   5993   5994   5995
5996   5997   5998   5999
              </DataArray>   
              <DataArray type="Int32" Name="offsets" format="ascii">   
4
8
12
16
20
24
28
32
36
40
44
48
52
56
60
64
68
72
76
80
84
88
92
96
100
104
108
112
116
120
124
128
132
136
140
144
148
152
156
160
164
168
172
176
180
184
188
192
196
200
204
208
212
216
220
224
228
232
236
240
244
248
252
256
260
264
268
272
276
280
284
288
292
296
300
304
308
312
316
320
324
328
332
336
340
344
348
352
356
360
364
368
372
376
380
384
388
392
396
400
404
408
412
416
420
424
428
432
436
440
444
448
452
456
460
464
468
472
476
480
484
488
492
496
500
504
508
512
516
520
524
528
532
536
540
544
548
552
556
560
564
568
572
576
580
584
588
592
596
600
604
608
612
616
620
624
628
632
636
640
644
648
652
656
660
664
668
672
676
680
684
688
692
696
700
704
708
712
716
720
724
728
732
736
740
744
748
752
756
760
764
768
772
776
780
784
788
792
796
800
804
808
812
816
820
824
828
832
836
840
844
848
852
856
860
864
868
872
876
880
884
888
892
896
900
904
908
912
916
920
924
928
932
936
940
944
948
952
956
960
964
968
972
976
980
984
988
992
996
1000
1004
1008
1012
1016
1020
1024
1028
1032
1036
1040
1044
1048
1052
1056
1060
1064
1068
1072
1076
1080
1084
1088
1092
1096
1100
1104
1108
1112
1116
1120
1124
1128
1132
1136
1140
1144
1148
1152
1156
1160
1164
1168
1172
1176
1180
1184
1188
1192
1196
1200
1204
1208
1212
1216
1220
1224
1228
1232
1236
1240
1244
1248
1252
1256
1260
1264
1268
1272
1276
1280
1284
1288
1292
1296
1300
1304
1308
1312
1316
1320
1324
1328
1332
1336
1340
1344
1348
1352
1356
1360
1364
1368
1372
1376
1380
1384
1388
1392
1396
1400
1404
1408
1412
1416
1420
1424
1428
1432
1436
1440
1444
1448
1452
1456
1460
1464
1468
1472
1476
1480
1484
1488
1492
1496
1500
1504
1508
1512
1516
1520
1524
1528
1532
1536
1540
1544
1548
1552
1556
1560
1564
1568
1572
1576
1580
1584
1588
1592
1596
1600
1604
1608
1612
1616
1620
1624
1628
1632
1636
1640
1644
1648
1652
1656
1660
1664
1668
1672
1676
1680
1684
1688
1692
1696
1700
1704
1708
1712
1716
1720
1724
1728
1732
1736
1740
1744
1748
1752
1756
1760
1764
1768
1772
1776
1780
1784
1788
1792
1796
1800
1804
1808
1812
1816
1820
1824
1828
1832
1836
1840
1844
1848
1852
1856
1860
1864
1868
1872
1876
1880
1884
1888
1892
1896
1900
1904
1908
1912
1916
1920
1924
1928
1932
1936
1940
1944
1948
1952
1956
1960
1964
1968
1972
1976
1980
1984
1988
1992
1996
2000
2004
2008
2012
2016
2020
2024
2028
2032
2036
2040
2044
2048
2052
2056
2060
2064
2068
2072
2076
2080
2084
2088
2092
2096
2100
2104
2108
2112
2116
2120
2124
2128
2132
2136
2140
2144
2148
2152
2156
2160
2164
2168
2172
2176
2180
2184
2188
2192
2196
2200
2204
2208
2212
2216
2220
2224
2228
2232
2236
2240
2244
2248
2252
2256
2260
2264
2268
2272
2276
2280
2284
2288
2292
2296
2300
2304
2308
2312
2316
2320
2324
2328
2332
2336
2340
2344
2348
2352
2356
2360
2364
2368
2372
2376
2380
2384
2388
2392
2396
2400
2404
2408
2412
2416
2420
2424
2428
2432
2436
2440
2444
2448
2452
2456
2460
2464
2468
2472
2476
2480
2484
2488
2492
2496
2500
2504
2508
2512
2516
2520
2524
2528
2532
2536
2540
2544
2548
2552
2556
2560
2564
2568
2572
2576
2580
2584
2588
2592
2596
2600
2604
2608
2612
2616
2620
2624
2628
2632
2636
2640
2644
2648
2652
2656
2660
2664
2668
2672
2676
2680
2684
2688
2692
2696
2700
2704
2708
2712
2716
2720
2724
2728
2732
2736
2740
2744
2748
2752
2756
2760
2764
2768
2772
2776
2780
2784
2788
2792
2796
2800
2804
2808
2812
2816
2820
2824
2828
2832
2836
2840
2844
2848
2852
2856
2860
2864
2868
2872
2876
2880
2884
2888
2892
2896
2900
2904
2908
2912
2916
2920
2924
2928
2932
2936
2940
2944
2948
2952
2956
2960
2964
2968
2972
2976
2980
2984
2988
2992
2996
3000
3004
3008
3012
3016
3020
3024
3028
3032
3036
3040
3044
3048
3052
3056
3060
3064
3068
3072
3076
3080
3084
3088
3092
3096
3100
3104
3108
3112
3116
3120
3124
3128
3132
3136
3140
3144
3148
3152
3156
3160
3164
3168
3172
3176
3180
3184
3188
3192
3196
3200
3204
3208
3212
3216
3220
3224
3228
3232
3236
3240
3244
3248
3252
3256
3260
3264
3268
3272
3276
3280
3284
3288
3292
3296
3300
3304
3308
3312
3316
3320
3324
3328
3332
3336
3340
3344
3348
3352
3356
3360
3364
3368
3372
3376
3380
3384
3388
3392
3396
3400
3404
3408
3412
3416
3420
3424
3428
3432
3436
3440
3444
3448
3452
3456
3460
3464
3468
3472
3476
3480
3484
3488
3492
3496
3500
3504
3508
3512
3516
3520
3524
3528
3532
3536
3540
3544
3548
3552
3556
3560
3564
3568
3572
3576
3580
3584
3588
3592
3596
3600
3604
3608
3612
3616
3620
3624
3628
3632
3636
3640
3644
3648
3652
3656
3660
3664
3668
3672
3676
3680
3684
3688
3692
3696
3700
3704
3708
3712
3716
3720
3724
3728
3732
3736
3740
3744
3748
3752
3756
3760
3764
3768
3772
3776
3780
3784
3788
3792
3796
3800
3804
3808
3812
3816
3820
3824
3828
3832
3836
3840
3844
3848
3852
3856
3860
3864
3868
3872
3876
3880
3884
3888
3892
3896
3900
3904
3908
3912
3916
3920
3924
3928
3932
3936
3940
3944
3948
3952
3956
3960
3964
3968
3972
3976
3980
3984
3988
3992
3996
4000
4004
4008
4012
4016
4020
4024
4028
4032
4036
4040
4044
4048
4052
4056
4060
4064
4068
4072
4076
4080
4084
4088
4092
4096
4100
4104
4108
4112
4116
4120
4124
4128
4132
4136
4140
4144
4148
4152
4156
4160
4164
4168
4172
4176
4180
4184
4188
4192
4196
4200
4204
4208
4212
4216
4220
4224
4228
4232
4236
4240
4244
4248
4252
4256
4260
4264
4268
4272
4276
4280
4284
4288
4292
4296
4300
4304
4308
4312
4316
4320
4324
4328
4332
4336
4340
4344
4348
4352
4356
4360
4364
4368
4372
4376
4380
4384
4388
4392
4396
4400
4404
4408
4412
4416
4420
4424
4428
4432
4436
4440
4444
4448
4452
4456
4460
4464
4468
4472
4476
4480
4484
4488
4492
4496
4500
4504
4508
4512
4516
4520
4524
4528
4532
4536
4540
4544
4548
4552
4556
4560
4564
4568
4572
4576
4580
4584
4588
4592
4596
4600
4604
4608
4612
4616
4620
4624
4628
4632
4636
4640
4644
4648
4652
4656
4660
4664
4668
4672
4676
4680
4684
4688
4692
4696
4700
4704
4708
4712
4716
4720
4724
4728
4732
4736
4740
4744
4748
4752
4756
4760
4764
4768
4772
4776
4780
4784
4788
4792
4796
4800
4804
4808
4812
4816
4820
4824
4828
4832
4836
4840
4844
4848
4852
4856
4860
4864
4868
4872
4876
4880
4884
4888
4892
4896
4900
4904
4908
4912
4916
4920
4924
4928
4932
4936
4940
4944
4948
4952
4956
4960
4964
4968
4972
4976
4980
4984
4988
4992
4996
5000
5004
5008
5012
5016
5020
5024
5028
5032
5036
5040
5044
5048
5052
5056
5060
5064
5068
5072
5076
5080
5084
5088
5092
5096
5100
5104
5108
5112
5116
5120
5124
5128
5132
5136
5140
5144
5148
5152
5156
5160
5164
5168
5172
5176
5180
5184
5188
5192
5196
5200
5204
5208
5212
5216
5220
5224
5228
5232
5236
5240
5244
5248
5252
5256
5260
5264
5268
5272
5276
5280
5284
5288
5292
5296
5300
5304
5308
5312
5316
5320
5324
5328
5332
5336
5340
5344
5348
5352
5356
5360
5364
5368
5372
5376
5380
5384
5388
5392
5396
5400
5404
5408
5412
5416
5420
5424
5428
5432
5436
5440
5444
5448
5452
5456
5460
5464
5468
5472
5476
5480
5484
5488
5492
5496
5500
5504
5508
5512
5516
5520
5524
5528
5532
5536
5540
5544
5548
5552
5556
5560
5564
5568
5572
5576
5580
5584
5588
5592
5596
5600
5604
5608
5612
5616
5620
5624
5628
5632
5636
5640
5644
5648
5652
5656
5660
5664
5668
5672
5676
5680
5684
5688
5692
5696
5700
5704
5708
5712
5716
5720
5724
5728
5732
5736
5740
5744
5748
5752
5756
5760
5764
5768
5772
5776
5780
5784
5788
5792
5796
5800
5804
5808
5812
5816
5820
5824
5828
5832
5836
5840
5844
5848
5852
5856
5860
5864
5868
5872
5876
5880
5884
5888
5892
5896
5900
5904
5908
5912
5916
5920
5924
5928
5932
5936
5940
5944
5948
5952
5956
5960
5964
5968
5972
5976
5980
5984
5988
5992
5996
6000
              </DataArray>   
              <DataArray type="UInt8" Name="types" format="ascii">   
10
10
10
10
10
10
10
10
10
10
10
10
10
10
10
10
10
10
10
10
10
10
10
10
10
10
10
10
10
10
10
10
10
10
10
10
10
10
10
10
10
10
10
10
10
10
10
10
10
10
10
10
10
10
10
10
10
10
10
10
10
10
10
10
10
10
10
10
10
10
10
10
10
10
10
10
10
10
10
10
10
10
10
10
10
10
10
10
10
10
10
10
10
10
10
10
10
10
10
10
10
10
10
10
10
10
10
10
10
10
10
10
10
10
10
10
10
10
10
10
10
10
10
10
10
10
10
10
10
10
10
10
10
10
10
10
10
10
10
10
10
10
10
10
10
10
10
10
10
10
10
10
10
10
10
10
10
10
10
10
10
10
10
10
10
10
10
10
10
10
10
10
10
10
10
10
10
10
10
10
10
10
10
10
10
10
10
10
10
10
10
10
10
10
10
10
10
10
10
10
10
10
10
10
10
10
10
10
10
10
10
10
10
10
10
10
10
10
10
10
10
10
10
10
10
10
10
10
10
10
10
10
10
10
10
10
10
10
10
10
10
10
10
10
10
10
10
10
10
10
10
10
10
10
10
10
10
10
10
10
10
10
10
10
10
10
10
10
10
10
10
10
10
10
10
10
10
10
10
10
10
10
10
10
10
10
10
10
10
10
10
10
10
10
10
10
10
10
10
10
10
10
10
10
10
10
10
10
10
10
10
10
10
10
10
10
10
10
10
10
10
10
10
10
10
10
10
10
10
10
10
10
10
10
10
10
10
10
10
10
10
10
10
10
10
10
10
10
10
10
10
10
10
10
10
10
10
10
10
10
10
10
10
10
10
10
10
10
10
10
10
10
10
10
10
10
10
10
10
10
10
10
10
10
10
10
10
10
10
10
10
10
10
10
10
10
10
10
10
10
10
10
10
10
10
10
10
10
10
10
10
10
10
10
10
10
10
10
10
10
10
10
10
10
10
10
10
10
10
10
10
10
10
10
10
10
10
10
10
10
10
10
10
10
10
10
10
10
10
10
10
10
10
10
10
10
10
10
10
10
10
10
10
10
10
10
10
10
10
10
10
10
10
10
10
10
10
10
10
10
10
10
10
10
10
10
10
10
10
10
10
10
10
10
10
10
10
10
10
10
10
10
10
10
10
10
10
10
10
10
10
10
10
10
10
10
10
10
10
10
10
10
10
10
10
10
10
10
10
10
10
10
10
10
10
10
10
10
10
10
10
10
10
10
10
10
10
10
10
10
10
10
10
10
10
10
10
10
10
10
10
10
10
10
10
10
10
10
10
10
10
10
10
10
10
10
10
10
10
10
10
10
10
10
10
10
10
10
10
10
10
10
10
10
10
10
10
10
10
10
10
10
10
10
10
10
10
10
10
10
10
10
10
10
10
10
10
10
10
10
10
10
10
10
10
10
10
10
10
10
10
10
10
10
10
10
10
10
10
10
10
10
10
10
10
10
10
10
10
10
10
10
10
10
10
10
10
10
10
10
10
10
10
10
10
10
10
10
10
10
10
10
10
10
10
10
10
10
10
10
10
10
10
10
10
10
10
10
10
10
10
10
10
10
10
10
10
10
10
10
10
10
10
10
10
10
10
10
10
10
10
10
10
10
10
10
10
10
10
10
10
10
10
10
10
10
10
10
10
10
10
10
10
10
10
10
10
10
10
10
10
10
10
10
10
10
10
10
10
10
10
10
10
10
10
10
10
10
10
10
10
10
10
10
10
10
10
10
10
10
10
10
10
10
10
10
10
10
10
10
10
10
10
10
10
10
10
10
10
10
10
10
10
10
10
10
10
10
10
10
10
10
10
10
10
10
10
10
10
10
10
10
10
10
10
10
10
10
10
10
10
10
10
10
10
10
10
10
10
10
10
10
10
10
10
10
10
10
10
10
10
10
10
10
10
10
10
10
10
10
10
10
10
10
10
10
10
10
10
10
10
10
10
10
10
10
10
10
10
10
10
10
10
10
10
10
10
10
10
10
10
10
10
10
10
10
10
10
10
10
10
10
10
10
10
10
10
10
10
10
10
10
10
10
10
10
10
10
10
10
10
10
10
10
10
10
10
10
10
10
10
10
10
10
10
10
10
10
10
10
10
10
10
10
10
10
10
10
10
10
10
10
10
10
10
10
10
10
10
10
10
10
10
10
10
10
10
10
10
10
10
10
10
10
10
10
10
10
10
10
10
10
10
10
10
10
10
10
10
10
10
10
10
10
10
10
10
10
10
10
10
10
10
10
10
10
10
10
10
10
10
10
10
10
10
10
10
10
10
10
10
10
10
10
10
10
10
10
10
10
10
10
10
10
10
10
10
10
10
10
10
10
10
10
10
10
10
10
10
10
10
10
10
10
10
10
10
10
10
10
10
10
10
10
10
10
10
10
10
10
10
10
10
10
10
10
10
10
10
10
10
10
10
10
10
10
10
10
10
10
10
10
10
10
10
10
10
10
10
10
10
10
10
10
10
10
10
10
10
10
10
10
10
10
10
10
10
10
10
10
10
10
10
10
10
10
10
10
10
10
10
10
10
10
10
10
10
10
10
10
10
10
10
10
10
10
10
10
10
10
10
10
10
10
10
10
10
10
10
10
10
10
10
10
10
10
10
10
10
10
10
10
10
10
10
10
10
10
10
10
10
10
10
10
10
10
10
10
10
10
10
10
10
10
10
10
10
10
10
10
10
10
10
10
10
10
10
10
10
10
10
10
10
10
10
10
10
10
10
10
10
10
10
10
10
10
10
10
10
10
10
10
10
10
10
10
10
10
10
10
10
10
10
10
10
10
10
10
10
10
10
10
10
10
10
10
10
10
10
10
10
10
10
10
10
10
10
10
10
10
10
10
10
10
10
10
10
10
10
10
10
10
10
10
10
10
10
10
10
10
10
10
10
10
10
10
10
10
10
10
10
10
10
10
10
10
10
10
10
10
10
10
10
10
10
10
10
10
10
10
10
10
10
10
10
10
10
10
10
10
10
10
10
10
10
10
10
10
10
10
10
10
10
10
10
10
10
10
10
10
10
10
10
10
10
10
10
10
10
10
10
10
10
10
10
10
10
10
10
10
10
10
10
10
10
10
10
10
10
10
10
10
10
10
10
10
10
10
10
10
10
10
10
10
10
10
10
10
10
10
10
10
10
10
10
10
10
10
10
10
10
10
10
10
10
10
10
10
10
10
10
10
10
10
10
10
10
10
10
10
10
10
10
10
10
10
10
10
10
10
10
10
10
10
10
10
10
10
10
10
10
10
10
10
10
10
10
10
10
10
10
10
10
10
10
10
10
10
10
10
10
10
10
10
10
10
10
10
10
10
10
10
10
10
10
10
10
10
10
10
10
10
10
10
10
10
10
10
10
10
10
10
10
10
10
10
10
10
10
10
              </DataArray>   
          </Cells>  
          <PointData>  
             <DataArray type="Float64" NumberOfComponents="3" Name="Strains" format="ascii">   
-0.00011314908742652851   0.0   -7.420835994025709e-05
-0.00011314908742652851   0.0   -7.420835994025709e-05
-0.00011314908742652851   0.0   -7.420835994025709e-05
-0.00011314908742652851   0.0   -7.420835994025709e-05
-7.200405950255404e-05   1.2541594093521286e-05   1.8916430558129981e-06
-7.200405950255404e-05   1.2541594093521286e-05   1.8916430558129981e-06
-7.200405950255404e-05   1.2541594093521286e-05   1.8916430558129981e-06
-7.200405950255404e-05   1.2541594093521286e-05   1.8916430558129981e-06
-7.058378904986695e-05   0.0   -7.003125786780577e-05
-7.058378904986695e-05   0.0   -7.003125786780577e-05
-7.058378904986695e-05   0.0   -7.003125786780577e-05
-7.058378904986695e-05   0.0   -7.003125786780577e-05
-0.00011842049591123633   1.504728584579718e-05   6.682153936652258e-07
-0.00011842049591123633   1.504728584579718e-05   6.682153936652258e-07
-0.00011842049591123633   1.504728584579718e-05   6.682153936652258e-07
-0.00011842049591123633   1.504728584579718e-05   6.682153936652258e-07
-9.186643823819757e-05   3.4809183937094232e-06   -3.664872692348003e-05
-9.186643823819757e-05   3.4809183937094232e-06   -3.664872692348003e-05
-9.186643823819757e-05   3.4809183937094232e-06   -3.664872692348003e-05
-9.186643823819757e-05   3.4809183937094232e-06   -3.664872692348003e-05
-0.00011842049591123654   0.0   -7.905962937528408e-05
-0.00011842049591123654   0.0   -7.905962937528408e-05
-0.00011842049591123654   0.0   -7.905962937528408e-05
-0.00011842049591123654   0.0   -7.905962937528408e-05
-7.058378904986695e-05   1.5047285845797194e-05   9.696586901143526e-06
-7.058378904986695e-05   1.5047285845797194e-05   9.696586901143526e-06
-7.058378904986695e-05   1.5047285845797194e-05   9.696586901143526e-06
-7.058378904986695e-05   1.5047285845797194e-05   9.696586901143526e-06
-7.078688856273828e-05   0.0   -7.174646460614082e-05
-7.078688856273828e-05   0.0   -7.174646460614082e-05
-7.078688856273828e-05   0.0   -7.174646460614082e-05
-7.078688856273828e-05   0.0   -7.174646460614082e-05
-0.00012212440946167245   1.6120008729441162e-05   4.1440649877517316e-06
-0.00012212440946167245   1.6120008729441162e-05   4.1440649877517316e-06
-0.00012212440946167245   1.6120008729441162e-05   4.1440649877517316e-06
-0.00012212440946167245   1.6120008729441162e-05   4.1440649877517316e-06
-9.460369223698724e-05   6.094303974286056e-06   -3.570837420029715e-05
-9.460369223698724e-05   6.094303974286056e-06   -3.570837420029715e-05
-9.460369223698724e-05   6.094303974286056e-06   -3.570837420029715e-05
-9.460369223698724e-05   6.094303974286056e-06   -3.570837420029715e-05
-0.00012212440946167267   0.0   -8.141846984380553e-05
-0.00012212440946167267   0.0   -8.141846984380553e-05
-0.00012212440946167267   0.0   -8.141846984380553e-05
-0.00012212440946167267   0.0   -8.141846984380553e-05
-7.078688856273828e-05   1.612000872944119e-05   1.3816070225416456e-05
-7.078688856273828e-05   1.612000872944119e-05   1.3816070225416456e-05
-7.078688856273828e-05   1.612000872944119e-05   1.3816070225416456e-05
-7.078688856273828e-05   1.612000872944119e-05   1.3816070225416456e-05
-7.075423645049045e-05   0.0   -7.218656714888473e-05
-7.075423645049045e-05   0.0   -7.218656714888473e-05
-7.075423645049045e-05   0.0   -7.218656714888473e-05
-7.075423645049045e-05   0.0   -7.218656714888473e-05
-0.00013009964965978447   1.836121407608857e-05   1.570572642095247e-05
-0.00013009964965978447   1.836121407608857e-05   1.570572642095247e-05
-0.00013009964965978447   1.836121407608857e-05   1.570572642095247e-05
-0.00013009964965978447   1.836121407608857e-05   1.570572642095247e-05
-9.64393229560814e-05   7.693252245767326e-06   -3.3994040987026544e-05
-9.64393229560814e-05   7.693252245767326e-06   -3.3994040987026544e-05
-9.64393229560814e-05   7.693252245767326e-06   -3.3994040987026544e-05
-9.64393229560814e-05   7.693252245767326e-06   -3.3994040987026544e-05
-7.200405950255417e-05   0.0   -6.668340348414431e-05
-7.200405950255417e-05   0.0   -6.668340348414431e-05
-7.200405950255417e-05   0.0   -6.668340348414431e-05
-7.200405950255417e-05   0.0   -6.668340348414431e-05
-3.278636524706865e-05   4.60108425625931e-06   1.4400708287537573e-06
-3.278636524706865e-05   4.60108425625931e-06   1.4400708287537573e-06
-3.278636524706865e-05   4.60108425625931e-06   1.4400708287537573e-06
-3.278636524706865e-05   4.60108425625931e-06   1.4400708287537573e-06
-3.1537400515516456e-05   0.0   -6.610229958983105e-05
-3.1537400515516456e-05   0.0   -6.610229958983105e-05
-3.1537400515516456e-05   0.0   -6.610229958983105e-05
-3.1537400515516456e-05   0.0   -6.610229958983105e-05
-7.058378904986695e-05   6.548263796624538e-06   -4.953943643888295e-06
-7.058378904986695e-05   6.548263796624538e-06   -4.953943643888295e-06
-7.058378904986695e-05   6.548263796624538e-06   -4.953943643888295e-06
-7.058378904986695e-05   6.548263796624538e-06   -4.953943643888295e-06
-5.1770730009035223e-05   4.842532452610491e-07   -3.267063571445618e-05
-5.1770730009035223e-05   4.842532452610491e-07   -3.267063571445618e-05
-5.1770730009035223e-05   4.842532452610491e-07   -3.267063571445618e-05
-5.1770730009035223e-05   4.842532452610491e-07   -3.267063571445618e-05
-7.058378904986688e-05   0.0   -7.003125786780572e-05
-7.058378904986688e-05   0.0   -7.003125786780572e-05
-7.058378904986688e-05   0.0   -7.003125786780572e-05
-7.058378904986688e-05   0.0   -7.003125786780572e-05
-3.1537400515516456e-05   6.548263796624538e-06   -1.0249853659135815e-06
-3.1537400515516456e-05   6.548263796624538e-06   -1.0249853659135815e-06
-3.1537400515516456e-05   6.548263796624538e-06   -1.0249853659135815e-06
-3.1537400515516456e-05   6.548263796624538e-06   -1.0249853659135815e-06
-3.08375952189966e-05   0.0   -6.693289741484119e-05
-3.08375952189966e-05   0.0   -6.693289741484119e-05
-3.08375952189966e-05   0.0   -6.693289741484119e-05
-3.08375952189966e-05   0.0   -6.693289741484119e-05
-7.078688856273828e-05   8.022611985499385e-06   -5.164309033238039e-06
-7.078688856273828e-05   8.022611985499385e-06   -5.164309033238039e-06
-7.078688856273828e-05   8.022611985499385e-06   -5.164309033238039e-06
-7.078688856273828e-05   8.022611985499385e-06   -5.164309033238039e-06
-5.071069213443167e-05   2.5819670441371587e-06   -3.536024944893141e-05
-5.071069213443167e-05   2.5819670441371587e-06   -3.536024944893141e-05
-5.071069213443167e-05   2.5819670441371587e-06   -3.536024944893141e-05
-5.071069213443167e-05   2.5819670441371587e-06   -3.536024944893141e-05
-7.078688856273828e-05   0.0   -7.174646460614082e-05
-7.078688856273828e-05   0.0   -7.174646460614082e-05
-7.078688856273828e-05   0.0   -7.174646460614082e-05
-7.078688856273828e-05   0.0   -7.174646460614082e-05
-3.08375952189966e-05   8.022611985499385e-06   -3.507418419383985e-07
-3.08375952189966e-05   8.022611985499385e-06   -3.507418419383985e-07
-3.08375952189966e-05   8.022611985499385e-06   -3.507418419383985e-07
-3.08375952189966e-05   8.022611985499385e-06   -3.507418419383985e-07
-3.0201035189152086e-05   0.0   -6.658599500318259e-05
-3.0201035189152086e-05   0.0   -6.658599500318259e-05
-3.0201035189152086e-05   0.0   -6.658599500318259e-05
-3.0201035189152086e-05   0.0   -6.658599500318259e-05
-7.075423645049027e-05   9.334286909503441e-06   -4.597898379987437e-06
-7.075423645049027e-05   9.334286909503441e-06   -4.597898379987437e-06
-7.075423645049027e-05   9.334286909503441e-06   -4.597898379987437e-06
-7.075423645049027e-05   9.334286909503441e-06   -4.597898379987437e-06
-5.0493961875945165e-05   4.300391335798479e-06   -3.534468532667321e-05
-5.0493961875945165e-05   4.300391335798479e-06   -3.534468532667321e-05
-5.0493961875945165e-05   4.300391335798479e-06   -3.534468532667321e-05
-5.0493961875945165e-05   4.300391335798479e-06   -3.534468532667321e-05
-3.27863652470687e-05   0.0   -6.392275293038872e-05
-3.27863652470687e-05   0.0   -6.392275293038872e-05
-3.27863652470687e-05   0.0   -6.392275293038872e-05
-3.27863652470687e-05   0.0   -6.392275293038872e-05
4.270441906776353e-06   -5.884724769176586e-07   -2.514491160130827e-06
4.270441906776353e-06   -5.884724769176586e-07   -2.514491160130827e-06
4.270441906776353e-06   -5.884724769176586e-07   -2.514491160130827e-06
4.270441906776353e-06   -5.884724769176586e-07   -2.514491160130827e-06
5.065780927413802e-06   0.0   -6.540601310509001e-05
5.065780927413802e-06   0.0   -6.540601310509001e-05
5.065780927413802e-06   0.0   -6.540601310509001e-05
5.065780927413802e-06   0.0   -6.540601310509001e-05
-3.1537400515516456e-05   1.1604774745680309e-06   -5.096997184947266e-06
-3.1537400515516456e-05   1.1604774745680309e-06   -5.096997184947266e-06
-3.1537400515516456e-05   1.1604774745680309e-06   -5.096997184947266e-06
-3.1537400515516456e-05   1.1604774745680309e-06   -5.096997184947266e-06
-1.3860292159827417e-05   -1.2360501455845906e-06   -3.3120927872337295e-05
-1.3860292159827417e-05   -1.2360501455845906e-06   -3.3120927872337295e-05
-1.3860292159827417e-05   -1.2360501455845906e-06   -3.3120927872337295e-05
-1.3860292159827417e-05   -1.2360501455845906e-06   -3.3120927872337295e-05
-3.1537400515516456e-05   0.0   -6.610229958983105e-05
-3.1537400515516456e-05   0.0   -6.610229958983105e-05
-3.1537400515516456e-05   0.0   -6.610229958983105e-05
-3.1537400515516456e-05   0.0   -6.610229958983105e-05
5.065780927413811e-06   1.1604774745680173e-06   -4.400710700206441e-06
5.065780927413811e-06   1.1604774745680173e-06   -4.400710700206441e-06
5.065780927413811e-06   1.1604774745680173e-06   -4.400710700206441e-06
5.065780927413811e-06   1.1604774745680173e-06   -4.400710700206441e-06
5.692978815544194e-06   0.0   -6.531275023970916e-05
5.692978815544194e-06   0.0   -6.531275023970916e-05
5.692978815544194e-06   0.0   -6.531275023970916e-05
5.692978815544194e-06   0.0   -6.531275023970916e-05
-3.0837595218996544e-05   2.7002452918865183e-06   -6.048607357273185e-06
-3.0837595218996544e-05   2.7002452918865183e-06   -6.048607357273185e-06
-3.0837595218996544e-05   2.7002452918865183e-06   -6.048607357273185e-06
-3.0837595218996544e-05   2.7002452918865183e-06   -6.048607357273185e-06
-1.2922210849986126e-05   6.57957791768149e-07   -3.468220880555292e-05
-1.2922210849986126e-05   6.57957791768149e-07   -3.468220880555292e-05
-1.2922210849986126e-05   6.57957791768149e-07   -3.468220880555292e-05
-1.2922210849986126e-05   6.57957791768149e-07   -3.468220880555292e-05
-3.08375952189966e-05   0.0   -6.693289741484119e-05
-3.08375952189966e-05   0.0   -6.693289741484119e-05
-3.08375952189966e-05   0.0   -6.693289741484119e-05
-3.08375952189966e-05   0.0   -6.693289741484119e-05
5.692978815544204e-06   2.700245291886532e-06   -4.428460182141278e-06
5.692978815544204e-06   2.700245291886532e-06   -4.428460182141278e-06
5.692978815544204e-06   2.700245291886532e-06   -4.428460182141278e-06
5.692978815544204e-06   2.700245291886532e-06   -4.428460182141278e-06
6.538217918131631e-06   0.0   -6.389563754402288e-05
6.538217918131631e-06   0.0   -6.389563754402288e-05
6.538217918131631e-06   0.0   -6.389563754402288e-05
6.538217918131631e-06   0.0   -6.389563754402288e-05
-3.020103518915206e-05   4.483929098599438e-06   -5.353906491043058e-06
-3.020103518915206e-05   4.483929098599438e-06   -5.353906491043058e-06
-3.020103518915206e-05   4.483929098599438e-06   -5.353906491043058e-06
-3.020103518915206e-05   4.483929098599438e-06   -5.353906491043058e-06
-1.2149688650432457e-05   2.5310498923484924e-06   -3.4267756531825144e-05
-1.2149688650432457e-05   2.5310498923484924e-06   -3.4267756531825144e-05
-1.2149688650432457e-05   2.5310498923484924e-06   -3.4267756531825144e-05
-1.2149688650432457e-05   2.5310498923484924e-06   -3.4267756531825144e-05
4.27044190677636e-06   0.0   -6.427583641653932e-05
4.27044190677636e-06   0.0   -6.427583641653932e-05
4.27044190677636e-06   0.0   -6.427583641653932e-05
4.27044190677636e-06   0.0   -6.427583641653932e-05
4.449160761435799e-05   -5.218389841634536e-06   -3.715941422172776e-07
4.449160761435799e-05   -5.218389841634536e-06   -3.715941422172776e-07
4.449160761435799e-05   -5.218389841634536e-06   -3.715941422172776e-07
4.449160761435799e-05   -5.218389841634536e-06   -3.715941422172776e-07
4.4564965298915456e-05   0.0   -6.776708171273626e-05
4.4564965298915456e-05   0.0   -6.776708171273626e-05
4.4564965298915456e-05   0.0   -6.776708171273626e-05
4.4564965298915456e-05   0.0   -6.776708171273626e-05
5.0657809274138194e-06   -3.935114346076697e-06   4.2596084741248195e-07
5.0657809274138194e-06   -3.935114346076697e-06   4.2596084741248195e-07
5.0657809274138194e-06   -3.935114346076697e-06   4.2596084741248195e-07
5.0657809274138194e-06   -3.935114346076697e-06   4.2596084741248195e-07
2.4417703602845908e-05   -2.9093710801641166e-06   -3.244268957118852e-05
2.4417703602845908e-05   -2.9093710801641166e-06   -3.244268957118852e-05
2.4417703602845908e-05   -2.9093710801641166e-06   -3.244268957118852e-05
2.4417703602845908e-05   -2.9093710801641166e-06   -3.244268957118852e-05
5.0657809274138194e-06   0.0   -6.540601310509023e-05
5.0657809274138194e-06   0.0   -6.540601310509023e-05
5.0657809274138194e-06   0.0   -6.540601310509023e-05
5.0657809274138194e-06   0.0   -6.540601310509023e-05
4.4564965298915456e-05   -3.935114346076697e-06   -1.9351077602335444e-06
4.4564965298915456e-05   -3.935114346076697e-06   -1.9351077602335444e-06
4.4564965298915456e-05   -3.935114346076697e-06   -1.9351077602335444e-06
4.4564965298915456e-05   -3.935114346076697e-06   -1.9351077602335444e-06
4.4369139708315244e-05   0.0   -6.67993521365582e-05
4.4369139708315244e-05   0.0   -6.67993521365582e-05
4.4369139708315244e-05   0.0   -6.67993521365582e-05
4.4369139708315244e-05   0.0   -6.67993521365582e-05
5.692978815544204e-06   -2.4776698280815746e-06   -8.524820850908748e-07
5.692978815544204e-06   -2.4776698280815746e-06   -8.524820850908748e-07
5.692978815544204e-06   -2.4776698280815746e-06   -8.524820850908748e-07
5.692978815544204e-06   -2.4776698280815746e-06   -8.524820850908748e-07
2.4717460317864532e-05   -1.161115859556647e-06   -3.3349883636739675e-05
2.4717460317864532e-05   -1.161115859556647e-06   -3.3349883636739675e-05
2.4717460317864532e-05   -1.161115859556647e-06   -3.3349883636739675e-05
2.4717460317864532e-05   -1.161115859556647e-06   -3.3349883636739675e-05
5.6929788155441995e-06   0.0   -6.531275023970921e-05
5.6929788155441995e-06   0.0   -6.531275023970921e-05
5.6929788155441995e-06   0.0   -6.531275023970921e-05
5.6929788155441995e-06   0.0   -6.531275023970921e-05
4.4369139708315244e-05   -2.4776698280815746e-06   -2.3390839819398165e-06
4.4369139708315244e-05   -2.4776698280815746e-06   -2.3390839819398165e-06
4.4369139708315244e-05   -2.4776698280815746e-06   -2.3390839819398165e-06
4.4369139708315244e-05   -2.4776698280815746e-06   -2.3390839819398165e-06
4.522367023923626e-05   0.0   -6.420697006959875e-05
4.522367023923626e-05   0.0   -6.420697006959875e-05
4.522367023923626e-05   0.0   -6.420697006959875e-05
4.522367023923626e-05   0.0   -6.420697006959875e-05
6.538217918131642e-06   -5.188875426262641e-07   5.801163244846969e-07
6.538217918131642e-06   -5.188875426262641e-07   5.801163244846969e-07
6.538217918131642e-06   -5.188875426262641e-07   5.801163244846969e-07
6.538217918131642e-06   -5.188875426262641e-07   5.801163244846969e-07
2.545832452739021e-05   9.214834750921079e-07   -3.181761730157725e-05
2.545832452739021e-05   9.214834750921079e-07   -3.181761730157725e-05
2.545832452739021e-05   9.214834750921079e-07   -3.181761730157725e-05
2.545832452739021e-05   9.214834750921079e-07   -3.181761730157725e-05
4.449160761435799e-05   0.0   -6.740687032152004e-05
4.449160761435799e-05   0.0   -6.740687032152004e-05
4.449160761435799e-05   0.0   -6.740687032152004e-05
4.449160761435799e-05   0.0   -6.740687032152004e-05
0.00010041572391739054   -1.3224721959967484e-05   1.7865157007554276e-05
0.00010041572391739054   -1.3224721959967484e-05   1.7865157007554276e-05
0.00010041572391739054   -1.3224721959967484e-05   1.7865157007554276e-05
0.00010041572391739054   -1.3224721959967484e-05   1.7865157007554276e-05
9.42990932338475e-05   0.0   -7.452018616348923e-05
9.42990932338475e-05   0.0   -7.452018616348923e-05
9.42990932338475e-05   0.0   -7.452018616348923e-05
9.42990932338475e-05   0.0   -7.452018616348923e-05
4.4564965298915456e-05   -1.1255174084588297e-05   1.5123131512150451e-05
4.4564965298915456e-05   -1.1255174084588297e-05   1.5123131512150451e-05
4.4564965298915456e-05   -1.1255174084588297e-05   1.5123131512150451e-05
4.4564965298915456e-05   -1.1255174084588297e-05   1.5123131512150451e-05
6.939535042410275e-05   -5.927763201641004e-06   -2.945729022626335e-05
6.939535042410275e-05   -5.927763201641004e-06   -2.945729022626335e-05
6.939535042410275e-05   -5.927763201641004e-06   -2.945729022626335e-05
6.939535042410275e-05   -5.927763201641004e-06   -2.945729022626335e-05
4.4564965298915415e-05   0.0   -6.77670817127362e-05
4.4564965298915415e-05   0.0   -6.77670817127362e-05
4.4564965298915415e-05   0.0   -6.77670817127362e-05
4.4564965298915415e-05   0.0   -6.77670817127362e-05
9.429909323384717e-05   -1.1255174084588257e-05   8.370027061397451e-06
9.429909323384717e-05   -1.1255174084588257e-05   8.370027061397451e-06
9.429909323384717e-05   -1.1255174084588257e-05   8.370027061397451e-06
9.429909323384717e-05   -1.1255174084588257e-05   8.370027061397451e-06
9.147622973433539e-05   0.0   -7.297081633630468e-05
9.147622973433539e-05   0.0   -7.297081633630468e-05
9.147622973433539e-05   0.0   -7.297081633630468e-05
9.147622973433539e-05   0.0   -7.297081633630468e-05
4.4369139708315244e-05   -1.0285773666244107e-05   1.1712464573475351e-05
4.4369139708315244e-05   -1.0285773666244107e-05   1.1712464573475351e-05
4.4369139708315244e-05   -1.0285773666244107e-05   1.1712464573475351e-05
4.4369139708315244e-05   -1.0285773666244107e-05   1.1712464573475351e-05
6.802059751662539e-05   -4.336445519640359e-06   -3.127622866167045e-05
6.802059751662539e-05   -4.336445519640359e-06   -3.127622866167045e-05
6.802059751662539e-05   -4.336445519640359e-06   -3.127622866167045e-05
6.802059751662539e-05   -4.336445519640359e-06   -3.127622866167045e-05
4.4369139708315244e-05   0.0   -6.67993521365582e-05
4.4369139708315244e-05   0.0   -6.67993521365582e-05
4.4369139708315244e-05   0.0   -6.67993521365582e-05
4.4369139708315244e-05   0.0   -6.67993521365582e-05
9.147622973433507e-05   -1.0285773666244066e-05   5.541000373728846e-06
9.147622973433507e-05   -1.0285773666244066e-05   5.541000373728846e-06
9.147622973433507e-05   -1.0285773666244066e-05   5.541000373728846e-06
9.147622973433507e-05   -1.0285773666244066e-05   5.541000373728846e-06
8.72772469741758e-05   0.0   -6.900572477574306e-05
8.72772469741758e-05   0.0   -6.900572477574306e-05
8.72772469741758e-05   0.0   -6.900572477574306e-05
8.72772469741758e-05   0.0   -6.900572477574306e-05
4.522367023923626e-05   -7.997924510240727e-06   5.882324488634065e-06
4.522367023923626e-05   -7.997924510240727e-06   5.882324488634065e-06
4.522367023923626e-05   -7.997924510240727e-06   5.882324488634065e-06
4.522367023923626e-05   -7.997924510240727e-06   5.882324488634065e-06
6.58231933412456e-05   -1.8386438659874819e-06   -3.214578240126675e-05
6.58231933412456e-05   -1.8386438659874819e-06   -3.214578240126675e-05
6.58231933412456e-05   -1.8386438659874819e-06   -3.214578240126675e-05
6.58231933412456e-05   -1.8386438659874819e-06   -3.214578240126675e-05
-9.821110394649422e-05   1.2541594093521259e-05   -6.440486402494995e-05
-9.821110394649422e-05   1.2541594093521259e-05   -6.440486402494995e-05
-9.821110394649422e-05   1.2541594093521259e-05   -6.440486402494995e-05
-9.821110394649422e-05   1.2541594093521259e-05   -6.440486402494995e-05
-6.289997666028259e-05   1.1280752619664575e-05   -6.3094900989112395e-06
-6.289997666028259e-05   1.1280752619664575e-05   -6.3094900989112395e-06
-6.289997666028259e-05   1.1280752619664575e-05   -6.3094900989112395e-06
-6.289997666028259e-05   1.1280752619664575e-05   -6.3094900989112395e-06
-6.44849803741265e-05   1.504728584579714e-05   -5.40864852226533e-05
-6.44849803741265e-05   1.504728584579714e-05   -5.40864852226533e-05
-6.44849803741265e-05   1.504728584579714e-05   -5.40864852226533e-05
-6.44849803741265e-05   1.504728584579714e-05   -5.40864852226533e-05
-9.92793044225765e-05   1.3537363517160319e-05   4.8100082552789505e-06
-9.92793044225765e-05   1.3537363517160319e-05   4.8100082552789505e-06
-9.92793044225765e-05   1.3537363517160319e-05   4.8100082552789505e-06
-9.92793044225765e-05   1.3537363517160319e-05   4.8100082552789505e-06
-7.800220269161287e-05   1.3099090447413046e-05   -3.038886412114585e-05
-7.800220269161287e-05   1.3099090447413046e-05   -3.038886412114585e-05
-7.800220269161287e-05   1.3099090447413046e-05   -3.038886412114585e-05
-7.800220269161287e-05   1.3099090447413046e-05   -3.038886412114585e-05
-9.92793044225765e-05   1.504728584579714e-05   -5.318053182547121e-05
-9.92793044225765e-05   1.504728584579714e-05   -5.318053182547121e-05
-9.92793044225765e-05   1.504728584579714e-05   -5.318053182547121e-05
-9.92793044225765e-05   1.504728584579714e-05   -5.318053182547121e-05
-6.448498037412672e-05   1.3537363517160373e-05   3.904054858096901e-06
-6.448498037412672e-05   1.3537363517160373e-05   3.904054858096901e-06
-6.448498037412672e-05   1.3537363517160373e-05   3.904054858096901e-06
-6.448498037412672e-05   1.3537363517160373e-05   3.904054858096901e-06
-6.481959001863393e-05   1.6120008729441135e-05   -4.862448330677301e-05
-6.481959001863393e-05   1.6120008729441135e-05   -4.862448330677301e-05
-6.481959001863393e-05   1.6120008729441135e-05   -4.862448330677301e-05
-6.481959001863393e-05   1.6120008729441135e-05   -4.862448330677301e-05
-9.998236125267565e-05   1.455575254489703e-05   1.0918689127355989e-05
-9.998236125267565e-05   1.455575254489703e-05   1.0918689127355989e-05
-9.998236125267565e-05   1.455575254489703e-05   1.0918689127355989e-05
-9.998236125267565e-05   1.455575254489703e-05   1.0918689127355989e-05
-8.029904020182296e-05   1.4518112667694441e-05   -2.1864262031076652e-05
-8.029904020182296e-05   1.4518112667694441e-05   -2.1864262031076652e-05
-8.029904020182296e-05   1.4518112667694441e-05   -2.1864262031076652e-05
-8.029904020182296e-05   1.4518112667694441e-05   -2.1864262031076652e-05
-9.998236125267548e-05   1.6120008729441135e-05   -4.7685929596046585e-05
-9.998236125267548e-05   1.6120008729441135e-05   -4.7685929596046585e-05
-9.998236125267548e-05   1.6120008729441135e-05   -4.7685929596046585e-05
-9.998236125267548e-05   1.6120008729441135e-05   -4.7685929596046585e-05
-6.481959001863405e-05   1.455575254489703e-05   9.980135416629498e-06
-6.481959001863405e-05   1.455575254489703e-05   9.980135416629498e-06
-6.481959001863405e-05   1.455575254489703e-05   9.980135416629498e-06
-6.481959001863405e-05   1.455575254489703e-05   9.980135416629498e-06
-6.445420210939343e-05   1.8361214076088558e-05   -3.592057273225002e-05
-6.445420210939343e-05   1.8361214076088558e-05   -3.592057273225002e-05
-6.445420210939343e-05   1.8361214076088558e-05   -3.592057273225002e-05
-6.445420210939343e-05   1.8361214076088558e-05   -3.592057273225002e-05
-9.721622990067476e-05   1.536441698832123e-05   2.048088517254558e-05
-9.721622990067476e-05   1.536441698832123e-05   2.048088517254558e-05
-9.721622990067476e-05   1.536441698832123e-05   2.048088517254558e-05
-9.721622990067476e-05   1.536441698832123e-05   2.048088517254558e-05
-7.821433552585468e-05   1.592300280265106e-05   -1.1524090274085713e-05
-7.821433552585468e-05   1.592300280265106e-05   -1.1524090274085713e-05
-7.821433552585468e-05   1.592300280265106e-05   -1.1524090274085713e-05
-7.821433552585468e-05   1.592300280265106e-05   -1.1524090274085713e-05
-6.289997666028259e-05   4.601084256259297e-06   -6.837359169007879e-05
-6.289997666028259e-05   4.601084256259297e-06   -6.837359169007879e-05
-6.289997666028259e-05   4.601084256259297e-06   -6.837359169007879e-05
-6.289997666028259e-05   4.601084256259297e-06   -6.837359169007879e-05
-2.9799446833380623e-05   5.2490353838432384e-06   -1.281727130202501e-05
-2.9799446833380623e-05   5.2490353838432384e-06   -1.281727130202501e-05
-2.9799446833380623e-05   5.2490353838432384e-06   -1.281727130202501e-05
-2.9799446833380623e-05   5.2490353838432384e-06   -1.281727130202501e-05
-3.0513983573262723e-05   6.548263796624511e-06   -6.827146295422163e-05
-3.0513983573262723e-05   6.548263796624511e-06   -6.827146295422163e-05
-3.0513983573262723e-05   6.548263796624511e-06   -6.827146295422163e-05
-3.0513983573262723e-05   6.548263796624511e-06   -6.827146295422163e-05
-6.44849803741265e-05   7.324185152397008e-06   -1.2118687766245304e-05
-6.44849803741265e-05   7.324185152397008e-06   -1.2118687766245304e-05
-6.44849803741265e-05   7.324185152397008e-06   -1.2118687766245304e-05
-6.44849803741265e-05   7.324185152397008e-06   -1.2118687766245304e-05
-4.6792632977340215e-05   5.897705919010273e-06   -4.0750045887524155e-05
-4.6792632977340215e-05   5.897705919010273e-06   -4.0750045887524155e-05
-4.6792632977340215e-05   5.897705919010273e-06   -4.0750045887524155e-05
-4.6792632977340215e-05   5.897705919010273e-06   -4.0750045887524155e-05
-6.448498037412643e-05   6.548263796624511e-06   -6.873701576768498e-05
-6.448498037412643e-05   6.548263796624511e-06   -6.873701576768498e-05
-6.448498037412643e-05   6.548263796624511e-06   -6.873701576768498e-05
-6.448498037412643e-05   6.548263796624511e-06   -6.873701576768498e-05
-3.0513983573262778e-05   7.324185152397008e-06   -1.1653134952781865e-05
-3.0513983573262778e-05   7.324185152397008e-06   -1.1653134952781865e-05
-3.0513983573262778e-05   7.324185152397008e-06   -1.1653134952781865e-05
-3.0513983573262778e-05   7.324185152397008e-06   -1.1653134952781865e-05
-3.074082125040554e-05   8.022611985499358e-06   -6.699347834016416e-05
-3.074082125040554e-05   8.022611985499358e-06   -6.699347834016416e-05
-3.074082125040554e-05   8.022611985499358e-06   -6.699347834016416e-05
-3.074082125040554e-05   8.022611985499358e-06   -6.699347834016416e-05
-6.481959001863393e-05   9.041585694271562e-06   -1.0806914618380196e-05
-6.481959001863393e-05   9.041585694271562e-06   -1.0806914618380196e-05
-6.481959001863393e-05   9.041585694271562e-06   -1.0806914618380196e-05
-6.481959001863393e-05   9.041585694271562e-06   -1.0806914618380196e-05
-4.7161448407570465e-05   7.484351289841737e-06   -3.930280999416123e-05
-4.7161448407570465e-05   7.484351289841737e-06   -3.930280999416123e-05
-4.7161448407570465e-05   7.484351289841737e-06   -3.930280999416123e-05
-4.7161448407570465e-05   7.484351289841737e-06   -3.930280999416123e-05
-6.481959001863393e-05   8.022611985499358e-06   -6.760486256542746e-05
-6.481959001863393e-05   8.022611985499358e-06   -6.760486256542746e-05
-6.481959001863393e-05   8.022611985499358e-06   -6.760486256542746e-05
-6.481959001863393e-05   8.022611985499358e-06   -6.760486256542746e-05
-3.074082125040563e-05   9.041585694271562e-06   -1.0195530393116928e-05
-3.074082125040563e-05   9.041585694271562e-06   -1.0195530393116928e-05
-3.074082125040563e-05   9.041585694271562e-06   -1.0195530393116928e-05
-3.074082125040563e-05   9.041585694271562e-06   -1.0195530393116928e-05
-3.066899662256628e-05   9.334286909503441e-06   -6.630797172777072e-05
-3.066899662256628e-05   9.334286909503441e-06   -6.630797172777072e-05
-3.066899662256628e-05   9.334286909503441e-06   -6.630797172777072e-05
-3.066899662256628e-05   9.334286909503441e-06   -6.630797172777072e-05
-6.445420210939338e-05   1.0889210661290587e-05   -1.0932250167464499e-05
-6.445420210939338e-05   1.0889210661290587e-05   -1.0932250167464499e-05
-6.445420210939338e-05   1.0889210661290587e-05   -1.0932250167464499e-05
-6.445420210939338e-05   1.0889210661290587e-05   -1.0932250167464499e-05
-4.744233936180184e-05   8.920430815553305e-06   -3.810408683934157e-05
-4.744233936180184e-05   8.920430815553305e-06   -3.810408683934157e-05
-4.744233936180184e-05   8.920430815553305e-06   -3.810408683934157e-05
-4.744233936180184e-05   8.920430815553305e-06   -3.810408683934157e-05
-2.979944683338057e-05   -5.884724769176586e-07   -7.158629951626238e-05
-2.979944683338057e-05   -5.884724769176586e-07   -7.158629951626238e-05
-2.979944683338057e-05   -5.884724769176586e-07   -7.158629951626238e-05
-2.979944683338057e-05   -5.884724769176586e-07   -7.158629951626238e-05
2.883983552489233e-06   -1.557318339857742e-07   -1.6854271154053568e-05
2.883983552489233e-06   -1.557318339857742e-07   -1.6854271154053568e-05
2.883983552489233e-06   -1.557318339857742e-07   -1.6854271154053568e-05
2.883983552489233e-06   -1.557318339857742e-07   -1.6854271154053568e-05
2.7464917010679864e-06   1.1604774745680309e-06   -7.198610194094844e-05
2.7464917010679864e-06   1.1604774745680309e-06   -7.198610194094844e-05
2.7464917010679864e-06   1.1604774745680309e-06   -7.198610194094844e-05
2.7464917010679864e-06   1.1604774745680309e-06   -7.198610194094844e-05
-3.0513983573262723e-05   1.7560988617462648e-06   -1.69093493160373e-05
-3.0513983573262723e-05   1.7560988617462648e-06   -1.69093493160373e-05
-3.0513983573262723e-05   1.7560988617462648e-06   -1.69093493160373e-05
-3.0513983573262723e-05   1.7560988617462648e-06   -1.69093493160373e-05
-1.3753290421613687e-05   5.828695211907288e-07   -4.4139900297785845e-05
-1.3753290421613687e-05   5.828695211907288e-07   -4.4139900297785845e-05
-1.3753290421613687e-05   5.828695211907288e-07   -4.4139900297785845e-05
-1.3753290421613687e-05   5.828695211907288e-07   -4.4139900297785845e-05
-3.0513983573262723e-05   1.1604774745680309e-06   -7.234347477325529e-05
-3.0513983573262723e-05   1.1604774745680309e-06   -7.234347477325529e-05
-3.0513983573262723e-05   1.1604774745680309e-06   -7.234347477325529e-05
-3.0513983573262723e-05   1.1604774745680309e-06   -7.234347477325529e-05
2.7464917010679864e-06   1.756098861746319e-06   -1.6551976483730366e-05
2.7464917010679864e-06   1.756098861746319e-06   -1.6551976483730366e-05
2.7464917010679864e-06   1.756098861746319e-06   -1.6551976483730366e-05
2.7464917010679864e-06   1.756098861746319e-06   -1.6551976483730366e-05
2.56017552223421e-06   2.7002452918865183e-06   -7.213708275452874e-05
2.56017552223421e-06   2.7002452918865183e-06   -7.213708275452874e-05
2.56017552223421e-06   2.7002452918865183e-06   -7.213708275452874e-05
2.56017552223421e-06   2.7002452918865183e-06   -7.213708275452874e-05
-3.074082125040554e-05   3.6240137935035347e-06   -1.7189682567766103e-05
-3.074082125040554e-05   3.6240137935035347e-06   -1.7189682567766103e-05
-3.074082125040554e-05   3.6240137935035347e-06   -1.7189682567766103e-05
-3.074082125040554e-05   3.6240137935035347e-06   -1.7189682567766103e-05
-1.4013207729708995e-05   2.2031983549293435e-06   -4.421654917244898e-05
-1.4013207729708995e-05   2.2031983549293435e-06   -4.421654917244898e-05
-1.4013207729708995e-05   2.2031983549293435e-06   -4.421654917244898e-05
-1.4013207729708995e-05   2.2031983549293435e-06   -4.421654917244898e-05
-3.074082125040554e-05   2.7002452918865183e-06   -7.269134385549894e-05
-3.074082125040554e-05   2.7002452918865183e-06   -7.269134385549894e-05
-3.074082125040554e-05   2.7002452918865183e-06   -7.269134385549894e-05
-3.074082125040554e-05   2.7002452918865183e-06   -7.269134385549894e-05
2.5601755222342135e-06   3.6240137935035347e-06   -1.6635421466795904e-05
2.5601755222342135e-06   3.6240137935035347e-06   -1.6635421466795904e-05
2.5601755222342135e-06   3.6240137935035347e-06   -1.6635421466795904e-05
2.5601755222342135e-06   3.6240137935035347e-06   -1.6635421466795904e-05
2.1883482536876394e-06   4.483929098599425e-06   -7.201272912972528e-05
2.1883482536876394e-06   4.483929098599425e-06   -7.201272912972528e-05
2.1883482536876394e-06   4.483929098599425e-06   -7.201272912972528e-05
2.1883482536876394e-06   4.483929098599425e-06   -7.201272912972528e-05
-3.0668996622566305e-05   5.5703005232713505e-06   -1.7902310524105255e-05
-3.0668996622566305e-05   5.5703005232713505e-06   -1.7902310524105255e-05
-3.0668996622566305e-05   5.5703005232713505e-06   -1.7902310524105255e-05
-3.0668996622566305e-05   5.5703005232713505e-06   -1.7902310524105255e-05
-1.4171896961987471e-05   3.867767421244698e-06   -4.4375956763853935e-05
-1.4171896961987471e-05   3.867767421244698e-06   -4.4375956763853935e-05
-1.4171896961987471e-05   3.867767421244698e-06   -4.4375956763853935e-05
-1.4171896961987471e-05   3.867767421244698e-06   -4.4375956763853935e-05
2.883983552489233e-06   -5.218389841634522e-06   -6.605272420760901e-05
2.883983552489233e-06   -5.218389841634522e-06   -6.605272420760901e-05
2.883983552489233e-06   -5.218389841634522e-06   -6.605272420760901e-05
2.883983552489233e-06   -5.218389841634522e-06   -6.605272420760901e-05
3.6564881962247515e-05   -5.365230071808136e-06   -1.0005997662782679e-05
3.6564881962247515e-05   -5.365230071808136e-06   -1.0005997662782679e-05
3.6564881962247515e-05   -5.365230071808136e-06   -1.0005997662782679e-05
3.6564881962247515e-05   -5.365230071808136e-06   -1.0005997662782679e-05
3.6860956692032557e-05   -3.9351143460766836e-06   -6.697548471165471e-05
3.6860956692032557e-05   -3.9351143460766836e-06   -6.697548471165471e-05
3.6860956692032557e-05   -3.9351143460766836e-06   -6.697548471165471e-05
3.6860956692032557e-05   -3.9351143460766836e-06   -6.697548471165471e-05
2.7464917010679864e-06   -3.628538209952449e-06   -1.030198874172154e-05
2.7464917010679864e-06   -3.628538209952449e-06   -1.030198874172154e-05
2.7464917010679864e-06   -3.628538209952449e-06   -1.030198874172154e-05
2.7464917010679864e-06   -3.628538209952449e-06   -1.030198874172154e-05
1.951147945422093e-05   -4.342967324893885e-06   -3.7814977528011696e-05
1.951147945422093e-05   -4.342967324893885e-06   -3.7814977528011696e-05
1.951147945422093e-05   -4.342967324893885e-06   -3.7814977528011696e-05
1.951147945422093e-05   -4.342967324893885e-06   -3.7814977528011696e-05
2.746491701067982e-06   -3.935114346076697e-06   -6.715943039332941e-05
2.746491701067982e-06   -3.935114346076697e-06   -6.715943039332941e-05
2.746491701067982e-06   -3.935114346076697e-06   -6.715943039332941e-05
2.746491701067982e-06   -3.935114346076697e-06   -6.715943039332941e-05
3.686095669203262e-05   -3.6285382099523946e-06   -1.011804306004697e-05
3.686095669203262e-05   -3.6285382099523946e-06   -1.011804306004697e-05
3.686095669203262e-05   -3.6285382099523946e-06   -1.011804306004697e-05
3.686095669203262e-05   -3.6285382099523946e-06   -1.011804306004697e-05
3.667491104478433e-05   -2.477669828081561e-06   -6.823077209066041e-05
3.667491104478433e-05   -2.477669828081561e-06   -6.823077209066041e-05
3.667491104478433e-05   -2.477669828081561e-06   -6.823077209066041e-05
3.667491104478433e-05   -2.477669828081561e-06   -6.823077209066041e-05
2.56017552223421e-06   -1.927115550051878e-06   -1.1703212119894774e-05
2.56017552223421e-06   -1.927115550051878e-06   -1.1703212119894774e-05
2.56017552223421e-06   -1.927115550051878e-06   -1.1703212119894774e-05
2.56017552223421e-06   -1.927115550051878e-06   -1.1703212119894774e-05
1.929918963356089e-05   -2.9560886699513762e-06   -3.89841851001661e-05
1.929918963356089e-05   -2.9560886699513762e-06   -3.89841851001661e-05
1.929918963356089e-05   -2.9560886699513762e-06   -3.89841851001661e-05
1.929918963356089e-05   -2.9560886699513762e-06   -3.89841851001661e-05
2.5601755222342067e-06   -2.4776698280815475e-06   -6.856110465747825e-05
2.5601755222342067e-06   -2.4776698280815475e-06   -6.856110465747825e-05
2.5601755222342067e-06   -2.4776698280815475e-06   -6.856110465747825e-05
2.5601755222342067e-06   -2.4776698280815475e-06   -6.856110465747825e-05
3.667491104478446e-05   -1.927115550051878e-06   -1.1372879553076963e-05
3.667491104478446e-05   -1.927115550051878e-06   -1.1372879553076963e-05
3.667491104478446e-05   -1.927115550051878e-06   -1.1372879553076963e-05
3.667491104478446e-05   -1.927115550051878e-06   -1.1372879553076963e-05
3.559951217200574e-05   -5.188875426262506e-07   -6.835114516966642e-05
3.559951217200574e-05   -5.188875426262506e-07   -6.835114516966642e-05
3.559951217200574e-05   -5.188875426262506e-07   -6.835114516966642e-05
3.559951217200574e-05   -5.188875426262506e-07   -6.835114516966642e-05
2.1883482536876394e-06   1.776434635248356e-07   -1.3083790576160304e-05
2.1883482536876394e-06   1.776434635248356e-07   -1.3083790576160304e-05
2.1883482536876394e-06   1.776434635248356e-07   -1.3083790576160304e-05
2.1883482536876394e-06   1.776434635248356e-07   -1.3083790576160304e-05
1.9084489561286792e-05   -1.336217207085138e-06   -4.033570968645951e-05
1.9084489561286792e-05   -1.336217207085138e-06   -4.033570968645951e-05
1.9084489561286792e-05   -1.336217207085138e-06   -4.033570968645951e-05
1.9084489561286792e-05   -1.336217207085138e-06   -4.033570968645951e-05
3.6564881962247515e-05   -1.3224721959967484e-05   -3.9969244019961094e-05
3.6564881962247515e-05   -1.3224721959967484e-05   -3.9969244019961094e-05
3.6564881962247515e-05   -1.3224721959967484e-05   -3.9969244019961094e-05
3.6564881962247515e-05   -1.3224721959967484e-05   -3.9969244019961094e-05
6.981223153429391e-05   -9.974276473019767e-06   1.7393272558951362e-05
6.981223153429391e-05   -9.974276473019767e-06   1.7393272558951362e-05
6.981223153429391e-05   -9.974276473019767e-06   1.7393272558951362e-05
6.981223153429391e-05   -9.974276473019767e-06   1.7393272558951362e-05
7.245770783221685e-05   -1.1255174084588284e-05   -4.859460940178908e-05
7.245770783221685e-05   -1.1255174084588284e-05   -4.859460940178908e-05
7.245770783221685e-05   -1.1255174084588284e-05   -4.859460940178908e-05
7.245770783221685e-05   -1.1255174084588284e-05   -4.859460940178908e-05
3.6860956692032685e-05   -9.050780688785133e-06   9.410673127702808e-06
3.6860956692032685e-05   -9.050780688785133e-06   9.410673127702808e-06
3.6860956692032685e-05   -9.050780688785133e-06   9.410673127702808e-06
3.6860956692032685e-05   -9.050780688785133e-06   9.410673127702808e-06
5.141630071318178e-05   -1.0830546440327777e-05   -1.3780374123286869e-05
5.141630071318178e-05   -1.0830546440327777e-05   -1.3780374123286869e-05
5.141630071318178e-05   -1.0830546440327777e-05   -1.3780374123286869e-05
5.141630071318178e-05   -1.0830546440327777e-05   -1.3780374123286869e-05
3.6860956692032584e-05   -1.1255174084588243e-05   -4.991724543927081e-05
3.6860956692032584e-05   -1.1255174084588243e-05   -4.991724543927081e-05
3.6860956692032584e-05   -1.1255174084588243e-05   -4.991724543927081e-05
3.6860956692032584e-05   -1.1255174084588243e-05   -4.991724543927081e-05
7.245770783221685e-05   -9.050780688785133e-06   1.0733309165184685e-05
7.245770783221685e-05   -9.050780688785133e-06   1.0733309165184685e-05
7.245770783221685e-05   -9.050780688785133e-06   1.0733309165184685e-05
7.245770783221685e-05   -9.050780688785133e-06   1.0733309165184685e-05
7.217913781400755e-05   -1.0285773666244107e-05   -5.2850717537799255e-05
7.217913781400755e-05   -1.0285773666244107e-05   -5.2850717537799255e-05
7.217913781400755e-05   -1.0285773666244107e-05   -5.2850717537799255e-05
7.217913781400755e-05   -1.0285773666244107e-05   -5.2850717537799255e-05
3.667491104478446e-05   -8.071597003833696e-06   4.994487746792851e-06
3.667491104478446e-05   -8.071597003833696e-06   4.994487746792851e-06
3.667491104478446e-05   -8.071597003833696e-06   4.994487746792851e-06
3.667491104478446e-05   -8.071597003833696e-06   4.994487746792851e-06
5.32065282985641e-05   -9.566370195145368e-06   -2.1661343761386132e-05
5.32065282985641e-05   -9.566370195145368e-06   -2.1661343761386132e-05
5.32065282985641e-05   -9.566370195145368e-06   -2.1661343761386132e-05
5.32065282985641e-05   -9.566370195145368e-06   -2.1661343761386132e-05
3.6674911044784394e-05   -1.0285773666244094e-05   -5.417922353524543e-05
3.6674911044784394e-05   -1.0285773666244094e-05   -5.417922353524543e-05
3.6674911044784394e-05   -1.0285773666244094e-05   -5.417922353524543e-05
3.6674911044784394e-05   -1.0285773666244094e-05   -5.417922353524543e-05
7.217913781400755e-05   -8.071597003833696e-06   6.32299374423909e-06
7.217913781400755e-05   -8.071597003833696e-06   6.32299374423909e-06
7.217913781400755e-05   -8.071597003833696e-06   6.32299374423909e-06
7.217913781400755e-05   -8.071597003833696e-06   6.32299374423909e-06
7.173410554685737e-05   -7.997924510240727e-06   -6.151739202049116e-05
7.173410554685737e-05   -7.997924510240727e-06   -6.151739202049116e-05
7.173410554685737e-05   -7.997924510240727e-06   -6.151739202049116e-05
7.173410554685737e-05   -7.997924510240727e-06   -6.151739202049116e-05
3.5599512172005866e-05   -5.964237077823423e-06   -2.513282188522435e-06
3.5599512172005866e-05   -5.964237077823423e-06   -2.513282188522435e-06
3.5599512172005866e-05   -5.964237077823423e-06   -2.513282188522435e-06
3.5599512172005866e-05   -5.964237077823423e-06   -2.513282188522435e-06
5.16777516502807e-05   -8.238221032779846e-06   -2.7945957612673217e-05
5.16777516502807e-05   -8.238221032779846e-06   -2.7945957612673217e-05
5.16777516502807e-05   -8.238221032779846e-06   -2.7945957612673217e-05
5.16777516502807e-05   -8.238221032779846e-06   -2.7945957612673217e-05
-7.826545518211774e-05   1.1280752619664575e-05   -5.399812953074093e-05
-7.826545518211774e-05   1.1280752619664575e-05   -5.399812953074093e-05
-7.826545518211774e-05   1.1280752619664575e-05   -5.399812953074093e-05
-7.826545518211774e-05   1.1280752619664575e-05   -5.399812953074093e-05
-5.130257078719719e-05   8.622344288886042e-06   -1.065503387100714e-05
-5.130257078719719e-05   8.622344288886042e-06   -1.065503387100714e-05
-5.130257078719719e-05   8.622344288886042e-06   -1.065503387100714e-05
-5.130257078719719e-05   8.622344288886042e-06   -1.065503387100714e-05
-5.155226225479501e-05   1.3537363517160319e-05   -4.4833378072945654e-05
-5.155226225479501e-05   1.3537363517160319e-05   -4.4833378072945654e-05
-5.155226225479501e-05   1.3537363517160319e-05   -4.4833378072945654e-05
-5.155226225479501e-05   1.3537363517160319e-05   -4.4833378072945654e-05
-7.708443034389704e-05   1.0429097408658238e-05   -4.148049260078047e-07
-7.708443034389704e-05   1.0429097408658238e-05   -4.148049260078047e-07
-7.708443034389704e-05   1.0429097408658238e-05   -4.148049260078047e-07
-7.708443034389704e-05   1.0429097408658238e-05   -4.148049260078047e-07
-6.182142086863967e-05   1.1470134700417457e-05   -2.6477776426492392e-05
-6.182142086863967e-05   1.1470134700417457e-05   -2.6477776426492392e-05
-6.182142086863967e-05   1.1470134700417457e-05   -2.6477776426492392e-05
-6.182142086863967e-05   1.1470134700417457e-05   -2.6477776426492392e-05
-7.708443034389704e-05   1.3537363517160319e-05   -4.296841840784445e-05
-7.708443034389704e-05   1.3537363517160319e-05   -4.296841840784445e-05
-7.708443034389704e-05   1.3537363517160319e-05   -4.296841840784445e-05
-7.708443034389704e-05   1.3537363517160319e-05   -4.296841840784445e-05
-5.155226225479501e-05   1.0429097408658238e-05   -2.2797645911087113e-06
-5.155226225479501e-05   1.0429097408658238e-05   -2.2797645911087113e-06
-5.155226225479501e-05   1.0429097408658238e-05   -2.2797645911087113e-06
-5.155226225479501e-05   1.0429097408658238e-05   -2.2797645911087113e-06
-5.150182028868986e-05   1.455575254489703e-05   -3.835446494454336e-05
-5.150182028868986e-05   1.455575254489703e-05   -3.835446494454336e-05
-5.150182028868986e-05   1.455575254489703e-05   -3.835446494454336e-05
-5.150182028868986e-05   1.455575254489703e-05   -3.835446494454336e-05
-7.59323178299669e-05   1.122265816619816e-05   4.3628875848040994e-06
-7.59323178299669e-05   1.122265816619816e-05   4.3628875848040994e-06
-7.59323178299669e-05   1.122265816619816e-05   4.3628875848040994e-06
-7.59323178299669e-05   1.122265816619816e-05   4.3628875848040994e-06
-6.235849470471529e-05   1.2517545329396198e-05   -1.903708325519995e-05
-6.235849470471529e-05   1.2517545329396198e-05   -1.903708325519995e-05
-6.235849470471529e-05   1.2517545329396198e-05   -1.903708325519995e-05
-6.235849470471529e-05   1.2517545329396198e-05   -1.903708325519995e-05
-7.59323178299669e-05   1.455575254489703e-05   -3.6354608317324056e-05
-7.59323178299669e-05   1.455575254489703e-05   -3.6354608317324056e-05
-7.59323178299669e-05   1.455575254489703e-05   -3.6354608317324056e-05
-7.59323178299669e-05   1.455575254489703e-05   -3.6354608317324056e-05
-5.150182028868994e-05   1.1222658166198268e-05   2.3630309575851867e-06
-5.150182028868994e-05   1.1222658166198268e-05   2.3630309575851867e-06
-5.150182028868994e-05   1.1222658166198268e-05   2.3630309575851867e-06
-5.150182028868994e-05   1.1222658166198268e-05   2.3630309575851867e-06
-5.1555625202199395e-05   1.536441698832123e-05   -2.9279793029595986e-05
-5.1555625202199395e-05   1.536441698832123e-05   -2.9279793029595986e-05
-5.1555625202199395e-05   1.536441698832123e-05   -2.9279793029595986e-05
-5.1555625202199395e-05   1.536441698832123e-05   -2.9279793029595986e-05
-7.442658239939205e-05   1.2002940581801354e-05   1.0855354809636577e-05
-7.442658239939205e-05   1.2002940581801354e-05   1.0855354809636577e-05
-7.442658239939205e-05   1.2002940581801354e-05   1.0855354809636577e-05
-7.442658239939205e-05   1.2002940581801354e-05   1.0855354809636577e-05
-6.094039708228342e-05   1.3068057412494766e-05   -1.226069081729285e-05
-6.094039708228342e-05   1.3068057412494766e-05   -1.226069081729285e-05
-6.094039708228342e-05   1.3068057412494766e-05   -1.226069081729285e-05
-6.094039708228342e-05   1.3068057412494766e-05   -1.226069081729285e-05
-5.130257078719719e-05   5.2490353838432384e-06   -6.24897264088722e-05
-5.130257078719719e-05   5.2490353838432384e-06   -6.24897264088722e-05
-5.130257078719719e-05   5.2490353838432384e-06   -6.24897264088722e-05
-5.130257078719719e-05   5.2490353838432384e-06   -6.24897264088722e-05
-2.610292308328242e-05   4.29834458874265e-06   -2.1060728046074604e-05
-2.610292308328242e-05   4.29834458874265e-06   -2.1060728046074604e-05
-2.610292308328242e-05   4.29834458874265e-06   -2.1060728046074604e-05
-2.610292308328242e-05   4.29834458874265e-06   -2.1060728046074604e-05
-2.6421410372855323e-05   7.324185152397008e-06   -6.160559918237695e-05
-2.6421410372855323e-05   7.324185152397008e-06   -6.160559918237695e-05
-2.6421410372855323e-05   7.324185152397008e-06   -6.160559918237695e-05
-2.6421410372855323e-05   7.324185152397008e-06   -6.160559918237695e-05
-5.1552262254794904e-05   6.075054343915136e-06   -1.897136756072172e-05
-5.1552262254794904e-05   6.075054343915136e-06   -1.897136756072172e-05
-5.1552262254794904e-05   6.075054343915136e-06   -1.897136756072172e-05
-5.1552262254794904e-05   6.075054343915136e-06   -1.897136756072172e-05
-3.8512409953612866e-05   6.052325661273436e-06   -4.069081751977352e-05
-3.8512409953612866e-05   6.052325661273436e-06   -4.069081751977352e-05
-3.8512409953612866e-05   6.052325661273436e-06   -4.069081751977352e-05
-3.8512409953612866e-05   6.052325661273436e-06   -4.069081751977352e-05
-5.155226225479496e-05   7.324185152397008e-06   -6.0856120697287696e-05
-5.155226225479496e-05   7.324185152397008e-06   -6.0856120697287696e-05
-5.155226225479496e-05   7.324185152397008e-06   -6.0856120697287696e-05
-5.155226225479496e-05   7.324185152397008e-06   -6.0856120697287696e-05
-2.6421410372855363e-05   6.075054343915136e-06   -1.972084604581073e-05
-2.6421410372855363e-05   6.075054343915136e-06   -1.972084604581073e-05
-2.6421410372855363e-05   6.075054343915136e-06   -1.972084604581073e-05
-2.6421410372855363e-05   6.075054343915136e-06   -1.972084604581073e-05
-2.662844238238824e-05   9.041585694271562e-06   -5.997454715745234e-05
-2.662844238238824e-05   9.041585694271562e-06   -5.997454715745234e-05
-2.662844238238824e-05   9.041585694271562e-06   -5.997454715745234e-05
-2.662844238238824e-05   9.041585694271562e-06   -5.997454715745234e-05
-5.150182028868986e-05   7.653198731105942e-06   -1.7685885135717194e-05
-5.150182028868986e-05   7.653198731105942e-06   -1.7685885135717194e-05
-5.150182028868986e-05   7.653198731105942e-06   -1.7685885135717194e-05
-5.150182028868986e-05   7.653198731105942e-06   -1.7685885135717194e-05
-3.8585013930213696e-05   7.513812294370013e-06   -3.9130263871135215e-05
-3.8585013930213696e-05   7.513812294370013e-06   -3.9130263871135215e-05
-3.8585013930213696e-05   7.513812294370013e-06   -3.9130263871135215e-05
-3.8585013930213696e-05   7.513812294370013e-06   -3.9130263871135215e-05
-5.150182028868986e-05   9.041585694271616e-06   -5.9141514979553055e-05
-5.150182028868986e-05   9.041585694271616e-06   -5.9141514979553055e-05
-5.150182028868986e-05   9.041585694271616e-06   -5.9141514979553055e-05
-5.150182028868986e-05   9.041585694271616e-06   -5.9141514979553055e-05
-2.6628442382388334e-05   7.653198731105942e-06   -1.8518917313616378e-05
-2.6628442382388334e-05   7.653198731105942e-06   -1.8518917313616378e-05
-2.6628442382388334e-05   7.653198731105942e-06   -1.8518917313616378e-05
-2.6628442382388334e-05   7.653198731105942e-06   -1.8518917313616378e-05
-2.68958022297708e-05   1.0889210661290695e-05   -5.982940555352811e-05
-2.68958022297708e-05   1.0889210661290695e-05   -5.982940555352811e-05
-2.68958022297708e-05   1.0889210661290695e-05   -5.982940555352811e-05
-2.68958022297708e-05   1.0889210661290695e-05   -5.982940555352811e-05
-5.155562520219934e-05   9.331618266986662e-06   -1.7795145162898115e-05
-5.155562520219934e-05   9.331618266986662e-06   -1.7795145162898115e-05
-5.155562520219934e-05   9.331618266986662e-06   -1.7795145162898115e-05
-5.155562520219934e-05   9.331618266986662e-06   -1.7795145162898115e-05
-3.904363894113257e-05   8.961121815864075e-06   -3.842615772733541e-05
-3.904363894113257e-05   8.961121815864075e-06   -3.842615772733541e-05
-3.904363894113257e-05   8.961121815864075e-06   -3.842615772733541e-05
-3.904363894113257e-05   8.961121815864075e-06   -3.842615772733541e-05
-2.610292308328238e-05   -1.557318339857742e-07   -6.735678512372024e-05
-2.610292308328238e-05   -1.557318339857742e-07   -6.735678512372024e-05
-2.610292308328238e-05   -1.557318339857742e-07   -6.735678512372024e-05
-2.610292308328238e-05   -1.557318339857742e-07   -6.735678512372024e-05
-1.1867302623494332e-06   2.2864393953170043e-07   -2.5599171624721552e-05
-1.1867302623494332e-06   2.2864393953170043e-07   -2.5599171624721552e-05
-1.1867302623494332e-06   2.2864393953170043e-07   -2.5599171624721552e-05
-1.1867302623494332e-06   2.2864393953170043e-07   -2.5599171624721552e-05
-1.4424568989897109e-06   1.756098861746319e-06   -6.672911045426701e-05
-1.4424568989897109e-06   1.756098861746319e-06   -6.672911045426701e-05
-1.4424568989897109e-06   1.756098861746319e-06   -6.672911045426701e-05
-1.4424568989897109e-06   1.756098861746319e-06   -6.672911045426701e-05
-2.6421410372855323e-05   1.977270680688487e-06   -2.523022442252302e-05
-2.6421410372855323e-05   1.977270680688487e-06   -2.523022442252302e-05
-2.6421410372855323e-05   1.977270680688487e-06   -2.523022442252302e-05
-2.6421410372855323e-05   1.977270680688487e-06   -2.523022442252302e-05
-1.371098040236299e-05   1.1518302140549092e-06   -4.591901009336349e-05
-1.371098040236299e-05   1.1518302140549092e-06   -4.591901009336349e-05
-1.371098040236299e-05   1.1518302140549092e-06   -4.591901009336349e-05
-1.371098040236299e-05   1.1518302140549092e-06   -4.591901009336349e-05
-2.6421410372855323e-05   1.7560988617462648e-06   -6.686181354563237e-05
-2.6421410372855323e-05   1.7560988617462648e-06   -6.686181354563237e-05
-2.6421410372855323e-05   1.7560988617462648e-06   -6.686181354563237e-05
-2.6421410372855323e-05   1.7560988617462648e-06   -6.686181354563237e-05
-1.4424568989897134e-06   1.977270680688487e-06   -2.50975213311576e-05
-1.4424568989897134e-06   1.977270680688487e-06   -2.50975213311576e-05
-1.4424568989897134e-06   1.977270680688487e-06   -2.50975213311576e-05
-1.4424568989897134e-06   1.977270680688487e-06   -2.50975213311576e-05
-1.6277450060101336e-06   3.6240137935035347e-06   -6.691071348125595e-05
-1.6277450060101336e-06   3.6240137935035347e-06   -6.691071348125595e-05
-1.6277450060101336e-06   3.6240137935035347e-06   -6.691071348125595e-05
-1.6277450060101336e-06   3.6240137935035347e-06   -6.691071348125595e-05
-2.6628442382388293e-05   3.7206568782462666e-06   -2.5300870371471556e-05
-2.6628442382388293e-05   3.7206568782462666e-06   -2.5300870371471556e-05
-2.6628442382388293e-05   3.7206568782462666e-06   -2.5300870371471556e-05
-2.6628442382388293e-05   3.7206568782462666e-06   -2.5300870371471556e-05
-1.4040620644472953e-05   2.693870145272848e-06   -4.566450122821269e-05
-1.4040620644472953e-05   2.693870145272848e-06   -4.566450122821269e-05
-1.4040620644472953e-05   2.693870145272848e-06   -4.566450122821269e-05
-1.4040620644472953e-05   2.693870145272848e-06   -4.566450122821269e-05
-2.6628442382388293e-05   3.6240137935035347e-06   -6.696869933210165e-05
-2.6628442382388293e-05   3.6240137935035347e-06   -6.696869933210165e-05
-2.6628442382388293e-05   3.6240137935035347e-06   -6.696869933210165e-05
-2.6628442382388293e-05   3.6240137935035347e-06   -6.696869933210165e-05
-1.6277450060101353e-06   3.7206568782462666e-06   -2.524288452062566e-05
-1.6277450060101353e-06   3.7206568782462666e-06   -2.524288452062566e-05
-1.6277450060101353e-06   3.7206568782462666e-06   -2.524288452062566e-05
-1.6277450060101353e-06   3.7206568782462666e-06   -2.524288452062566e-05
-1.91804466361097e-06   5.5703005232713505e-06   -6.777183888651142e-05
-1.91804466361097e-06   5.5703005232713505e-06   -6.777183888651142e-05
-1.91804466361097e-06   5.5703005232713505e-06   -6.777183888651142e-05
-1.91804466361097e-06   5.5703005232713505e-06   -6.777183888651142e-05
-2.689580222977077e-05   5.5046026478207865e-06   -2.6102824217641635e-05
-2.689580222977077e-05   5.5046026478207865e-06   -2.6102824217641635e-05
-2.689580222977077e-05   5.5046026478207865e-06   -2.6102824217641635e-05
-2.689580222977077e-05   5.5046026478207865e-06   -2.6102824217641635e-05
-1.4390729934821052e-05   4.254225340327863e-06   -4.6194384991395086e-05
-1.4390729934821052e-05   4.254225340327863e-06   -4.6194384991395086e-05
-1.4390729934821052e-05   4.254225340327863e-06   -4.6194384991395086e-05
-1.4390729934821052e-05   4.254225340327863e-06   -4.6194384991395086e-05
-1.1867302623494357e-06   -5.365230071808136e-06   -6.018978203023472e-05
-1.1867302623494357e-06   -5.365230071808136e-06   -6.018978203023472e-05
-1.1867302623494357e-06   -5.365230071808136e-06   -6.018978203023472e-05
-1.1867302623494357e-06   -5.365230071808136e-06   -6.018978203023472e-05
2.3605952497734713e-05   -3.599232533658199e-06   -1.7809045573871207e-05
2.3605952497734713e-05   -3.599232533658199e-06   -1.7809045573871207e-05
2.3605952497734713e-05   -3.599232533658199e-06   -1.7809045573871207e-05
2.3605952497734713e-05   -3.599232533658199e-06   -1.7809045573871207e-05
2.3586399394159768e-05   -3.628538209952449e-06   -5.950007143318666e-05
2.3586399394159768e-05   -3.628538209952449e-06   -5.950007143318666e-05
2.3586399394159768e-05   -3.628538209952449e-06   -5.950007143318666e-05
2.3586399394159768e-05   -3.628538209952449e-06   -5.950007143318666e-05
-1.4424568989897134e-06   -1.9967860781663037e-06   -1.876436222367589e-05
-1.4424568989897134e-06   -1.9967860781663037e-06   -1.876436222367589e-05
-1.4424568989897134e-06   -1.9967860781663037e-06   -1.876436222367589e-05
-1.4424568989897134e-06   -1.9967860781663037e-06   -1.876436222367589e-05
1.1055627188468328e-05   -3.521549261571266e-06   -3.86796444593963e-05
1.1055627188468328e-05   -3.521549261571266e-06   -3.86796444593963e-05
1.1055627188468328e-05   -3.521549261571266e-06   -3.86796444593963e-05
1.1055627188468328e-05   -3.521549261571266e-06   -3.86796444593963e-05
-1.4424568989897134e-06   -3.6285382099523946e-06   -6.04791227122583e-05
-1.4424568989897134e-06   -3.6285382099523946e-06   -6.04791227122583e-05
-1.4424568989897134e-06   -3.6285382099523946e-06   -6.04791227122583e-05
-1.4424568989897134e-06   -3.6285382099523946e-06   -6.04791227122583e-05
2.3586399394159768e-05   -1.9967860781661953e-06   -1.7785310944604083e-05
2.3586399394159768e-05   -1.9967860781661953e-06   -1.7785310944604083e-05
2.3586399394159768e-05   -1.9967860781661953e-06   -1.7785310944604083e-05
2.3586399394159768e-05   -1.9967860781661953e-06   -1.7785310944604083e-05
2.369585691939026e-05   -1.927115550051932e-06   -6.107534153360728e-05
2.369585691939026e-05   -1.927115550051932e-06   -6.107534153360728e-05
2.369585691939026e-05   -1.927115550051932e-06   -6.107534153360728e-05
2.369585691939026e-05   -1.927115550051932e-06   -6.107534153360728e-05
-1.6277450060101395e-06   -4.2184454880568774e-07   -1.977250092535456e-05
-1.6277450060101395e-06   -4.2184454880568774e-07   -1.977250092535456e-05
-1.6277450060101395e-06   -4.2184454880568774e-07   -1.977250092535456e-05
-1.6277450060101395e-06   -4.2184454880568774e-07   -1.977250092535456e-05
1.0715323536627724e-05   -2.1319634712022853e-06   -3.9318210476312694e-05
1.0715323536627724e-05   -2.1319634712022853e-06   -3.9318210476312694e-05
1.0715323536627724e-05   -2.1319634712022853e-06   -3.9318210476312694e-05
1.0715323536627724e-05   -2.1319634712022853e-06   -3.9318210476312694e-05
-1.6277450060101344e-06   -1.927115550051878e-06   -6.197850413435473e-05
-1.6277450060101344e-06   -1.927115550051878e-06   -6.197850413435473e-05
-1.6277450060101344e-06   -1.927115550051878e-06   -6.197850413435473e-05
-1.6277450060101344e-06   -1.927115550051878e-06   -6.197850413435473e-05
2.369585691939026e-05   -4.2184454880568774e-07   -1.8869338324606474e-05
2.369585691939026e-05   -4.2184454880568774e-07   -1.8869338324606474e-05
2.369585691939026e-05   -4.2184454880568774e-07   -1.8869338324606474e-05
2.369585691939026e-05   -4.2184454880568774e-07   -1.8869338324606474e-05
2.3512291941240715e-05   1.776434635248356e-07   -6.285974727198723e-05
2.3512291941240715e-05   1.776434635248356e-07   -6.285974727198723e-05
2.3512291941240715e-05   1.776434635248356e-07   -6.285974727198723e-05
2.3512291941240715e-05   1.776434635248356e-07   -6.285974727198723e-05
-1.9180446636109734e-06   1.4199676658290927e-06   -2.1221247451950504e-05
-1.9180446636109734e-06   1.4199676658290927e-06   -2.1221247451950504e-05
-1.9180446636109734e-06   1.4199676658290927e-06   -2.1221247451950504e-05
-1.9180446636109734e-06   1.4199676658290927e-06   -2.1221247451950504e-05
1.0595133379666013e-05   -6.448273025422844e-07   -4.083766720972233e-05
1.0595133379666013e-05   -6.448273025422844e-07   -4.083766720972233e-05
1.0595133379666013e-05   -6.448273025422844e-07   -4.083766720972233e-05
1.0595133379666013e-05   -6.448273025422844e-07   -4.083766720972233e-05
2.3605952497734672e-05   -9.974276473019767e-06   -3.3681180577779324e-05
2.3605952497734672e-05   -9.974276473019767e-06   -3.3681180577779324e-05
2.3605952497734672e-05   -9.974276473019767e-06   -3.3681180577779324e-05
2.3605952497734672e-05   -9.974276473019767e-06   -3.3681180577779324e-05
4.682968574798942e-05   -6.530256369499015e-06   7.091453568091157e-06
4.682968574798942e-05   -6.530256369499015e-06   7.091453568091157e-06
4.682968574798942e-05   -6.530256369499015e-06   7.091453568091157e-06
4.682968574798942e-05   -6.530256369499015e-06   7.091453568091157e-06
4.8403918087695254e-05   -9.050780688785078e-06   -3.790534789500172e-05
4.8403918087695254e-05   -9.050780688785078e-06   -3.790534789500172e-05
4.8403918087695254e-05   -9.050780688785078e-06   -3.790534789500172e-05
4.8403918087695254e-05   -9.050780688785078e-06   -3.790534789500172e-05
2.3586399394159713e-05   -5.607435104726692e-06   1.3911759104558532e-06
2.3586399394159713e-05   -5.607435104726692e-06   1.3911759104558532e-06
2.3586399394159713e-05   -5.607435104726692e-06   1.3911759104558532e-06
2.3586399394159713e-05   -5.607435104726692e-06   1.3911759104558532e-06
3.408464189273342e-05   -7.698519678639144e-06   -1.4851244176152954e-05
3.408464189273342e-05   -7.698519678639144e-06   -1.4851244176152954e-05
3.408464189273342e-05   -7.698519678639144e-06   -1.4851244176152954e-05
3.408464189273342e-05   -7.698519678639144e-06   -1.4851244176152954e-05
2.35863993941597e-05   -9.050780688785133e-06   -3.997135524543661e-05
2.35863993941597e-05   -9.050780688785133e-06   -3.997135524543661e-05
2.35863993941597e-05   -9.050780688785133e-06   -3.997135524543661e-05
2.35863993941597e-05   -9.050780688785133e-06   -3.997135524543661e-05
4.8403918087695254e-05   -5.6074351047268e-06   3.4571832608910587e-06
4.8403918087695254e-05   -5.6074351047268e-06   3.4571832608910587e-06
4.8403918087695254e-05   -5.6074351047268e-06   3.4571832608910587e-06
4.8403918087695254e-05   -5.6074351047268e-06   3.4571832608910587e-06
4.9613046757572776e-05   -8.071597003833696e-06   -4.275420049307073e-05
4.9613046757572776e-05   -8.071597003833696e-06   -4.275420049307073e-05
4.9613046757572776e-05   -8.071597003833696e-06   -4.275420049307073e-05
4.9613046757572776e-05   -8.071597003833696e-06   -4.275420049307073e-05
2.369585691939018e-05   -4.815307436056024e-06   -1.512657836766541e-06
2.369585691939018e-05   -4.815307436056024e-06   -1.512657836766541e-06
2.369585691939018e-05   -4.815307436056024e-06   -1.512657836766541e-06
2.369585691939018e-05   -4.815307436056024e-06   -1.512657836766541e-06
3.5239941935929665e-05   -7.103056719513692e-06   -1.9380149960924125e-05
3.5239941935929665e-05   -7.103056719513692e-06   -1.9380149960924125e-05
3.5239941935929665e-05   -7.103056719513692e-06   -1.9380149960924125e-05
3.5239941935929665e-05   -7.103056719513692e-06   -1.9380149960924125e-05
2.3695856919390206e-05   -8.071597003833696e-06   -4.470797423373731e-05
2.3695856919390206e-05   -8.071597003833696e-06   -4.470797423373731e-05
2.3695856919390206e-05   -8.071597003833696e-06   -4.470797423373731e-05
2.3695856919390206e-05   -8.071597003833696e-06   -4.470797423373731e-05
4.9613046757572695e-05   -4.815307436056024e-06   4.411159039004143e-07
4.9613046757572695e-05   -4.815307436056024e-06   4.411159039004143e-07
4.9613046757572695e-05   -4.815307436056024e-06   4.411159039004143e-07
4.9613046757572695e-05   -4.815307436056024e-06   4.411159039004143e-07
5.0900817485761746e-05   -5.964237077823423e-06   -5.1002212340718316e-05
5.0900817485761746e-05   -5.964237077823423e-06   -5.1002212340718316e-05
5.0900817485761746e-05   -5.964237077823423e-06   -5.1002212340718316e-05
5.0900817485761746e-05   -5.964237077823423e-06   -5.1002212340718316e-05
2.351229194124062e-05   -3.1226618322874756e-06   -7.0596149138382606e-06
2.351229194124062e-05   -3.1226618322874756e-06   -7.0596149138382606e-06
2.351229194124062e-05   -3.1226618322874756e-06   -7.0596149138382606e-06
2.351229194124062e-05   -3.1226618322874756e-06   -7.0596149138382606e-06
3.508676385984997e-05   -6.119856177962471e-06   -2.4552084837448676e-05
3.508676385984997e-05   -6.119856177962471e-06   -2.4552084837448676e-05
3.508676385984997e-05   -6.119856177962471e-06   -2.4552084837448676e-05
3.508676385984997e-05   -6.119856177962471e-06   -2.4552084837448676e-05
-5.6267742092070664e-05   8.622344288886042e-06   -4.2792048561220576e-05
-5.6267742092070664e-05   8.622344288886042e-06   -4.2792048561220576e-05
-5.6267742092070664e-05   8.622344288886042e-06   -4.2792048561220576e-05
-5.6267742092070664e-05   8.622344288886042e-06   -4.2792048561220576e-05
-3.8303137319545196e-05   5.487372105998992e-06   -1.4732023916743478e-05
-3.8303137319545196e-05   5.487372105998992e-06   -1.4732023916743478e-05
-3.8303137319545196e-05   5.487372105998992e-06   -1.4732023916743478e-05
-3.8303137319545196e-05   5.487372105998992e-06   -1.4732023916743478e-05
-3.8163896992057014e-05   1.0429097408658238e-05   -3.635315104316445e-05
-3.8163896992057014e-05   1.0429097408658238e-05   -3.635315104316445e-05
-3.8163896992057014e-05   1.0429097408658238e-05   -3.635315104316445e-05
-3.8163896992057014e-05   1.0429097408658238e-05   -3.635315104316445e-05
-5.458702898199192e-05   6.983422728756416e-06   -6.913859585331726e-06
-5.458702898199192e-05   6.983422728756416e-06   -6.913859585331726e-06
-5.458702898199192e-05   6.983422728756416e-06   -6.913859585331726e-06
-5.458702898199192e-05   6.983422728756416e-06   -6.913859585331726e-06
-4.4843739845156294e-05   8.302358511297976e-06   -2.3944036282916043e-05
-4.4843739845156294e-05   8.302358511297976e-06   -2.3944036282916043e-05
-4.4843739845156294e-05   8.302358511297976e-06   -2.3944036282916043e-05
-4.4843739845156294e-05   8.302358511297976e-06   -2.3944036282916043e-05
-5.458702898199192e-05   1.0429097408658238e-05   -3.428574623522325e-05
-5.458702898199192e-05   1.0429097408658238e-05   -3.428574623522325e-05
-5.458702898199192e-05   1.0429097408658238e-05   -3.428574623522325e-05
-5.458702898199192e-05   1.0429097408658238e-05   -3.428574623522325e-05
-3.8163896992057095e-05   6.983422728756416e-06   -8.981264393272921e-06
-3.8163896992057095e-05   6.983422728756416e-06   -8.981264393272921e-06
-3.8163896992057095e-05   6.983422728756416e-06   -8.981264393272921e-06
-3.8163896992057095e-05   6.983422728756416e-06   -8.981264393272921e-06
-3.787459588771555e-05   1.1222658166198268e-05   -3.169963873971948e-05
-3.787459588771555e-05   1.1222658166198268e-05   -3.169963873971948e-05
-3.787459588771555e-05   1.1222658166198268e-05   -3.169963873971948e-05
-3.787459588771555e-05   1.1222658166198268e-05   -3.169963873971948e-05
-5.3330265675492056e-05   7.680180609696179e-06   -3.814702559524e-06
-5.3330265675492056e-05   7.680180609696179e-06   -3.814702559524e-06
-5.3330265675492056e-05   7.680180609696179e-06   -3.814702559524e-06
-5.3330265675492056e-05   7.680180609696179e-06   -3.814702559524e-06
-4.484701709718815e-05   9.137091429054747e-06   -1.8827596681645785e-05
-4.484701709718815e-05   9.137091429054747e-06   -1.8827596681645785e-05
-4.484701709718815e-05   9.137091429054747e-06   -1.8827596681645785e-05
-4.484701709718815e-05   9.137091429054747e-06   -1.8827596681645785e-05
-5.3330265675492056e-05   1.1222658166198268e-05   -2.9574152205818246e-05
-5.3330265675492056e-05   1.1222658166198268e-05   -2.9574152205818246e-05
-5.3330265675492056e-05   1.1222658166198268e-05   -2.9574152205818246e-05
-5.3330265675492056e-05   1.1222658166198268e-05   -2.9574152205818246e-05
-3.7874595887715606e-05   7.680180609696396e-06   -5.940189093425208e-06
-3.7874595887715606e-05   7.680180609696396e-06   -5.940189093425208e-06
-3.7874595887715606e-05   7.680180609696396e-06   -5.940189093425208e-06
-3.7874595887715606e-05   7.680180609696396e-06   -5.940189093425208e-06
-3.775853629821267e-05   1.2002940581801462e-05   -2.525688559207361e-05
-3.775853629821267e-05   1.2002940581801462e-05   -2.525688559207361e-05
-3.775853629821267e-05   1.2002940581801462e-05   -2.525688559207361e-05
-3.775853629821267e-05   1.2002940581801462e-05   -2.525688559207361e-05
-5.168544764638035e-05   8.555894970977904e-06   2.286068803377707e-08
-5.168544764638035e-05   8.555894970977904e-06   2.286068803377707e-08
-5.168544764638035e-05   8.555894970977904e-06   2.286068803377707e-08
-5.168544764638035e-05   8.555894970977904e-06   2.286068803377707e-08
-4.352059672509489e-05   9.588843047238617e-06   -1.4204993026532072e-05
-4.352059672509489e-05   9.588843047238617e-06   -1.4204993026532072e-05
-4.352059672509489e-05   9.588843047238617e-06   -1.4204993026532072e-05
-4.352059672509489e-05   9.588843047238617e-06   -1.4204993026532072e-05
-3.8303137319545114e-05   4.29834458874265e-06   -5.450831156895975e-05
-3.8303137319545114e-05   4.29834458874265e-06   -5.450831156895975e-05
-3.8303137319545114e-05   4.29834458874265e-06   -5.450831156895975e-05
-3.8303137319545114e-05   4.29834458874265e-06   -5.450831156895975e-05
-2.2022801603873096e-05   2.835475336907499e-06   -2.8252140260607477e-05
-2.2022801603873096e-05   2.835475336907499e-06   -2.8252140260607477e-05
-2.2022801603873096e-05   2.835475336907499e-06   -2.8252140260607477e-05
-2.2022801603873096e-05   2.835475336907499e-06   -2.8252140260607477e-05
-2.2033408865110494e-05   6.075054343915136e-06   -5.404096734760923e-05
-2.2033408865110494e-05   6.075054343915136e-06   -5.404096734760923e-05
-2.2033408865110494e-05   6.075054343915136e-06   -5.404096734760923e-05
-2.2033408865110494e-05   6.075054343915136e-06   -5.404096734760923e-05
-3.8163896992057014e-05   4.414698785861967e-06   -2.6160607134532922e-05
-3.8163896992057014e-05   4.414698785861967e-06   -2.6160607134532922e-05
-3.8163896992057014e-05   4.414698785861967e-06   -2.6160607134532922e-05
-3.8163896992057014e-05   4.414698785861967e-06   -2.6160607134532922e-05
-2.9853090376902014e-05   4.70064544127167e-06   -4.0183519486370565e-05
-2.9853090376902014e-05   4.70064544127167e-06   -4.0183519486370565e-05
-2.9853090376902014e-05   4.70064544127167e-06   -4.0183519486370565e-05
-2.9853090376902014e-05   4.70064544127167e-06   -4.0183519486370565e-05
-3.8163896992056987e-05   6.075054343915244e-06   -5.304475401277705e-05
-3.8163896992056987e-05   6.075054343915244e-06   -5.304475401277705e-05
-3.8163896992056987e-05   6.075054343915244e-06   -5.304475401277705e-05
-3.8163896992056987e-05   6.075054343915244e-06   -5.304475401277705e-05
-2.2033408865110494e-05   4.414698785861967e-06   -2.715682046936489e-05
-2.2033408865110494e-05   4.414698785861967e-06   -2.715682046936489e-05
-2.2033408865110494e-05   4.414698785861967e-06   -2.715682046936489e-05
-2.2033408865110494e-05   4.414698785861967e-06   -2.715682046936489e-05
-2.2016961130293545e-05   7.653198731105942e-06   -5.282963666708126e-05
-2.2016961130293545e-05   7.653198731105942e-06   -5.282963666708126e-05
-2.2016961130293545e-05   7.653198731105942e-06   -5.282963666708126e-05
-2.2016961130293545e-05   7.653198731105942e-06   -5.282963666708126e-05
-3.787459588771555e-05   5.85139567433994e-06   -2.5319163570651645e-05
-3.787459588771555e-05   5.85139567433994e-06   -2.5319163570651645e-05
-3.787459588771555e-05   5.85139567433994e-06   -2.5319163570651645e-05
-3.787459588771555e-05   5.85139567433994e-06   -2.5319163570651645e-05
-2.971382766061637e-05   5.9972759907048895e-06   -3.900797213896891e-05
-2.971382766061637e-05   5.9972759907048895e-06   -3.900797213896891e-05
-2.971382766061637e-05   5.9972759907048895e-06   -3.900797213896891e-05
-2.971382766061637e-05   5.9972759907048895e-06   -3.900797213896891e-05
-3.787459588771555e-05   7.653198731105942e-06   -5.1748554833021656e-05
-3.787459588771555e-05   7.653198731105942e-06   -5.1748554833021656e-05
-3.787459588771555e-05   7.653198731105942e-06   -5.1748554833021656e-05
-3.787459588771555e-05   7.653198731105942e-06   -5.1748554833021656e-05
-2.2016961130293586e-05   5.8513956743397235e-06   -2.640024540471111e-05
-2.2016961130293586e-05   5.8513956743397235e-06   -2.640024540471111e-05
-2.2016961130293586e-05   5.8513956743397235e-06   -2.640024540471111e-05
-2.2016961130293586e-05   5.8513956743397235e-06   -2.640024540471111e-05
-2.2034342421071098e-05   9.33161826698677e-06   -5.304247495509489e-05
-2.2034342421071098e-05   9.33161826698677e-06   -5.304247495509489e-05
-2.2034342421071098e-05   9.33161826698677e-06   -5.304247495509489e-05
-2.2034342421071098e-05   9.33161826698677e-06   -5.304247495509489e-05
-3.7758536298212694e-05   7.41165954298937e-06   -2.5683509925460287e-05
-3.7758536298212694e-05   7.41165954298937e-06   -2.5683509925460287e-05
-3.7758536298212694e-05   7.41165954298937e-06   -2.5683509925460287e-05
-3.7758536298212694e-05   7.41165954298937e-06   -2.5683509925460287e-05
-2.990607430323204e-05   7.279711588537453e-06   -3.8691777811090126e-05
-2.990607430323204e-05   7.279711588537453e-06   -3.8691777811090126e-05
-2.990607430323204e-05   7.279711588537453e-06   -3.8691777811090126e-05
-2.990607430323204e-05   7.279711588537453e-06   -3.8691777811090126e-05
-2.2022801603873056e-05   2.2864393953170043e-07   -6.0155102162818294e-05
-2.2022801603873056e-05   2.2864393953170043e-07   -6.0155102162818294e-05
-2.2022801603873056e-05   2.2864393953170043e-07   -6.0155102162818294e-05
-2.2022801603873056e-05   2.2864393953170043e-07   -6.0155102162818294e-05
-5.970072376459457e-06   4.872264107640221e-07   -3.3245403967722986e-05
-5.970072376459457e-06   4.872264107640221e-07   -3.3245403967722986e-05
-5.970072376459457e-06   4.872264107640221e-07   -3.3245403967722986e-05
-5.970072376459457e-06   4.872264107640221e-07   -3.3245403967722986e-05
-5.981253995780097e-06   1.977270680688487e-06   -5.949187911849171e-05
-5.981253995780097e-06   1.977270680688487e-06   -5.949187911849171e-05
-5.981253995780097e-06   1.977270680688487e-06   -5.949187911849171e-05
-5.981253995780097e-06   1.977270680688487e-06   -5.949187911849171e-05
-2.2033408865110453e-05   2.0747150237380475e-06   -3.279675427543741e-05
-2.2033408865110453e-05   2.0747150237380475e-06   -3.279675427543741e-05
-2.2033408865110453e-05   2.0747150237380475e-06   -3.279675427543741e-05
-2.2033408865110453e-05   2.0747150237380475e-06   -3.279675427543741e-05
-1.3908937884587186e-05   1.397060082495064e-06   -4.593094627823051e-05
-1.3908937884587186e-05   1.397060082495064e-06   -4.593094627823051e-05
-1.3908937884587186e-05   1.397060082495064e-06   -4.593094627823051e-05
-1.3908937884587186e-05   1.397060082495064e-06   -4.593094627823051e-05
-2.2033408865110453e-05   1.977270680688487e-06   -5.955034572432136e-05
-2.2033408865110453e-05   1.977270680688487e-06   -5.955034572432136e-05
-2.2033408865110453e-05   1.977270680688487e-06   -5.955034572432136e-05
-2.2033408865110453e-05   1.977270680688487e-06   -5.955034572432136e-05
-5.981253995780097e-06   2.0747150237380475e-06   -3.2738287669607736e-05
-5.981253995780097e-06   2.0747150237380475e-06   -3.2738287669607736e-05
-5.981253995780097e-06   2.0747150237380475e-06   -3.2738287669607736e-05
-5.981253995780097e-06   2.0747150237380475e-06   -3.2738287669607736e-05
-5.960004959912109e-06   3.7206568782462666e-06   -5.964361955096832e-05
-5.960004959912109e-06   3.7206568782462666e-06   -5.964361955096832e-05
-5.960004959912109e-06   3.7206568782462666e-06   -5.964361955096832e-05
-5.960004959912109e-06   3.7206568782462666e-06   -5.964361955096832e-05
-2.2016961130293545e-05   3.6672738348592516e-06   -3.284999610763385e-05
-2.2016961130293545e-05   3.6672738348592516e-06   -3.284999610763385e-05
-2.2016961130293545e-05   3.6672738348592516e-06   -3.284999610763385e-05
-2.2016961130293545e-05   3.6672738348592516e-06   -3.284999610763385e-05
-1.4001877916295236e-05   2.7855994899946956e-06   -4.567946352404564e-05
-1.4001877916295236e-05   2.7855994899946956e-06   -4.567946352404564e-05
-1.4001877916295236e-05   2.7855994899946956e-06   -4.567946352404564e-05
-1.4001877916295236e-05   2.7855994899946956e-06   -4.567946352404564e-05
-2.2016961130293545e-05   3.7206568782462666e-06   -5.961158972493625e-05
-2.2016961130293545e-05   3.7206568782462666e-06   -5.961158972493625e-05
-2.2016961130293545e-05   3.7206568782462666e-06   -5.961158972493625e-05
-2.2016961130293545e-05   3.7206568782462666e-06   -5.961158972493625e-05
-5.96000495991212e-06   3.6672738348592516e-06   -3.288202593366589e-05
-5.96000495991212e-06   3.6672738348592516e-06   -3.288202593366589e-05
-5.96000495991212e-06   3.6672738348592516e-06   -3.288202593366589e-05
-5.96000495991212e-06   3.6672738348592516e-06   -3.288202593366589e-05
-5.969300476007907e-06   5.504602647820678e-06   -6.05457538863203e-05
-5.969300476007907e-06   5.504602647820678e-06   -6.05457538863203e-05
-5.969300476007907e-06   5.504602647820678e-06   -6.05457538863203e-05
-5.969300476007907e-06   5.504602647820678e-06   -6.05457538863203e-05
-2.2034342421071084e-05   5.28767712604716e-06   -3.364052866481715e-05
-2.2034342421071084e-05   5.28767712604716e-06   -3.364052866481715e-05
-2.2034342421071084e-05   5.28767712604716e-06   -3.364052866481715e-05
-2.2034342421071084e-05   5.28767712604716e-06   -3.364052866481715e-05
-1.4122087120081319e-05   4.192371620020648e-06   -4.617043752951777e-05
-1.4122087120081319e-05   4.192371620020648e-06   -4.617043752951777e-05
-1.4122087120081319e-05   4.192371620020648e-06   -4.617043752951777e-05
-1.4122087120081319e-05   4.192371620020648e-06   -4.617043752951777e-05
-5.970072376459447e-06   -3.599232533658199e-06   -5.326942515211864e-05
-5.970072376459447e-06   -3.599232533658199e-06   -5.326942515211864e-05
-5.970072376459447e-06   -3.599232533658199e-06   -5.326942515211864e-05
-5.970072376459447e-06   -3.599232533658199e-06   -5.326942515211864e-05
9.85112383727374e-06   -1.660617349208979e-06   -2.5737595685227342e-05
9.85112383727374e-06   -1.660617349208979e-06   -2.5737595685227342e-05
9.85112383727374e-06   -1.660617349208979e-06   -2.5737595685227342e-05
9.85112383727374e-06   -1.660617349208979e-06   -2.5737595685227342e-05
9.98037786220799e-06   -1.9967860781663037e-06   -5.2060051131149864e-05
9.98037786220799e-06   -1.9967860781663037e-06   -5.2060051131149864e-05
9.98037786220799e-06   -1.9967860781663037e-06   -5.2060051131149864e-05
9.98037786220799e-06   -1.9967860781663037e-06   -5.2060051131149864e-05
-5.981253995780097e-06   -1.6567127839994117e-07   -2.6556000247696338e-05
-5.981253995780097e-06   -1.6567127839994117e-07   -2.6556000247696338e-05
-5.981253995780097e-06   -1.6567127839994117e-07   -2.6556000247696338e-05
-5.981253995780097e-06   -1.6567127839994117e-07   -2.6556000247696338e-05
1.979032131970126e-06   -1.7176403692602607e-06   -3.889196233943049e-05
1.979032131970126e-06   -1.7176403692602607e-06   -3.889196233943049e-05
1.979032131970126e-06   -1.7176403692602607e-06   -3.889196233943049e-05
1.979032131970126e-06   -1.7176403692602607e-06   -3.889196233943049e-05
-5.981253995780097e-06   -1.9967860781663037e-06   -5.315872001100978e-05
-5.981253995780097e-06   -1.9967860781663037e-06   -5.315872001100978e-05
-5.981253995780097e-06   -1.9967860781663037e-06   -5.315872001100978e-05
-5.981253995780097e-06   -1.9967860781663037e-06   -5.315872001100978e-05
9.980377862208017e-06   -1.6567127839972433e-07   -2.5457331367836488e-05
9.980377862208017e-06   -1.6567127839972433e-07   -2.5457331367836488e-05
9.980377862208017e-06   -1.6567127839972433e-07   -2.5457331367836488e-05
9.980377862208017e-06   -1.6567127839972433e-07   -2.5457331367836488e-05
1.0284494095122142e-05   -4.2184454880568774e-07   -5.315644563480825e-05
1.0284494095122142e-05   -4.2184454880568774e-07   -5.315644563480825e-05
1.0284494095122142e-05   -4.2184454880568774e-07   -5.315644563480825e-05
1.0284494095122142e-05   -4.2184454880568774e-07   -5.315644563480825e-05
-5.96000495991212e-06   1.2728059860086984e-06   -2.7099070863973183e-05
-5.96000495991212e-06   1.2728059860086984e-06   -2.7099070863973183e-05
-5.96000495991212e-06   1.2728059860086984e-06   -2.7099070863973183e-05
-5.96000495991212e-06   1.2728059860086984e-06   -2.7099070863973183e-05
1.8876163922239704e-06   -4.7407650707626415e-07   -3.913031028834904e-05
1.8876163922239704e-06   -4.7407650707626415e-07   -3.913031028834904e-05
1.8876163922239704e-06   -4.7407650707626415e-07   -3.913031028834904e-05
1.8876163922239704e-06   -4.7407650707626415e-07   -3.913031028834904e-05
-5.960004959912114e-06   -4.2184454880568774e-07   -5.417323595569679e-05
-5.960004959912114e-06   -4.2184454880568774e-07   -5.417323595569679e-05
-5.960004959912114e-06   -4.2184454880568774e-07   -5.417323595569679e-05
-5.960004959912114e-06   -4.2184454880568774e-07   -5.417323595569679e-05
1.0284494095122169e-05   1.2728059860089153e-06   -2.6082280543084395e-05
1.0284494095122169e-05   1.2728059860089153e-06   -2.6082280543084395e-05
1.0284494095122169e-05   1.2728059860089153e-06   -2.6082280543084395e-05
1.0284494095122169e-05   1.2728059860089153e-06   -2.6082280543084395e-05
1.043320319333267e-05   1.419967665829201e-06   -5.4723645110189996e-05
1.043320319333267e-05   1.419967665829201e-06   -5.4723645110189996e-05
1.043320319333267e-05   1.419967665829201e-06   -5.4723645110189996e-05
1.043320319333267e-05   1.419967665829201e-06   -5.4723645110189996e-05
-5.969300476007897e-06   2.921823141110091e-06   -2.828725227979084e-05
-5.969300476007897e-06   2.921823141110091e-06   -2.828725227979084e-05
-5.969300476007897e-06   2.921823141110091e-06   -2.828725227979084e-05
-5.969300476007897e-06   2.921823141110091e-06   -2.828725227979084e-05
1.942826368486654e-06   8.564226748328848e-07   -4.023489007418208e-05
1.942826368486654e-06   8.564226748328848e-07   -4.023489007418208e-05
1.942826368486654e-06   8.564226748328848e-07   -4.023489007418208e-05
1.942826368486654e-06   8.564226748328848e-07   -4.023489007418208e-05
9.851123837273726e-06   -6.530256369499015e-06   -2.9272168961599215e-05
9.851123837273726e-06   -6.530256369499015e-06   -2.9272168961599215e-05
9.851123837273726e-06   -6.530256369499015e-06   -2.9272168961599215e-05
9.851123837273726e-06   -6.530256369499015e-06   -2.9272168961599215e-05
2.3910227616120457e-05   -3.0532681911709172e-06   -3.754136423190905e-06
2.3910227616120457e-05   -3.0532681911709172e-06   -3.754136423190905e-06
2.3910227616120457e-05   -3.0532681911709172e-06   -3.754136423190905e-06
2.3910227616120457e-05   -3.0532681911709172e-06   -3.754136423190905e-06
2.5577386739205455e-05   -5.6074351047268e-06   -3.074376934051698e-05
2.5577386739205455e-05   -5.6074351047268e-06   -3.074376934051698e-05
2.5577386739205455e-05   -5.6074351047268e-06   -3.074376934051698e-05
2.5577386739205455e-05   -5.6074351047268e-06   -3.074376934051698e-05
9.980377862208004e-06   -2.0411102121050025e-06   -6.888549481094257e-06
9.980377862208004e-06   -2.0411102121050025e-06   -6.888549481094257e-06
9.980377862208004e-06   -2.0411102121050025e-06   -6.888549481094257e-06
9.980377862208004e-06   -2.0411102121050025e-06   -6.888549481094257e-06
1.6590854609898428e-05   -4.174621946374411e-06   -1.6625903686683303e-05
1.6590854609898428e-05   -4.174621946374411e-06   -1.6625903686683303e-05
1.6590854609898428e-05   -4.174621946374411e-06   -1.6625903686683303e-05
1.6590854609898428e-05   -4.174621946374411e-06   -1.6625903686683303e-05
9.98037786220799e-06   -5.607435104726692e-06   -3.288356427608971e-05
9.98037786220799e-06   -5.607435104726692e-06   -3.288356427608971e-05
9.98037786220799e-06   -5.607435104726692e-06   -3.288356427608971e-05
9.98037786220799e-06   -5.607435104726692e-06   -3.288356427608971e-05
2.5577386739205347e-05   -2.0411102121050025e-06   -4.748754545521173e-06
2.5577386739205347e-05   -2.0411102121050025e-06   -4.748754545521173e-06
2.5577386739205347e-05   -2.0411102121050025e-06   -4.748754545521173e-06
2.5577386739205347e-05   -2.0411102121050025e-06   -4.748754545521173e-06
2.686032252882889e-05   -4.815307436056024e-06   -3.3715775229087276e-05
2.686032252882889e-05   -4.815307436056024e-06   -3.3715775229087276e-05
2.686032252882889e-05   -4.815307436056024e-06   -3.3715775229087276e-05
2.686032252882889e-05   -4.815307436056024e-06   -3.3715775229087276e-05
1.0284494095122169e-05   -1.3419909062545917e-06   -8.173384424123601e-06
1.0284494095122169e-05   -1.3419909062545917e-06   -8.173384424123601e-06
1.0284494095122169e-05   -1.3419909062545917e-06   -8.173384424123601e-06
1.0284494095122169e-05   -1.3419909062545917e-06   -8.173384424123601e-06
1.7610404627905328e-05   -3.6550315989640914e-06   -1.899541089646974e-05
1.7610404627905328e-05   -3.6550315989640914e-06   -1.899541089646974e-05
1.7610404627905328e-05   -3.6550315989640914e-06   -1.899541089646974e-05
1.7610404627905328e-05   -3.6550315989640914e-06   -1.899541089646974e-05
1.0284494095122169e-05   -4.815307436056024e-06   -3.579976514696807e-05
1.0284494095122169e-05   -4.815307436056024e-06   -3.579976514696807e-05
1.0284494095122169e-05   -4.815307436056024e-06   -3.579976514696807e-05
1.0284494095122169e-05   -4.815307436056024e-06   -3.579976514696807e-05
2.686032252882881e-05   -1.3419909062545917e-06   -6.08939450624259e-06
2.686032252882881e-05   -1.3419909062545917e-06   -6.08939450624259e-06
2.686032252882881e-05   -1.3419909062545917e-06   -6.08939450624259e-06
2.686032252882881e-05   -1.3419909062545917e-06   -6.08939450624259e-06
2.8564846029192713e-05   -3.1226618322874756e-06   -3.941397927538872e-05
2.8564846029192713e-05   -3.1226618322874756e-06   -3.941397927538872e-05
2.8564846029192713e-05   -3.1226618322874756e-06   -3.941397927538872e-05
2.8564846029192713e-05   -3.1226618322874756e-06   -3.941397927538872e-05
1.0433203193332684e-05   3.3051197832192555e-08   -1.1088002367026984e-05
1.0433203193332684e-05   3.3051197832192555e-08   -1.1088002367026984e-05
1.0433203193332684e-05   3.3051197832192555e-08   -1.1088002367026984e-05
1.0433203193332684e-05   3.3051197832192555e-08   -1.1088002367026984e-05
1.7948764572600677e-05   -2.8810922701979266e-06   -2.1865451918322352e-05
1.7948764572600677e-05   -2.8810922701979266e-06   -2.1865451918322352e-05
1.7948764572600677e-05   -2.8810922701979266e-06   -2.1865451918322352e-05
1.7948764572600677e-05   -2.8810922701979266e-06   -2.1865451918322352e-05
-3.408053810814081e-05   5.4873721059992085e-06   -3.192577584883302e-05
-3.408053810814081e-05   5.4873721059992085e-06   -3.192577584883302e-05
-3.408053810814081e-05   5.4873721059992085e-06   -3.192577584883302e-05
-3.408053810814081e-05   5.4873721059992085e-06   -3.192577584883302e-05
-2.515423942970929e-05   2.237426853992242e-06   -1.8998578535984686e-05
-2.515423942970929e-05   2.237426853992242e-06   -1.8998578535984686e-05
-2.515423942970929e-05   2.237426853992242e-06   -1.8998578535984686e-05
-2.515423942970929e-05   2.237426853992242e-06   -1.8998578535984686e-05
-2.478371132577642e-05   6.983422728756416e-06   -2.8164239341215477e-05
-2.478371132577642e-05   6.983422728756416e-06   -2.8164239341215477e-05
-2.478371132577642e-05   6.983422728756416e-06   -2.8164239341215477e-05
-2.478371132577642e-05   6.983422728756416e-06   -2.8164239341215477e-05
-3.222994766273533e-05   3.482657519529456e-06   -1.36533863207475e-05
-3.222994766273533e-05   3.482657519529456e-06   -1.36533863207475e-05
-3.222994766273533e-05   3.482657519529456e-06   -1.36533863207475e-05
-3.222994766273533e-05   3.482657519529456e-06   -1.36533863207475e-05
-2.783078141134642e-05   4.921835324801912e-06   -2.1848836756227226e-05
-2.783078141134642e-05   4.921835324801912e-06   -2.1848836756227226e-05
-2.783078141134642e-05   4.921835324801912e-06   -2.1848836756227226e-05
-2.783078141134642e-05   4.921835324801912e-06   -2.1848836756227226e-05
-3.222994766273533e-05   6.983422728756416e-06   -2.6063780215679387e-05
-3.222994766273533e-05   6.983422728756416e-06   -2.6063780215679387e-05
-3.222994766273533e-05   6.983422728756416e-06   -2.6063780215679387e-05
-3.222994766273533e-05   6.983422728756416e-06   -2.6063780215679387e-05
-2.4783711325776476e-05   3.482657519529673e-06   -1.575384544628375e-05
-2.4783711325776476e-05   3.482657519529673e-06   -1.575384544628375e-05
-2.4783711325776476e-05   3.482657519529673e-06   -1.575384544628375e-05
-2.4783711325776476e-05   3.482657519529673e-06   -1.575384544628375e-05
-2.42550528402949e-05   7.680180609696179e-06   -2.514937508837239e-05
-2.42550528402949e-05   7.680180609696179e-06   -2.514937508837239e-05
-2.42550528402949e-05   7.680180609696179e-06   -2.514937508837239e-05
-2.42550528402949e-05   7.680180609696179e-06   -2.514937508837239e-05
-3.075329840361937e-05   4.11150795296745e-06   -1.2177762222127689e-05
-3.075329840361937e-05   4.11150795296745e-06   -1.2177762222127689e-05
-3.075329840361937e-05   4.11150795296745e-06   -1.2177762222127689e-05
-3.075329840361937e-05   4.11150795296745e-06   -1.2177762222127689e-05
-2.7342436014928735e-05   5.593627507019571e-06   -1.8751804602376923e-05
-2.7342436014928735e-05   5.593627507019571e-06   -1.8751804602376923e-05
-2.7342436014928735e-05   5.593627507019571e-06   -1.8751804602376923e-05
-2.7342436014928735e-05   5.593627507019571e-06   -1.8751804602376923e-05
-3.075329840361937e-05   7.680180609696179e-06   -2.300817149433526e-05
-3.075329840361937e-05   7.680180609696179e-06   -2.300817149433526e-05
-3.075329840361937e-05   7.680180609696179e-06   -2.300817149433526e-05
-3.075329840361937e-05   7.680180609696179e-06   -2.300817149433526e-05
-2.4255052840294956e-05   4.11150795296745e-06   -1.4318965816164953e-05
-2.4255052840294956e-05   4.11150795296745e-06   -1.4318965816164953e-05
-2.4255052840294956e-05   4.11150795296745e-06   -1.4318965816164953e-05
-2.4255052840294956e-05   4.11150795296745e-06   -1.4318965816164953e-05
-2.389443625441589e-05   8.555894970977687e-06   -2.1281055544543088e-05
-2.389443625441589e-05   8.555894970977687e-06   -2.1281055544543088e-05
-2.389443625441589e-05   8.555894970977687e-06   -2.1281055544543088e-05
-2.389443625441589e-05   8.555894970977687e-06   -2.1281055544543088e-05
-2.887287560091918e-05   5.107486783713236e-06   -1.0914611721345342e-05
-2.887287560091918e-05   5.107486783713236e-06   -1.0914611721345342e-05
-2.887287560091918e-05   5.107486783713236e-06   -1.0914611721345342e-05
-2.887287560091918e-05   5.107486783713236e-06   -1.0914611721345342e-05
-2.6064442287064598e-05   6.058898187516091e-06   -1.6166180753385208e-05
-2.6064442287064598e-05   6.058898187516091e-06   -1.6166180753385208e-05
-2.6064442287064598e-05   6.058898187516091e-06   -1.6166180753385208e-05
-2.6064442287064598e-05   6.058898187516091e-06   -1.6166180753385208e-05
-2.515423942970929e-05   2.835475336907282e-06   -4.651813779279991e-05
-2.515423942970929e-05   2.835475336907282e-06   -4.651813779279991e-05
-2.515423942970929e-05   2.835475336907282e-06   -4.651813779279991e-05
-2.515423942970929e-05   2.835475336907282e-06   -4.651813779279991e-05
-1.7902711326152026e-05   1.2829117416648245e-06   -3.536379577735011e-05
-1.7902711326152026e-05   1.2829117416648245e-06   -3.536379577735011e-05
-1.7902711326152026e-05   1.2829117416648245e-06   -3.536379577735011e-05
-1.7902711326152026e-05   1.2829117416648245e-06   -3.536379577735011e-05
-1.7659722865792792e-05   4.414698785861967e-06   -4.636604317197462e-05
-1.7659722865792792e-05   4.414698785861967e-06   -4.636604317197462e-05
-1.7659722865792792e-05   4.414698785861967e-06   -4.636604317197462e-05
-1.7659722865792792e-05   4.414698785861967e-06   -4.636604317197462e-05
-2.4783711325776503e-05   2.7105969700302185e-06   -3.347026798250247e-05
-2.4783711325776503e-05   2.7105969700302185e-06   -3.347026798250247e-05
-2.4783711325776503e-05   2.7105969700302185e-06   -3.347026798250247e-05
-2.4783711325776503e-05   2.7105969700302185e-06   -3.347026798250247e-05
-2.1166722226687987e-05   3.084446686896442e-06   -3.972289297777062e-05
-2.1166722226687987e-05   3.084446686896442e-06   -3.972289297777062e-05
-2.1166722226687987e-05   3.084446686896442e-06   -3.972289297777062e-05
-2.1166722226687987e-05   3.084446686896442e-06   -3.972289297777062e-05
-2.4783711325776395e-05   4.4146987858617506e-06   -4.53435820824752e-05
-2.4783711325776395e-05   4.4146987858617506e-06   -4.53435820824752e-05
-2.4783711325776395e-05   4.4146987858617506e-06   -4.53435820824752e-05
-2.4783711325776395e-05   4.4146987858617506e-06   -4.53435820824752e-05
-1.7659722865792792e-05   2.7105969700300016e-06   -3.449272907200167e-05
-1.7659722865792792e-05   2.7105969700300016e-06   -3.449272907200167e-05
-1.7659722865792792e-05   2.7105969700300016e-06   -3.449272907200167e-05
-1.7659722865792792e-05   2.7105969700300016e-06   -3.449272907200167e-05
-1.739141626497176e-05   5.8513956743397235e-06   -4.561646758740885e-05
-1.739141626497176e-05   5.8513956743397235e-06   -4.561646758740885e-05
-1.739141626497176e-05   5.8513956743397235e-06   -4.561646758740885e-05
-1.739141626497176e-05   5.8513956743397235e-06   -4.561646758740885e-05
-2.425505284029501e-05   4.037865637990029e-06   -3.3088955273393285e-05
-2.425505284029501e-05   4.037865637990029e-06   -3.3088955273393285e-05
-2.425505284029501e-05   4.037865637990029e-06   -3.3088955273393285e-05
-2.425505284029501e-05   4.037865637990029e-06   -3.3088955273393285e-05
-2.0847389079577508e-05   4.23849065433286e-06   -3.888876988439446e-05
-2.0847389079577508e-05   4.23849065433286e-06   -3.888876988439446e-05
-2.0847389079577508e-05   4.23849065433286e-06   -3.888876988439446e-05
-2.0847389079577508e-05   4.23849065433286e-06   -3.888876988439446e-05
-2.42550528402949e-05   5.8513956743397235e-06   -4.452834956559875e-05
-2.42550528402949e-05   5.8513956743397235e-06   -4.452834956559875e-05
-2.42550528402949e-05   5.8513956743397235e-06   -4.452834956559875e-05
-2.42550528402949e-05   5.8513956743397235e-06   -4.452834956559875e-05
-1.7391416264971735e-05   4.037865637990029e-06   -3.417707329520317e-05
-1.7391416264971735e-05   4.037865637990029e-06   -3.417707329520317e-05
-1.7391416264971735e-05   4.037865637990029e-06   -3.417707329520317e-05
-1.7391416264971735e-05   4.037865637990029e-06   -3.417707329520317e-05
-1.7152658525640174e-05   7.41165954298937e-06   -4.605873032699189e-05
-1.7152658525640174e-05   7.41165954298937e-06   -4.605873032699189e-05
-1.7152658525640174e-05   7.41165954298937e-06   -4.605873032699189e-05
-1.7152658525640174e-05   7.41165954298937e-06   -4.605873032699189e-05
-2.3894436254415973e-05   5.51244031724062e-06   -3.3682902576916086e-05
-2.3894436254415973e-05   5.51244031724062e-06   -3.3682902576916086e-05
-2.3894436254415973e-05   5.51244031724062e-06   -3.3682902576916086e-05
-2.3894436254415973e-05   5.51244031724062e-06   -3.3682902576916086e-05
-2.072218127194649e-05   5.407114721333803e-06   -3.890679885682147e-05
-2.072218127194649e-05   5.407114721333803e-06   -3.890679885682147e-05
-2.072218127194649e-05   5.407114721333803e-06   -3.890679885682147e-05
-2.072218127194649e-05   5.407114721333803e-06   -3.890679885682147e-05
-1.7902711326151945e-05   4.872264107640221e-07   -5.259808913980041e-05
-1.7902711326151945e-05   4.872264107640221e-07   -5.259808913980041e-05
-1.7902711326151945e-05   4.872264107640221e-07   -5.259808913980041e-05
-1.7902711326151945e-05   4.872264107640221e-07   -5.259808913980041e-05
-1.083746511949452e-05   7.341805351639228e-07   -4.067450632073153e-05
-1.083746511949452e-05   7.341805351639228e-07   -4.067450632073153e-05
-1.083746511949452e-05   7.341805351639228e-07   -4.067450632073153e-05
-1.083746511949452e-05   7.341805351639228e-07   -4.067450632073153e-05
-1.0600565094993838e-05   2.0747150237380475e-06   -5.1937994899074204e-05
-1.0600565094993838e-05   2.0747150237380475e-06   -5.1937994899074204e-05
-1.0600565094993838e-05   2.0747150237380475e-06   -5.1937994899074204e-05
-1.0600565094993838e-05   2.0747150237380475e-06   -5.1937994899074204e-05
-1.7659722865792792e-05   2.1880184886931883e-06   -4.024071402671526e-05
-1.7659722865792792e-05   2.1880184886931883e-06   -4.024071402671526e-05
-1.7659722865792792e-05   2.1880184886931883e-06   -4.024071402671526e-05
-1.7659722865792792e-05   2.1880184886931883e-06   -4.024071402671526e-05
-1.4158835474375167e-05   1.5732638728614343e-06   -4.570667357624666e-05
-1.4158835474375167e-05   1.5732638728614343e-06   -4.570667357624666e-05
-1.4158835474375167e-05   1.5732638728614343e-06   -4.570667357624666e-05
-1.4158835474375167e-05   1.5732638728614343e-06   -4.570667357624666e-05
-1.7659722865792765e-05   2.0747150237380475e-06   -5.200597697804701e-05
-1.7659722865792765e-05   2.0747150237380475e-06   -5.200597697804701e-05
-1.7659722865792765e-05   2.0747150237380475e-06   -5.200597697804701e-05
-1.7659722865792765e-05   2.0747150237380475e-06   -5.200597697804701e-05
-1.0600565094993838e-05   2.1880184886931883e-06   -4.017273194774232e-05
-1.0600565094993838e-05   2.1880184886931883e-06   -4.017273194774232e-05
-1.0600565094993838e-05   2.1880184886931883e-06   -4.017273194774232e-05
-1.0600565094993838e-05   2.1880184886931883e-06   -4.017273194774232e-05
-1.033419119034273e-05   3.6672738348592516e-06   -5.207381910683393e-05
-1.033419119034273e-05   3.6672738348592516e-06   -5.207381910683393e-05
-1.033419119034273e-05   3.6672738348592516e-06   -5.207381910683393e-05
-1.033419119034273e-05   3.6672738348592516e-06   -5.207381910683393e-05
-1.7391416264971735e-05   3.654605807354872e-06   -4.0304176499282785e-05
-1.7391416264971735e-05   3.654605807354872e-06   -4.0304176499282785e-05
-1.7391416264971735e-05   3.654605807354872e-06   -4.0304176499282785e-05
-1.7391416264971735e-05   3.654605807354872e-06   -4.0304176499282785e-05
-1.3999727381326177e-05   2.8221547476940233e-06   -4.5457520669562365e-05
-1.3999727381326177e-05   2.8221547476940233e-06   -4.5457520669562365e-05
-1.3999727381326177e-05   2.8221547476940233e-06   -4.5457520669562365e-05
-1.3999727381326177e-05   2.8221547476940233e-06   -4.5457520669562365e-05
-1.739141626497168e-05   3.6672738348592516e-06   -5.206621829033126e-05
-1.739141626497168e-05   3.6672738348592516e-06   -5.206621829033126e-05
-1.739141626497168e-05   3.6672738348592516e-06   -5.206621829033126e-05
-1.739141626497168e-05   3.6672738348592516e-06   -5.206621829033126e-05
-1.0334191190342749e-05   3.654605807354872e-06   -4.031177731578543e-05
-1.0334191190342749e-05   3.654605807354872e-06   -4.031177731578543e-05
-1.0334191190342749e-05   3.654605807354872e-06   -4.031177731578543e-05
-1.0334191190342749e-05   3.654605807354872e-06   -4.031177731578543e-05
-1.00948294686106e-05   5.28767712604716e-06   -5.295039344578622e-05
-1.00948294686106e-05   5.28767712604716e-06   -5.295039344578622e-05
-1.00948294686106e-05   5.28767712604716e-06   -5.295039344578622e-05
-1.00948294686106e-05   5.28767712604716e-06   -5.295039344578622e-05
-1.7152658525640188e-05   5.143311102987326e-06   -4.110072540356745e-05
-1.7152658525640188e-05   5.143311102987326e-06   -4.110072540356745e-05
-1.7152658525640188e-05   5.143311102987326e-06   -4.110072540356745e-05
-1.7152658525640188e-05   5.143311102987326e-06   -4.110072540356745e-05
-1.3868036296380876e-05   4.087644599767284e-06   -4.594169588373467e-05
-1.3868036296380876e-05   4.087644599767284e-06   -4.594169588373467e-05
-1.3868036296380876e-05   4.087644599767284e-06   -4.594169588373467e-05
-1.3868036296380876e-05   4.087644599767284e-06   -4.594169588373467e-05
-1.0837465119494482e-05   -1.660617349208979e-06   -4.6105277493334144e-05
-1.0837465119494482e-05   -1.660617349208979e-06   -4.6105277493334144e-05
-1.0837465119494482e-05   -1.660617349208979e-06   -4.6105277493334144e-05
-1.0837465119494482e-05   -1.660617349208979e-06   -4.6105277493334144e-05
-3.983614763658226e-06   3.118846637233715e-07   -3.349869235918113e-05
-3.983614763658226e-06   3.118846637233715e-07   -3.349869235918113e-05
-3.983614763658226e-06   3.118846637233715e-07   -3.349869235918113e-05
-3.983614763658226e-06   3.118846637233715e-07   -3.349869235918113e-05
-3.630026368355691e-06   -1.6567127839972433e-07   -4.462433860074938e-05
-3.630026368355691e-06   -1.6567127839972433e-07   -4.462433860074938e-05
-3.630026368355691e-06   -1.6567127839972433e-07   -4.462433860074938e-05
-3.630026368355691e-06   -1.6567127839972433e-07   -4.462433860074938e-05
-1.0600565094993819e-05   1.7199435156222548e-06   -3.413814293276547e-05
-1.0600565094993819e-05   1.7199435156222548e-06   -3.413814293276547e-05
-1.0600565094993819e-05   1.7199435156222548e-06   -3.413814293276547e-05
-1.0600565094993819e-05   1.7199435156222548e-06   -3.413814293276547e-05
-7.189648532701785e-06   1.9847917661730378e-07   -3.891012526651647e-05
-7.189648532701785e-06   1.9847917661730378e-07   -3.891012526651647e-05
-7.189648532701785e-06   1.9847917661730378e-07   -3.891012526651647e-05
-7.189648532701785e-06   1.9847917661730378e-07   -3.891012526651647e-05
-1.06005650949938e-05   -1.6567127839972433e-07   -4.5755707477162654e-05
-1.06005650949938e-05   -1.6567127839972433e-07   -4.5755707477162654e-05
-1.06005650949938e-05   -1.6567127839972433e-07   -4.5755707477162654e-05
-1.06005650949938e-05   -1.6567127839972433e-07   -4.5755707477162654e-05
-3.6300263683557046e-06   1.7199435156224716e-06   -3.3006774056352356e-05
-3.6300263683557046e-06   1.7199435156224716e-06   -3.3006774056352356e-05
-3.6300263683557046e-06   1.7199435156224716e-06   -3.3006774056352356e-05
-3.6300263683557046e-06   1.7199435156224716e-06   -3.3006774056352356e-05
-3.1056533034690126e-06   1.2728059860089153e-06   -4.522631855188885e-05
-3.1056533034690126e-06   1.2728059860089153e-06   -4.522631855188885e-05
-3.1056533034690126e-06   1.2728059860089153e-06   -4.522631855188885e-05
-3.1056533034690126e-06   1.2728059860089153e-06   -4.522631855188885e-05
-1.033419119034273e-05   3.047048461428826e-06   -3.4243300892351254e-05
-1.033419119034273e-05   3.047048461428826e-06   -3.4243300892351254e-05
-1.033419119034273e-05   3.047048461428826e-06   -3.4243300892351254e-05
-1.033419119034273e-05   3.047048461428826e-06   -3.4243300892351254e-05
-6.975679258155387e-06   1.3351971774324626e-06   -3.881371000893246e-05
-6.975679258155387e-06   1.3351971774324626e-06   -3.881371000893246e-05
-6.975679258155387e-06   1.3351971774324626e-06   -3.881371000893246e-05
-6.975679258155387e-06   1.3351971774324626e-06   -3.881371000893246e-05
-1.0334191190342703e-05   1.2728059860089153e-06   -4.62908640371406e-05
-1.0334191190342703e-05   1.2728059860089153e-06   -4.62908640371406e-05
-1.0334191190342703e-05   1.2728059860089153e-06   -4.62908640371406e-05
-1.0334191190342703e-05   1.2728059860089153e-06   -4.62908640371406e-05
-3.1056533034690126e-06   3.047048461428826e-06   -3.317875540709931e-05
-3.1056533034690126e-06   3.047048461428826e-06   -3.317875540709931e-05
-3.1056533034690126e-06   3.047048461428826e-06   -3.317875540709931e-05
-3.1056533034690126e-06   3.047048461428826e-06   -3.317875540709931e-05
-2.739434182207469e-06   2.921823141110091e-06   -4.649129600226725e-05
-2.739434182207469e-06   2.921823141110091e-06   -4.649129600226725e-05
-2.739434182207469e-06   2.921823141110091e-06   -4.649129600226725e-05
-2.739434182207469e-06   2.921823141110091e-06   -4.649129600226725e-05
-1.00948294686106e-05   4.5479327168240595e-06   -3.520796960369015e-05
-1.00948294686106e-05   4.5479327168240595e-06   -3.520796960369015e-05
-1.00948294686106e-05   4.5479327168240595e-06   -3.520796960369015e-05
-1.00948294686106e-05   4.5479327168240595e-06   -3.520796960369015e-05
-6.751583127345582e-06   2.5268724844829723e-06   -3.9567410699727166e-05
-6.751583127345582e-06   2.5268724844829723e-06   -3.9567410699727166e-05
-6.751583127345582e-06   2.5268724844829723e-06   -3.9567410699727166e-05
-6.751583127345582e-06   2.5268724844829723e-06   -3.9567410699727166e-05
-3.9836147636581985e-06   -3.0532681911709172e-06   -2.5024509930535307e-05
-3.9836147636581985e-06   -3.0532681911709172e-06   -2.5024509930535307e-05
-3.9836147636581985e-06   -3.0532681911709172e-06   -2.5024509930535307e-05
-3.9836147636581985e-06   -3.0532681911709172e-06   -2.5024509930535307e-05
1.0937314809841532e-06   4.3032242119677745e-07   -1.4472111822044212e-05
1.0937314809841532e-06   4.3032242119677745e-07   -1.4472111822044212e-05
1.0937314809841532e-06   4.3032242119677745e-07   -1.4472111822044212e-05
1.0937314809841532e-06   4.3032242119677745e-07   -1.4472111822044212e-05
2.9555204165970653e-06   -2.0411102121050025e-06   -2.3905116347978028e-05
2.9555204165970653e-06   -2.0411102121050025e-06   -2.3905116347978028e-05
2.9555204165970653e-06   -2.0411102121050025e-06   -2.3905116347978028e-05
2.9555204165970653e-06   -2.0411102121050025e-06   -2.3905116347978028e-05
-3.630026368355691e-06   1.5429570646102817e-06   -1.5079645405752207e-05
-3.630026368355691e-06   1.5429570646102817e-06   -1.5079645405752207e-05
-3.630026368355691e-06   1.5429570646102817e-06   -1.5079645405752207e-05
-3.630026368355691e-06   1.5429570646102817e-06   -1.5079645405752207e-05
-8.684953027964028e-07   -6.297830793247292e-07   -1.8378553095323928e-05
-8.684953027964028e-07   -6.297830793247292e-07   -1.8378553095323928e-05
-8.684953027964028e-07   -6.297830793247292e-07   -1.8378553095323928e-05
-8.684953027964028e-07   -6.297830793247292e-07   -1.8378553095323928e-05
-3.630026368355691e-06   -2.0411102121050025e-06   -2.6055556714006905e-05
-3.630026368355691e-06   -2.0411102121050025e-06   -2.6055556714006905e-05
-3.630026368355691e-06   -2.0411102121050025e-06   -2.6055556714006905e-05
-3.630026368355691e-06   -2.0411102121050025e-06   -2.6055556714006905e-05
2.9555204165970653e-06   1.5429570646102817e-06   -1.292920503972333e-05
2.9555204165970653e-06   1.5429570646102817e-06   -1.292920503972333e-05
2.9555204165970653e-06   1.5429570646102817e-06   -1.292920503972333e-05
2.9555204165970653e-06   1.5429570646102817e-06   -1.292920503972333e-05
4.425491891630576e-06   -1.3419909062545917e-06   -2.5210916655724535e-05
4.425491891630576e-06   -1.3419909062545917e-06   -2.5210916655724535e-05
4.425491891630576e-06   -1.3419909062545917e-06   -2.5210916655724535e-05
4.425491891630576e-06   -1.3419909062545917e-06   -2.5210916655724535e-05
-3.1056533034690126e-06   2.1688520557511335e-06   -1.4765513774428544e-05
-3.1056533034690126e-06   2.1688520557511335e-06   -1.4765513774428544e-05
-3.1056533034690126e-06   2.1688520557511335e-06   -1.4765513774428544e-05
-3.1056533034690126e-06   2.1688520557511335e-06   -1.4765513774428544e-05
7.719697237897218e-08   -9.730665155973164e-08   -1.8710569009788413e-05
7.719697237897218e-08   -9.730665155973164e-08   -1.8710569009788413e-05
7.719697237897218e-08   -9.730665155973164e-08   -1.8710569009788413e-05
7.719697237897218e-08   -9.730665155973164e-08   -1.8710569009788413e-05
-3.1056533034690126e-06   -1.3419909062545917e-06   -2.7317422432928057e-05
-3.1056533034690126e-06   -1.3419909062545917e-06   -2.7317422432928057e-05
-3.1056533034690126e-06   -1.3419909062545917e-06   -2.7317422432928057e-05
-3.1056533034690126e-06   -1.3419909062545917e-06   -2.7317422432928057e-05
4.425491891630576e-06   2.1688520557511335e-06   -1.2659007997225212e-05
4.425491891630576e-06   2.1688520557511335e-06   -1.2659007997225212e-05
4.425491891630576e-06   2.1688520557511335e-06   -1.2659007997225212e-05
4.425491891630576e-06   2.1688520557511335e-06   -1.2659007997225212e-05
6.279739805538023e-06   3.3051197832192555e-08   -2.8245287264938275e-05
6.279739805538023e-06   3.3051197832192555e-08   -2.8245287264938275e-05
6.279739805538023e-06   3.3051197832192555e-08   -2.8245287264938275e-05
6.279739805538023e-06   3.3051197832192555e-08   -2.8245287264938275e-05
-2.7394341822074554e-06   3.279504714054967e-06   -1.5161202728429068e-05
-2.7394341822074554e-06   3.279504714054967e-06   -1.5161202728429068e-05
-2.7394341822074554e-06   3.279504714054967e-06   -1.5161202728429068e-05
-2.7394341822074554e-06   3.279504714054967e-06   -1.5161202728429068e-05
8.890449625543955e-07   5.111935871134846e-07   -1.954768129353425e-05
8.890449625543955e-07   5.111935871134846e-07   -1.954768129353425e-05
8.890449625543955e-07   5.111935871134846e-07   -1.954768129353425e-05
8.890449625543955e-07   5.111935871134846e-07   -1.954768129353425e-05
-1.1892297405918903e-05   2.237426853992242e-06   -2.1295088856828422e-05
-1.1892297405918903e-05   2.237426853992242e-06   -2.1295088856828422e-05
-1.1892297405918903e-05   2.237426853992242e-06   -2.1295088856828422e-05
-1.1892297405918903e-05   2.237426853992242e-06   -2.1295088856828422e-05
-1.203353910344358e-05   -1.0377812720140534e-06   -2.349561656164002e-05
-1.203353910344358e-05   -1.0377812720140534e-06   -2.349561656164002e-05
-1.203353910344358e-05   -1.0377812720140534e-06   -2.349561656164002e-05
-1.203353910344358e-05   -1.0377812720140534e-06   -2.349561656164002e-05
-1.1429715954457533e-05   3.482657519529673e-06   -2.0007829694561156e-05
-1.1429715954457533e-05   3.482657519529673e-06   -2.0007829694561156e-05
-1.1429715954457533e-05   3.482657519529673e-06   -2.0007829694561156e-05
-1.1429715954457533e-05   3.482657519529673e-06   -2.0007829694561156e-05
-9.818028698278108e-06   -3.007266196307368e-08   -2.058633701263108e-05
-9.818028698278108e-06   -3.007266196307368e-08   -2.058633701263108e-05
-9.818028698278108e-06   -3.007266196307368e-08   -2.058633701263108e-05
-9.818028698278108e-06   -3.007266196307368e-08   -2.058633701263108e-05
-1.0799694545312244e-05   1.5402244473274387e-06   -1.9892405533149357e-05
-1.0799694545312244e-05   1.5402244473274387e-06   -1.9892405533149357e-05
-1.0799694545312244e-05   1.5402244473274387e-06   -1.9892405533149357e-05
-1.0799694545312244e-05   1.5402244473274387e-06   -1.9892405533149357e-05
-9.818028698278108e-06   3.482657519529673e-06   -1.7900191585665574e-05
-9.818028698278108e-06   3.482657519529673e-06   -1.7900191585665574e-05
-9.818028698278108e-06   3.482657519529673e-06   -1.7900191585665574e-05
-9.818028698278108e-06   3.482657519529673e-06   -1.7900191585665574e-05
-1.1429715954457533e-05   -3.0072661962856836e-08   -2.269397512152688e-05
-1.1429715954457533e-05   -3.0072661962856836e-08   -2.269397512152688e-05
-1.1429715954457533e-05   -3.0072661962856836e-08   -2.269397512152688e-05
-1.1429715954457533e-05   -3.0072661962856836e-08   -2.269397512152688e-05
-1.066825218974882e-05   4.111507952967233e-06   -1.8567583559796338e-05
-1.066825218974882e-05   4.111507952967233e-06   -1.8567583559796338e-05
-1.066825218974882e-05   4.111507952967233e-06   -1.8567583559796338e-05
-1.066825218974882e-05   4.111507952967233e-06   -1.8567583559796338e-05
-8.102088360715837e-06   5.396253873158566e-07   -2.0701393735460174e-05
-8.102088360715837e-06   5.396253873158566e-07   -2.0701393735460174e-05
-8.102088360715837e-06   5.396253873158566e-07   -2.0701393735460174e-05
-8.102088360715837e-06   5.396253873158566e-07   -2.0701393735460174e-05
-9.817071594244304e-06   2.057398175113294e-06   -1.8753752018925473e-05
-9.817071594244304e-06   2.057398175113294e-06   -1.8753752018925473e-05
-9.817071594244304e-06   2.057398175113294e-06   -1.8753752018925473e-05
-9.817071594244304e-06   2.057398175113294e-06   -1.8753752018925473e-05
-8.102088360715837e-06   4.111507952967233e-06   -1.6424454020405382e-05
-8.102088360715837e-06   4.111507952967233e-06   -1.6424454020405382e-05
-8.102088360715837e-06   4.111507952967233e-06   -1.6424454020405382e-05
-8.102088360715837e-06   4.111507952967233e-06   -1.6424454020405382e-05
-1.0668252189748875e-05   5.396253873158566e-07   -2.2844523274850967e-05
-1.0668252189748875e-05   5.396253873158566e-07   -2.2844523274850967e-05
-1.0668252189748875e-05   5.396253873158566e-07   -2.2844523274850967e-05
-1.0668252189748875e-05   5.396253873158566e-07   -2.2844523274850967e-05
-1.0073818031240656e-05   5.107486783713236e-06   -1.7227685462405887e-05
-1.0073818031240656e-05   5.107486783713236e-06   -1.7227685462405887e-05
-1.0073818031240656e-05   5.107486783713236e-06   -1.7227685462405887e-05
-1.0073818031240656e-05   5.107486783713236e-06   -1.7227685462405887e-05
-5.983454000929177e-06   1.6759718811131582e-06   -2.1986049904698093e-05
-5.983454000929177e-06   1.6759718811131582e-06   -2.1986049904698093e-05
-5.983454000929177e-06   1.6759718811131582e-06   -2.1986049904698093e-05
-5.983454000929177e-06   1.6759718811131582e-06   -2.1986049904698093e-05
-8.58843126243583e-06   2.5525769068333523e-06   -1.8170384150952338e-05
-8.58843126243583e-06   2.5525769068333523e-06   -1.8170384150952338e-05
-8.58843126243583e-06   2.5525769068333523e-06   -1.8170384150952338e-05
-8.58843126243583e-06   2.5525769068333523e-06   -1.8170384150952338e-05
-1.203353910344358e-05   1.2829117416650413e-06   -3.86938928166519e-05
-1.203353910344358e-05   1.2829117416650413e-06   -3.86938928166519e-05
-1.203353910344358e-05   1.2829117416650413e-06   -3.86938928166519e-05
-1.203353910344358e-05   1.2829117416650413e-06   -3.86938928166519e-05
-1.3850678368310375e-05   -2.2595011092544671e-07   -4.262777536965102e-05
-1.3850678368310375e-05   -2.2595011092544671e-07   -4.262777536965102e-05
-1.3850678368310375e-05   -2.2595011092544671e-07   -4.262777536965102e-05
-1.3850678368310375e-05   -2.2595011092544671e-07   -4.262777536965102e-05
-1.3362400984701252e-05   2.7105969700302185e-06   -3.872343338166633e-05
-1.3362400984701252e-05   2.7105969700302185e-06   -3.872343338166633e-05
-1.3362400984701252e-05   2.7105969700302185e-06   -3.872343338166633e-05
-1.3362400984701252e-05   2.7105969700302185e-06   -3.872343338166633e-05
-1.1429715954457533e-05   1.0452950518862174e-06   -4.094539394785266e-05
-1.1429715954457533e-05   1.0452950518862174e-06   -4.094539394785266e-05
-1.1429715954457533e-05   1.0452950518862174e-06   -4.094539394785266e-05
-1.1429715954457533e-05   1.0452950518862174e-06   -4.094539394785266e-05
-1.252148094479618e-05   1.4818897203453668e-06   -3.9387742431697766e-05
-1.252148094479618e-05   1.4818897203453668e-06   -3.9387742431697766e-05
-1.252148094479618e-05   1.4818897203453668e-06   -3.9387742431697766e-05
-1.252148094479618e-05   1.4818897203453668e-06   -3.9387742431697766e-05
-1.1429715954457533e-05   2.7105969700300016e-06   -3.772425223077971e-05
-1.1429715954457533e-05   2.7105969700300016e-06   -3.772425223077971e-05
-1.1429715954457533e-05   2.7105969700300016e-06   -3.772425223077971e-05
-1.1429715954457533e-05   2.7105969700300016e-06   -3.772425223077971e-05
-1.3362400984701252e-05   1.0452950518864343e-06   -4.194457509873895e-05
-1.3362400984701252e-05   1.0452950518864343e-06   -4.194457509873895e-05
-1.3362400984701252e-05   1.0452950518864343e-06   -4.194457509873895e-05
-1.3362400984701252e-05   1.0452950518864343e-06   -4.194457509873895e-05
-1.2854605737304387e-05   4.037865637990029e-06   -3.8398898489721894e-05
-1.2854605737304387e-05   4.037865637990029e-06   -3.8398898489721894e-05
-1.2854605737304387e-05   4.037865637990029e-06   -3.8398898489721894e-05
-1.2854605737304387e-05   4.037865637990029e-06   -3.8398898489721894e-05
-1.0668252189748875e-05   2.26898985016097e-06   -4.098149559628373e-05
-1.0668252189748875e-05   2.26898985016097e-06   -4.098149559628373e-05
-1.0668252189748875e-05   2.26898985016097e-06   -4.098149559628373e-05
-1.0668252189748875e-05   2.26898985016097e-06   -4.098149559628373e-05
-1.203216207241454e-05   2.5064739397067e-06   -3.8850802912235066e-05
-1.203216207241454e-05   2.5064739397067e-06   -3.8850802912235066e-05
-1.203216207241454e-05   2.5064739397067e-06   -3.8850802912235066e-05
-1.203216207241454e-05   2.5064739397067e-06   -3.8850802912235066e-05
-1.066825218974882e-05   4.037865637990029e-06   -3.733757301702448e-05
-1.066825218974882e-05   4.037865637990029e-06   -3.733757301702448e-05
-1.066825218974882e-05   4.037865637990029e-06   -3.733757301702448e-05
-1.066825218974882e-05   4.037865637990029e-06   -3.733757301702448e-05
-1.285460573730436e-05   2.26898985016097e-06   -4.204282106898087e-05
-1.285460573730436e-05   2.26898985016097e-06   -4.204282106898087e-05
-1.285460573730436e-05   2.26898985016097e-06   -4.204282106898087e-05
-1.285460573730436e-05   2.26898985016097e-06   -4.204282106898087e-05
-1.2376214573907638e-05   5.51244031724062e-06   -3.903474737628008e-05
-1.2376214573907638e-05   5.51244031724062e-06   -3.903474737628008e-05
-1.2376214573907638e-05   5.51244031724062e-06   -3.903474737628008e-05
-1.2376214573907638e-05   5.51244031724062e-06   -3.903474737628008e-05
-1.007381803124071e-05   3.666080366136965e-06   -4.176425897672913e-05
-1.007381803124071e-05   3.666080366136965e-06   -4.176425897672913e-05
-1.007381803124071e-05   3.666080366136965e-06   -4.176425897672913e-05
-1.007381803124071e-05   3.666080366136965e-06   -4.176425897672913e-05
-1.1601488394080914e-05   3.580993823382086e-06   -3.916708977967599e-05
-1.1601488394080914e-05   3.580993823382086e-06   -3.916708977967599e-05
-1.1601488394080914e-05   3.580993823382086e-06   -3.916708977967599e-05
-1.1601488394080914e-05   3.580993823382086e-06   -3.916708977967599e-05
-1.3850678368310348e-05   7.34180535163706e-07   -4.5058092946227484e-05
-1.3850678368310348e-05   7.34180535163706e-07   -4.5058092946227484e-05
-1.3850678368310348e-05   7.34180535163706e-07   -4.5058092946227484e-05
-1.3850678368310348e-05   7.34180535163706e-07   -4.5058092946227484e-05
-1.5766097814493932e-05   1.0526362402328918e-06   -4.8059385266825314e-05
-1.5766097814493932e-05   1.0526362402328918e-06   -4.8059385266825314e-05
-1.5766097814493932e-05   1.0526362402328918e-06   -4.8059385266825314e-05
-1.5766097814493932e-05   1.0526362402328918e-06   -4.8059385266825314e-05
-1.5286143464973363e-05   2.1880184886931883e-06   -4.43644640448482e-05
-1.5286143464973363e-05   2.1880184886931883e-06   -4.43644640448482e-05
-1.5286143464973363e-05   2.1880184886931883e-06   -4.43644640448482e-05
-1.5286143464973363e-05   2.1880184886931883e-06   -4.43644640448482e-05
-1.3362400984701252e-05   2.3662756412461128e-06   -4.7677655803500085e-05
-1.3362400984701252e-05   2.3662756412461128e-06   -4.7677655803500085e-05
-1.3362400984701252e-05   2.3662756412461128e-06   -4.7677655803500085e-05
-1.3362400984701252e-05   2.3662756412461128e-06   -4.7677655803500085e-05
-1.4478652398373354e-05   1.7897943789982156e-06   -4.5471348023364846e-05
-1.4478652398373354e-05   1.7897943789982156e-06   -4.5471348023364846e-05
-1.4478652398373354e-05   1.7897943789982156e-06   -4.5471348023364846e-05
-1.4478652398373354e-05   1.7897943789982156e-06   -4.5471348023364846e-05
-1.3362400984701225e-05   2.1880184886931883e-06   -4.447141833637978e-05
-1.3362400984701225e-05   2.1880184886931883e-06   -4.447141833637978e-05
-1.3362400984701225e-05   2.1880184886931883e-06   -4.447141833637978e-05
-1.3362400984701225e-05   2.1880184886931883e-06   -4.447141833637978e-05
-1.528614346497339e-05   2.3662756412461128e-06   -4.757070151196856e-05
-1.528614346497339e-05   2.3662756412461128e-06   -4.757070151196856e-05
-1.528614346497339e-05   2.3662756412461128e-06   -4.757070151196856e-05
-1.528614346497339e-05   2.3662756412461128e-06   -4.757070151196856e-05
-1.4781479528162258e-05   3.654605807354872e-06   -4.44934610715304e-05
-1.4781479528162258e-05   3.654605807354872e-06   -4.44934610715304e-05
-1.4781479528162258e-05   3.654605807354872e-06   -4.44934610715304e-05
-1.4781479528162258e-05   3.654605807354872e-06   -4.44934610715304e-05
-1.2854605737304387e-05   3.7088401778067204e-06   -4.773745801189781e-05
-1.2854605737304387e-05   3.7088401778067204e-06   -4.773745801189781e-05
-1.2854605737304387e-05   3.7088401778067204e-06   -4.773745801189781e-05
-1.2854605737304387e-05   3.7088401778067204e-06   -4.773745801189781e-05
-1.4075676957775167e-05   2.9133229280183144e-06   -4.5225028961240986e-05
-1.4075676957775167e-05   2.9133229280183144e-06   -4.5225028961240986e-05
-1.4075676957775167e-05   2.9133229280183144e-06   -4.5225028961240986e-05
-1.4075676957775167e-05   2.9133229280183144e-06   -4.5225028961240986e-05
-1.285460573730436e-05   3.654605807354872e-06   -4.4526001693801485e-05
-1.285460573730436e-05   3.654605807354872e-06   -4.4526001693801485e-05
-1.285460573730436e-05   3.654605807354872e-06   -4.4526001693801485e-05
-1.285460573730436e-05   3.654605807354872e-06   -4.4526001693801485e-05
-1.4781479528162258e-05   3.7088401778067204e-06   -4.7704917389626805e-05
-1.4781479528162258e-05   3.7088401778067204e-06   -4.7704917389626805e-05
-1.4781479528162258e-05   3.7088401778067204e-06   -4.7704917389626805e-05
-1.4781479528162258e-05   3.7088401778067204e-06   -4.7704917389626805e-05
-1.430547653663502e-05   5.143311102987326e-06   -4.535704796350122e-05
-1.430547653663502e-05   5.143311102987326e-06   -4.535704796350122e-05
-1.430547653663502e-05   5.143311102987326e-06   -4.535704796350122e-05
-1.430547653663502e-05   5.143311102987326e-06   -4.535704796350122e-05
-1.2376214573907638e-05   5.069962276289157e-06   -4.852847527202762e-05
-1.2376214573907638e-05   5.069962276289157e-06   -4.852847527202762e-05
-1.2376214573907638e-05   5.069962276289157e-06   -4.852847527202762e-05
-1.2376214573907638e-05   5.069962276289157e-06   -4.852847527202762e-05
-1.3704652575359133e-05   4.052562781503089e-06   -4.5703972239403696e-05
-1.3704652575359133e-05   4.052562781503089e-06   -4.5703972239403696e-05
-1.3704652575359133e-05   4.052562781503089e-06   -4.5703972239403696e-05
-1.3704652575359133e-05   4.052562781503089e-06   -4.5703972239403696e-05
-1.5766097814493878e-05   3.118846637233715e-07   -3.887470676939501e-05
-1.5766097814493878e-05   3.118846637233715e-07   -3.887470676939501e-05
-1.5766097814493878e-05   3.118846637233715e-07   -3.887470676939501e-05
-1.5766097814493878e-05   3.118846637233715e-07   -3.887470676939501e-05
-1.7787307957438926e-05   2.340248838869196e-06   -4.102637183588261e-05
-1.7787307957438926e-05   2.340248838869196e-06   -4.102637183588261e-05
-1.7787307957438926e-05   2.340248838869196e-06   -4.102637183588261e-05
-1.7787307957438926e-05   2.340248838869196e-06   -4.102637183588261e-05
-1.7206844355307214e-05   1.7199435156222548e-06   -3.7166941794733606e-05
-1.7206844355307214e-05   1.7199435156222548e-06   -3.7166941794733606e-05
-1.7206844355307214e-05   1.7199435156222548e-06   -3.7166941794733606e-05
-1.7206844355307214e-05   1.7199435156222548e-06   -3.7166941794733606e-05
-1.5286143464973363e-05   3.658165574185789e-06   -4.153104318042771e-05
-1.5286143464973363e-05   3.658165574185789e-06   -4.153104318042771e-05
-1.5286143464973363e-05   3.658165574185789e-06   -4.153104318042771e-05
-1.5286143464973363e-05   3.658165574185789e-06   -4.153104318042771e-05
-1.6384029688276344e-05   2.1544921334894305e-06   -3.8799028743838966e-05
-1.6384029688276344e-05   2.1544921334894305e-06   -3.8799028743838966e-05
-1.6384029688276344e-05   2.1544921334894305e-06   -3.8799028743838966e-05
-1.6384029688276344e-05   2.1544921334894305e-06   -3.8799028743838966e-05
-1.5286143464973336e-05   1.7199435156224716e-06   -3.832987502987129e-05
-1.5286143464973336e-05   1.7199435156224716e-06   -3.832987502987129e-05
-1.5286143464973336e-05   1.7199435156224716e-06   -3.832987502987129e-05
-1.5286143464973336e-05   1.7199435156224716e-06   -3.832987502987129e-05
-1.7206844355307214e-05   3.658165574185789e-06   -4.036810994529011e-05
-1.7206844355307214e-05   3.658165574185789e-06   -4.036810994529011e-05
-1.7206844355307214e-05   3.658165574185789e-06   -4.036810994529011e-05
-1.7206844355307214e-05   3.658165574185789e-06   -4.036810994529011e-05
-1.645732620192407e-05   3.0470484614290427e-06   -3.732871947702255e-05
-1.645732620192407e-05   3.0470484614290427e-06   -3.732871947702255e-05
-1.645732620192407e-05   3.0470484614290427e-06   -3.732871947702255e-05
-1.645732620192407e-05   3.0470484614290427e-06   -3.732871947702255e-05
-1.478147952816223e-05   4.874157079885104e-06   -4.121806243769924e-05
-1.478147952816223e-05   4.874157079885104e-06   -4.121806243769924e-05
-1.478147952816223e-05   4.874157079885104e-06   -4.121806243769924e-05
-1.478147952816223e-05   4.874157079885104e-06   -4.121806243769924e-05
-1.5865305312254894e-05   3.1999325014718267e-06   -3.840715138383056e-05
-1.5865305312254894e-05   3.1999325014718267e-06   -3.840715138383056e-05
-1.5865305312254894e-05   3.1999325014718267e-06   -3.840715138383056e-05
-1.5865305312254894e-05   3.1999325014718267e-06   -3.840715138383056e-05
-1.4781479528162192e-05   3.047048461428826e-06   -3.842498464809614e-05
-1.4781479528162192e-05   3.047048461428826e-06   -3.842498464809614e-05
-1.4781479528162192e-05   3.047048461428826e-06   -3.842498464809614e-05
-1.4781479528162192e-05   3.047048461428826e-06   -3.842498464809614e-05
-1.6457326201924096e-05   4.874157079885321e-06   -4.01217972666255e-05
-1.6457326201924096e-05   4.874157079885321e-06   -4.01217972666255e-05
-1.6457326201924096e-05   4.874157079885321e-06   -4.01217972666255e-05
-1.6457326201924096e-05   4.874157079885321e-06   -4.01217972666255e-05
-1.5868352916063226e-05   4.5479327168240595e-06   -3.836410423139786e-05
-1.5868352916063226e-05   4.5479327168240595e-06   -3.836410423139786e-05
-1.5868352916063226e-05   4.5479327168240595e-06   -3.836410423139786e-05
-1.5868352916063226e-05   4.5479327168240595e-06   -3.836410423139786e-05
-1.430547653663502e-05   6.237213247474449e-06   -4.198246651550154e-05
-1.430547653663502e-05   6.237213247474449e-06   -4.198246651550154e-05
-1.430547653663502e-05   6.237213247474449e-06   -4.198246651550154e-05
-1.430547653663502e-05   6.237213247474449e-06   -4.198246651550154e-05
-1.547625796341849e-05   4.26861799555792e-06   -3.8850006986378756e-05
-1.547625796341849e-05   4.26861799555792e-06   -3.8850006986378756e-05
-1.547625796341849e-05   4.26861799555792e-06   -3.8850006986378756e-05
-1.547625796341849e-05   4.26861799555792e-06   -3.8850006986378756e-05
-1.778730795743887e-05   4.3032242119677745e-07   -2.0721262094591493e-05
-1.778730795743887e-05   4.3032242119677745e-07   -2.0721262094591493e-05
-1.778730795743887e-05   4.3032242119677745e-07   -2.0721262094591493e-05
-1.778730795743887e-05   4.3032242119677745e-07   -2.0721262094591493e-05
-2.15307454629302e-05   3.931443586625101e-06   -2.4859651904486678e-05
-2.15307454629302e-05   3.931443586625101e-06   -2.4859651904486678e-05
-2.15307454629302e-05   3.931443586625101e-06   -2.4859651904486678e-05
-2.15307454629302e-05   3.931443586625101e-06   -2.4859651904486678e-05
-1.9473062053261748e-05   1.5429570646102817e-06   -1.708999096371286e-05
-1.9473062053261748e-05   1.5429570646102817e-06   -1.708999096371286e-05
-1.9473062053261748e-05   1.5429570646102817e-06   -1.708999096371286e-05
-1.9473062053261748e-05   1.5429570646102817e-06   -1.708999096371286e-05
-1.7206844355307187e-05   5.125994031977962e-06   -2.3016842640724284e-05
-1.7206844355307187e-05   5.125994031977962e-06   -2.3016842640724284e-05
-1.7206844355307187e-05   5.125994031977962e-06   -2.3016842640724284e-05
-1.7206844355307187e-05   5.125994031977962e-06   -2.3016842640724284e-05
-1.8230532864460957e-05   2.9025541828315085e-06   -1.9976631215980417e-05
-1.8230532864460957e-05   2.9025541828315085e-06   -1.9976631215980417e-05
-1.8230532864460957e-05   2.9025541828315085e-06   -1.9976631215980417e-05
-1.8230532864460957e-05   2.9025541828315085e-06   -1.9976631215980417e-05
-1.7206844355307133e-05   1.5429570646100649e-06   -1.9239813144133404e-05
-1.7206844355307133e-05   1.5429570646100649e-06   -1.9239813144133404e-05
-1.7206844355307133e-05   1.5429570646100649e-06   -1.9239813144133404e-05
-1.7206844355307133e-05   1.5429570646100649e-06   -1.9239813144133404e-05
-1.9473062053261694e-05   5.125994031978179e-06   -2.086702046030374e-05
-1.9473062053261694e-05   5.125994031978179e-06   -2.086702046030374e-05
-1.9473062053261694e-05   5.125994031978179e-06   -2.086702046030374e-05
-1.9473062053261694e-05   5.125994031978179e-06   -2.086702046030374e-05
-1.7799424036263144e-05   2.1688520557513503e-06   -1.6813008064041476e-05
-1.7799424036263144e-05   2.1688520557513503e-06   -1.6813008064041476e-05
-1.7799424036263144e-05   2.1688520557513503e-06   -1.6813008064041476e-05
-1.7799424036263144e-05   2.1688520557513503e-06   -1.6813008064041476e-05
-1.645732620192407e-05   5.672968356268404e-06   -2.1152307568250088e-05
-1.645732620192407e-05   5.672968356268404e-06   -2.1152307568250088e-05
-1.645732620192407e-05   5.672968356268404e-06   -2.1152307568250088e-05
-1.645732620192407e-05   5.672968356268404e-06   -2.1152307568250088e-05
-1.735087077997022e-05   3.4552881941038623e-06   -1.8332458507541152e-05
-1.735087077997022e-05   3.4552881941038623e-06   -1.8332458507541152e-05
-1.735087077997022e-05   3.4552881941038623e-06   -1.8332458507541152e-05
-1.735087077997022e-05   3.4552881941038623e-06   -1.8332458507541152e-05
-1.645732620192403e-05   2.1688520557513503e-06   -1.8915477844351752e-05
-1.645732620192403e-05   2.1688520557513503e-06   -1.8915477844351752e-05
-1.645732620192403e-05   2.1688520557513503e-06   -1.8915477844351752e-05
-1.645732620192403e-05   2.1688520557513503e-06   -1.8915477844351752e-05
-1.7799424036263144e-05   5.672968356268404e-06   -1.9049837787939866e-05
-1.7799424036263144e-05   5.672968356268404e-06   -1.9049837787939866e-05
-1.7799424036263144e-05   5.672968356268404e-06   -1.9049837787939866e-05
-1.7799424036263144e-05   5.672968356268404e-06   -1.9049837787939866e-05
-1.5753139980267147e-05   3.279504714054967e-06   -1.734795216959059e-05
-1.5753139980267147e-05   3.279504714054967e-06   -1.734795216959059e-05
-1.5753139980267147e-05   3.279504714054967e-06   -1.734795216959059e-05
-1.5753139980267147e-05   3.279504714054967e-06   -1.734795216959059e-05
-1.5868352916063213e-05   6.521256267346103e-06   -1.910098154190486e-05
-1.5868352916063213e-05   6.521256267346103e-06   -1.910098154190486e-05
-1.5868352916063213e-05   6.521256267346103e-06   -1.910098154190486e-05
-1.5868352916063213e-05   6.521256267346103e-06   -1.910098154190486e-05
-1.6059216983252746e-05   3.902627258751956e-06   -1.7211697358099213e-05
-1.6059216983252746e-05   3.902627258751956e-06   -1.7211697358099213e-05
-1.6059216983252746e-05   3.902627258751956e-06   -1.7211697358099213e-05
-1.6059216983252746e-05   3.902627258751956e-06   -1.7211697358099213e-05
1.0486315916091661e-05   -1.0377812720138366e-06   -1.079948733876345e-05
1.0486315916091661e-05   -1.0377812720138366e-06   -1.079948733876345e-05
1.0486315916091661e-05   -1.0377812720138366e-06   -1.079948733876345e-05
1.0486315916091661e-05   -1.0377812720138366e-06   -1.079948733876345e-05
1.072509657067003e-06   -4.3730776812227895e-06   -2.8490342282663198e-05
1.072509657067003e-06   -4.3730776812227895e-06   -2.8490342282663198e-05
1.072509657067003e-06   -4.3730776812227895e-06   -2.8490342282663198e-05
1.072509657067003e-06   -4.3730776812227895e-06   -2.8490342282663198e-05
1.9005923646348748e-06   -3.0072661962856836e-08   -1.1927089244714601e-05
1.9005923646348748e-06   -3.0072661962856836e-08   -1.1927089244714601e-05
1.9005923646348748e-06   -3.0072661962856836e-08   -1.1927089244714601e-05
1.9005923646348748e-06   -3.0072661962856836e-08   -1.1927089244714601e-05
1.279610558707541e-05   -3.593270076306023e-06   -2.7948359500176018e-05
1.279610558707541e-05   -3.593270076306023e-06   -2.7948359500176018e-05
1.279610558707541e-05   -3.593270076306023e-06   -2.7948359500176018e-05
1.279610558707541e-05   -3.593270076306023e-06   -2.7948359500176018e-05
6.319543495911868e-06   -1.823843431804622e-06   -1.8215745334937677e-05
6.319543495911868e-06   -1.823843431804622e-06   -1.8215745334937677e-05
6.319543495911868e-06   -1.823843431804622e-06   -1.8215745334937677e-05
6.319543495911868e-06   -1.823843431804622e-06   -1.8215745334937677e-05
1.279610558707541e-05   -3.0072661962856836e-08   -9.789170796108658e-06
1.279610558707541e-05   -3.0072661962856836e-08   -9.789170796108658e-06
1.279610558707541e-05   -3.0072661962856836e-08   -9.789170796108658e-06
1.279610558707541e-05   -3.0072661962856836e-08   -9.789170796108658e-06
1.9005923646348748e-06   -3.593270076306023e-06   -3.008627794878196e-05
1.9005923646348748e-06   -3.593270076306023e-06   -3.008627794878196e-05
1.9005923646348748e-06   -3.593270076306023e-06   -3.008627794878196e-05
1.9005923646348748e-06   -3.593270076306023e-06   -3.008627794878196e-05
2.8765694130805067e-06   5.396253873158566e-07   -1.2017130721762208e-05
2.8765694130805067e-06   5.396253873158566e-07   -1.2017130721762208e-05
2.8765694130805067e-06   5.396253873158566e-07   -1.2017130721762208e-05
2.8765694130805067e-06   5.396253873158566e-07   -1.2017130721762208e-05
1.4749125174243682e-05   -3.073802186270673e-06   -2.9636667112882173e-05
1.4749125174243682e-05   -3.073802186270673e-06   -2.9636667112882173e-05
1.4749125174243682e-05   -3.073802186270673e-06   -2.9636667112882173e-05
1.4749125174243682e-05   -3.073802186270673e-06   -2.9636667112882173e-05
7.785168063420366e-06   -1.4597195846541115e-06   -1.899852148914776e-05
7.785168063420366e-06   -1.4597195846541115e-06   -1.899852148914776e-05
7.785168063420366e-06   -1.4597195846541115e-06   -1.899852148914776e-05
7.785168063420366e-06   -1.4597195846541115e-06   -1.899852148914776e-05
1.4749125174243682e-05   5.396253873158566e-07   -9.84907417761016e-06
1.4749125174243682e-05   5.396253873158566e-07   -9.84907417761016e-06
1.4749125174243682e-05   5.396253873158566e-07   -9.84907417761016e-06
1.4749125174243682e-05   5.396253873158566e-07   -9.84907417761016e-06
2.8765694130804525e-06   -3.073802186270673e-06   -3.180472365703422e-05
2.8765694130804525e-06   -3.073802186270673e-06   -3.180472365703422e-05
2.8765694130804525e-06   -3.073802186270673e-06   -3.180472365703422e-05
2.8765694130804525e-06   -3.073802186270673e-06   -3.180472365703422e-05
3.6804862939164226e-06   1.6759718811131582e-06   -1.3164142888560113e-05
3.6804862939164226e-06   1.6759718811131582e-06   -1.3164142888560113e-05
3.6804862939164226e-06   1.6759718811131582e-06   -1.3164142888560113e-05
3.6804862939164226e-06   1.6759718811131582e-06   -1.3164142888560113e-05
1.7095136678723255e-05   -1.7644666828022307e-06   -3.345763039155534e-05
1.7095136678723255e-05   -1.7644666828022307e-06   -3.345763039155534e-05
1.7095136678723255e-05   -1.7644666828022307e-06   -3.345763039155534e-05
1.7095136678723255e-05   -1.7644666828022307e-06   -3.345763039155534e-05
8.952227566983248e-06   -9.253748274201147e-07   -2.0389570318552256e-05
8.952227566983248e-06   -9.253748274201147e-07   -2.0389570318552256e-05
8.952227566983248e-06   -9.253748274201147e-07   -2.0389570318552256e-05
8.952227566983248e-06   -9.253748274201147e-07   -2.0389570318552256e-05
1.0725096570669487e-06   -2.2595011092566356e-07   -3.1027506880745154e-05
1.0725096570669487e-06   -2.2595011092566356e-07   -3.1027506880745154e-05
1.0725096570669487e-06   -2.2595011092566356e-07   -3.1027506880745154e-05
1.0725096570669487e-06   -2.2595011092566356e-07   -3.1027506880745154e-05
-9.921127823105889e-06   -1.7314809382324228e-06   -5.0253554510750896e-05
-9.921127823105889e-06   -1.7314809382324228e-06   -5.0253554510750896e-05
-9.921127823105889e-06   -1.7314809382324228e-06   -5.0253554510750896e-05
-9.921127823105889e-06   -1.7314809382324228e-06   -5.0253554510750896e-05
-9.19438721690125e-06   1.0452950518864343e-06   -3.12033647009379e-05
-9.19438721690125e-06   1.0452950518864343e-06   -3.12033647009379e-05
-9.19438721690125e-06   1.0452950518864343e-06   -3.12033647009379e-05
-9.19438721690125e-06   1.0452950518864343e-06   -3.12033647009379e-05
1.9005923646348748e-06   -6.627993312767477e-07   -4.8670140706933904e-05
1.9005923646348748e-06   -6.627993312767477e-07   -4.8670140706933904e-05
1.9005923646348748e-06   -6.627993312767477e-07   -4.8670140706933904e-05
1.9005923646348748e-06   -6.627993312767477e-07   -4.8670140706933904e-05
-3.942222563329349e-06   -6.664298131267912e-08   -3.928980963697164e-05
-3.942222563329349e-06   -6.664298131267912e-08   -3.928980963697164e-05
-3.942222563329349e-06   -6.664298131267912e-08   -3.928980963697164e-05
-3.942222563329349e-06   -6.664298131267912e-08   -3.928980963697164e-05
1.9005923646348748e-06   1.0452950518862174e-06   -3.0178508071040163e-05
1.9005923646348748e-06   1.0452950518862174e-06   -3.0178508071040163e-05
1.9005923646348748e-06   1.0452950518862174e-06   -3.0178508071040163e-05
1.9005923646348748e-06   1.0452950518862174e-06   -3.0178508071040163e-05
-9.19438721690125e-06   -6.62799331276314e-07   -4.96949973368318e-05
-9.19438721690125e-06   -6.62799331276314e-07   -4.96949973368318e-05
-9.19438721690125e-06   -6.62799331276314e-07   -4.96949973368318e-05
-9.19438721690125e-06   -6.62799331276314e-07   -4.96949973368318e-05
-8.463517078784714e-06   2.268989850161187e-06   -3.1250239989670525e-05
-8.463517078784714e-06   2.268989850161187e-06   -3.1250239989670525e-05
-8.463517078784714e-06   2.268989850161187e-06   -3.1250239989670525e-05
-8.463517078784714e-06   2.268989850161187e-06   -3.1250239989670525e-05
2.8765694130805067e-06   4.420949393678028e-07   -4.905424719630345e-05
2.8765694130805067e-06   4.420949393678028e-07   -4.905424719630345e-05
2.8765694130805067e-06   4.420949393678028e-07   -4.905424719630345e-05
2.8765694130805067e-06   4.420949393678028e-07   -4.905424719630345e-05
-3.2982978422643825e-06   8.107977554679818e-07   -3.8984023460389005e-05
-3.2982978422643825e-06   8.107977554679818e-07   -3.8984023460389005e-05
-3.2982978422643825e-06   8.107977554679818e-07   -3.8984023460389005e-05
-3.2982978422643825e-06   8.107977554679818e-07   -3.8984023460389005e-05
2.8765694130805067e-06   2.26898985016097e-06   -3.0154103043194755e-05
2.8765694130805067e-06   2.26898985016097e-06   -3.0154103043194755e-05
2.8765694130805067e-06   2.26898985016097e-06   -3.0154103043194755e-05
2.8765694130805067e-06   2.26898985016097e-06   -3.0154103043194755e-05
-8.463517078784714e-06   4.420949393682365e-07   -5.0150384142779326e-05
-8.463517078784714e-06   4.420949393682365e-07   -5.0150384142779326e-05
-8.463517078784714e-06   4.420949393682365e-07   -5.0150384142779326e-05
-8.463517078784714e-06   4.420949393682365e-07   -5.0150384142779326e-05
-7.765060194535897e-06   3.666080366136965e-06   -3.2032883681892615e-05
-7.765060194535897e-06   3.666080366136965e-06   -3.2032883681892615e-05
-7.765060194535897e-06   3.666080366136965e-06   -3.2032883681892615e-05
-7.765060194535897e-06   3.666080366136965e-06   -3.2032883681892615e-05
3.6804862939164226e-06   1.7503459280340632e-06   -4.995935383311832e-05
3.6804862939164226e-06   1.7503459280340632e-06   -4.995935383311832e-05
3.6804862939164226e-06   1.7503459280340632e-06   -4.995935383311832e-05
3.6804862939164226e-06   1.7503459280340632e-06   -4.995935383311832e-05
-2.5815219005360745e-06   1.783208214256593e-06   -3.954239088076471e-05
-2.5815219005360745e-06   1.783208214256593e-06   -3.954239088076471e-05
-2.5815219005360745e-06   1.783208214256593e-06   -3.954239088076471e-05
-2.5815219005360745e-06   1.783208214256593e-06   -3.954239088076471e-05
-9.921127823105916e-06   1.0526362402328918e-06   -3.75535086973456e-05
-9.921127823105916e-06   1.0526362402328918e-06   -3.75535086973456e-05
-9.921127823105916e-06   1.0526362402328918e-06   -3.75535086973456e-05
-9.921127823105916e-06   1.0526362402328918e-06   -3.75535086973456e-05
-2.0819978734827296e-05   1.3270317875428359e-06   -5.555362288849476e-05
-2.0819978734827296e-05   1.3270317875428359e-06   -5.555362288849476e-05
-2.0819978734827296e-05   1.3270317875428359e-06   -5.555362288849476e-05
-2.0819978734827296e-05   1.3270317875428359e-06   -5.555362288849476e-05
-2.008799361322941e-05   2.3662756412461128e-06   -3.688175426992354e-05
-2.008799361322941e-05   2.3662756412461128e-06   -3.688175426992354e-05
-2.008799361322941e-05   2.3662756412461128e-06   -3.688175426992354e-05
-2.008799361322941e-05   2.3662756412461128e-06   -3.688175426992354e-05
-9.194387216901278e-06   2.457427534205501e-06   -5.5092456066246204e-05
-9.194387216901278e-06   2.457427534205501e-06   -5.5092456066246204e-05
-9.194387216901278e-06   2.457427534205501e-06   -5.5092456066246204e-05
-9.194387216901278e-06   2.457427534205501e-06   -5.5092456066246204e-05
-1.4918963716943453e-05   2.0314818490797283e-06   -4.5295927821767e-05
-1.4918963716943453e-05   2.0314818490797283e-06   -4.5295927821767e-05
-1.4918963716943453e-05   2.0314818490797283e-06   -4.5295927821767e-05
-1.4918963716943453e-05   2.0314818490797283e-06   -4.5295927821767e-05
-9.194387216901278e-06   2.3662756412461128e-06   -3.69364454056993e-05
-9.194387216901278e-06   2.3662756412461128e-06   -3.69364454056993e-05
-9.194387216901278e-06   2.3662756412461128e-06   -3.69364454056993e-05
-9.194387216901278e-06   2.3662756412461128e-06   -3.69364454056993e-05
-2.008799361322941e-05   2.457427534205067e-06   -5.503776493047071e-05
-2.008799361322941e-05   2.457427534205067e-06   -5.503776493047071e-05
-2.008799361322941e-05   2.457427534205067e-06   -5.503776493047071e-05
-2.008799361322941e-05   2.457427534205067e-06   -5.503776493047071e-05
-1.9344361190632863e-05   3.7088401778067204e-06   -3.697757847422175e-05
-1.9344361190632863e-05   3.7088401778067204e-06   -3.697757847422175e-05
-1.9344361190632863e-05   3.7088401778067204e-06   -3.697757847422175e-05
-1.9344361190632863e-05   3.7088401778067204e-06   -3.697757847422175e-05
-8.463517078784741e-06   3.654337608416554e-06   -5.507961711900117e-05
-8.463517078784741e-06   3.654337608416554e-06   -5.507961711900117e-05
-8.463517078784741e-06   3.654337608416554e-06   -5.507961711900117e-05
-8.463517078784741e-06   3.654337608416554e-06   -5.507961711900117e-05
-1.4274676560403349e-05   3.0180091208573123e-06   -4.501255422376875e-05
-1.4274676560403349e-05   3.0180091208573123e-06   -4.501255422376875e-05
-1.4274676560403349e-05   3.0180091208573123e-06   -4.501255422376875e-05
-1.4274676560403349e-05   3.0180091208573123e-06   -4.501255422376875e-05
-8.463517078784741e-06   3.7088401778067204e-06   -3.694487693258765e-05
-8.463517078784741e-06   3.7088401778067204e-06   -3.694487693258765e-05
-8.463517078784741e-06   3.7088401778067204e-06   -3.694487693258765e-05
-8.463517078784741e-06   3.7088401778067204e-06   -3.694487693258765e-05
-1.9344361190632833e-05   3.65433760841612e-06   -5.511231866063516e-05
-1.9344361190632833e-05   3.65433760841612e-06   -5.511231866063516e-05
-1.9344361190632833e-05   3.65433760841612e-06   -5.511231866063516e-05
-1.9344361190632833e-05   3.65433760841612e-06   -5.511231866063516e-05
-1.8635241731225606e-05   5.069962276289157e-06   -3.7808108863752934e-05
-1.8635241731225606e-05   5.069962276289157e-06   -3.7808108863752934e-05
-1.8635241731225606e-05   5.069962276289157e-06   -3.7808108863752934e-05
-1.8635241731225606e-05   5.069962276289157e-06   -3.7808108863752934e-05
-7.765060194535924e-06   4.871920847582256e-06   -5.5806253234345264e-05
-7.765060194535924e-06   4.871920847582256e-06   -5.5806253234345264e-05
-7.765060194535924e-06   4.871920847582256e-06   -5.5806253234345264e-05
-7.765060194535924e-06   4.871920847582256e-06   -5.5806253234345264e-05
-1.367518492932936e-05   4.019501074198264e-06   -4.5444593478993116e-05
-1.367518492932936e-05   4.019501074198264e-06   -4.5444593478993116e-05
-1.367518492932936e-05   4.019501074198264e-06   -4.5444593478993116e-05
-1.367518492932936e-05   4.019501074198264e-06   -4.5444593478993116e-05
-2.081997873482733e-05   2.340248838869196e-06   -3.157287644310418e-05
-2.081997873482733e-05   2.340248838869196e-06   -3.157287644310418e-05
-2.081997873482733e-05   2.340248838869196e-06   -3.157287644310418e-05
-2.081997873482733e-05   2.340248838869196e-06   -3.157287644310418e-05
-3.1586570564200506e-05   4.294853952063315e-06   -4.8344433090809604e-05
-3.1586570564200506e-05   4.294853952063315e-06   -4.8344433090809604e-05
-3.1586570564200506e-05   4.294853952063315e-06   -4.8344433090809604e-05
-3.1586570564200506e-05   4.294853952063315e-06   -4.8344433090809604e-05
-3.075040320791832e-05   3.658165574185789e-06   -2.9736144238360447e-05
-3.075040320791832e-05   3.658165574185789e-06   -2.9736144238360447e-05
-3.075040320791832e-05   3.658165574185789e-06   -2.9736144238360447e-05
-3.075040320791832e-05   3.658165574185789e-06   -2.9736144238360447e-05
-2.008799361322941e-05   5.501418407556635e-06   -4.86127785961978e-05
-2.008799361322941e-05   5.501418407556635e-06   -4.86127785961978e-05
-2.008799361322941e-05   5.501418407556635e-06   -4.86127785961978e-05
-2.008799361322941e-05   5.501418407556635e-06   -4.86127785961978e-05
-2.563249494844299e-05   4.105661757897519e-06   -3.853448904771314e-05
-2.563249494844299e-05   4.105661757897519e-06   -3.853448904771314e-05
-2.563249494844299e-05   4.105661757897519e-06   -3.853448904771314e-05
-2.563249494844299e-05   4.105661757897519e-06   -3.853448904771314e-05
-2.008799361322944e-05   3.658165574185789e-06   -3.0842095938383215e-05
-2.008799361322944e-05   3.658165574185789e-06   -3.0842095938383215e-05
-2.008799361322944e-05   3.658165574185789e-06   -3.0842095938383215e-05
-2.008799361322944e-05   3.658165574185789e-06   -3.0842095938383215e-05
-3.075040320791838e-05   5.501418407556635e-06   -4.7506826896175774e-05
-3.075040320791838e-05   5.501418407556635e-06   -4.7506826896175774e-05
-3.075040320791838e-05   5.501418407556635e-06   -4.7506826896175774e-05
-3.075040320791838e-05   5.501418407556635e-06   -4.7506826896175774e-05
-2.9749808908750735e-05   4.874157079885321e-06   -2.9462181302817225e-05
-2.9749808908750735e-05   4.874157079885321e-06   -2.9462181302817225e-05
-2.9749808908750735e-05   4.874157079885321e-06   -2.9462181302817225e-05
-2.9749808908750735e-05   4.874157079885321e-06   -2.9462181302817225e-05
-1.9344361190632863e-05   6.5883941123465704e-06   -4.78331363858239e-05
-1.9344361190632863e-05   6.5883941123465704e-06   -4.78331363858239e-05
-1.9344361190632863e-05   6.5883941123465704e-06   -4.78331363858239e-05
-1.9344361190632863e-05   6.5883941123465704e-06   -4.78331363858239e-05
-2.479004463151027e-05   5.058155108117815e-06   -3.7838853915157984e-05
-2.479004463151027e-05   5.058155108117815e-06   -3.7838853915157984e-05
-2.479004463151027e-05   5.058155108117815e-06   -3.7838853915157984e-05
-2.479004463151027e-05   5.058155108117815e-06   -3.7838853915157984e-05
-1.9344361190632853e-05   4.874157079885321e-06   -3.0490723522294148e-05
-1.9344361190632853e-05   4.874157079885321e-06   -3.0490723522294148e-05
-1.9344361190632853e-05   4.874157079885321e-06   -3.0490723522294148e-05
-1.9344361190632853e-05   4.874157079885321e-06   -3.0490723522294148e-05
-2.9749808908750735e-05   6.588394112347004e-06   -4.68045941663471e-05
-2.9749808908750735e-05   6.588394112347004e-06   -4.68045941663471e-05
-2.9749808908750735e-05   6.588394112347004e-06   -4.68045941663471e-05
-2.9749808908750735e-05   6.588394112347004e-06   -4.68045941663471e-05
-2.8916044565578027e-05   6.237213247474449e-06   -3.0277483365584532e-05
-2.8916044565578027e-05   6.237213247474449e-06   -3.0277483365584532e-05
-2.8916044565578027e-05   6.237213247474449e-06   -3.0277483365584532e-05
-2.8916044565578027e-05   6.237213247474449e-06   -3.0277483365584532e-05
-1.8635241731225606e-05   7.804892323513835e-06   -4.835276220179555e-05
-1.8635241731225606e-05   7.804892323513835e-06   -4.835276220179555e-05
-1.8635241731225606e-05   7.804892323513835e-06   -4.835276220179555e-05
-1.8635241731225606e-05   7.804892323513835e-06   -4.835276220179555e-05
-2.422505947224435e-05   5.996875833544878e-06   -3.79515894061163e-05
-2.422505947224435e-05   5.996875833544878e-06   -3.79515894061163e-05
-2.422505947224435e-05   5.996875833544878e-06   -3.79515894061163e-05
-2.422505947224435e-05   5.996875833544878e-06   -3.79515894061163e-05
-3.1586570564200506e-05   3.931443586625101e-06   -1.6334066143048947e-05
-3.1586570564200506e-05   3.931443586625101e-06   -1.6334066143048947e-05
-3.1586570564200506e-05   3.931443586625101e-06   -1.6334066143048947e-05
-3.1586570564200506e-05   3.931443586625101e-06   -1.6334066143048947e-05
-4.385445152149415e-05   7.383418842293009e-06   -3.4709349251804515e-05
-4.385445152149415e-05   7.383418842293009e-06   -3.4709349251804515e-05
-4.385445152149415e-05   7.383418842293009e-06   -3.4709349251804515e-05
-4.385445152149415e-05   7.383418842293009e-06   -3.4709349251804515e-05
-4.155999532997286e-05   5.125994031978179e-06   -1.0278984662393789e-05
-4.155999532997286e-05   5.125994031978179e-06   -1.0278984662393789e-05
-4.155999532997286e-05   5.125994031978179e-06   -1.0278984662393789e-05
-4.155999532997286e-05   5.125994031978179e-06   -1.0278984662393789e-05
-3.075040320791832e-05   8.635814484313654e-06   -3.0400863803885957e-05
-3.075040320791832e-05   8.635814484313654e-06   -3.0400863803885957e-05
-3.075040320791832e-05   8.635814484313654e-06   -3.0400863803885957e-05
-3.075040320791832e-05   8.635814484313654e-06   -3.0400863803885957e-05
-3.543502090242892e-05   6.412781030242561e-06   -2.125934757392573e-05
-3.543502090242892e-05   6.412781030242561e-06   -2.125934757392573e-05
-3.543502090242892e-05   6.412781030242561e-06   -2.125934757392573e-05
-3.543502090242892e-05   6.412781030242561e-06   -2.125934757392573e-05
-3.075040320791835e-05   5.125994031978179e-06   -1.238487693379516e-05
-3.075040320791835e-05   5.125994031978179e-06   -1.238487693379516e-05
-3.075040320791835e-05   5.125994031978179e-06   -1.238487693379516e-05
-3.075040320791835e-05   5.125994031978179e-06   -1.238487693379516e-05
-4.155999532997275e-05   8.635814484313654e-06   -2.8294971532484775e-05
-4.155999532997275e-05   8.635814484313654e-06   -2.8294971532484775e-05
-4.155999532997275e-05   8.635814484313654e-06   -2.8294971532484775e-05
-4.155999532997275e-05   8.635814484313654e-06   -2.8294971532484775e-05
-3.966358461380499e-05   5.672968356268404e-06   -8.445789524480019e-06
-3.966358461380499e-05   5.672968356268404e-06   -8.445789524480019e-06
-3.966358461380499e-05   5.672968356268404e-06   -8.445789524480019e-06
-3.966358461380499e-05   5.672968356268404e-06   -8.445789524480019e-06
-2.9749808908750695e-05   9.084471822871486e-06   -2.7015651112865716e-05
-2.9749808908750695e-05   9.084471822871486e-06   -2.7015651112865716e-05
-2.9749808908750695e-05   9.084471822871486e-06   -2.7015651112865716e-05
-2.9749808908750695e-05   9.084471822871486e-06   -2.7015651112865716e-05
-3.459267056323895e-05   6.9756002918216695e-06   -1.7678892103422143e-05
-3.459267056323895e-05   6.9756002918216695e-06   -1.7678892103422143e-05
-3.459267056323895e-05   6.9756002918216695e-06   -1.7678892103422143e-05
-3.459267056323895e-05   6.9756002918216695e-06   -1.7678892103422143e-05
-2.9749808908750735e-05   5.672968356268404e-06   -1.0492691604442085e-05
-2.9749808908750735e-05   5.672968356268404e-06   -1.0492691604442085e-05
-2.9749808908750735e-05   5.672968356268404e-06   -1.0492691604442085e-05
-2.9749808908750735e-05   5.672968356268404e-06   -1.0492691604442085e-05
-3.9663584613804906e-05   9.084471822871486e-06   -2.4968749032904056e-05
-3.9663584613804906e-05   9.084471822871486e-06   -2.4968749032904056e-05
-3.9663584613804906e-05   9.084471822871486e-06   -2.4968749032904056e-05
-3.9663584613804906e-05   9.084471822871486e-06   -2.4968749032904056e-05
-3.742160933551295e-05   6.521256267346103e-06   -6.529765583295237e-06
-3.742160933551295e-05   6.521256267346103e-06   -6.529765583295237e-06
-3.742160933551295e-05   6.521256267346103e-06   -6.529765583295237e-06
-3.742160933551295e-05   6.521256267346103e-06   -6.529765583295237e-06
-2.8916044565578027e-05   9.654258145817655e-06   -2.2585507993602954e-05
-2.8916044565578027e-05   9.654258145817655e-06   -2.2585507993602954e-05
-2.8916044565578027e-05   9.654258145817655e-06   -2.2585507993602954e-05
-2.8916044565578027e-05   9.654258145817655e-06   -2.2585507993602954e-05
-3.281103762922135e-05   7.247685404677181e-06   -1.4649909242847071e-05
-3.281103762922135e-05   7.247685404677181e-06   -1.4649909242847071e-05
-3.281103762922135e-05   7.247685404677181e-06   -1.4649909242847071e-05
-3.281103762922135e-05   7.247685404677181e-06   -1.4649909242847071e-05
3.332803346326477e-05   -4.3730776812227895e-06   -2.832152567085189e-07
3.332803346326477e-05   -4.3730776812227895e-06   -2.832152567085189e-07
3.332803346326477e-05   -4.3730776812227895e-06   -2.832152567085189e-07
3.332803346326477e-05   -4.3730776812227895e-06   -2.832152567085189e-07
1.4209336243423186e-05   -7.89266377974017e-06   -3.425946228222164e-05
1.4209336243423186e-05   -7.89266377974017e-06   -3.425946228222164e-05
1.4209336243423186e-05   -7.89266377974017e-06   -3.425946228222164e-05
1.4209336243423186e-05   -7.89266377974017e-06   -3.425946228222164e-05
1.5219535484303374e-05   -3.593270076306023e-06   -3.7930993803802094e-06
1.5219535484303374e-05   -3.593270076306023e-06   -3.7930993803802094e-06
1.5219535484303374e-05   -3.593270076306023e-06   -3.7930993803802094e-06
1.5219535484303374e-05   -3.593270076306023e-06   -3.7930993803802094e-06
3.585481695154259e-05   -7.33972687641353e-06   -3.5937361079047404e-05
3.585481695154259e-05   -7.33972687641353e-06   -3.5937361079047404e-05
3.585481695154259e-05   -7.33972687641353e-06   -3.5937361079047404e-05
3.585481695154259e-05   -7.33972687641353e-06   -3.5937361079047404e-05
2.365902034762468e-05   -5.200399186936454e-06   -1.689463001953702e-05
2.365902034762468e-05   -5.200399186936454e-06   -1.689463001953702e-05
2.365902034762468e-05   -5.200399186936454e-06   -1.689463001953702e-05
2.365902034762468e-05   -5.200399186936454e-06   -1.689463001953702e-05
3.585481695154264e-05   -3.593270076306023e-06   -1.5452253003154452e-06
3.585481695154264e-05   -3.593270076306023e-06   -1.5452253003154452e-06
3.585481695154264e-05   -3.593270076306023e-06   -1.5452253003154452e-06
3.585481695154264e-05   -3.593270076306023e-06   -1.5452253003154452e-06
1.521953548430332e-05   -7.33972687641353e-06   -3.818523515911217e-05
1.521953548430332e-05   -7.33972687641353e-06   -3.818523515911217e-05
1.521953548430332e-05   -7.33972687641353e-06   -3.818523515911217e-05
1.521953548430332e-05   -7.33972687641353e-06   -3.818523515911217e-05
1.633843678157672e-05   -3.073802186270673e-06   -5.330999233339739e-06
1.633843678157672e-05   -3.073802186270673e-06   -5.330999233339739e-06
1.633843678157672e-05   -3.073802186270673e-06   -5.330999233339739e-06
1.633843678157672e-05   -3.073802186270673e-06   -5.330999233339739e-06
3.797819580746202e-05   -6.865171372545057e-06   -3.912244276471752e-05
3.797819580746202e-05   -6.865171372545057e-06   -3.912244276471752e-05
3.797819580746202e-05   -6.865171372545057e-06   -3.912244276471752e-05
3.797819580746202e-05   -6.865171372545057e-06   -3.912244276471752e-05
2.555693616054074e-05   -4.989206892088913e-06   -1.9545922041455275e-05
2.555693616054074e-05   -4.989206892088913e-06   -1.9545922041455275e-05
2.555693616054074e-05   -4.989206892088913e-06   -1.9545922041455275e-05
2.555693616054074e-05   -4.989206892088913e-06   -1.9545922041455275e-05
3.7978195807462077e-05   -3.073802186270673e-06   -3.0561777215752824e-06
3.7978195807462077e-05   -3.073802186270673e-06   -3.0561777215752824e-06
3.7978195807462077e-05   -3.073802186270673e-06   -3.0561777215752824e-06
3.7978195807462077e-05   -3.073802186270673e-06   -3.0561777215752824e-06
1.633843678157672e-05   -6.865171372545057e-06   -4.139726427648219e-05
1.633843678157672e-05   -6.865171372545057e-06   -4.139726427648219e-05
1.633843678157672e-05   -6.865171372545057e-06   -4.139726427648219e-05
1.633843678157672e-05   -6.865171372545057e-06   -4.139726427648219e-05
1.726390584256502e-05   -1.7644666828022307e-06   -8.882555094098712e-06
1.726390584256502e-05   -1.7644666828022307e-06   -8.882555094098712e-06
1.726390584256502e-05   -1.7644666828022307e-06   -8.882555094098712e-06
1.726390584256502e-05   -1.7644666828022307e-06   -8.882555094098712e-06
4.0443571076841556e-05   -5.363708103019345e-06   -4.5355785632429516e-05
4.0443571076841556e-05   -5.363708103019345e-06   -4.5355785632429516e-05
4.0443571076841556e-05   -5.363708103019345e-06   -4.5355785632429516e-05
4.0443571076841556e-05   -5.363708103019345e-06   -4.5355785632429516e-05
2.65874253460949e-05   -4.403267025755286e-06   -2.2838474060877644e-05
2.65874253460949e-05   -4.403267025755286e-06   -2.2838474060877644e-05
2.65874253460949e-05   -4.403267025755286e-06   -2.2838474060877644e-05
2.65874253460949e-05   -4.403267025755286e-06   -2.2838474060877644e-05
1.420933624342324e-05   -1.7314809382324228e-06   -2.3254860647522546e-05
1.420933624342324e-05   -1.7314809382324228e-06   -2.3254860647522546e-05
1.420933624342324e-05   -1.7314809382324228e-06   -2.3254860647522546e-05
1.420933624342324e-05   -1.7314809382324228e-06   -2.3254860647522546e-05
-6.034699463215216e-06   -3.6995461341129965e-06   -5.817575927611501e-05
-6.034699463215216e-06   -3.6995461341129965e-06   -5.817575927611501e-05
-6.034699463215216e-06   -3.6995461341129965e-06   -5.817575927611501e-05
-6.034699463215216e-06   -3.6995461341129965e-06   -5.817575927611501e-05
-5.094375030344835e-06   -6.627993312767477e-07   -2.373881294466724e-05
-5.094375030344835e-06   -6.627993312767477e-07   -2.373881294466724e-05
-5.094375030344835e-06   -6.627993312767477e-07   -2.373881294466724e-05
-5.094375030344835e-06   -6.627993312767477e-07   -2.373881294466724e-05
1.5219535484303374e-05   -2.9325506748349196e-06   -5.62334796629458e-05
1.5219535484303374e-05   -2.9325506748349196e-06   -5.62334796629458e-05
1.5219535484303374e-05   -2.9325506748349196e-06   -5.62334796629458e-05
1.5219535484303374e-05   -2.9325506748349196e-06   -5.62334796629458e-05
4.625525772445333e-06   -1.7894480654474625e-06   -3.9262658375481606e-05
4.625525772445333e-06   -1.7894480654474625e-06   -3.9262658375481606e-05
4.625525772445333e-06   -1.7894480654474625e-06   -3.9262658375481606e-05
4.625525772445333e-06   -1.7894480654474625e-06   -3.9262658375481606e-05
1.5219535484303374e-05   -6.627993312767477e-07   -2.237696213853199e-05
1.5219535484303374e-05   -6.627993312767477e-07   -2.237696213853199e-05
1.5219535484303374e-05   -6.627993312767477e-07   -2.237696213853199e-05
1.5219535484303374e-05   -6.627993312767477e-07   -2.237696213853199e-05
-5.094375030344835e-06   -2.9325506748349196e-06   -5.7595330469080615e-05
-5.094375030344835e-06   -2.9325506748349196e-06   -5.7595330469080615e-05
-5.094375030344835e-06   -2.9325506748349196e-06   -5.7595330469080615e-05
-5.094375030344835e-06   -2.9325506748349196e-06   -5.7595330469080615e-05
-4.196544316880047e-06   4.420949393678028e-07   -2.4042725583589032e-05
-4.196544316880047e-06   4.420949393678028e-07   -2.4042725583589032e-05
-4.196544316880047e-06   4.420949393678028e-07   -2.4042725583589032e-05
-4.196544316880047e-06   4.420949393678028e-07   -2.4042725583589032e-05
1.633843678157672e-05   -1.9949097455986865e-06   -5.680549127003707e-05
1.633843678157672e-05   -1.9949097455986865e-06   -5.680549127003707e-05
1.633843678157672e-05   -1.9949097455986865e-06   -5.680549127003707e-05
1.633843678157672e-05   -1.9949097455986865e-06   -5.680549127003707e-05
5.372106643357653e-06   -1.111296899185179e-06   -3.905844208085274e-05
5.372106643357653e-06   -1.111296899185179e-06   -3.905844208085274e-05
5.372106643357653e-06   -1.111296899185179e-06   -3.905844208085274e-05
5.372106643357653e-06   -1.111296899185179e-06   -3.905844208085274e-05
1.633843678157672e-05   4.420949393678028e-07   -2.2580522772608965e-05
1.633843678157672e-05   4.420949393678028e-07   -2.2580522772608965e-05
1.633843678157672e-05   4.420949393678028e-07   -2.2580522772608965e-05
1.633843678157672e-05   4.420949393678028e-07   -2.2580522772608965e-05
-4.196544316880047e-06   -1.9949097455986865e-06   -5.826769408101714e-05
-4.196544316880047e-06   -1.9949097455986865e-06   -5.826769408101714e-05
-4.196544316880047e-06   -1.9949097455986865e-06   -5.826769408101714e-05
-4.196544316880047e-06   -1.9949097455986865e-06   -5.826769408101714e-05
-3.3530601477372885e-06   1.7503459280344968e-06   -2.4859438252167318e-05
-3.3530601477372885e-06   1.7503459280344968e-06   -2.4859438252167318e-05
-3.3530601477372885e-06   1.7503459280344968e-06   -2.4859438252167318e-05
-3.3530601477372885e-06   1.7503459280344968e-06   -2.4859438252167318e-05
1.7263905842564994e-05   -8.153588300576116e-07   -5.7681625381149446e-05
1.7263905842564994e-05   -8.153588300576116e-07   -5.7681625381149446e-05
1.7263905842564994e-05   -8.153588300576116e-07   -5.7681625381149446e-05
1.7263905842564994e-05   -8.153588300576116e-07   -5.7681625381149446e-05
6.302681808817759e-06   -2.750799434265462e-07   -3.9737085990216876e-05
6.302681808817759e-06   -2.750799434265462e-07   -3.9737085990216876e-05
6.302681808817759e-06   -2.750799434265462e-07   -3.9737085990216876e-05
6.302681808817759e-06   -2.750799434265462e-07   -3.9737085990216876e-05
-6.034699463215216e-06   1.3270317875432695e-06   -2.9900405471181175e-05
-6.034699463215216e-06   1.3270317875432695e-06   -2.9900405471181175e-05
-6.034699463215216e-06   1.3270317875432695e-06   -2.9900405471181175e-05
-6.034699463215216e-06   1.3270317875432695e-06   -2.9900405471181175e-05
-2.5922186518029883e-05   6.667429198825917e-07   -6.344239054980184e-05
-2.5922186518029883e-05   6.667429198825917e-07   -6.344239054980184e-05
-2.5922186518029883e-05   6.667429198825917e-07   -6.344239054980184e-05
-2.5922186518029883e-05   6.667429198825917e-07   -6.344239054980184e-05
-2.491001510275725e-05   2.457427534205501e-06   -2.969394821636124e-05
-2.491001510275725e-05   2.457427534205501e-06   -2.969394821636124e-05
-2.491001510275725e-05   2.457427534205501e-06   -2.969394821636124e-05
-2.491001510275725e-05   2.457427534205501e-06   -2.969394821636124e-05
-5.094375030344835e-06   1.5279666304057922e-06   -6.216233846143547e-05
-5.094375030344835e-06   1.5279666304057922e-06   -6.216233846143547e-05
-5.094375030344835e-06   1.5279666304057922e-06   -6.216233846143547e-05
-5.094375030344835e-06   1.5279666304057922e-06   -6.216233846143547e-05
-1.5384138024065386e-05   1.8192238762219405e-06   -4.518748781939081e-05
-1.5384138024065386e-05   1.8192238762219405e-06   -4.518748781939081e-05
-1.5384138024065386e-05   1.8192238762219405e-06   -4.518748781939081e-05
-1.5384138024065386e-05   1.8192238762219405e-06   -4.518748781939081e-05
-5.094375030344835e-06   2.457427534205501e-06   -2.9136271674081587e-05
-5.094375030344835e-06   2.457427534205501e-06   -2.9136271674081587e-05
-5.094375030344835e-06   2.457427534205501e-06   -2.9136271674081587e-05
-5.094375030344835e-06   2.457427534205501e-06   -2.9136271674081587e-05
-2.491001510275725e-05   1.5279666304057922e-06   -6.272001500371512e-05
-2.491001510275725e-05   1.5279666304057922e-06   -6.272001500371512e-05
-2.491001510275725e-05   1.5279666304057922e-06   -6.272001500371512e-05
-2.491001510275725e-05   1.5279666304057922e-06   -6.272001500371512e-05
-2.3933842258144877e-05   3.654337608416554e-06   -2.9649192416508156e-05
-2.3933842258144877e-05   3.654337608416554e-06   -2.9649192416508156e-05
-2.3933842258144877e-05   3.654337608416554e-06   -2.9649192416508156e-05
-2.3933842258144877e-05   3.654337608416554e-06   -2.9649192416508156e-05
-4.196544316880047e-06   2.5256145139208354e-06   -6.186745512858565e-05
-4.196544316880047e-06   2.5256145139208354e-06   -6.186745512858565e-05
-4.196544316880047e-06   2.5256145139208354e-06   -6.186745512858565e-05
-4.196544316880047e-06   2.5256145139208354e-06   -6.186745512858565e-05
-1.4513029858641114e-05   2.6254519926117645e-06   -4.4733215046198114e-05
-1.4513029858641114e-05   2.6254519926117645e-06   -4.4733215046198114e-05
-1.4513029858641114e-05   2.6254519926117645e-06   -4.4733215046198114e-05
-1.4513029858641114e-05   2.6254519926117645e-06   -4.4733215046198114e-05
-4.196544316880047e-06   3.654337608416554e-06   -2.8971958559810985e-05
-4.196544316880047e-06   3.654337608416554e-06   -2.8971958559810985e-05
-4.196544316880047e-06   3.654337608416554e-06   -2.8971958559810985e-05
-4.196544316880047e-06   3.654337608416554e-06   -2.8971958559810985e-05
-2.3933842258144877e-05   2.5256145139208354e-06   -6.254468898528299e-05
-2.3933842258144877e-05   2.5256145139208354e-06   -6.254468898528299e-05
-2.3933842258144877e-05   2.5256145139208354e-06   -6.254468898528299e-05
-2.3933842258144877e-05   2.5256145139208354e-06   -6.254468898528299e-05
-2.3031791460127664e-05   4.8719208475818225e-06   -3.0346021280909866e-05
-2.3031791460127664e-05   4.8719208475818225e-06   -3.0346021280909866e-05
-2.3031791460127664e-05   4.8719208475818225e-06   -3.0346021280909866e-05
-2.3031791460127664e-05   4.8719208475818225e-06   -3.0346021280909866e-05
-3.3530601477372885e-06   3.556713696953144e-06   -6.235478251118322e-05
-3.3530601477372885e-06   3.556713696953144e-06   -6.235478251118322e-05
-3.3530601477372885e-06   3.556713696953144e-06   -6.235478251118322e-05
-3.3530601477372885e-06   3.556713696953144e-06   -6.235478251118322e-05
-1.3734642125248807e-05   3.4527276180406144e-06   -4.4989754234650375e-05
-1.3734642125248807e-05   3.4527276180406144e-06   -4.4989754234650375e-05
-1.3734642125248807e-05   3.4527276180406144e-06   -4.4989754234650375e-05
-1.3734642125248807e-05   3.4527276180406144e-06   -4.4989754234650375e-05
-2.5922186518029937e-05   4.294853952063315e-06   -2.426015206200829e-05
-2.5922186518029937e-05   4.294853952063315e-06   -2.426015206200829e-05
-2.5922186518029937e-05   4.294853952063315e-06   -2.426015206200829e-05
-2.5922186518029937e-05   4.294853952063315e-06   -2.426015206200829e-05
-4.543754699894766e-05   5.1891324329284005e-06   -5.6249185775019035e-05
-4.543754699894766e-05   5.1891324329284005e-06   -5.6249185775019035e-05
-4.543754699894766e-05   5.1891324329284005e-06   -5.6249185775019035e-05
-4.543754699894766e-05   5.1891324329284005e-06   -5.6249185775019035e-05
-4.421779816212275e-05   5.501418407556635e-06   -2.2799887621075378e-05
-4.421779816212275e-05   5.501418407556635e-06   -2.2799887621075378e-05
-4.421779816212275e-05   5.501418407556635e-06   -2.2799887621075378e-05
-4.421779816212275e-05   5.501418407556635e-06   -2.2799887621075378e-05
-2.49100151027573e-05   6.283208842578804e-06   -5.544860031436449e-05
-2.49100151027573e-05   6.283208842578804e-06   -5.544860031436449e-05
-2.49100151027573e-05   6.283208842578804e-06   -5.544860031436449e-05
-2.49100151027573e-05   6.283208842578804e-06   -5.544860031436449e-05
-3.4865205199804454e-05   5.5461700464989536e-06   -3.841439354163804e-05
-3.4865205199804454e-05   5.5461700464989536e-06   -3.841439354163804e-05
-3.4865205199804454e-05   5.5461700464989536e-06   -3.841439354163804e-05
-3.4865205199804454e-05   5.5461700464989536e-06   -3.841439354163804e-05
-2.49100151027573e-05   5.501418407556635e-06   -2.3268961882088636e-05
-2.49100151027573e-05   5.501418407556635e-06   -2.3268961882088636e-05
-2.49100151027573e-05   5.501418407556635e-06   -2.3268961882088636e-05
-2.49100151027573e-05   5.501418407556635e-06   -2.3268961882088636e-05
-4.4217798162122834e-05   6.283208842578804e-06   -5.497952605335119e-05
-4.4217798162122834e-05   6.283208842578804e-06   -5.497952605335119e-05
-4.4217798162122834e-05   6.283208842578804e-06   -5.497952605335119e-05
-4.4217798162122834e-05   6.283208842578804e-06   -5.497952605335119e-05
-4.286860603692175e-05   6.5883941123465704e-06   -2.1987752792404806e-05
-4.286860603692175e-05   6.5883941123465704e-06   -2.1987752792404806e-05
-4.286860603692175e-05   6.5883941123465704e-06   -2.1987752792404806e-05
-4.286860603692175e-05   6.5883941123465704e-06   -2.1987752792404806e-05
-2.3933842258144925e-05   7.225489694500254e-06   -5.3927949772991564e-05
-2.3933842258144925e-05   7.225489694500254e-06   -5.3927949772991564e-05
-2.3933842258144925e-05   7.225489694500254e-06   -5.3927949772991564e-05
-2.3933842258144925e-05   7.225489694500254e-06   -5.3927949772991564e-05
-3.363197300207418e-05   6.397753924229036e-06   -3.726775707094674e-05
-3.363197300207418e-05   6.397753924229036e-06   -3.726775707094674e-05
-3.363197300207418e-05   6.397753924229036e-06   -3.726775707094674e-05
-3.363197300207418e-05   6.397753924229036e-06   -3.726775707094674e-05
-2.3933842258144905e-05   6.5883941123465704e-06   -2.23700101416968e-05
-2.3933842258144905e-05   6.5883941123465704e-06   -2.23700101416968e-05
-2.3933842258144905e-05   6.5883941123465704e-06   -2.23700101416968e-05
-2.3933842258144905e-05   6.5883941123465704e-06   -2.23700101416968e-05
-4.286860603692175e-05   7.225489694500254e-06   -5.354569242369965e-05
-4.286860603692175e-05   7.225489694500254e-06   -5.354569242369965e-05
-4.286860603692175e-05   7.225489694500254e-06   -5.354569242369965e-05
-4.286860603692175e-05   7.225489694500254e-06   -5.354569242369965e-05
-4.1728405211074877e-05   7.804892323513835e-06   -2.2495692434121306e-05
-4.1728405211074877e-05   7.804892323513835e-06   -2.2495692434121306e-05
-4.1728405211074877e-05   7.804892323513835e-06   -2.2495692434121306e-05
-4.1728405211074877e-05   7.804892323513835e-06   -2.2495692434121306e-05
-2.303179146012771e-05   8.268247251872266e-06   -5.393472830938141e-05
-2.303179146012771e-05   8.268247251872266e-06   -5.393472830938141e-05
-2.303179146012771e-05   8.268247251872266e-06   -5.393472830938141e-05
-2.303179146012771e-05   8.268247251872266e-06   -5.393472830938141e-05
-3.2863657886866106e-05   7.182280619398053e-06   -3.689670428533331e-05
-3.2863657886866106e-05   7.182280619398053e-06   -3.689670428533331e-05
-3.2863657886866106e-05   7.182280619398053e-06   -3.689670428533331e-05
-3.2863657886866106e-05   7.182280619398053e-06   -3.689670428533331e-05
-4.543754699894766e-05   7.383418842293009e-06   -1.2159686287884896e-05
-4.543754699894766e-05   7.383418842293009e-06   -1.2159686287884896e-05
-4.543754699894766e-05   7.383418842293009e-06   -1.2159686287884896e-05
-4.543754699894766e-05   7.383418842293009e-06   -1.2159686287884896e-05
-6.598831450745147e-05   1.0203921083020047e-05   -4.4718664124288564e-05
-6.598831450745147e-05   1.0203921083020047e-05   -4.4718664124288564e-05
-6.598831450745147e-05   1.0203921083020047e-05   -4.4718664124288564e-05
-6.598831450745147e-05   1.0203921083020047e-05   -4.4718664124288564e-05
-6.31902921618851e-05   8.635814484313654e-06   -3.880892573053605e-06
-6.31902921618851e-05   8.635814484313654e-06   -3.880892573053605e-06
-6.31902921618851e-05   8.635814484313654e-06   -3.880892573053605e-06
-6.31902921618851e-05   8.635814484313654e-06   -3.880892573053605e-06
-4.421779816212275e-05   1.1657534410534475e-05   -3.731474786172308e-05
-4.421779816212275e-05   1.1657534410534475e-05   -3.731474786172308e-05
-4.421779816212275e-05   1.1657534410534475e-05   -3.731474786172308e-05
-4.421779816212275e-05   1.1657534410534475e-05   -3.731474786172308e-05
-5.2446513118138927e-05   9.721371252670395e-06   -2.2438525040310874e-05
-5.2446513118138927e-05   9.721371252670395e-06   -2.2438525040310874e-05
-5.2446513118138927e-05   9.721371252670395e-06   -2.2438525040310874e-05
-5.2446513118138927e-05   9.721371252670395e-06   -2.2438525040310874e-05
-4.4217798162122794e-05   8.635814484313654e-06   -5.693924528785751e-06
-4.4217798162122794e-05   8.635814484313654e-06   -5.693924528785751e-06
-4.4217798162122794e-05   8.635814484313654e-06   -5.693924528785751e-06
-4.4217798162122794e-05   8.635814484313654e-06   -5.693924528785751e-06
-6.319029216188499e-05   1.1657534410534475e-05   -3.5501715905990805e-05
-6.319029216188499e-05   1.1657534410534475e-05   -3.5501715905990805e-05
-6.319029216188499e-05   1.1657534410534475e-05   -3.5501715905990805e-05
-6.319029216188499e-05   1.1657534410534475e-05   -3.5501715905990805e-05
-6.0887751870854396e-05   9.084471822871486e-06   -4.2567670713831995e-07
-6.0887751870854396e-05   9.084471822871486e-06   -4.2567670713831995e-07
-6.0887751870854396e-05   9.084471822871486e-06   -4.2567670713831995e-07
-6.0887751870854396e-05   9.084471822871486e-06   -4.2567670713831995e-07
-4.286860603692175e-05   1.2039693542513497e-05   -3.223071946214482e-05
-4.286860603692175e-05   1.2039693542513497e-05   -3.223071946214482e-05
-4.286860603692175e-05   1.2039693542513497e-05   -3.223071946214482e-05
-4.286860603692175e-05   1.2039693542513497e-05   -3.223071946214482e-05
-5.14905434603658e-05   1.029970646017949e-05   -1.6816831507003886e-05
-5.14905434603658e-05   1.029970646017949e-05   -1.6816831507003886e-05
-5.14905434603658e-05   1.029970646017949e-05   -1.6816831507003886e-05
-5.14905434603658e-05   1.029970646017949e-05   -1.6816831507003886e-05
-4.286860603692175e-05   9.084471822871486e-06   -2.1988097389236128e-06
-4.286860603692175e-05   9.084471822871486e-06   -2.1988097389236128e-06
-4.286860603692175e-05   9.084471822871486e-06   -2.1988097389236128e-06
-4.286860603692175e-05   9.084471822871486e-06   -2.1988097389236128e-06
-6.088775187085418e-05   1.2039693542513497e-05   -3.0457586430359578e-05
-6.088775187085418e-05   1.2039693542513497e-05   -3.0457586430359578e-05
-6.088775187085418e-05   1.2039693542513497e-05   -3.0457586430359578e-05
-6.088775187085418e-05   1.2039693542513497e-05   -3.0457586430359578e-05
-5.840459361619981e-05   9.654258145817655e-06   3.960334217550671e-06
-5.840459361619981e-05   9.654258145817655e-06   3.960334217550671e-06
-5.840459361619981e-05   9.654258145817655e-06   3.960334217550671e-06
-5.840459361619981e-05   9.654258145817655e-06   3.960334217550671e-06
-4.1728405211074877e-05   1.2369891294322123e-05   -2.5462693013427183e-05
-4.1728405211074877e-05   1.2369891294322123e-05   -2.5462693013427183e-05
-4.1728405211074877e-05   1.2369891294322123e-05   -2.5462693013427183e-05
-4.1728405211074877e-05   1.2369891294322123e-05   -2.5462693013427183e-05
-4.9157822866090564e-05   1.0394271168987813e-05   -1.189495817986773e-05
-4.9157822866090564e-05   1.0394271168987813e-05   -1.189495817986773e-05
-4.9157822866090564e-05   1.0394271168987813e-05   -1.189495817986773e-05
-4.9157822866090564e-05   1.0394271168987813e-05   -1.189495817986773e-05
5.6587995127515905e-05   -7.892663779740603e-06   1.1185735538139872e-05
5.6587995127515905e-05   -7.892663779740603e-06   1.1185735538139872e-05
5.6587995127515905e-05   -7.892663779740603e-06   1.1185735538139872e-05
5.6587995127515905e-05   -7.892663779740603e-06   1.1185735538139872e-05
2.727804116205981e-05   -1.1691758666018768e-05   -3.9943644669387284e-05
2.727804116205981e-05   -1.1691758666018768e-05   -3.9943644669387284e-05
2.727804116205981e-05   -1.1691758666018768e-05   -3.9943644669387284e-05
2.727804116205981e-05   -1.1691758666018768e-05   -3.9943644669387284e-05
2.8397806842036643e-05   -7.3397268764139635e-06   5.376740481582813e-06
2.8397806842036643e-05   -7.3397268764139635e-06   5.376740481582813e-06
2.8397806842036643e-05   -7.3397268764139635e-06   5.376740481582813e-06
2.8397806842036643e-05   -7.3397268764139635e-06   5.376740481582813e-06
5.918462503538195e-05   -1.1418119475421328e-05   -4.3487587614587995e-05
5.918462503538195e-05   -1.1418119475421328e-05   -4.3487587614587995e-05
5.918462503538195e-05   -1.1418119475421328e-05   -4.3487587614587995e-05
5.918462503538195e-05   -1.1418119475421328e-05   -4.3487587614587995e-05
4.1119844734917985e-05   -8.642979403379256e-06   -1.5044704490373129e-05
4.1119844734917985e-05   -8.642979403379256e-06   -1.5044704490373129e-05
4.1119844734917985e-05   -8.642979403379256e-06   -1.5044704490373129e-05
4.1119844734917985e-05   -8.642979403379256e-06   -1.5044704490373129e-05
5.918462503538206e-05   -7.3397268764139635e-06   7.823776040987449e-06
5.918462503538206e-05   -7.3397268764139635e-06   7.823776040987449e-06
5.918462503538206e-05   -7.3397268764139635e-06   7.823776040987449e-06
5.918462503538206e-05   -7.3397268764139635e-06   7.823776040987449e-06
2.839780684203659e-05   -1.1418119475421328e-05   -4.593462317399252e-05
2.839780684203659e-05   -1.1418119475421328e-05   -4.593462317399252e-05
2.839780684203659e-05   -1.1418119475421328e-05   -4.593462317399252e-05
2.839780684203659e-05   -1.1418119475421328e-05   -4.593462317399252e-05
2.9511650037541422e-05   -6.865171372544623e-06   2.536140839053992e-06
2.9511650037541422e-05   -6.865171372544623e-06   2.536140839053992e-06
2.9511650037541422e-05   -6.865171372544623e-06   2.536140839053992e-06
2.9511650037541422e-05   -6.865171372544623e-06   2.536140839053992e-06
6.117819542948255e-05   -1.1021915182144858e-05   -4.77473885284213e-05
6.117819542948255e-05   -1.1021915182144858e-05   -4.77473885284213e-05
6.117819542948255e-05   -1.1021915182144858e-05   -4.77473885284213e-05
6.117819542948255e-05   -1.1021915182144858e-05   -4.77473885284213e-05
4.3306208051119784e-05   -8.614563222363383e-06   -1.9405154073685676e-05
4.3306208051119784e-05   -8.614563222363383e-06   -1.9405154073685676e-05
4.3306208051119784e-05   -8.614563222363383e-06   -1.9405154073685676e-05
4.3306208051119784e-05   -8.614563222363383e-06   -1.9405154073685676e-05
6.117819542948255e-05   -6.865171372544623e-06   5.03018712481396e-06
6.117819542948255e-05   -6.865171372544623e-06   5.03018712481396e-06
6.117819542948255e-05   -6.865171372544623e-06   5.03018712481396e-06
6.117819542948255e-05   -6.865171372544623e-06   5.03018712481396e-06
2.9511650037541422e-05   -1.1021915182144858e-05   -5.024143481418132e-05
2.9511650037541422e-05   -1.1021915182144858e-05   -5.024143481418132e-05
2.9511650037541422e-05   -1.1021915182144858e-05   -5.024143481418132e-05
2.9511650037541422e-05   -1.1021915182144858e-05   -5.024143481418132e-05
3.0268690379555053e-05   -5.363708103018911e-06   -3.1878160056788077e-06
3.0268690379555053e-05   -5.363708103018911e-06   -3.1878160056788077e-06
3.0268690379555053e-05   -5.363708103018911e-06   -3.1878160056788077e-06
3.0268690379555053e-05   -5.363708103018911e-06   -3.1878160056788077e-06
6.328609662615653e-05   -9.47580469126989e-06   -5.57495684637308e-05
6.328609662615653e-05   -9.47580469126989e-06   -5.57495684637308e-05
6.328609662615653e-05   -9.47580469126989e-06   -5.57495684637308e-05
6.328609662615653e-05   -9.47580469126989e-06   -5.57495684637308e-05
4.391986432140462e-05   -7.952835171209406e-06   -2.4386296334514375e-05
4.391986432140462e-05   -7.952835171209406e-06   -2.4386296334514375e-05
4.391986432140462e-05   -7.952835171209406e-06   -2.4386296334514375e-05
4.391986432140462e-05   -7.952835171209406e-06   -2.4386296334514375e-05
2.7278041162059864e-05   -3.6995461341129965e-06   -1.3829179269992655e-05
2.7278041162059864e-05   -3.6995461341129965e-06   -1.3829179269992655e-05
2.7278041162059864e-05   -3.6995461341129965e-06   -1.3829179269992655e-05
2.7278041162059864e-05   -3.6995461341129965e-06   -1.3829179269992655e-05
-1.6369093009032732e-06   -7.585433713694356e-06   -6.435229592267997e-05
-1.6369093009032732e-06   -7.585433713694356e-06   -6.435229592267997e-05
-1.6369093009032732e-06   -7.585433713694356e-06   -6.435229592267997e-05
-1.6369093009032732e-06   -7.585433713694356e-06   -6.435229592267997e-05
-4.87169561941579e-07   -2.9325506748349196e-06   -1.5246073828140876e-05
-4.87169561941579e-07   -2.9325506748349196e-06   -1.5246073828140876e-05
-4.87169561941579e-07   -2.9325506748349196e-06   -1.5246073828140876e-05
-4.87169561941579e-07   -2.9325506748349196e-06   -1.5246073828140876e-05
2.8397806842036643e-05   -7.223500351319183e-06   -6.0813131362214294e-05
2.8397806842036643e-05   -7.223500351319183e-06   -6.0813131362214294e-05
2.8397806842036643e-05   -7.223500351319183e-06   -6.0813131362214294e-05
2.8397806842036643e-05   -7.223500351319183e-06   -6.0813131362214294e-05
1.3428543561960397e-05   -4.5887598748789796e-06   -3.744520351461791e-05
1.3428543561960397e-05   -4.5887598748789796e-06   -3.744520351461791e-05
1.3428543561960397e-05   -4.5887598748789796e-06   -3.744520351461791e-05
1.3428543561960397e-05   -4.5887598748789796e-06   -3.744520351461791e-05
2.8397806842036616e-05   -2.9325506748349196e-06   -1.2671504022250275e-05
2.8397806842036616e-05   -2.9325506748349196e-06   -1.2671504022250275e-05
2.8397806842036616e-05   -2.9325506748349196e-06   -1.2671504022250275e-05
2.8397806842036616e-05   -2.9325506748349196e-06   -1.2671504022250275e-05
-4.87169561941579e-07   -7.223500351319183e-06   -6.338770116810473e-05
-4.87169561941579e-07   -7.223500351319183e-06   -6.338770116810473e-05
-4.87169561941579e-07   -7.223500351319183e-06   -6.338770116810473e-05
-4.87169561941579e-07   -7.223500351319183e-06   -6.338770116810473e-05
5.25912812935291e-07   -1.9949097455986865e-06   -1.560440206929475e-05
5.25912812935291e-07   -1.9949097455986865e-06   -1.560440206929475e-05
5.25912812935291e-07   -1.9949097455986865e-06   -1.560440206929475e-05
5.25912812935291e-07   -1.9949097455986865e-06   -1.560440206929475e-05
2.9511650037541422e-05   -6.548769603588207e-06   -6.11816481955112e-05
2.9511650037541422e-05   -6.548769603588207e-06   -6.11816481955112e-05
2.9511650037541422e-05   -6.548769603588207e-06   -6.11816481955112e-05
2.9511650037541422e-05   -6.548769603588207e-06   -6.11816481955112e-05
1.4211935595227665e-05   -4.21357793759132e-06   -3.7083239124585513e-05
1.4211935595227665e-05   -4.21357793759132e-06   -3.7083239124585513e-05
1.4211935595227665e-05   -4.21357793759132e-06   -3.7083239124585513e-05
1.4211935595227665e-05   -4.21357793759132e-06   -3.7083239124585513e-05
2.9511650037541422e-05   -1.99490974559912e-06   -1.2872086154500995e-05
2.9511650037541422e-05   -1.99490974559912e-06   -1.2872086154500995e-05
2.9511650037541422e-05   -1.99490974559912e-06   -1.2872086154500995e-05
2.9511650037541422e-05   -1.99490974559912e-06   -1.2872086154500995e-05
5.259128129352639e-07   -6.54876960358864e-06   -6.391396411030512e-05
5.259128129352639e-07   -6.54876960358864e-06   -6.391396411030512e-05
5.259128129352639e-07   -6.54876960358864e-06   -6.391396411030512e-05
5.259128129352639e-07   -6.54876960358864e-06   -6.391396411030512e-05
1.2475019416989086e-06   -8.153588300576116e-07   -1.62182053826624e-05
1.2475019416989086e-06   -8.153588300576116e-07   -1.62182053826624e-05
1.2475019416989086e-06   -8.153588300576116e-07   -1.62182053826624e-05
1.2475019416989086e-06   -8.153588300576116e-07   -1.62182053826624e-05
3.0268690379555135e-05   -5.588849630714255e-06   -6.172275829869549e-05
3.0268690379555135e-05   -5.588849630714255e-06   -6.172275829869549e-05
3.0268690379555135e-05   -5.588849630714255e-06   -6.172275829869549e-05
3.0268690379555135e-05   -5.588849630714255e-06   -6.172275829869549e-05
1.5148577035595451e-05   -3.551903216783992e-06   -3.7744737240455136e-05
1.5148577035595451e-05   -3.551903216783992e-06   -3.7744737240455136e-05
1.5148577035595451e-05   -3.551903216783992e-06   -3.7744737240455136e-05
1.5148577035595451e-05   -3.551903216783992e-06   -3.7744737240455136e-05
-1.6369093009032732e-06   6.667429198825917e-07   -2.1031169770832072e-05
-1.6369093009032732e-06   6.667429198825917e-07   -2.1031169770832072e-05
-1.6369093009032732e-06   6.667429198825917e-07   -2.1031169770832072e-05
-1.6369093009032732e-06   6.667429198825917e-07   -2.1031169770832072e-05
-3.0124677373754498e-05   -3.996702918539815e-06   -7.130885072863745e-05
-3.0124677373754498e-05   -3.996702918539815e-06   -7.130885072863745e-05
-3.0124677373754498e-05   -3.996702918539815e-06   -7.130885072863745e-05
-3.0124677373754498e-05   -3.996702918539815e-06   -7.130885072863745e-05
-2.874532154771315e-05   1.5279666304062259e-06   -2.2872243233105268e-05
-2.874532154771315e-05   1.5279666304062259e-06   -2.2872243233105268e-05
-2.874532154771315e-05   1.5279666304062259e-06   -2.2872243233105268e-05
-2.874532154771315e-05   1.5279666304062259e-06   -2.2872243233105268e-05
-4.87169561941579e-07   -3.570635723942721e-06   -6.691000179678174e-05
-4.87169561941579e-07   -3.570635723942721e-06   -6.691000179678174e-05
-4.87169561941579e-07   -3.570635723942721e-06   -6.691000179678174e-05
-4.87169561941579e-07   -3.570635723942721e-06   -6.691000179678174e-05
-1.5066972674186211e-05   -7.817140826446231e-07   -4.428368292781976e-05
-1.5066972674186211e-05   -7.817140826446231e-07   -4.428368292781976e-05
-1.5066972674186211e-05   -7.817140826446231e-07   -4.428368292781976e-05
-1.5066972674186211e-05   -7.817140826446231e-07   -4.428368292781976e-05
-4.87169561941579e-07   1.5279666304062259e-06   -1.9813081820495727e-05
-4.87169561941579e-07   1.5279666304062259e-06   -1.9813081820495727e-05
-4.87169561941579e-07   1.5279666304062259e-06   -1.9813081820495727e-05
-4.87169561941579e-07   1.5279666304062259e-06   -1.9813081820495727e-05
-2.874532154771315e-05   -3.5706357239431545e-06   -6.996916320939112e-05
-2.874532154771315e-05   -3.5706357239431545e-06   -6.996916320939112e-05
-2.874532154771315e-05   -3.5706357239431545e-06   -6.996916320939112e-05
-2.874532154771315e-05   -3.5706357239431545e-06   -6.996916320939112e-05
-2.747981901385474e-05   2.5256145139208354e-06   -2.2463172490061424e-05
-2.747981901385474e-05   2.5256145139208354e-06   -2.2463172490061424e-05
-2.747981901385474e-05   2.5256145139208354e-06   -2.2463172490061424e-05
-2.747981901385474e-05   2.5256145139208354e-06   -2.2463172490061424e-05
5.259128129352639e-07   -2.906067774743285e-06   -6.588038282818022e-05
5.259128129352639e-07   -2.906067774743285e-06   -6.588038282818022e-05
5.259128129352639e-07   -2.906067774743285e-06   -6.588038282818022e-05
5.259128129352639e-07   -2.906067774743285e-06   -6.588038282818022e-05
-1.3943244436720626e-05   -2.934234613009151e-07   -4.333270733348528e-05
-1.3943244436720626e-05   -2.934234613009151e-07   -4.333270733348528e-05
-1.3943244436720626e-05   -2.934234613009151e-07   -4.333270733348528e-05
-1.3943244436720626e-05   -2.934234613009151e-07   -4.333270733348528e-05
5.259128129352639e-07   2.5256145139208354e-06   -1.920416311686343e-05
5.259128129352639e-07   2.5256145139208354e-06   -1.920416311686343e-05
5.259128129352639e-07   2.5256145139208354e-06   -1.920416311686343e-05
5.259128129352639e-07   2.5256145139208354e-06   -1.920416311686343e-05
-2.7479819013854782e-05   -2.9060677747428515e-06   -6.913939220137854e-05
-2.7479819013854782e-05   -2.9060677747428515e-06   -6.913939220137854e-05
-2.7479819013854782e-05   -2.9060677747428515e-06   -6.913939220137854e-05
-2.7479819013854782e-05   -2.9060677747428515e-06   -6.913939220137854e-05
-2.662643925108593e-05   3.556713696953144e-06   -2.285159496963644e-05
-2.662643925108593e-05   3.556713696953144e-06   -2.285159496963644e-05
-2.662643925108593e-05   3.556713696953144e-06   -2.285159496963644e-05
-2.662643925108593e-05   3.556713696953144e-06   -2.285159496963644e-05
1.2475019416989086e-06   -2.276045156038471e-06   -6.580850831248281e-05
1.2475019416989086e-06   -2.276045156038471e-06   -6.580850831248281e-05
1.2475019416989086e-06   -2.276045156038471e-06   -6.580850831248281e-05
1.2475019416989086e-06   -2.276045156038471e-06   -6.580850831248281e-05
-1.3141454141383057e-05   2.5494567897944853e-07   -4.334550934169119e-05
-1.3141454141383057e-05   2.5494567897944853e-07   -4.334550934169119e-05
-1.3141454141383057e-05   2.5494567897944853e-07   -4.334550934169119e-05
-1.3141454141383057e-05   2.5494567897944853e-07   -4.334550934169119e-05
-3.0124677373754457e-05   5.1891324329284005e-06   -1.71725995876215e-05
-3.0124677373754457e-05   5.1891324329284005e-06   -1.71725995876215e-05
-3.0124677373754457e-05   5.1891324329284005e-06   -1.71725995876215e-05
-3.0124677373754457e-05   5.1891324329284005e-06   -1.71725995876215e-05
-5.900785053440885e-05   9.852325192844305e-07   -6.783356147023164e-05
-5.900785053440885e-05   9.852325192844305e-07   -6.783356147023164e-05
-5.900785053440885e-05   9.852325192844305e-07   -6.783356147023164e-05
-5.900785053440885e-05   9.852325192844305e-07   -6.783356147023164e-05
-5.704432649353122e-05   6.283208842578804e-06   -1.8305810009848402e-05
-5.704432649353122e-05   6.283208842578804e-06   -1.8305810009848402e-05
-5.704432649353122e-05   6.283208842578804e-06   -1.8305810009848402e-05
-5.704432649353122e-05   6.283208842578804e-06   -1.8305810009848402e-05
-2.8745321547713094e-05   1.7749063990889907e-06   -6.276583678678464e-05
-2.8745321547713094e-05   1.7749063990889907e-06   -6.276583678678464e-05
-2.8745321547713094e-05   1.7749063990889907e-06   -6.276583678678464e-05
-2.8745321547713094e-05   1.7749063990889907e-06   -6.276583678678464e-05
-4.32759260825948e-05   3.93467347743065e-06   -3.9844022808987046e-05
-4.32759260825948e-05   3.93467347743065e-06   -3.9844022808987046e-05
-4.32759260825948e-05   3.93467347743065e-06   -3.9844022808987046e-05
-4.32759260825948e-05   3.93467347743065e-06   -3.9844022808987046e-05
-2.8745321547713094e-05   6.283208842578804e-06   -1.5600828543754384e-05
-2.8745321547713094e-05   6.283208842578804e-06   -1.5600828543754384e-05
-2.8745321547713094e-05   6.283208842578804e-06   -1.5600828543754384e-05
-2.8745321547713094e-05   6.283208842578804e-06   -1.5600828543754384e-05
-5.704432649353131e-05   1.7749063990889907e-06   -6.547081825287863e-05
-5.704432649353131e-05   1.7749063990889907e-06   -6.547081825287863e-05
-5.704432649353131e-05   1.7749063990889907e-06   -6.547081825287863e-05
-5.704432649353131e-05   1.7749063990889907e-06   -6.547081825287863e-05
-5.514680750176918e-05   7.225489694500254e-06   -1.668050094322921e-05
-5.514680750176918e-05   7.225489694500254e-06   -1.668050094322921e-05
-5.514680750176918e-05   7.225489694500254e-06   -1.668050094322921e-05
-5.514680750176918e-05   7.225489694500254e-06   -1.668050094322921e-05
-2.7479819013854782e-05   2.5020435854019273e-06   -5.9958080757627864e-05
-2.7479819013854782e-05   2.5020435854019273e-06   -5.9958080757627864e-05
-2.7479819013854782e-05   2.5020435854019273e-06   -5.9958080757627864e-05
-2.7479819013854782e-05   2.5020435854019273e-06   -5.9958080757627864e-05
-4.150221731668144e-05   4.621713357700393e-06   -3.785921878296213e-05
-4.150221731668144e-05   4.621713357700393e-06   -3.785921878296213e-05
-4.150221731668144e-05   4.621713357700393e-06   -3.785921878296213e-05
-4.150221731668144e-05   4.621713357700393e-06   -3.785921878296213e-05
-2.7479819013854714e-05   7.225489694500254e-06   -1.3846433277770083e-05
-2.7479819013854714e-05   7.225489694500254e-06   -1.3846433277770083e-05
-2.7479819013854714e-05   7.225489694500254e-06   -1.3846433277770083e-05
-2.7479819013854714e-05   7.225489694500254e-06   -1.3846433277770083e-05
-5.5146807501769285e-05   2.5020435854019273e-06   -6.279214842308685e-05
-5.5146807501769285e-05   2.5020435854019273e-06   -6.279214842308685e-05
-5.5146807501769285e-05   2.5020435854019273e-06   -6.279214842308685e-05
-5.5146807501769285e-05   2.5020435854019273e-06   -6.279214842308685e-05
-5.370652231718075e-05   8.268247251871832e-06   -1.6732842296317968e-05
-5.370652231718075e-05   8.268247251871832e-06   -1.6732842296317968e-05
-5.370652231718075e-05   8.268247251871832e-06   -1.6732842296317968e-05
-5.370652231718075e-05   8.268247251871832e-06   -1.6732842296317968e-05
-2.662643925108597e-05   3.1175375537705573e-06   -5.8775888254282145e-05
-2.662643925108597e-05   3.1175375537705573e-06   -5.8775888254282145e-05
-2.662643925108597e-05   3.1175375537705573e-06   -5.8775888254282145e-05
-2.662643925108597e-05   3.1175375537705573e-06   -5.8775888254282145e-05
-4.05066298038591e-05   5.101136342010575e-06   -3.683239660593688e-05
-4.05066298038591e-05   5.101136342010575e-06   -3.683239660593688e-05
-4.05066298038591e-05   5.101136342010575e-06   -3.683239660593688e-05
-4.05066298038591e-05   5.101136342010575e-06   -3.683239660593688e-05
-5.900785053440885e-05   1.020392108302048e-05   -9.856719229513764e-06
-5.900785053440885e-05   1.020392108302048e-05   -9.856719229513764e-06
-5.900785053440885e-05   1.020392108302048e-05   -9.856719229513764e-06
-5.900785053440885e-05   1.020392108302048e-05   -9.856719229513764e-06
-8.917939851527545e-05   9.627649095464777e-06   -6.048839572349177e-05
-8.917939851527545e-05   9.627649095464777e-06   -6.048839572349177e-05
-8.917939851527545e-05   9.627649095464777e-06   -6.048839572349177e-05
-8.917939851527545e-05   9.627649095464777e-06   -6.048839572349177e-05
-8.53106901999318e-05   1.1657534410534475e-05   -3.18233397724561e-07
-8.53106901999318e-05   1.1657534410534475e-05   -3.18233397724561e-07
-8.53106901999318e-05   1.1657534410534475e-05   -3.18233397724561e-07
-8.53106901999318e-05   1.1657534410534475e-05   -3.18233397724561e-07
-5.704432649353112e-05   1.2195531778026996e-05   -4.775163799555471e-05
-5.704432649353112e-05   1.2195531778026996e-05   -4.775163799555471e-05
-5.704432649353112e-05   1.2195531778026996e-05   -4.775163799555471e-05
-5.704432649353112e-05   1.2195531778026996e-05   -4.775163799555471e-05
-6.950272715052211e-05   1.1500179227023205e-05   -2.6570425369967722e-05
-6.950272715052211e-05   1.1500179227023205e-05   -2.6570425369967722e-05
-6.950272715052211e-05   1.1500179227023205e-05   -2.6570425369967722e-05
-6.950272715052211e-05   1.1500179227023205e-05   -2.6570425369967722e-05
-5.704432649353127e-05   1.1657534410534475e-05   -6.410318182201603e-07
-5.704432649353127e-05   1.1657534410534475e-05   -6.410318182201603e-07
-5.704432649353127e-05   1.1657534410534475e-05   -6.410318182201603e-07
-5.704432649353127e-05   1.1657534410534475e-05   -6.410318182201603e-07
-8.53106901999318e-05   1.2195531778026996e-05   -4.742883957505918e-05
-8.53106901999318e-05   1.2195531778026996e-05   -4.742883957505918e-05
-8.53106901999318e-05   1.2195531778026996e-05   -4.742883957505918e-05
-8.53106901999318e-05   1.2195531778026996e-05   -4.742883957505918e-05
-8.2101279378144e-05   1.2039693542513497e-05   5.074031113355042e-06
-8.2101279378144e-05   1.2039693542513497e-05   5.074031113355042e-06
-8.2101279378144e-05   1.2039693542513497e-05   5.074031113355042e-06
-8.2101279378144e-05   1.2039693542513497e-05   5.074031113355042e-06
-5.514680750176918e-05   1.27722920342287e-05   -4.0289647775632484e-05
-5.514680750176918e-05   1.27722920342287e-05   -4.0289647775632484e-05
-5.514680750176918e-05   1.27722920342287e-05   -4.0289647775632484e-05
-5.514680750176918e-05   1.27722920342287e-05   -4.0289647775632484e-05
-6.80338972967999e-05   1.2336428533287792e-05   -1.854964668334899e-05
-6.80338972967999e-05   1.2336428533287792e-05   -1.854964668334899e-05
-6.80338972967999e-05   1.2336428533287792e-05   -1.854964668334899e-05
-6.80338972967999e-05   1.2336428533287792e-05   -1.854964668334899e-05
-5.5146807501769285e-05   1.203969354251393e-05   4.6344720183255726e-06
-5.5146807501769285e-05   1.203969354251393e-05   4.6344720183255726e-06
-5.5146807501769285e-05   1.203969354251393e-05   4.6344720183255726e-06
-5.5146807501769285e-05   1.203969354251393e-05   4.6344720183255726e-06
-8.210127937814386e-05   1.2772292034229134e-05   -3.985008868060314e-05
-8.210127937814386e-05   1.2772292034229134e-05   -3.985008868060314e-05
-8.210127937814386e-05   1.2772292034229134e-05   -3.985008868060314e-05
-8.210127937814386e-05   1.2772292034229134e-05   -3.985008868060314e-05
-7.874546971706436e-05   1.2369891294322123e-05   1.2298317151954001e-05
-7.874546971706436e-05   1.2369891294322123e-05   1.2298317151954001e-05
-7.874546971706436e-05   1.2369891294322123e-05   1.2298317151954001e-05
-7.874546971706436e-05   1.2369891294322123e-05   1.2298317151954001e-05
-5.370652231718075e-05   1.3765119809876648e-05   -3.027039895718482e-05
-5.370652231718075e-05   1.3765119809876648e-05   -3.027039895718482e-05
-5.370652231718075e-05   1.3765119809876648e-05   -3.027039895718482e-05
-5.370652231718075e-05   1.3765119809876648e-05   -3.027039895718482e-05
-6.479588293454287e-05   1.2618397599568551e-05   -1.1100097935396987e-05
-6.479588293454287e-05   1.2618397599568551e-05   -1.1100097935396987e-05
-6.479588293454287e-05   1.2618397599568551e-05   -1.1100097935396987e-05
-6.479588293454287e-05   1.2618397599568551e-05   -1.1100097935396987e-05
7.78179595345103e-05   -1.1691758666019202e-05   2.6521205492881445e-05
7.78179595345103e-05   -1.1691758666019202e-05   2.6521205492881445e-05
7.78179595345103e-05   -1.1691758666019202e-05   2.6521205492881445e-05
7.78179595345103e-05   -1.1691758666019202e-05   2.6521205492881445e-05
3.912412850756773e-05   -1.4790076379457649e-05   -3.982750351341942e-05
3.912412850756773e-05   -1.4790076379457649e-05   -3.982750351341942e-05
3.912412850756773e-05   -1.4790076379457649e-05   -3.982750351341942e-05
3.912412850756773e-05   -1.4790076379457649e-05   -3.982750351341942e-05
4.0082766402685225e-05   -1.1418119475421328e-05   1.9017263186880788e-05
4.0082766402685225e-05   -1.1418119475421328e-05   1.9017263186880788e-05
4.0082766402685225e-05   -1.1418119475421328e-05   1.9017263186880788e-05
4.0082766402685225e-05   -1.1418119475421328e-05   1.9017263186880788e-05
7.976061762776396e-05   -1.5160038267134426e-05   -4.4867337579889094e-05
7.976061762776396e-05   -1.5160038267134426e-05   -4.4867337579889094e-05
7.976061762776396e-05   -1.5160038267134426e-05   -4.4867337579889094e-05
7.976061762776396e-05   -1.5160038267134426e-05   -4.4867337579889094e-05
5.6838874604794865e-05   -1.194297887071238e-05   -8.594668179460335e-06
5.6838874604794865e-05   -1.194297887071238e-05   -8.594668179460335e-06
5.6838874604794865e-05   -1.194297887071238e-05   -8.594668179460335e-06
5.6838874604794865e-05   -1.194297887071238e-05   -8.594668179460335e-06
7.976061762776396e-05   -1.1418119475421328e-05   2.126241446190856e-05
7.976061762776396e-05   -1.1418119475421328e-05   2.126241446190856e-05
7.976061762776396e-05   -1.1418119475421328e-05   2.126241446190856e-05
7.976061762776396e-05   -1.1418119475421328e-05   2.126241446190856e-05
4.0082766402685225e-05   -1.5160038267134426e-05   -4.711248885491681e-05
4.0082766402685225e-05   -1.5160038267134426e-05   -4.711248885491681e-05
4.0082766402685225e-05   -1.5160038267134426e-05   -4.711248885491681e-05
4.0082766402685225e-05   -1.5160038267134426e-05   -4.711248885491681e-05
4.089311571720916e-05   -1.1021915182144858e-05   1.5002093983178515e-05
4.089311571720916e-05   -1.1021915182144858e-05   1.5002093983178515e-05
4.089311571720916e-05   -1.1021915182144858e-05   1.5002093983178515e-05
4.089311571720916e-05   -1.1021915182144858e-05   1.5002093983178515e-05
8.097157859944057e-05   -1.5023227910314178e-05   -4.939455651697245e-05
8.097157859944057e-05   -1.5023227910314178e-05   -4.939455651697245e-05
8.097157859944057e-05   -1.5023227910314178e-05   -4.939455651697245e-05
8.097157859944057e-05   -1.5023227910314178e-05   -4.939455651697245e-05
5.884507358784675e-05   -1.2320859159281605e-05   -1.413846941493587e-05
5.884507358784675e-05   -1.2320859159281605e-05   -1.413846941493587e-05
5.884507358784675e-05   -1.2320859159281605e-05   -1.413846941493587e-05
5.884507358784675e-05   -1.2320859159281605e-05   -1.413846941493587e-05
8.097157859944057e-05   -1.1021915182144858e-05   1.740288162008002e-05
8.097157859944057e-05   -1.1021915182144858e-05   1.740288162008002e-05
8.097157859944057e-05   -1.1021915182144858e-05   1.740288162008002e-05
8.097157859944057e-05   -1.1021915182144858e-05   1.740288162008002e-05
4.089311571720916e-05   -1.5023227910314178e-05   -5.17953441538739e-05
4.089311571720916e-05   -1.5023227910314178e-05   -5.17953441538739e-05
4.089311571720916e-05   -1.5023227910314178e-05   -5.17953441538739e-05
4.089311571720916e-05   -1.5023227910314178e-05   -5.17953441538739e-05
4.17401441501596e-05   -9.475804691269456e-06   7.208138054537721e-06
4.17401441501596e-05   -9.475804691269456e-06   7.208138054537721e-06
4.17401441501596e-05   -9.475804691269456e-06   7.208138054537721e-06
4.17401441501596e-05   -9.475804691269456e-06   7.208138054537721e-06
8.216392577086048e-05   -1.4189014861846951e-05   -5.733690521095069e-05
8.216392577086048e-05   -1.4189014861846951e-05   -5.733690521095069e-05
8.216392577086048e-05   -1.4189014861846951e-05   -5.733690521095069e-05
8.216392577086048e-05   -1.4189014861846951e-05   -5.733690521095069e-05
5.887685236435565e-05   -1.1858343434536026e-05   -1.9923519056496168e-05
5.887685236435565e-05   -1.1858343434536026e-05   -1.9923519056496168e-05
5.887685236435565e-05   -1.1858343434536026e-05   -1.9923519056496168e-05
5.887685236435565e-05   -1.1858343434536026e-05   -1.9923519056496168e-05
3.912412850756773e-05   -7.585433713694356e-06   2.5850961592745973e-06
3.912412850756773e-05   -7.585433713694356e-06   2.5850961592745973e-06
3.912412850756773e-05   -7.585433713694356e-06   2.5850961592745973e-06
3.912412850756773e-05   -7.585433713694356e-06   2.5850961592745973e-06
4.6642772650001656e-06   -1.485944988432325e-05   -5.9212398947382184e-05
4.6642772650001656e-06   -1.485944988432325e-05   -5.9212398947382184e-05
4.6642772650001656e-06   -1.485944988432325e-05   -5.9212398947382184e-05
4.6642772650001656e-06   -1.485944988432325e-05   -5.9212398947382184e-05
5.781828226465225e-06   -7.223500351318749e-06   -3.976176122552459e-07
5.781828226465225e-06   -7.223500351318749e-06   -3.976176122552459e-07
5.781828226465225e-06   -7.223500351318749e-06   -3.976176122552459e-07
5.781828226465225e-06   -7.223500351318749e-06   -3.976176122552459e-07
4.008276640268528e-05   -1.478412136950982e-05   -5.3029475295040694e-05
4.008276640268528e-05   -1.478412136950982e-05   -5.3029475295040694e-05
4.008276640268528e-05   -1.478412136950982e-05   -5.3029475295040694e-05
4.008276640268528e-05   -1.478412136950982e-05   -5.3029475295040694e-05
2.250107315841019e-05   -1.0023658484875197e-05   -2.6582930952029804e-05
2.250107315841019e-05   -1.0023658484875197e-05   -2.6582930952029804e-05
2.250107315841019e-05   -1.0023658484875197e-05   -2.6582930952029804e-05
2.250107315841019e-05   -1.0023658484875197e-05   -2.6582930952029804e-05
4.00827664026852e-05   -7.223500351318749e-06   4.138754998659396e-06
4.00827664026852e-05   -7.223500351318749e-06   4.138754998659396e-06
4.00827664026852e-05   -7.223500351318749e-06   4.138754998659396e-06
4.00827664026852e-05   -7.223500351318749e-06   4.138754998659396e-06
5.781828226465225e-06   -1.478412136950982e-05   -5.756584790595539e-05
5.781828226465225e-06   -1.478412136950982e-05   -5.756584790595539e-05
5.781828226465225e-06   -1.478412136950982e-05   -5.756584790595539e-05
5.781828226465225e-06   -1.478412136950982e-05   -5.756584790595539e-05
6.790635197028312e-06   -6.54876960358864e-06   -7.609892249908073e-07
6.790635197028312e-06   -6.54876960358864e-06   -7.609892249908073e-07
6.790635197028312e-06   -6.54876960358864e-06   -7.609892249908073e-07
6.790635197028312e-06   -6.54876960358864e-06   -7.609892249908073e-07
4.089311571720916e-05   -1.4586885981653953e-05   -5.277558693178613e-05
4.089311571720916e-05   -1.4586885981653953e-05   -5.277558693178613e-05
4.089311571720916e-05   -1.4586885981653953e-05   -5.277558693178613e-05
4.089311571720916e-05   -1.4586885981653953e-05   -5.277558693178613e-05
2.3136396157284525e-05   -1.013507560112788e-05   -2.585214056022669e-05
2.3136396157284525e-05   -1.013507560112788e-05   -2.585214056022669e-05
2.3136396157284525e-05   -1.013507560112788e-05   -2.585214056022669e-05
2.3136396157284525e-05   -1.013507560112788e-05   -2.585214056022669e-05
4.089311571720916e-05   -6.54876960358864e-06   4.061880601848467e-06
4.089311571720916e-05   -6.54876960358864e-06   4.061880601848467e-06
4.089311571720916e-05   -6.54876960358864e-06   4.061880601848467e-06
4.089311571720916e-05   -6.54876960358864e-06   4.061880601848467e-06
6.7906351970282845e-06   -1.4586885981653953e-05   -5.7598456758625564e-05
6.7906351970282845e-06   -1.4586885981653953e-05   -5.7598456758625564e-05
6.7906351970282845e-06   -1.4586885981653953e-05   -5.7598456758625564e-05
6.7906351970282845e-06   -1.4586885981653953e-05   -5.7598456758625564e-05
8.29603253475991e-06   -5.588849630714255e-06   -1.459716463727851e-06
8.29603253475991e-06   -5.588849630714255e-06   -1.459716463727851e-06
8.29603253475991e-06   -5.588849630714255e-06   -1.459716463727851e-06
8.29603253475991e-06   -5.588849630714255e-06   -1.459716463727851e-06
4.17401441501596e-05   -1.4192054024466435e-05   -5.203797985314296e-05
4.17401441501596e-05   -1.4192054024466435e-05   -5.203797985314296e-05
4.17401441501596e-05   -1.4192054024466435e-05   -5.203797985314296e-05
4.17401441501596e-05   -1.4192054024466435e-05   -5.203797985314296e-05
2.4345849565334814e-05   -9.97923894777153e-06   -2.5575177924451876e-05
2.4345849565334814e-05   -9.97923894777153e-06   -2.5575177924451876e-05
2.4345849565334814e-05   -9.97923894777153e-06   -2.5575177924451876e-05
2.4345849565334814e-05   -9.97923894777153e-06   -2.5575177924451876e-05
4.6642772650001656e-06   -3.996702918539815e-06   -5.937800846006827e-06
4.6642772650001656e-06   -3.996702918539815e-06   -5.937800846006827e-06
4.6642772650001656e-06   -3.996702918539815e-06   -5.937800846006827e-06
4.6642772650001656e-06   -3.996702918539815e-06   -5.937800846006827e-06
-2.944018868872681e-05   -1.794881690101672e-05   -7.114984582503778e-05
-2.944018868872681e-05   -1.794881690101672e-05   -7.114984582503778e-05
-2.944018868872681e-05   -1.794881690101672e-05   -7.114984582503778e-05
-2.944018868872681e-05   -1.794881690101672e-05   -7.114984582503778e-05
-2.7699629325074332e-05   -3.5706357239431545e-06   -1.2785874653962288e-05
-2.7699629325074332e-05   -3.5706357239431545e-06   -1.2785874653962288e-05
-2.7699629325074332e-05   -3.5706357239431545e-06   -1.2785874653962288e-05
-2.7699629325074332e-05   -3.5706357239431545e-06   -1.2785874653962288e-05
5.781828226465225e-06   -1.8347229745659284e-05   -5.972234749349834e-05
5.781828226465225e-06   -1.8347229745659284e-05   -5.972234749349834e-05
5.781828226465225e-06   -1.8347229745659284e-05   -5.972234749349834e-05
5.781828226465225e-06   -1.8347229745659284e-05   -5.972234749349834e-05
-1.1278725236375277e-05   -1.0154149699153313e-05   -3.620393975000097e-05
-1.1278725236375277e-05   -1.0154149699153313e-05   -3.620393975000097e-05
-1.1278725236375277e-05   -1.0154149699153313e-05   -3.620393975000097e-05
-1.1278725236375277e-05   -1.0154149699153313e-05   -3.620393975000097e-05
5.781828226465225e-06   -3.5706357239431545e-06   -3.919918240932307e-06
5.781828226465225e-06   -3.5706357239431545e-06   -3.919918240932307e-06
5.781828226465225e-06   -3.5706357239431545e-06   -3.919918240932307e-06
5.781828226465225e-06   -3.5706357239431545e-06   -3.919918240932307e-06
-2.7699629325074373e-05   -1.8347229745659718e-05   -6.858830390652848e-05
-2.7699629325074373e-05   -1.8347229745659718e-05   -6.858830390652848e-05
-2.7699629325074373e-05   -1.8347229745659718e-05   -6.858830390652848e-05
-2.7699629325074373e-05   -1.8347229745659718e-05   -6.858830390652848e-05
-2.620002565310773e-05   -2.9060677747428515e-06   -1.1941669663612878e-05
-2.620002565310773e-05   -2.9060677747428515e-06   -1.1941669663612878e-05
-2.620002565310773e-05   -2.9060677747428515e-06   -1.1941669663612878e-05
-2.620002565310773e-05   -2.9060677747428515e-06   -1.1941669663612878e-05
6.7906351970282845e-06   -1.826317064265422e-05   -5.771184269309242e-05
6.7906351970282845e-06   -1.826317064265422e-05   -5.771184269309242e-05
6.7906351970282845e-06   -1.826317064265422e-05   -5.771184269309242e-05
6.7906351970282845e-06   -1.826317064265422e-05   -5.771184269309242e-05
-1.004263878265299e-05   -1.0385533297877555e-05   -3.4382968467156524e-05
-1.004263878265299e-05   -1.0385533297877555e-05   -3.4382968467156524e-05
-1.004263878265299e-05   -1.0385533297877555e-05   -3.4382968467156524e-05
-1.004263878265299e-05   -1.0385533297877555e-05   -3.4382968467156524e-05
6.7906351970282845e-06   -2.9060677747428515e-06   -2.72740794286558e-06
6.7906351970282845e-06   -2.9060677747428515e-06   -2.72740794286558e-06
6.7906351970282845e-06   -2.9060677747428515e-06   -2.72740794286558e-06
6.7906351970282845e-06   -2.9060677747428515e-06   -2.72740794286558e-06
-2.6200025653107825e-05   -1.8263170642654654e-05   -6.692610441383947e-05
-2.6200025653107825e-05   -1.8263170642654654e-05   -6.692610441383947e-05
-2.6200025653107825e-05   -1.8263170642654654e-05   -6.692610441383947e-05
-2.6200025653107825e-05   -1.8263170642654654e-05   -6.692610441383947e-05
-2.3612831383591478e-05   -2.276045156038905e-06   -1.1890651009719734e-05
-2.3612831383591478e-05   -2.276045156038905e-06   -1.1890651009719734e-05
-2.3612831383591478e-05   -2.276045156038905e-06   -1.1890651009719734e-05
-2.3612831383591478e-05   -2.276045156038905e-06   -1.1890651009719734e-05
8.29603253475991e-06   -1.7624843510369997e-05   -5.586281186104031e-05
8.29603253475991e-06   -1.7624843510369997e-05   -5.586281186104031e-05
8.29603253475991e-06   -1.7624843510369997e-05   -5.586281186104031e-05
8.29603253475991e-06   -1.7624843510369997e-05   -5.586281186104031e-05
-8.436393698586764e-06   -1.0156826784143633e-05   -3.245624484119803e-05
-8.436393698586764e-06   -1.0156826784143633e-05   -3.245624484119803e-05
-8.436393698586764e-06   -1.0156826784143633e-05   -3.245624484119803e-05
-8.436393698586764e-06   -1.0156826784143633e-05   -3.245624484119803e-05
-2.944018868872677e-05   9.852325192844305e-07   -8.311440028900899e-06
-2.944018868872677e-05   9.852325192844305e-07   -8.311440028900899e-06
-2.944018868872677e-05   9.852325192844305e-07   -8.311440028900899e-06
-2.944018868872677e-05   9.852325192844305e-07   -8.311440028900899e-06
-6.7498995970523e-05   -2.2402030664998244e-05   -8.57751434091311e-05
-6.7498995970523e-05   -2.2402030664998244e-05   -8.57751434091311e-05
-6.7498995970523e-05   -2.2402030664998244e-05   -8.57751434091311e-05
-6.7498995970523e-05   -2.2402030664998244e-05   -8.57751434091311e-05
-6.542208854901024e-05   1.774906399088557e-06   -2.1650430922428828e-05
-6.542208854901024e-05   1.774906399088557e-06   -2.1650430922428828e-05
-6.542208854901024e-05   1.774906399088557e-06   -2.1650430922428828e-05
-6.542208854901024e-05   1.774906399088557e-06   -2.1650430922428828e-05
-2.7699629325074332e-05   -2.500489808603297e-05   -6.84533136045823e-05
-2.7699629325074332e-05   -2.500489808603297e-05   -6.84533136045823e-05
-2.7699629325074332e-05   -2.500489808603297e-05   -6.84533136045823e-05
-2.7699629325074332e-05   -2.500489808603297e-05   -6.84533136045823e-05
-4.683047866040232e-05   -1.1404256170048296e-05   -4.472894986195977e-05
-4.683047866040232e-05   -1.1404256170048296e-05   -4.472894986195977e-05
-4.683047866040232e-05   -1.1404256170048296e-05   -4.472894986195977e-05
-4.683047866040232e-05   -1.1404256170048296e-05   -4.472894986195977e-05
-2.7699629325074332e-05   1.7749063990889907e-06   -5.582548231355998e-06
-2.7699629325074332e-05   1.7749063990889907e-06   -5.582548231355998e-06
-2.7699629325074332e-05   1.7749063990889907e-06   -5.582548231355998e-06
-2.7699629325074332e-05   1.7749063990889907e-06   -5.582548231355998e-06
-6.542208854901024e-05   -2.5004898086032536e-05   -8.452119629565524e-05
-6.542208854901024e-05   -2.5004898086032536e-05   -8.452119629565524e-05
-6.542208854901024e-05   -2.5004898086032536e-05   -8.452119629565524e-05
-6.542208854901024e-05   -2.5004898086032536e-05   -8.452119629565524e-05
-6.343098706849485e-05   2.5020435854019273e-06   -1.9349309598922122e-05
-6.343098706849485e-05   2.5020435854019273e-06   -1.9349309598922122e-05
-6.343098706849485e-05   2.5020435854019273e-06   -1.9349309598922122e-05
-6.343098706849485e-05   2.5020435854019273e-06   -1.9349309598922122e-05
-2.6200025653107785e-05   -2.514620871303143e-05   -6.481196057884066e-05
-2.6200025653107785e-05   -2.514620871303143e-05   -6.481196057884066e-05
-2.6200025653107785e-05   -2.514620871303143e-05   -6.481196057884066e-05
-2.6200025653107785e-05   -2.514620871303143e-05   -6.481196057884066e-05
-4.480545275977305e-05   -1.1444535694647272e-05   -4.202391921209552e-05
-4.480545275977305e-05   -1.1444535694647272e-05   -4.202391921209552e-05
-4.480545275977305e-05   -1.1444535694647272e-05   -4.202391921209552e-05
-4.480545275977305e-05   -1.1444535694647272e-05   -4.202391921209552e-05
-2.6200025653107757e-05   2.5020435854019273e-06   -2.7603582198618484e-06
-2.6200025653107757e-05   2.5020435854019273e-06   -2.7603582198618484e-06
-2.6200025653107757e-05   2.5020435854019273e-06   -2.7603582198618484e-06
-2.6200025653107757e-05   2.5020435854019273e-06   -2.7603582198618484e-06
-6.343098706849494e-05   -2.5146208713030995e-05   -8.140091195790039e-05
-6.343098706849494e-05   -2.5146208713030995e-05   -8.140091195790039e-05
-6.343098706849494e-05   -2.5146208713030995e-05   -8.140091195790039e-05
-6.343098706849494e-05   -2.5146208713030995e-05   -8.140091195790039e-05
-6.016872875756673e-05   3.1175375537705573e-06   -1.7004553499288437e-05
-6.016872875756673e-05   3.1175375537705573e-06   -1.7004553499288437e-05
-6.016872875756673e-05   3.1175375537705573e-06   -1.7004553499288437e-05
-6.016872875756673e-05   3.1175375537705573e-06   -1.7004553499288437e-05
-2.361283138359156e-05   -2.2959425545503696e-05   -6.228487126301585e-05
-2.361283138359156e-05   -2.2959425545503696e-05   -6.228487126301585e-05
-2.361283138359156e-05   -2.2959425545503696e-05   -6.228487126301585e-05
-2.361283138359156e-05   -2.2959425545503696e-05   -6.228487126301585e-05
-4.280438363276876e-05   -1.0115909864848172e-05   -3.800506025611295e-05
-4.280438363276876e-05   -1.0115909864848172e-05   -3.800506025611295e-05
-4.280438363276876e-05   -1.0115909864848172e-05   -3.800506025611295e-05
-4.280438363276876e-05   -1.0115909864848172e-05   -3.800506025611295e-05
-6.7498995970523e-05   9.627649095464777e-06   -1.4652869000197737e-05
-6.7498995970523e-05   9.627649095464777e-06   -1.4652869000197737e-05
-6.7498995970523e-05   9.627649095464777e-06   -1.4652869000197737e-05
-6.7498995970523e-05   9.627649095464777e-06   -1.4652869000197737e-05
-0.00011626157991697172   0.0   -0.0001017004317015581
-0.00011626157991697172   0.0   -0.0001017004317015581
-0.00011626157991697172   0.0   -0.0001017004317015581
-0.00011626157991697172   0.0   -0.0001017004317015581
-0.0001132211670236806   1.219553177802743e-05   -1.1248569731921523e-05
-0.0001132211670236806   1.219553177802743e-05   -1.1248569731921523e-05
-0.0001132211670236806   1.219553177802743e-05   -1.1248569731921523e-05
-0.0001132211670236806   1.219553177802743e-05   -1.1248569731921523e-05
-6.542208854901012e-05   0.0   -8.359638145622245e-05
-6.542208854901012e-05   0.0   -8.359638145622245e-05
-6.542208854901012e-05   0.0   -8.359638145622245e-05
-6.542208854901012e-05   0.0   -8.359638145622245e-05
-8.675094614322046e-05   3.723130510639369e-06   -5.028216377225554e-05
-8.675094614322046e-05   3.723130510639369e-06   -5.028216377225554e-05
-8.675094614322046e-05   3.723130510639369e-06   -5.028216377225554e-05
-8.675094614322046e-05   3.723130510639369e-06   -5.028216377225554e-05
-6.542208854901018e-05   1.219553177802743e-05   -3.931250665104762e-06
-6.542208854901018e-05   1.219553177802743e-05   -3.931250665104762e-06
-6.542208854901018e-05   1.219553177802743e-05   -3.931250665104762e-06
-6.542208854901018e-05   1.219553177802743e-05   -3.931250665104762e-06
-0.00011322116702368041   0.0   -9.091370052303864e-05
-0.00011322116702368041   0.0   -9.091370052303864e-05
-0.00011322116702368041   0.0   -9.091370052303864e-05
-0.00011322116702368041   0.0   -9.091370052303864e-05
-0.00011065008000163518   1.2772292034229134e-05   -4.510184172005225e-06
-0.00011065008000163518   1.2772292034229134e-05   -4.510184172005225e-06
-0.00011065008000163518   1.2772292034229134e-05   -4.510184172005225e-06
-0.00011065008000163518   1.2772292034229134e-05   -4.510184172005225e-06
-6.343098706849494e-05   0.0   -7.554529717336854e-05
-6.343098706849494e-05   0.0   -7.554529717336854e-05
-6.343098706849494e-05   0.0   -7.554529717336854e-05
-6.343098706849494e-05   0.0   -7.554529717336854e-05
-8.584123272127193e-05   5.904657444681747e-06   -4.1737682218881455e-05
-8.584123272127193e-05   5.904657444681747e-06   -4.1737682218881455e-05
-8.584123272127193e-05   5.904657444681747e-06   -4.1737682218881455e-05
-8.584123272127193e-05   5.904657444681747e-06   -4.1737682218881455e-05
-6.343098706849494e-05   1.2772292034229134e-05   3.153191048532126e-06
-6.343098706849494e-05   1.2772292034229134e-05   3.153191048532126e-06
-6.343098706849494e-05   1.2772292034229134e-05   3.153191048532126e-06
-6.343098706849494e-05   1.2772292034229134e-05   3.153191048532126e-06
-0.00011065008000163499   0.0   -8.320867239390551e-05
-0.00011065008000163499   0.0   -8.320867239390551e-05
-0.00011065008000163499   0.0   -8.320867239390551e-05
-0.00011065008000163499   0.0   -8.320867239390551e-05
-0.00010552120853085572   1.3765119809876648e-05   6.3322897307432555e-06
-0.00010552120853085572   1.3765119809876648e-05   6.3322897307432555e-06
-0.00010552120853085572   1.3765119809876648e-05   6.3322897307432555e-06
-0.00010552120853085572   1.3765119809876648e-05   6.3322897307432555e-06
-6.016872875756682e-05   0.0   -6.099610467214561e-05
-6.016872875756682e-05   0.0   -6.099610467214561e-05
-6.016872875756682e-05   0.0   -6.099610467214561e-05
-6.016872875756682e-05   0.0   -6.099610467214561e-05
-8.136807988655577e-05   7.2845717318968314e-06   -3.003459582963527e-05
-8.136807988655577e-05   7.2845717318968314e-06   -3.003459582963527e-05
-8.136807988655577e-05   7.2845717318968314e-06   -3.003459582963527e-05
-8.136807988655577e-05   7.2845717318968314e-06   -3.003459582963527e-05
8.609372845996751e-05   -1.4790076379457649e-05   5.140324189875276e-05
8.609372845996751e-05   -1.4790076379457649e-05   5.140324189875276e-05
8.609372845996751e-05   -1.4790076379457649e-05   5.140324189875276e-05
8.609372845996751e-05   -1.4790076379457649e-05   5.140324189875276e-05
4.467674037409499e-05   -1.1390551123315832e-05   -1.558535642401642e-05
4.467674037409499e-05   -1.1390551123315832e-05   -1.558535642401642e-05
4.467674037409499e-05   -1.1390551123315832e-05   -1.558535642401642e-05
4.467674037409499e-05   -1.1390551123315832e-05   -1.558535642401642e-05
4.355107382600842e-05   -1.5160038267134426e-05   4.5406030873495606e-05
4.355107382600842e-05   -1.5160038267134426e-05   4.5406030873495606e-05
4.355107382600842e-05   -1.5160038267134426e-05   4.5406030873495606e-05
4.355107382600842e-05   -1.5160038267134426e-05   4.5406030873495606e-05
8.517056093375628e-05   -1.2524683609807085e-05   -2.5540993767147135e-05
8.517056093375628e-05   -1.2524683609807085e-05   -2.5540993767147135e-05
8.517056093375628e-05   -1.2524683609807085e-05   -2.5540993767147135e-05
8.517056093375628e-05   -1.2524683609807085e-05   -2.5540993767147135e-05
6.221890268011698e-05   -1.2740793003035433e-05   1.2841435624855397e-05
6.221890268011698e-05   -1.2740793003035433e-05   1.2841435624855397e-05
6.221890268011698e-05   -1.2740793003035433e-05   1.2841435624855397e-05
6.221890268011698e-05   -1.2740793003035433e-05   1.2841435624855397e-05
8.517056093375628e-05   -1.5160038267134426e-05   4.3824818079099504e-05
8.517056093375628e-05   -1.5160038267134426e-05   4.3824818079099504e-05
8.517056093375628e-05   -1.5160038267134426e-05   4.3824818079099504e-05
8.517056093375628e-05   -1.5160038267134426e-05   4.3824818079099504e-05
4.355107382600842e-05   -1.2524683609807085e-05   -2.3959780972750925e-05
4.355107382600842e-05   -1.2524683609807085e-05   -2.3959780972750925e-05
4.355107382600842e-05   -1.2524683609807085e-05   -2.3959780972750925e-05
4.355107382600842e-05   -1.2524683609807085e-05   -2.3959780972750925e-05
4.2532926407169556e-05   -1.5023227910314178e-05   4.077071064697213e-05
4.2532926407169556e-05   -1.5023227910314178e-05   4.077071064697213e-05
4.2532926407169556e-05   -1.5023227910314178e-05   4.077071064697213e-05
4.2532926407169556e-05   -1.5023227910314178e-05   4.077071064697213e-05
8.410349723118069e-05   -1.2629500723193056e-05   -2.9949810371985913e-05
8.410349723118069e-05   -1.2629500723193056e-05   -2.9949810371985913e-05
8.410349723118069e-05   -1.2629500723193056e-05   -2.9949810371985913e-05
8.410349723118069e-05   -1.2629500723193056e-05   -2.9949810371985913e-05
6.216964475724677e-05   -1.296422563434093e-05   6.807445364592811e-06
6.216964475724677e-05   -1.296422563434093e-05   6.807445364592811e-06
6.216964475724677e-05   -1.296422563434093e-05   6.807445364592811e-06
6.216964475724677e-05   -1.296422563434093e-05   6.807445364592811e-06
8.410349723118085e-05   -1.5023227910313745e-05   3.933447433469937e-05
8.410349723118085e-05   -1.5023227910313745e-05   3.933447433469937e-05
8.410349723118085e-05   -1.5023227910313745e-05   3.933447433469937e-05
8.410349723118085e-05   -1.5023227910313745e-05   3.933447433469937e-05
4.2532926407169556e-05   -1.2629500723193056e-05   -2.851357405971337e-05
4.2532926407169556e-05   -1.2629500723193056e-05   -2.851357405971337e-05
4.2532926407169556e-05   -1.2629500723193056e-05   -2.851357405971337e-05
4.2532926407169556e-05   -1.2629500723193056e-05   -2.851357405971337e-05
4.12908443174249e-05   -1.4189014861846951e-05   3.322947785441366e-05
4.12908443174249e-05   -1.4189014861846951e-05   3.322947785441366e-05
4.12908443174249e-05   -1.4189014861846951e-05   3.322947785441366e-05
4.12908443174249e-05   -1.4189014861846951e-05   3.322947785441366e-05
8.243165249083848e-05   -1.2367532899486798e-05   -3.6431424945358054e-05
8.243165249083848e-05   -1.2367532899486798e-05   -3.6431424945358054e-05
8.243165249083848e-05   -1.2367532899486798e-05   -3.6431424945358054e-05
8.243165249083848e-05   -1.2367532899486798e-05   -3.6431424945358054e-05
6.004550239462362e-05   -1.232787295387663e-05   8.550292476335215e-07
6.004550239462362e-05   -1.232787295387663e-05   8.550292476335215e-07
6.004550239462362e-05   -1.232787295387663e-05   8.550292476335215e-07
6.004550239462362e-05   -1.232787295387663e-05   8.550292476335215e-07
4.467674037409499e-05   -1.485944988432325e-05   3.842247132085255e-05
4.467674037409499e-05   -1.485944988432325e-05   3.842247132085255e-05
4.467674037409499e-05   -1.485944988432325e-05   3.842247132085255e-05
4.467674037409499e-05   -1.485944988432325e-05   3.842247132085255e-05
9.539916493420033e-06   -7.05032169172554e-06   -1.5453424898046993e-05
9.539916493420033e-06   -7.05032169172554e-06   -1.5453424898046993e-05
9.539916493420033e-06   -7.05032169172554e-06   -1.5453424898046993e-05
9.539916493420033e-06   -7.05032169172554e-06   -1.5453424898046993e-05
7.758358387128015e-06   -1.478412136950982e-05   4.3872499869830345e-05
7.758358387128015e-06   -1.478412136950982e-05   4.3872499869830345e-05
7.758358387128015e-06   -1.478412136950982e-05   4.3872499869830345e-05
7.758358387128015e-06   -1.478412136950982e-05   4.3872499869830345e-05
4.355107382600842e-05   -7.478362308745937e-06   -2.0165481298095367e-05
4.355107382600842e-05   -7.478362308745937e-06   -2.0165481298095367e-05
4.355107382600842e-05   -7.478362308745937e-06   -2.0165481298095367e-05
4.355107382600842e-05   -7.478362308745937e-06   -2.0165481298095367e-05
2.6345100705178997e-05   -1.0634404404344898e-05   1.0404765827313122e-05
2.6345100705178997e-05   -1.0634404404344898e-05   1.0404765827313122e-05
2.6345100705178997e-05   -1.0634404404344898e-05   1.0404765827313122e-05
2.6345100705178997e-05   -1.0634404404344898e-05   1.0404765827313122e-05
4.355107382600845e-05   -1.478412136950982e-05   3.9489044433371886e-05
4.355107382600845e-05   -1.478412136950982e-05   3.9489044433371886e-05
4.355107382600845e-05   -1.478412136950982e-05   3.9489044433371886e-05
4.355107382600845e-05   -1.478412136950982e-05   3.9489044433371886e-05
7.758358387128015e-06   -7.478362308745937e-06   -1.5782025861637043e-05
7.758358387128015e-06   -7.478362308745937e-06   -1.5782025861637043e-05
7.758358387128015e-06   -7.478362308745937e-06   -1.5782025861637043e-05
7.758358387128015e-06   -7.478362308745937e-06   -1.5782025861637043e-05
6.48816652018254e-06   -1.4586885981653953e-05   4.3941026930123094e-05
6.48816652018254e-06   -1.4586885981653953e-05   4.3941026930123094e-05
6.48816652018254e-06   -1.4586885981653953e-05   4.3941026930123094e-05
6.48816652018254e-06   -1.4586885981653953e-05   4.3941026930123094e-05
4.2532926407169556e-05   -7.669287546547849e-06   -2.0284131942585625e-05
4.2532926407169556e-05   -7.669287546547849e-06   -2.0284131942585625e-05
4.2532926407169556e-05   -7.669287546547849e-06   -2.0284131942585625e-05
4.2532926407169556e-05   -7.669287546547849e-06   -2.0284131942585625e-05
2.4818544358542772e-05   -1.041697433230935e-05   1.0888450209916786e-05
2.4818544358542772e-05   -1.041697433230935e-05   1.0888450209916786e-05
2.4818544358542772e-05   -1.041697433230935e-05   1.0888450209916786e-05
2.4818544358542772e-05   -1.041697433230935e-05   1.0888450209916786e-05
4.253292640716964e-05   -1.4586885981653953e-05   3.979046786905952e-05
4.253292640716964e-05   -1.4586885981653953e-05   3.979046786905952e-05
4.253292640716964e-05   -1.4586885981653953e-05   3.979046786905952e-05
4.253292640716964e-05   -1.4586885981653953e-05   3.979046786905952e-05
6.48816652018254e-06   -7.669287546547849e-06   -1.6133572881522158e-05
6.48816652018254e-06   -7.669287546547849e-06   -1.6133572881522158e-05
6.48816652018254e-06   -7.669287546547849e-06   -1.6133572881522158e-05
6.48816652018254e-06   -7.669287546547849e-06   -1.6133572881522158e-05
5.075094676239181e-06   -1.4192054024466435e-05   4.537311843866819e-05
5.075094676239181e-06   -1.4192054024466435e-05   4.537311843866819e-05
5.075094676239181e-06   -1.4192054024466435e-05   4.537311843866819e-05
5.075094676239181e-06   -1.4192054024466435e-05   4.537311843866819e-05
4.1290844317424846e-05   -7.4974054842993215e-06   -1.9003253420741173e-05
4.1290844317424846e-05   -7.4974054842993215e-06   -1.9003253420741173e-05
4.1290844317424846e-05   -7.4974054842993215e-06   -1.9003253420741173e-05
4.1290844317424846e-05   -7.4974054842993215e-06   -1.9003253420741173e-05
2.388447043344528e-05   -9.960760894333048e-06   1.1485382965245009e-05
2.388447043344528e-05   -9.960760894333048e-06   1.1485382965245009e-05
2.388447043344528e-05   -9.960760894333048e-06   1.1485382965245009e-05
2.388447043344528e-05   -9.960760894333048e-06   1.1485382965245009e-05
9.539916493420033e-06   -1.794881690101672e-05   3.9541769748241634e-05
9.539916493420033e-06   -1.794881690101672e-05   3.9541769748241634e-05
9.539916493420033e-06   -1.794881690101672e-05   3.9541769748241634e-05
9.539916493420033e-06   -1.794881690101672e-05   3.9541769748241634e-05
-2.4211750115441254e-05   -2.975921001401125e-06   -7.727270393424355e-06
-2.4211750115441254e-05   -2.975921001401125e-06   -7.727270393424355e-06
-2.4211750115441254e-05   -2.975921001401125e-06   -7.727270393424355e-06
-2.4211750115441254e-05   -2.975921001401125e-06   -7.727270393424355e-06
-2.6983364238461992e-05   -1.8347229745659718e-05   5.083867765478438e-05
-2.6983364238461992e-05   -1.8347229745659718e-05   5.083867765478438e-05
-2.6983364238461992e-05   -1.8347229745659718e-05   5.083867765478438e-05
-2.6983364238461992e-05   -1.8347229745659718e-05   5.083867765478438e-05
7.758358387128042e-06   -3.142767458164542e-06   -1.618687076036237e-05
7.758358387128042e-06   -3.142767458164542e-06   -1.618687076036237e-05
7.758358387128042e-06   -3.142767458164542e-06   -1.618687076036237e-05
7.758358387128042e-06   -3.142767458164542e-06   -1.618687076036237e-05
-8.171268877765457e-06   -1.0262975053318066e-05   1.4634632571551912e-05
-8.171268877765457e-06   -1.0262975053318066e-05   1.4634632571551912e-05
-8.171268877765457e-06   -1.0262975053318066e-05   1.4634632571551912e-05
-8.171268877765457e-06   -1.0262975053318066e-05   1.4634632571551912e-05
7.758358387128015e-06   -1.8347229745659284e-05   4.171600028228745e-05
7.758358387128015e-06   -1.8347229745659284e-05   4.171600028228745e-05
7.758358387128015e-06   -1.8347229745659284e-05   4.171600028228745e-05
7.758358387128015e-06   -1.8347229745659284e-05   4.171600028228745e-05
-2.6983364238461938e-05   -3.142767458164542e-06   -7.0641933878653855e-06
-2.6983364238461938e-05   -3.142767458164542e-06   -7.0641933878653855e-06
-2.6983364238461938e-05   -3.142767458164542e-06   -7.0641933878653855e-06
-2.6983364238461938e-05   -3.142767458164542e-06   -7.0641933878653855e-06
-2.8676972120992558e-05   -1.8263170642654654e-05   5.277736482740044e-05
-2.8676972120992558e-05   -1.8263170642654654e-05   5.277736482740044e-05
-2.8676972120992558e-05   -1.8263170642654654e-05   5.277736482740044e-05
-2.8676972120992558e-05   -1.8263170642654654e-05   5.277736482740044e-05
6.48816652018254e-06   -3.34696425641429e-06   -1.478092340630226e-05
6.48816652018254e-06   -3.34696425641429e-06   -1.478092340630226e-05
6.48816652018254e-06   -3.34696425641429e-06   -1.478092340630226e-05
6.48816652018254e-06   -3.34696425641429e-06   -1.478092340630226e-05
-1.0047448585562217e-05   -1.023144718814619e-05   1.6909124862311744e-05
-1.0047448585562217e-05   -1.023144718814619e-05   1.6909124862311744e-05
-1.0047448585562217e-05   -1.023144718814619e-05   1.6909124862311744e-05
-1.0047448585562217e-05   -1.023144718814619e-05   1.6909124862311744e-05
6.48816652018254e-06   -1.8263170642654654e-05   4.382764099565605e-05
6.48816652018254e-06   -1.8263170642654654e-05   4.382764099565605e-05
6.48816652018254e-06   -1.8263170642654654e-05   4.382764099565605e-05
6.48816652018254e-06   -1.8263170642654654e-05   4.382764099565605e-05
-2.8676972120992517e-05   -3.34696425641429e-06   -5.83119957455803e-06
-2.8676972120992517e-05   -3.34696425641429e-06   -5.83119957455803e-06
-2.8676972120992517e-05   -3.34696425641429e-06   -5.83119957455803e-06
-2.8676972120992517e-05   -3.34696425641429e-06   -5.83119957455803e-06
-3.066939148812153e-05   -1.7624843510369997e-05   5.528826913920627e-05
-3.066939148812153e-05   -1.7624843510369997e-05   5.528826913920627e-05
-3.066939148812153e-05   -1.7624843510369997e-05   5.528826913920627e-05
-3.066939148812153e-05   -1.7624843510369997e-05   5.528826913920627e-05
5.075094676239208e-06   -3.3280767233970915e-06   -1.286393454024535e-05
5.075094676239208e-06   -3.3280767233970915e-06   -1.286393454024535e-05
5.075094676239208e-06   -3.3280767233970915e-06   -1.286393454024535e-05
5.075094676239208e-06   -3.3280767233970915e-06   -1.286393454024535e-05
-1.1575009623382295e-05   -9.825713791851778e-06   1.878482153352967e-05
-1.1575009623382295e-05   -9.825713791851778e-06   1.878482153352967e-05
-1.1575009623382295e-05   -9.825713791851778e-06   1.878482153352967e-05
-1.1575009623382295e-05   -9.825713791851778e-06   1.878482153352967e-05
-2.4211750115441308e-05   -2.2402030664998244e-05   4.793256761448806e-05
-2.4211750115441308e-05   -2.2402030664998244e-05   4.793256761448806e-05
-2.4211750115441308e-05   -2.2402030664998244e-05   4.793256761448806e-05
-2.4211750115441308e-05   -2.2402030664998244e-05   4.793256761448806e-05
-6.265838589697568e-05   3.168091971825996e-06   -8.030851059745263e-07
-6.265838589697568e-05   3.168091971825996e-06   -8.030851059745263e-07
-6.265838589697568e-05   3.168091971825996e-06   -8.030851059745263e-07
-6.265838589697568e-05   3.168091971825996e-06   -8.030851059745263e-07
-6.598744201864443e-05   -2.5004898086032536e-05   6.776221934492403e-05
-6.598744201864443e-05   -2.5004898086032536e-05   6.776221934492403e-05
-6.598744201864443e-05   -2.5004898086032536e-05   6.776221934492403e-05
-6.598744201864443e-05   -2.5004898086032536e-05   6.776221934492403e-05
-2.6983364238461938e-05   2.9760208942902246e-06   -1.4033128343573663e-05
-2.6983364238461938e-05   2.9760208942902246e-06   -1.4033128343573663e-05
-2.6983364238461938e-05   2.9760208942902246e-06   -1.4033128343573663e-05
-2.6983364238461938e-05   2.9760208942902246e-06   -1.4033128343573663e-05
-4.433076207964658e-05   -9.314404565141654e-06   2.22534566673931e-05
-4.433076207964658e-05   -9.314404565141654e-06   2.22534566673931e-05
-4.433076207964658e-05   -9.314404565141654e-06   2.22534566673931e-05
-4.433076207964658e-05   -9.314404565141654e-06   2.22534566673931e-05
-2.6983364238461992e-05   -2.5004898086032536e-05   5.0973667956730456e-05
-2.6983364238461992e-05   -2.5004898086032536e-05   5.0973667956730456e-05
-2.6983364238461992e-05   -2.5004898086032536e-05   5.0973667956730456e-05
-2.6983364238461992e-05   -2.5004898086032536e-05   5.0973667956730456e-05
-6.598744201864443e-05   2.976020894289791e-06   2.7554230446200697e-06
-6.598744201864443e-05   2.976020894289791e-06   2.7554230446200697e-06
-6.598744201864443e-05   2.976020894289791e-06   2.7554230446200697e-06
-6.598744201864443e-05   2.976020894289791e-06   2.7554230446200697e-06
-6.801684696998305e-05   -2.5146208713030995e-05   7.155362995251943e-05
-6.801684696998305e-05   -2.5146208713030995e-05   7.155362995251943e-05
-6.801684696998305e-05   -2.5146208713030995e-05   7.155362995251943e-05
-6.801684696998305e-05   -2.5146208713030995e-05   7.155362995251943e-05
-2.8676972120992517e-05   2.623993437169108e-06   -1.0674949419251347e-05
-2.8676972120992517e-05   2.623993437169108e-06   -1.0674949419251347e-05
-2.8676972120992517e-05   2.623993437169108e-06   -1.0674949419251347e-05
-2.8676972120992517e-05   2.623993437169108e-06   -1.0674949419251347e-05
-4.649450126293652e-05   -1.0718930462168957e-05   2.7026686823591363e-05
-4.649450126293652e-05   -1.0718930462168957e-05   2.7026686823591363e-05
-4.649450126293652e-05   -1.0718930462168957e-05   2.7026686823591363e-05
-4.649450126293652e-05   -1.0718930462168957e-05   2.7026686823591363e-05
-2.867697212099249e-05   -2.514620871303143e-05   5.4891508662399365e-05
-2.867697212099249e-05   -2.514620871303143e-05   5.4891508662399365e-05
-2.867697212099249e-05   -2.514620871303143e-05   5.4891508662399365e-05
-2.867697212099249e-05   -2.514620871303143e-05   5.4891508662399365e-05
-6.801684696998291e-05   2.623993437169108e-06   5.987171870868715e-06
-6.801684696998291e-05   2.623993437169108e-06   5.987171870868715e-06
-6.801684696998291e-05   2.623993437169108e-06   5.987171870868715e-06
-6.801684696998291e-05   2.623993437169108e-06   5.987171870868715e-06
-7.020308287716064e-05   -2.2959425545503696e-05   7.318655424332597e-05
-7.020308287716064e-05   -2.2959425545503696e-05   7.318655424332597e-05
-7.020308287716064e-05   -2.2959425545503696e-05   7.318655424332597e-05
-7.020308287716064e-05   -2.2959425545503696e-05   7.318655424332597e-05
-3.0669391488121435e-05   2.2256836103243943e-06   -7.813996898569216e-06
-3.0669391488121435e-05   2.2256836103243943e-06   -7.813996898569216e-06
-3.0669391488121435e-05   2.2256836103243943e-06   -7.813996898569216e-06
-3.0669391488121435e-05   2.2256836103243943e-06   -7.813996898569216e-06
-4.872250190580207e-05   -1.0800072459812935e-05   3.0089974106315104e-05
-4.872250190580207e-05   -1.0800072459812935e-05   3.0089974106315104e-05
-4.872250190580207e-05   -1.0800072459812935e-05   3.0089974106315104e-05
-4.872250190580207e-05   -1.0800072459812935e-05   3.0089974106315104e-05
-6.265838589697548e-05   0.0   5.3125942361434116e-05
-6.265838589697548e-05   0.0   5.3125942361434116e-05
-6.265838589697548e-05   0.0   5.3125942361434116e-05
-6.265838589697548e-05   0.0   5.3125942361434116e-05
-0.00011039229888372709   1.4470367581777884e-05   -1.7748358734085128e-05
-0.00011039229888372709   1.4470367581777884e-05   -1.7748358734085128e-05
-0.00011039229888372709   1.4470367581777884e-05   -1.7748358734085128e-05
-0.00011039229888372709   1.4470367581777884e-05   -1.7748358734085128e-05
-0.00011498635573201821   0.0   7.706469527541987e-05
-0.00011498635573201821   0.0   7.706469527541987e-05
-0.00011498635573201821   0.0   7.706469527541987e-05
-0.00011498635573201821   0.0   7.706469527541987e-05
-6.598744201864432e-05   1.3962768485105588e-05   -1.2977822004600138e-05
-6.598744201864432e-05   1.3962768485105588e-05   -1.2977822004600138e-05
-6.598744201864432e-05   1.3962768485105588e-05   -1.2977822004600138e-05
-6.598744201864432e-05   1.3962768485105588e-05   -1.2977822004600138e-05
-8.473148272472643e-05   8.58538273451441e-06   2.148867728922466e-05
-8.473148272472643e-05   8.58538273451441e-06   2.148867728922466e-05
-8.473148272472643e-05   8.58538273451441e-06   2.148867728922466e-05
-8.473148272472643e-05   8.58538273451441e-06   2.148867728922466e-05
-6.598744201864424e-05   0.0   6.868703418435652e-05
-6.598744201864424e-05   0.0   6.868703418435652e-05
-6.598744201864424e-05   0.0   6.868703418435652e-05
-6.598744201864424e-05   0.0   6.868703418435652e-05
-0.00011498635573201843   1.3962768485105588e-05   -4.600160913536622e-06
-0.00011498635573201843   1.3962768485105588e-05   -4.600160913536622e-06
-0.00011498635573201843   1.3962768485105588e-05   -4.600160913536622e-06
-0.00011498635573201843   1.3962768485105588e-05   -4.600160913536622e-06
-0.0001173004310771902   0.0   8.557129257136037e-05
-0.0001173004310771902   0.0   8.557129257136037e-05
-0.0001173004310771902   0.0   8.557129257136037e-05
-0.0001173004310771902   0.0   8.557129257136037e-05
-6.801684696998291e-05   1.3603413057181827e-05   -4.730062108294409e-06
-6.801684696998291e-05   1.3603413057181827e-05   -4.730062108294409e-06
-6.801684696998291e-05   1.3603413057181827e-05   -4.730062108294409e-06
-6.801684696998291e-05   1.3603413057181827e-05   -4.730062108294409e-06
-8.915909222310152e-05   7.167869975792558e-06   3.436833916240422e-05
-8.915909222310152e-05   7.167869975792558e-06   3.436833916240422e-05
-8.915909222310152e-05   7.167869975792558e-06   3.436833916240422e-05
-8.915909222310152e-05   7.167869975792558e-06   3.436833916240422e-05
-6.801684696998291e-05   0.0   7.740924473705123e-05
-6.801684696998291e-05   0.0   7.740924473705123e-05
-6.801684696998291e-05   0.0   7.740924473705123e-05
-6.801684696998291e-05   0.0   7.740924473705123e-05
-0.00011730043107719059   1.360341305718226e-05   3.431985726014622e-06
-0.00011730043107719059   1.360341305718226e-05   3.431985726014622e-06
-0.00011730043107719059   1.360341305718226e-05   3.431985726014622e-06
-0.00011730043107719059   1.360341305718226e-05   3.431985726014622e-06
-0.00011987868148144442   0.0   9.691541718985053e-05
-0.00011987868148144442   0.0   9.691541718985053e-05
-0.00011987868148144442   0.0   9.691541718985053e-05
-0.00011987868148144442   0.0   9.691541718985053e-05
-7.020308287716064e-05   1.1323197493483522e-05   7.328834353287274e-06
-7.020308287716064e-05   1.1323197493483522e-05   7.328834353287274e-06
-7.020308287716064e-05   1.1323197493483522e-05   7.328834353287274e-06
-7.020308287716064e-05   1.1323197493483522e-05   7.328834353287274e-06
-8.990643973266858e-05   5.02924234109612e-06   4.3944135537232884e-05
-8.990643973266858e-05   5.02924234109612e-06   4.3944135537232884e-05
-8.990643973266858e-05   5.02924234109612e-06   4.3944135537232884e-05
-8.990643973266858e-05   5.02924234109612e-06   4.3944135537232884e-05
7.569620544363472e-05   -1.1390551123315832e-05   5.376546726738288e-05
7.569620544363472e-05   -1.1390551123315832e-05   5.376546726738288e-05
7.569620544363472e-05   -1.1390551123315832e-05   5.376546726738288e-05
7.569620544363472e-05   -1.1390551123315832e-05   5.376546726738288e-05
3.828983505416545e-05   -8.585551177537395e-06   -6.89548341426525e-06
3.828983505416545e-05   -8.585551177537395e-06   -6.89548341426525e-06
3.828983505416545e-05   -8.585551177537395e-06   -6.89548341426525e-06
3.828983505416545e-05   -8.585551177537395e-06   -6.89548341426525e-06
3.7277748640585046e-05   -1.2524683609807085e-05   4.69358121747514e-05
3.7277748640585046e-05   -1.2524683609807085e-05   4.69358121747514e-05
3.7277748640585046e-05   -1.2524683609807085e-05   4.69358121747514e-05
3.7277748640585046e-05   -1.2524683609807085e-05   4.69358121747514e-05
7.388855512982178e-05   -9.732130215263628e-06   -1.575773067736897e-05
7.388855512982178e-05   -9.732130215263628e-06   -1.575773067736897e-05
7.388855512982178e-05   -9.732130215263628e-06   -1.575773067736897e-05
7.388855512982178e-05   -9.732130215263628e-06   -1.575773067736897e-05
5.3782229068301255e-05   -1.0135807794285981e-05   1.7995019305911937e-05
5.3782229068301255e-05   -1.0135807794285981e-05   1.7995019305911937e-05
5.3782229068301255e-05   -1.0135807794285981e-05   1.7995019305911937e-05
5.3782229068301255e-05   -1.0135807794285981e-05   1.7995019305911937e-05
7.388855512982165e-05   -1.2524683609807085e-05   4.5260280138025716e-05
7.388855512982165e-05   -1.2524683609807085e-05   4.5260280138025716e-05
7.388855512982165e-05   -1.2524683609807085e-05   4.5260280138025716e-05
7.388855512982165e-05   -1.2524683609807085e-05   4.5260280138025716e-05
3.72777486405851e-05   -9.732130215263628e-06   -1.4082198640642894e-05
3.72777486405851e-05   -9.732130215263628e-06   -1.4082198640642894e-05
3.72777486405851e-05   -9.732130215263628e-06   -1.4082198640642894e-05
3.72777486405851e-05   -9.732130215263628e-06   -1.4082198640642894e-05
3.597358218590459e-05   -1.262950072319349e-05   4.213284710330358e-05
3.597358218590459e-05   -1.262950072319349e-05   4.213284710330358e-05
3.597358218590459e-05   -1.262950072319349e-05   4.213284710330358e-05
3.597358218590459e-05   -1.262950072319349e-05   4.213284710330358e-05
7.206069005858122e-05   -9.90290524673608e-06   -1.9648289970365318e-05
7.206069005858122e-05   -9.90290524673608e-06   -1.9648289970365318e-05
7.206069005858122e-05   -9.90290524673608e-06   -1.9648289970365318e-05
7.206069005858122e-05   -9.90290524673608e-06   -1.9648289970365318e-05
5.327342788651532e-05   -1.0578728663913732e-05   1.2069307700051063e-05
5.327342788651532e-05   -1.0578728663913732e-05   1.2069307700051063e-05
5.327342788651532e-05   -1.0578728663913732e-05   1.2069307700051063e-05
5.327342788651532e-05   -1.0578728663913732e-05   1.2069307700051063e-05
7.206069005858122e-05   -1.2629500723193056e-05   4.0496889817429266e-05
7.206069005858122e-05   -1.2629500723193056e-05   4.0496889817429266e-05
7.206069005858122e-05   -1.2629500723193056e-05   4.0496889817429266e-05
7.206069005858122e-05   -1.2629500723193056e-05   4.0496889817429266e-05
3.597358218590459e-05   -9.90290524673608e-06   -1.8012332684491043e-05
3.597358218590459e-05   -9.90290524673608e-06   -1.8012332684491043e-05
3.597358218590459e-05   -9.90290524673608e-06   -1.8012332684491043e-05
3.597358218590459e-05   -9.90290524673608e-06   -1.8012332684491043e-05
3.4605403222704085e-05   -1.2367532899486798e-05   3.500970298636152e-05
3.4605403222704085e-05   -1.2367532899486798e-05   3.500970298636152e-05
3.4605403222704085e-05   -1.2367532899486798e-05   3.500970298636152e-05
3.4605403222704085e-05   -1.2367532899486798e-05   3.500970298636152e-05
6.977269633127957e-05   -9.84181065644867e-06   -2.511788554042045e-05
6.977269633127957e-05   -9.84181065644867e-06   -2.511788554042045e-05
6.977269633127957e-05   -9.84181065644867e-06   -2.511788554042045e-05
6.977269633127957e-05   -9.84181065644867e-06   -2.511788554042045e-05
5.0896259586262366e-05   -1.0302319575060653e-05   6.619147719109757e-06
5.0896259586262366e-05   -1.0302319575060653e-05   6.619147719109757e-06
5.0896259586262366e-05   -1.0302319575060653e-05   6.619147719109757e-06
5.0896259586262366e-05   -1.0302319575060653e-05   6.619147719109757e-06
3.828983505416552e-05   -7.05032169172554e-06   5.089492184526083e-05
3.828983505416552e-05   -7.05032169172554e-06   5.089492184526083e-05
3.828983505416552e-05   -7.05032169172554e-06   5.089492184526083e-05
3.828983505416552e-05   -7.05032169172554e-06   5.089492184526083e-05
4.2119723653493216e-06   -3.031170314801452e-06   -3.4900251432786085e-06
4.2119723653493216e-06   -3.031170314801452e-06   -3.4900251432786085e-06
4.2119723653493216e-06   -3.031170314801452e-06   -3.4900251432786085e-06
4.2119723653493216e-06   -3.031170314801452e-06   -3.4900251432786085e-06
3.2067451348200395e-06   -7.478362308745504e-06   5.3028548371468346e-05
3.2067451348200395e-06   -7.478362308745504e-06   5.3028548371468346e-05
3.2067451348200395e-06   -7.478362308745504e-06   5.3028548371468346e-05
3.2067451348200395e-06   -7.478362308745504e-06   5.3028548371468346e-05
3.72777486405851e-05   -3.647634771976587e-06   -6.054893993534847e-06
3.72777486405851e-05   -3.647634771976587e-06   -6.054893993534847e-06
3.72777486405851e-05   -3.647634771976587e-06   -6.054893993534847e-06
3.72777486405851e-05   -3.647634771976587e-06   -6.054893993534847e-06
2.0547895639957488e-05   -4.929668632464804e-06   2.2597414657137362e-05
2.0547895639957488e-05   -4.929668632464804e-06   2.2597414657137362e-05
2.0547895639957488e-05   -4.929668632464804e-06   2.2597414657137362e-05
2.0547895639957488e-05   -4.929668632464804e-06   2.2597414657137362e-05
3.7277748640585074e-05   -7.478362308745504e-06   5.073011184940682e-05
3.7277748640585074e-05   -7.478362308745504e-06   5.073011184940682e-05
3.7277748640585074e-05   -7.478362308745504e-06   5.073011184940682e-05
3.7277748640585074e-05   -7.478362308745504e-06   5.073011184940682e-05
3.2067451348200395e-06   -3.647634771976587e-06   -3.756457471473405e-06
3.2067451348200395e-06   -3.647634771976587e-06   -3.756457471473405e-06
3.2067451348200395e-06   -3.647634771976587e-06   -3.756457471473405e-06
3.2067451348200395e-06   -3.647634771976587e-06   -3.756457471473405e-06
1.923363824691079e-06   -7.669287546547849e-06   5.253247055080805e-05
1.923363824691079e-06   -7.669287546547849e-06   5.253247055080805e-05
1.923363824691079e-06   -7.669287546547849e-06   5.253247055080805e-05
1.923363824691079e-06   -7.669287546547849e-06   5.253247055080805e-05
3.597358218590459e-05   -4.052318662586384e-06   -6.388074714924752e-06
3.597358218590459e-05   -4.052318662586384e-06   -6.388074714924752e-06
3.597358218590459e-05   -4.052318662586384e-06   -6.388074714924752e-06
3.597358218590459e-05   -4.052318662586384e-06   -6.388074714924752e-06
1.927345819403209e-05   -5.163253680351334e-06   2.211202628218923e-05
1.927345819403209e-05   -5.163253680351334e-06   2.211202628218923e-05
1.927345819403209e-05   -5.163253680351334e-06   2.211202628218923e-05
1.927345819403209e-05   -5.163253680351334e-06   2.211202628218923e-05
3.5973582185904496e-05   -7.669287546548283e-06   5.0362289220431e-05
3.5973582185904496e-05   -7.669287546548283e-06   5.0362289220431e-05
3.5973582185904496e-05   -7.669287546548283e-06   5.0362289220431e-05
3.5973582185904496e-05   -7.669287546548283e-06   5.0362289220431e-05
1.923363824691079e-06   -4.052318662586384e-06   -4.2178933845476996e-06
1.923363824691079e-06   -4.052318662586384e-06   -4.2178933845476996e-06
1.923363824691079e-06   -4.052318662586384e-06   -4.2178933845476996e-06
1.923363824691079e-06   -4.052318662586384e-06   -4.2178933845476996e-06
5.056092085213939e-07   -7.497405484298888e-06   5.3307627677087657e-05
5.056092085213939e-07   -7.497405484298888e-06   5.3307627677087657e-05
5.056092085213939e-07   -7.497405484298888e-06   5.3307627677087657e-05
5.056092085213939e-07   -7.497405484298888e-06   5.3307627677087657e-05
3.460540322270406e-05   -4.226334911756717e-06   -5.488004690075692e-06
3.460540322270406e-05   -4.226334911756717e-06   -5.488004690075692e-06
3.460540322270406e-05   -4.226334911756717e-06   -5.488004690075692e-06
3.460540322270406e-05   -4.226334911756717e-06   -5.488004690075692e-06
1.8234560711854546e-05   -5.114911731101714e-06   2.23298789196149e-05
1.8234560711854546e-05   -5.114911731101714e-06   2.23298789196149e-05
1.8234560711854546e-05   -5.114911731101714e-06   2.23298789196149e-05
1.8234560711854546e-05   -5.114911731101714e-06   2.23298789196149e-05
4.211972365349349e-06   -2.975921001401125e-06   5.204882963626817e-05
4.211972365349349e-06   -2.975921001401125e-06   5.204882963626817e-05
4.211972365349349e-06   -2.975921001401125e-06   5.204882963626817e-05
4.211972365349349e-06   -2.975921001401125e-06   5.204882963626817e-05
-2.8800671482357045e-05   2.690050005511955e-06   4.273391609051994e-07
-2.8800671482357045e-05   2.690050005511955e-06   4.273391609051994e-07
-2.8800671482357045e-05   2.690050005511955e-06   4.273391609051994e-07
-2.8800671482357045e-05   2.690050005511955e-06   4.273391609051994e-07
-2.9933212120749052e-05   -3.142767458164542e-06   5.583998162871778e-05
-2.9933212120749052e-05   -3.142767458164542e-06   5.583998162871778e-05
-2.9933212120749052e-05   -3.142767458164542e-06   5.583998162871778e-05
-2.9933212120749052e-05   -3.142767458164542e-06   5.583998162871778e-05
3.2067451348200395e-06   2.217696135126644e-06   -2.6095586198723528e-06
3.2067451348200395e-06   2.217696135126644e-06   -2.6095586198723528e-06
3.2067451348200395e-06   2.217696135126644e-06   -2.6095586198723528e-06
3.2067451348200395e-06   2.217696135126644e-06   -2.6095586198723528e-06
-1.2805192891308676e-05   -5.401475382769971e-08   2.5440031290381907e-05
-1.2805192891308676e-05   -5.401475382769971e-08   2.5440031290381907e-05
-1.2805192891308676e-05   -5.401475382769971e-08   2.5440031290381907e-05
-1.2805192891308676e-05   -5.401475382769971e-08   2.5440031290381907e-05
3.2067451348200395e-06   -3.142767458164542e-06   5.262370347274307e-05
3.2067451348200395e-06   -3.142767458164542e-06   5.262370347274307e-05
3.2067451348200395e-06   -3.142767458164542e-06   5.262370347274307e-05
3.2067451348200395e-06   -3.142767458164542e-06   5.262370347274307e-05
-2.9933212120749052e-05   2.217696135126644e-06   6.067195361027927e-07
-2.9933212120749052e-05   2.217696135126644e-06   6.067195361027927e-07
-2.9933212120749052e-05   2.217696135126644e-06   6.067195361027927e-07
-2.9933212120749052e-05   2.217696135126644e-06   6.067195361027927e-07
-3.145193632622122e-05   -3.34696425641429e-06   5.696008927580506e-05
-3.145193632622122e-05   -3.34696425641429e-06   5.696008927580506e-05
-3.145193632622122e-05   -3.34696425641429e-06   5.696008927580506e-05
-3.145193632622122e-05   -3.34696425641429e-06   5.696008927580506e-05
1.923363824691079e-06   1.7779844932144968e-06   -1.7403802254924963e-06
1.923363824691079e-06   1.7779844932144968e-06   -1.7403802254924963e-06
1.923363824691079e-06   1.7779844932144968e-06   -1.7403802254924963e-06
1.923363824691079e-06   1.7779844932144968e-06   -1.7403802254924963e-06
-1.392244532212307e-05   -1.8718400356413853e-07   2.58484027839314e-05
-1.392244532212307e-05   -1.8718400356413853e-07   2.58484027839314e-05
-1.392244532212307e-05   -1.8718400356413853e-07   2.58484027839314e-05
-1.392244532212307e-05   -1.8718400356413853e-07   2.58484027839314e-05
1.923363824691079e-06   -3.34696425641429e-06   5.3885120026028006e-05
1.923363824691079e-06   -3.34696425641429e-06   5.3885120026028006e-05
1.923363824691079e-06   -3.34696425641429e-06   5.3885120026028006e-05
1.923363824691079e-06   -3.34696425641429e-06   5.3885120026028006e-05
-3.145193632622114e-05   1.7779844932144968e-06   1.3345890242843963e-06
-3.145193632622114e-05   1.7779844932144968e-06   1.3345890242843963e-06
-3.145193632622114e-05   1.7779844932144968e-06   1.3345890242843963e-06
-3.145193632622114e-05   1.7779844932144968e-06   1.3345890242843963e-06
-3.3070037117782135e-05   -3.328076723397525e-06   5.8303683395893695e-05
-3.3070037117782135e-05   -3.328076723397525e-06   5.8303683395893695e-05
-3.3070037117782135e-05   -3.328076723397525e-06   5.8303683395893695e-05
-3.3070037117782135e-05   -3.328076723397525e-06   5.8303683395893695e-05
5.056092085213939e-07   1.4611332139527998e-06   -5.292531103556807e-07
5.056092085213939e-07   1.4611332139527998e-06   -5.292531103556807e-07
5.056092085213939e-07   1.4611332139527998e-06   -5.292531103556807e-07
5.056092085213939e-07   1.4611332139527998e-06   -5.292531103556807e-07
-1.534740754755114e-05   -2.82965178889389e-07   2.693890051880482e-05
-1.534740754755114e-05   -2.82965178889389e-07   2.693890051880482e-05
-1.534740754755114e-05   -2.82965178889389e-07   2.693890051880482e-05
-1.534740754755114e-05   -2.82965178889389e-07   2.693890051880482e-05
-2.8800671482356936e-05   3.168091971825996e-06   4.703052394577087e-05
-2.8800671482356936e-05   3.168091971825996e-06   4.703052394577087e-05
-2.8800671482356936e-05   3.168091971825996e-06   4.703052394577087e-05
-2.8800671482356936e-05   3.168091971825996e-06   4.703052394577087e-05
-6.113782508419702e-05   8.768369601689242e-06   -3.5045654793780436e-06
-6.113782508419702e-05   8.768369601689242e-06   -3.5045654793780436e-06
-6.113782508419702e-05   8.768369601689242e-06   -3.5045654793780436e-06
-6.113782508419702e-05   8.768369601689242e-06   -3.5045654793780436e-06
-6.27880900856407e-05   2.9760208942902246e-06   5.206215644743776e-05
-6.27880900856407e-05   2.9760208942902246e-06   5.206215644743776e-05
-6.27880900856407e-05   2.9760208942902246e-06   5.206215644743776e-05
-6.27880900856407e-05   2.9760208942902246e-06   5.206215644743776e-05
-2.9933212120748944e-05   8.294537185003347e-06   -5.8870832684762e-06
-2.9933212120748944e-05   8.294537185003347e-06   -5.8870832684762e-06
-2.9933212120748944e-05   8.294537185003347e-06   -5.8870832684762e-06
-2.9933212120748944e-05   8.294537185003347e-06   -5.8870832684762e-06
-4.530426779592653e-05   5.9036585509132655e-06   2.1165870037273852e-05
-4.530426779592653e-05   5.9036585509132655e-06   2.1165870037273852e-05
-4.530426779592653e-05   5.9036585509132655e-06   2.1165870037273852e-05
-4.530426779592653e-05   5.9036585509132655e-06   2.1165870037273852e-05
-2.9933212120748998e-05   2.976020894289791e-06   4.887104667300967e-05
-2.9933212120748998e-05   2.976020894289791e-06   4.887104667300967e-05
-2.9933212120748998e-05   2.976020894289791e-06   4.887104667300967e-05
-2.9933212120748998e-05   2.976020894289791e-06   4.887104667300967e-05
-6.278809008564059e-05   8.294537185003347e-06   -2.695973494048218e-06
-6.278809008564059e-05   8.294537185003347e-06   -2.695973494048218e-06
-6.278809008564059e-05   8.294537185003347e-06   -2.695973494048218e-06
-6.278809008564059e-05   8.294537185003347e-06   -2.695973494048218e-06
-6.481022427547845e-05   2.623993437169108e-06   5.5255892362694736e-05
-6.481022427547845e-05   2.623993437169108e-06   5.5255892362694736e-05
-6.481022427547845e-05   2.623993437169108e-06   5.5255892362694736e-05
-6.481022427547845e-05   2.623993437169108e-06   5.5255892362694736e-05
-3.145193632622114e-05   7.85658165647395e-06   -3.4808071509837327e-06
-3.145193632622114e-05   7.85658165647395e-06   -3.4808071509837327e-06
-3.145193632622114e-05   7.85658165647395e-06   -3.4808071509837327e-06
-3.145193632622114e-05   7.85658165647395e-06   -3.4808071509837327e-06
-4.6534012391231865e-05   5.793751332461988e-06   2.2893684485108092e-05
-4.6534012391231865e-05   5.793751332461988e-06   2.2893684485108092e-05
-4.6534012391231865e-05   5.793751332461988e-06   2.2893684485108092e-05
-4.6534012391231865e-05   5.793751332461988e-06   2.2893684485108092e-05
-3.145193632622114e-05   2.623993437169108e-06   5.211633943111131e-05
-3.145193632622114e-05   2.623993437169108e-06   5.211633943111131e-05
-3.145193632622114e-05   2.623993437169108e-06   5.211633943111131e-05
-3.145193632622114e-05   2.623993437169108e-06   5.211633943111131e-05
-6.481022427547845e-05   7.85658165647395e-06   -3.4125421940057847e-07
-6.481022427547845e-05   7.85658165647395e-06   -3.4125421940057847e-07
-6.481022427547845e-05   7.85658165647395e-06   -3.4125421940057847e-07
-6.481022427547845e-05   7.85658165647395e-06   -3.4125421940057847e-07
-6.695011842321853e-05   2.225683610324828e-06   5.780103473236164e-05
-6.695011842321853e-05   2.225683610324828e-06   5.780103473236164e-05
-6.695011842321853e-05   2.225683610324828e-06   5.780103473236164e-05
-6.695011842321853e-05   2.225683610324828e-06   5.780103473236164e-05
-3.3070037117782e-05   7.268139888617561e-06   -1.6912412103414765e-06
-3.3070037117782e-05   7.268139888617561e-06   -1.6912412103414765e-06
-3.3070037117782e-05   7.268139888617561e-06   -1.6912412103414765e-06
-3.3070037117782e-05   7.268139888617561e-06   -1.6912412103414765e-06
-4.858041005146971e-05   5.438147599095243e-06   2.5257375719519724e-05
-4.858041005146971e-05   5.438147599095243e-06   2.5257375719519724e-05
-4.858041005146971e-05   5.438147599095243e-06   2.5257375719519724e-05
-4.858041005146971e-05   5.438147599095243e-06   2.5257375719519724e-05
-6.113782508419702e-05   1.4470367581778318e-05   2.4763196346511444e-05
-6.113782508419702e-05   1.4470367581778318e-05   2.4763196346511444e-05
-6.113782508419702e-05   1.4470367581778318e-05   2.4763196346511444e-05
-6.113782508419702e-05   1.4470367581778318e-05   2.4763196346511444e-05
-9.210196733298851e-05   1.4260198949922823e-05   -2.6969808580587637e-05
-9.210196733298851e-05   1.4260198949922823e-05   -2.6969808580587637e-05
-9.210196733298851e-05   1.4260198949922823e-05   -2.6969808580587637e-05
-9.210196733298851e-05   1.4260198949922823e-05   -2.6969808580587637e-05
-9.506392306296948e-05   1.3962768485105588e-05   3.667069161265423e-05
-9.506392306296948e-05   1.3962768485105588e-05   3.667069161265423e-05
-9.506392306296948e-05   1.3962768485105588e-05   3.667069161265423e-05
-9.506392306296948e-05   1.3962768485105588e-05   3.667069161265423e-05
-6.278809008564059e-05   1.4532402175833695e-05   -1.7464143563997842e-05
-6.278809008564059e-05   1.4532402175833695e-05   -1.7464143563997842e-05
-6.278809008564059e-05   1.4532402175833695e-05   -1.7464143563997842e-05
-6.278809008564059e-05   1.4532402175833695e-05   -1.7464143563997842e-05
-7.4642486347124e-05   1.4532848181729539e-05   2.2929159349371463e-06
-7.4642486347124e-05   1.4532848181729539e-05   2.2929159349371463e-06
-7.4642486347124e-05   1.4532848181729539e-05   2.2929159349371463e-06
-7.4642486347124e-05   1.4532848181729539e-05   2.2929159349371463e-06
-6.278809008564056e-05   1.3962768485106022e-05   3.632891139821728e-05
-6.278809008564056e-05   1.3962768485106022e-05   3.632891139821728e-05
-6.278809008564056e-05   1.3962768485106022e-05   3.632891139821728e-05
-6.278809008564056e-05   1.3962768485106022e-05   3.632891139821728e-05
-9.506392306296948e-05   1.4532402175833695e-05   -1.7122363349561e-05
-9.506392306296948e-05   1.4532402175833695e-05   -1.7122363349561e-05
-9.506392306296948e-05   1.4532402175833695e-05   -1.7122363349561e-05
-9.506392306296948e-05   1.4532402175833695e-05   -1.7122363349561e-05
-9.796859732590107e-05   1.3603413057181827e-05   4.503296813927792e-05
-9.796859732590107e-05   1.3603413057181827e-05   4.503296813927792e-05
-9.796859732590107e-05   1.3603413057181827e-05   4.503296813927792e-05
-9.796859732590107e-05   1.3603413057181827e-05   4.503296813927792e-05
-6.481022427547837e-05   1.442726265009223e-05   -1.0725296700506886e-05
-6.481022427547837e-05   1.442726265009223e-05   -1.0725296700506886e-05
-6.481022427547837e-05   1.442726265009223e-05   -1.0725296700506886e-05
-6.481022427547837e-05   1.442726265009223e-05   -1.0725296700506886e-05
-7.803583457787173e-05   1.4529501588974886e-05   1.1256043773487183e-05
-7.803583457787173e-05   1.4529501588974886e-05   1.1256043773487183e-05
-7.803583457787173e-05   1.4529501588974886e-05   1.1256043773487183e-05
-7.803583457787173e-05   1.4529501588974886e-05   1.1256043773487183e-05
-6.481022427547837e-05   1.3603413057181827e-05   4.4538658383531503e-05
-6.481022427547837e-05   1.3603413057181827e-05   4.4538658383531503e-05
-6.481022427547837e-05   1.3603413057181827e-05   4.4538658383531503e-05
-6.481022427547837e-05   1.3603413057181827e-05   4.4538658383531503e-05
-9.796859732590107e-05   1.4427262650092663e-05   -1.0230986944760254e-05
-9.796859732590107e-05   1.4427262650092663e-05   -1.0230986944760254e-05
-9.796859732590107e-05   1.4427262650092663e-05   -1.0230986944760254e-05
-9.796859732590107e-05   1.4427262650092663e-05   -1.0230986944760254e-05
-0.00010139400544427617   1.1323197493483088e-05   5.90068378151635e-05
-0.00010139400544427617   1.1323197493483088e-05   5.90068378151635e-05
-0.00010139400544427617   1.1323197493483088e-05   5.90068378151635e-05
-0.00010139400544427617   1.1323197493483088e-05   5.90068378151635e-05
-6.695011842321834e-05   1.3279926367553135e-05   4.263221222912286e-07
-6.695011842321834e-05   1.3279926367553135e-05   4.263221222912286e-07
-6.695011842321834e-05   1.3279926367553135e-05   4.263221222912286e-07
-6.695011842321834e-05   1.3279926367553135e-05   4.263221222912286e-07
-7.925679761537048e-05   1.3838684678062901e-05   2.0602199122906305e-05
-7.925679761537048e-05   1.3838684678062901e-05   2.0602199122906305e-05
-7.925679761537048e-05   1.3838684678062901e-05   2.0602199122906305e-05
-7.925679761537048e-05   1.3838684678062901e-05   2.0602199122906305e-05
6.136052322194557e-05   -8.585551177537395e-06   4.737443951954661e-05
6.136052322194557e-05   -8.585551177537395e-06   4.737443951954661e-05
6.136052322194557e-05   -8.585551177537395e-06   4.737443951954661e-05
6.136052322194557e-05   -8.585551177537395e-06   4.737443951954661e-05
3.0383985015945813e-05   -6.290580352408433e-06   -2.8761416620425202e-06
3.0383985015945813e-05   -6.290580352408433e-06   -2.8761416620425202e-06
3.0383985015945813e-05   -6.290580352408433e-06   -2.8761416620425202e-06
3.0383985015945813e-05   -6.290580352408433e-06   -2.8761416620425202e-06
2.921823512830405e-05   -9.732130215264062e-06   4.12004947113753e-05
2.921823512830405e-05   -9.732130215264062e-06   4.12004947113753e-05
2.921823512830405e-05   -9.732130215264062e-06   4.12004947113753e-05
2.921823512830405e-05   -9.732130215264062e-06   4.12004947113753e-05
5.921634729713343e-05   -7.3001131530745986e-06   -1.0255569140653449e-05
5.921634729713343e-05   -7.3001131530745986e-06   -1.0255569140653449e-05
5.921634729713343e-05   -7.3001131530745986e-06   -1.0255569140653449e-05
5.921634729713343e-05   -7.3001131530745986e-06   -1.0255569140653449e-05
4.298241315143242e-05   -7.895555748508795e-06   1.7158253326108328e-05
4.298241315143242e-05   -7.895555748508795e-06   1.7158253326108328e-05
4.298241315143242e-05   -7.895555748508795e-06   1.7158253326108328e-05
4.298241315143242e-05   -7.895555748508795e-06   1.7158253326108328e-05
5.921634729713333e-05   -9.732130215264062e-06   3.974128447406175e-05
5.921634729713333e-05   -9.732130215264062e-06   3.974128447406175e-05
5.921634729713333e-05   -9.732130215264062e-06   3.974128447406175e-05
5.921634729713333e-05   -9.732130215264062e-06   3.974128447406175e-05
2.921823512830416e-05   -7.3001131530745986e-06   -8.796358903340141e-06
2.921823512830416e-05   -7.3001131530745986e-06   -8.796358903340141e-06
2.921823512830416e-05   -7.3001131530745986e-06   -8.796358903340141e-06
2.921823512830416e-05   -7.3001131530745986e-06   -8.796358903340141e-06
2.7923010164204043e-05   -9.90290524673608e-06   3.692564821960553e-05
2.7923010164204043e-05   -9.90290524673608e-06   3.692564821960553e-05
2.7923010164204043e-05   -9.90290524673608e-06   3.692564821960553e-05
2.7923010164204043e-05   -9.90290524673608e-06   3.692564821960553e-05
5.7275032422388894e-05   -7.503171871926263e-06   -1.3434228902254929e-05
5.7275032422388894e-05   -7.503171871926263e-06   -1.3434228902254929e-05
5.7275032422388894e-05   -7.503171871926263e-06   -1.3434228902254929e-05
5.7275032422388894e-05   -7.503171871926263e-06   -1.3434228902254929e-05
4.217388726760093e-05   -8.286682767858454e-06   1.2204452893284324e-05
4.217388726760093e-05   -8.286682767858454e-06   1.2204452893284324e-05
4.217388726760093e-05   -8.286682767858454e-06   1.2204452893284324e-05
4.217388726760093e-05   -8.286682767858454e-06   1.2204452893284324e-05
5.7275032422388704e-05   -9.90290524673608e-06   3.548580819471951e-05
5.7275032422388704e-05   -9.90290524673608e-06   3.548580819471951e-05
5.7275032422388704e-05   -9.90290524673608e-06   3.548580819471951e-05
5.7275032422388704e-05   -9.90290524673608e-06   3.548580819471951e-05
2.7923010164204097e-05   -7.503171871926263e-06   -1.1994388877369089e-05
2.7923010164204097e-05   -7.503171871926263e-06   -1.1994388877369089e-05
2.7923010164204097e-05   -7.503171871926263e-06   -1.1994388877369089e-05
2.7923010164204097e-05   -7.503171871926263e-06   -1.1994388877369089e-05
2.667739862839649e-05   -9.84181065644867e-06   3.096645198295313e-05
2.667739862839649e-05   -9.84181065644867e-06   3.096645198295313e-05
2.667739862839649e-05   -9.84181065644867e-06   3.096645198295313e-05
2.667739862839649e-05   -9.84181065644867e-06   3.096645198295313e-05
5.5076618447734375e-05   -7.5865152602749494e-06   -1.7718758286980904e-05
5.5076618447734375e-05   -7.5865152602749494e-06   -1.7718758286980904e-05
5.5076618447734375e-05   -7.5865152602749494e-06   -1.7718758286980904e-05
5.5076618447734375e-05   -7.5865152602749494e-06   -1.7718758286980904e-05
3.999933585306289e-05   -8.147155704925097e-06   7.746430304262481e-06
3.999933585306289e-05   -8.147155704925097e-06   7.746430304262481e-06
3.999933585306289e-05   -8.147155704925097e-06   7.746430304262481e-06
3.999933585306289e-05   -8.147155704925097e-06   7.746430304262481e-06
3.0383985015945813e-05   -3.0311703148018856e-06   4.974538945945613e-05
3.0383985015945813e-05   -3.0311703148018856e-06   4.974538945945613e-05
3.0383985015945813e-05   -3.0311703148018856e-06   4.974538945945613e-05
3.0383985015945813e-05   -3.0311703148018856e-06   4.974538945945613e-05
1.3080621250490508e-06   -1.2026937703355119e-06   2.3826039013082924e-06
1.3080621250490508e-06   -1.2026937703355119e-06   2.3826039013082924e-06
1.3080621250490508e-06   -1.2026937703355119e-06   2.3826039013082924e-06
1.3080621250490508e-06   -1.2026937703355119e-06   2.3826039013082924e-06
1.8912991413597537e-07   -3.6476347719761534e-06   5.0265064789304205e-05
1.8912991413597537e-07   -3.6476347719761534e-06   5.0265064789304205e-05
1.8912991413597537e-07   -3.6476347719761534e-06   5.0265064789304205e-05
1.8912991413597537e-07   -3.6476347719761534e-06   5.0265064789304205e-05
2.921823512830416e-05   -1.9188590539417558e-06   8.459573348699025e-07
2.921823512830416e-05   -1.9188590539417558e-06   8.459573348699025e-07
2.921823512830416e-05   -1.9188590539417558e-06   8.459573348699025e-07
2.921823512830416e-05   -1.9188590539417558e-06   8.459573348699025e-07
1.5089592602031171e-05   -2.359215149044802e-06   2.4657908535719616e-05
1.5089592602031171e-05   -2.359215149044802e-06   2.4657908535719616e-05
1.5089592602031171e-05   -2.359215149044802e-06   2.4657908535719616e-05
1.5089592602031171e-05   -2.359215149044802e-06   2.4657908535719616e-05
2.9218235128304133e-05   -3.6476347719761534e-06   4.922779935848326e-05
2.9218235128304133e-05   -3.6476347719761534e-06   4.922779935848326e-05
2.9218235128304133e-05   -3.6476347719761534e-06   4.922779935848326e-05
2.9218235128304133e-05   -3.6476347719761534e-06   4.922779935848326e-05
1.8912991413597537e-07   -1.9188590539417558e-06   1.8832227656904923e-06
1.8912991413597537e-07   -1.9188590539417558e-06   1.8832227656904923e-06
1.8912991413597537e-07   -1.9188590539417558e-06   1.8832227656904923e-06
1.8912991413597537e-07   -1.9188590539417558e-06   1.8832227656904923e-06
-9.73917520512345e-07   -4.052318662586384e-06   4.9510542412419456e-05
-9.73917520512345e-07   -4.052318662586384e-06   4.9510542412419456e-05
-9.73917520512345e-07   -4.052318662586384e-06   4.9510542412419456e-05
-9.73917520512345e-07   -4.052318662586384e-06   4.9510542412419456e-05
2.7923010164204097e-05   -2.451258290506707e-06   3.8836004797783853e-07
2.7923010164204097e-05   -2.451258290506707e-06   3.8836004797783853e-07
2.7923010164204097e-05   -2.451258290506707e-06   3.8836004797783853e-07
2.7923010164204097e-05   -2.451258290506707e-06   3.8836004797783853e-07
1.3805453337565642e-05   -2.734620099194545e-06   2.4087638510922197e-05
1.3805453337565642e-05   -2.734620099194545e-06   2.4087638510922197e-05
1.3805453337565642e-05   -2.734620099194545e-06   2.4087638510922197e-05
1.3805453337565642e-05   -2.734620099194545e-06   2.4087638510922197e-05
2.7923010164204043e-05   -4.052318662586384e-06   4.854990618917182e-05
2.7923010164204043e-05   -4.052318662586384e-06   4.854990618917182e-05
2.7923010164204043e-05   -4.052318662586384e-06   4.854990618917182e-05
2.7923010164204043e-05   -4.052318662586384e-06   4.854990618917182e-05
-9.73917520512345e-07   -2.451258290506707e-06   1.3489962712254309e-06
-9.73917520512345e-07   -2.451258290506707e-06   1.3489962712254309e-06
-9.73917520512345e-07   -2.451258290506707e-06   1.3489962712254309e-06
-9.73917520512345e-07   -2.451258290506707e-06   1.3489962712254309e-06
-2.1847270148625552e-06   -4.226334911756283e-06   4.989366823845271e-05
-2.1847270148625552e-06   -4.226334911756283e-06   4.989366823845271e-05
-2.1847270148625552e-06   -4.226334911756283e-06   4.989366823845271e-05
-2.1847270148625552e-06   -4.226334911756283e-06   4.989366823845271e-05
2.6677398628396557e-05   -2.871720326793649e-06   9.773567487098928e-07
2.6677398628396557e-05   -2.871720326793649e-06   9.773567487098928e-07
2.6677398628396557e-05   -2.871720326793649e-06   9.773567487098928e-07
2.6677398628396557e-05   -2.871720326793649e-06   9.773567487098928e-07
1.2839318762827654e-05   -2.9366839354276475e-06   2.4079801356505768e-05
1.2839318762827654e-05   -2.9366839354276475e-06   2.4079801356505768e-05
1.2839318762827654e-05   -2.9366839354276475e-06   2.4079801356505768e-05
1.2839318762827654e-05   -2.9366839354276475e-06   2.4079801356505768e-05
1.3080621250490237e-06   2.690050005511955e-06   5.136025708617209e-05
1.3080621250490237e-06   2.690050005511955e-06   5.136025708617209e-05
1.3080621250490237e-06   2.690050005511955e-06   5.136025708617209e-05
1.3080621250490237e-06   2.690050005511955e-06   5.136025708617209e-05
-2.6917541605638674e-05   3.9078593841732415e-06   5.048269828889385e-06
-2.6917541605638674e-05   3.9078593841732415e-06   5.048269828889385e-06
-2.6917541605638674e-05   3.9078593841732415e-06   5.048269828889385e-06
-2.6917541605638674e-05   3.9078593841732415e-06   5.048269828889385e-06
-2.8086562535492717e-05   2.217696135126644e-06   5.206822449953046e-05
-2.8086562535492717e-05   2.217696135126644e-06   5.206822449953046e-05
-2.8086562535492717e-05   2.217696135126644e-06   5.206822449953046e-05
-2.8086562535492717e-05   2.217696135126644e-06   5.206822449953046e-05
1.8912991413597537e-07   3.3114642328350985e-06   4.28580955819086e-06
1.8912991413597537e-07   3.3114642328350985e-06   4.28580955819086e-06
1.8912991413597537e-07   3.3114642328350985e-06   4.28580955819086e-06
1.8912991413597537e-07   3.3114642328350985e-06   4.28580955819086e-06
-1.3397479922762047e-05   3.066706241284991e-06   2.7077014081284233e-05
-1.3397479922762047e-05   3.066706241284991e-06   2.7077014081284233e-05
-1.3397479922762047e-05   3.066706241284991e-06   2.7077014081284233e-05
-1.3397479922762047e-05   3.066706241284991e-06   2.7077014081284233e-05
1.8912991413597537e-07   2.217696135126644e-06   5.141196364090526e-05
1.8912991413597537e-07   2.217696135126644e-06   5.141196364090526e-05
1.8912991413597537e-07   2.217696135126644e-06   5.141196364090526e-05
1.8912991413597537e-07   2.217696135126644e-06   5.141196364090526e-05
-2.8086562535492717e-05   3.3114642328350985e-06   4.9420704168162254e-06
-2.8086562535492717e-05   3.3114642328350985e-06   4.9420704168162254e-06
-2.8086562535492717e-05   3.3114642328350985e-06   4.9420704168162254e-06
-2.8086562535492717e-05   3.3114642328350985e-06   4.9420704168162254e-06
-2.9321136673173334e-05   1.7779844932144968e-06   5.2560671512861916e-05
-2.9321136673173334e-05   1.7779844932144968e-06   5.2560671512861916e-05
-2.9321136673173334e-05   1.7779844932144968e-06   5.2560671512861916e-05
-2.9321136673173334e-05   1.7779844932144968e-06   5.2560671512861916e-05
-9.73917520512372e-07   2.7323443955265016e-06   4.742690317039821e-06
-9.73917520512372e-07   2.7323443955265016e-06   4.742690317039821e-06
-9.73917520512372e-07   2.7323443955265016e-06   4.742690317039821e-06
-9.73917520512372e-07   2.7323443955265016e-06   4.742690317039821e-06
-1.448352455361279e-05   2.725989024396098e-06   2.7262515261552078e-05
-1.448352455361279e-05   2.725989024396098e-06   2.7262515261552078e-05
-1.448352455361279e-05   2.725989024396098e-06   2.7262515261552078e-05
-1.448352455361279e-05   2.725989024396098e-06   2.7262515261552078e-05
-9.73917520512345e-07   1.7779844932144968e-06   5.198805557147493e-05
-9.73917520512345e-07   1.7779844932144968e-06   5.198805557147493e-05
-9.73917520512345e-07   1.7779844932144968e-06   5.198805557147493e-05
-9.73917520512345e-07   1.7779844932144968e-06   5.198805557147493e-05
-2.932113667317339e-05   2.7323443955265016e-06   5.315306258426916e-06
-2.932113667317339e-05   2.7323443955265016e-06   5.315306258426916e-06
-2.932113667317339e-05   2.7323443955265016e-06   5.315306258426916e-06
-2.932113667317339e-05   2.7323443955265016e-06   5.315306258426916e-06
-3.0595180952676794e-05   1.4611332139523661e-06   5.334319548911705e-05
-3.0595180952676794e-05   1.4611332139523661e-06   5.334319548911705e-05
-3.0595180952676794e-05   1.4611332139523661e-06   5.334319548911705e-05
-3.0595180952676794e-05   1.4611332139523661e-06   5.334319548911705e-05
-2.1847270148625552e-06   2.216829904735842e-06   5.539020911623387e-06
-2.1847270148625552e-06   2.216829904735842e-06   5.539020911623387e-06
-2.1847270148625552e-06   2.216829904735842e-06   5.539020911623387e-06
-2.1847270148625552e-06   2.216829904735842e-06   5.539020911623387e-06
-1.565879322529585e-05   2.3995198646792337e-06   2.7886183953047317e-05
-1.565879322529585e-05   2.3995198646792337e-06   2.7886183953047317e-05
-1.565879322529585e-05   2.3995198646792337e-06   2.7886183953047317e-05
-1.565879322529585e-05   2.3995198646792337e-06   2.7886183953047317e-05
-2.6917541605638755e-05   8.768369601689242e-06   4.479887149516767e-05
-2.6917541605638755e-05   8.768369601689242e-06   4.479887149516767e-05
-2.6917541605638755e-05   8.768369601689242e-06   4.479887149516767e-05
-2.6917541605638755e-05   8.768369601689242e-06   4.479887149516767e-05
-5.4249493931301704e-05   8.87923957759067e-06   -6.878603953962888e-07
-5.4249493931301704e-05   8.87923957759067e-06   -6.878603953962888e-07
-5.4249493931301704e-05   8.87923957759067e-06   -6.878603953962888e-07
-5.4249493931301704e-05   8.87923957759067e-06   -6.878603953962888e-07
-5.5606707971226575e-05   8.294537185003347e-06   4.558328604138944e-05
-5.5606707971226575e-05   8.294537185003347e-06   4.558328604138944e-05
-5.5606707971226575e-05   8.294537185003347e-06   4.558328604138944e-05
-5.5606707971226575e-05   8.294537185003347e-06   4.558328604138944e-05
-2.8086562535492744e-05   8.309311095733123e-06   -2.9248736460466343e-07
-2.8086562535492744e-05   8.309311095733123e-06   -2.9248736460466343e-07
-2.8086562535492744e-05   8.309311095733123e-06   -2.9248736460466343e-07
-2.8086562535492744e-05   8.309311095733123e-06   -2.9248736460466343e-07
-4.103087398188608e-05   8.542768830346013e-06   2.114129040528285e-05
-4.103087398188608e-05   8.542768830346013e-06   2.114129040528285e-05
-4.103087398188608e-05   8.542768830346013e-06   2.114129040528285e-05
-4.103087398188608e-05   8.542768830346013e-06   2.114129040528285e-05
-2.8086562535492744e-05   8.294537185003347e-06   4.5574421694951576e-05
-2.8086562535492744e-05   8.294537185003347e-06   4.5574421694951576e-05
-2.8086562535492744e-05   8.294537185003347e-06   4.5574421694951576e-05
-2.8086562535492744e-05   8.294537185003347e-06   4.5574421694951576e-05
-5.560670797122649e-05   8.309311095733123e-06   -2.83623018167015e-07
-5.560670797122649e-05   8.309311095733123e-06   -2.83623018167015e-07
-5.560670797122649e-05   8.309311095733123e-06   -2.83623018167015e-07
-5.560670797122649e-05   8.309311095733123e-06   -2.83623018167015e-07
-5.711115327407758e-05   7.85658165647395e-06   4.770188187153265e-05
-5.711115327407758e-05   7.85658165647395e-06   4.770188187153265e-05
-5.711115327407758e-05   7.85658165647395e-06   4.770188187153265e-05
-5.711115327407758e-05   7.85658165647395e-06   4.770188187153265e-05
-2.932113667317339e-05   7.784259213038883e-06   1.4285810027530568e-06
-2.932113667317339e-05   7.784259213038883e-06   1.4285810027530568e-06
-2.932113667317339e-05   7.784259213038883e-06   1.4285810027530568e-06
-2.932113667317339e-05   7.784259213038883e-06   1.4285810027530568e-06
-4.201285709008607e-05   8.220662860392199e-06   2.231960617586268e-05
-4.201285709008607e-05   8.220662860392199e-06   2.231960617586268e-05
-4.201285709008607e-05   8.220662860392199e-06   2.231960617586268e-05
-4.201285709008607e-05   8.220662860392199e-06   2.231960617586268e-05
-2.932113667317336e-05   7.85658165647395e-06   4.774527533759395e-05
-2.932113667317336e-05   7.85658165647395e-06   4.774527533759395e-05
-2.932113667317336e-05   7.85658165647395e-06   4.774527533759395e-05
-2.932113667317336e-05   7.85658165647395e-06   4.774527533759395e-05
-5.7111153274077474e-05   7.784259213038883e-06   1.3851875366925701e-06
-5.7111153274077474e-05   7.784259213038883e-06   1.3851875366925701e-06
-5.7111153274077474e-05   7.784259213038883e-06   1.3851875366925701e-06
-5.7111153274077474e-05   7.784259213038883e-06   1.3851875366925701e-06
-5.854508851181427e-05   7.268139888617561e-06   4.923282175206675e-05
-5.854508851181427e-05   7.268139888617561e-06   4.923282175206675e-05
-5.854508851181427e-05   7.268139888617561e-06   4.923282175206675e-05
-5.854508851181427e-05   7.268139888617561e-06   4.923282175206675e-05
-3.0595180952676875e-05   7.143373764193026e-06   2.724502161492628e-06
-3.0595180952676875e-05   7.143373764193026e-06   2.724502161492628e-06
-3.0595180952676875e-05   7.143373764193026e-06   2.724502161492628e-06
-3.0595180952676875e-05   7.143373764193026e-06   2.724502161492628e-06
-4.357339194733323e-05   7.802758770273071e-06   2.3959222815606832e-05
-4.357339194733323e-05   7.802758770273071e-06   2.3959222815606832e-05
-4.357339194733323e-05   7.802758770273071e-06   2.3959222815606832e-05
-4.357339194733323e-05   7.802758770273071e-06   2.3959222815606832e-05
-5.424949393130162e-05   1.4260198949922823e-05   2.152625155861206e-05
-5.424949393130162e-05   1.4260198949922823e-05   2.152625155861206e-05
-5.424949393130162e-05   1.4260198949922823e-05   2.152625155861206e-05
-5.424949393130162e-05   1.4260198949922823e-05   2.152625155861206e-05
-8.021204839218774e-05   1.2779750077567854e-05   -2.2632941866277973e-05
-8.021204839218774e-05   1.2779750077567854e-05   -2.2632941866277973e-05
-8.021204839218774e-05   1.2779750077567854e-05   -2.2632941866277973e-05
-8.021204839218774e-05   1.2779750077567854e-05   -2.2632941866277973e-05
-8.23492540428884e-05   1.4532402175833695e-05   2.984402620166129e-05
-8.23492540428884e-05   1.4532402175833695e-05   2.984402620166129e-05
-8.23492540428884e-05   1.4532402175833695e-05   2.984402620166129e-05
-8.23492540428884e-05   1.4532402175833695e-05   2.984402620166129e-05
-5.5606707971226575e-05   1.2913919226202348e-05   -1.3755794147996773e-05
-5.5606707971226575e-05   1.2913919226202348e-05   -1.3755794147996773e-05
-5.5606707971226575e-05   1.2913919226202348e-05   -1.3755794147996773e-05
-5.5606707971226575e-05   1.2913919226202348e-05   -1.3755794147996773e-05
-6.549683162490445e-05   1.3542939537111807e-05   2.3503330882541657e-06
-6.549683162490445e-05   1.3542939537111807e-05   2.3503330882541657e-06
-6.549683162490445e-05   1.3542939537111807e-05   2.3503330882541657e-06
-6.549683162490445e-05   1.3542939537111807e-05   2.3503330882541657e-06
-5.560670797122641e-05   1.4532402175834128e-05   3.081511597143971e-05
-5.560670797122641e-05   1.4532402175834128e-05   3.081511597143971e-05
-5.560670797122641e-05   1.4532402175834128e-05   3.081511597143971e-05
-5.560670797122641e-05   1.4532402175834128e-05   3.081511597143971e-05
-8.234925404288873e-05   1.2913919226202348e-05   -1.4726883917775624e-05
-8.234925404288873e-05   1.2913919226202348e-05   -1.4726883917775624e-05
-8.234925404288873e-05   1.2913919226202348e-05   -1.4726883917775624e-05
-8.234925404288873e-05   1.2913919226202348e-05   -1.4726883917775624e-05
-8.443645704847027e-05   1.4427262650092663e-05   3.632432114242029e-05
-8.443645704847027e-05   1.4427262650092663e-05   3.632432114242029e-05
-8.443645704847027e-05   1.4427262650092663e-05   3.632432114242029e-05
-8.443645704847027e-05   1.4427262650092663e-05   3.632432114242029e-05
-5.711115327407758e-05   1.2771398903415037e-05   -8.224333566894735e-06
-5.711115327407758e-05   1.2771398903415037e-05   -8.224333566894735e-06
-5.711115327407758e-05   1.2771398903415037e-05   -8.224333566894735e-06
-5.711115327407758e-05   1.2771398903415037e-05   -8.224333566894735e-06
-6.812034341849615e-05   1.3789617023913028e-05   9.513385801505057e-06
-6.812034341849615e-05   1.3789617023913028e-05   9.513385801505057e-06
-6.812034341849615e-05   1.3789617023913028e-05   9.513385801505057e-06
-6.812034341849615e-05   1.3789617023913028e-05   9.513385801505057e-06
-5.711115327407758e-05   1.4427262650092663e-05   3.7317839390426776e-05
-5.711115327407758e-05   1.4427262650092663e-05   3.7317839390426776e-05
-5.711115327407758e-05   1.4427262650092663e-05   3.7317839390426776e-05
-5.711115327407758e-05   1.4427262650092663e-05   3.7317839390426776e-05
-8.443645704847054e-05   1.2771398903415037e-05   -9.217851814901333e-06
-8.443645704847054e-05   1.2771398903415037e-05   -9.217851814901333e-06
-8.443645704847054e-05   1.2771398903415037e-05   -9.217851814901333e-06
-8.443645704847054e-05   1.2771398903415037e-05   -9.217851814901333e-06
-8.687439264280111e-05   1.3279926367553135e-05   4.742833854327324e-05
-8.687439264280111e-05   1.3279926367553135e-05   4.742833854327324e-05
-8.687439264280111e-05   1.3279926367553135e-05   4.742833854327324e-05
-8.687439264280111e-05   1.3279926367553135e-05   4.742833854327324e-05
-5.854508851181427e-05   1.1785638410136655e-05   1.1094044327452745e-06
-5.854508851181427e-05   1.1785638410136655e-05   1.1094044327452745e-06
-5.854508851181427e-05   1.1785638410136655e-05   1.1094044327452745e-06
-5.854508851181427e-05   1.1785638410136655e-05   1.1094044327452745e-06
-6.879021269925e-05   1.3383009749559291e-05   1.7226188608152277e-05
-6.879021269925e-05   1.3383009749559291e-05   1.7226188608152277e-05
-6.879021269925e-05   1.3383009749559291e-05   1.7226188608152277e-05
-6.879021269925e-05   1.3383009749559291e-05   1.7226188608152277e-05
4.654905851601132e-05   -6.290580352408433e-06   3.95307439093964e-05
4.654905851601132e-05   -6.290580352408433e-06   3.95307439093964e-05
4.654905851601132e-05   -6.290580352408433e-06   3.95307439093964e-05
4.654905851601132e-05   -6.290580352408433e-06   3.95307439093964e-05
2.191707470937474e-05   -4.153298271960312e-06   -2.4019318672885946e-07
2.191707470937474e-05   -4.153298271960312e-06   -2.4019318672885946e-07
2.191707470937474e-05   -4.153298271960312e-06   -2.4019318672885946e-07
2.191707470937474e-05   -4.153298271960312e-06   -2.4019318672885946e-07
2.0876186050208457e-05   -7.3001131530745986e-06   3.473761178232051e-05
2.0876186050208457e-05   -7.3001131530745986e-06   3.473761178232051e-05
2.0876186050208457e-05   -7.3001131530745986e-06   3.473761178232051e-05
2.0876186050208457e-05   -7.3001131530745986e-06   3.473761178232051e-05
4.453539818355039e-05   -5.042489906193978e-06   -6.048982388044265e-06
4.453539818355039e-05   -5.042489906193978e-06   -6.048982388044265e-06
4.453539818355039e-05   -5.042489906193978e-06   -6.048982388044265e-06
4.453539818355039e-05   -5.042489906193978e-06   -6.048982388044265e-06
3.189486927800279e-05   -5.740309622229503e-06   1.5437257617489605e-05
3.189486927800279e-05   -5.740309622229503e-06   1.5437257617489605e-05
3.189486927800279e-05   -5.740309622229503e-06   1.5437257617489605e-05
3.189486927800279e-05   -5.740309622229503e-06   1.5437257617489605e-05
4.453539818355039e-05   -7.3001131530745986e-06   3.338303783419249e-05
4.453539818355039e-05   -7.3001131530745986e-06   3.338303783419249e-05
4.453539818355039e-05   -7.3001131530745986e-06   3.338303783419249e-05
4.453539818355039e-05   -7.3001131530745986e-06   3.338303783419249e-05
2.0876186050208485e-05   -5.042489906193978e-06   -4.694408439915969e-06
2.0876186050208485e-05   -5.042489906193978e-06   -4.694408439915969e-06
2.0876186050208485e-05   -5.042489906193978e-06   -4.694408439915969e-06
2.0876186050208485e-05   -5.042489906193978e-06   -4.694408439915969e-06
1.972754659326169e-05   -7.503171871926263e-06   3.136804848525893e-05
1.972754659326169e-05   -7.503171871926263e-06   3.136804848525893e-05
1.972754659326169e-05   -7.503171871926263e-06   3.136804848525893e-05
1.972754659326169e-05   -7.503171871926263e-06   3.136804848525893e-05
4.2770952534996434e-05   -5.28026411076828e-06   -8.37137274099358e-06
4.2770952534996434e-05   -5.28026411076828e-06   -8.37137274099358e-06
4.2770952534996434e-05   -5.28026411076828e-06   -8.37137274099358e-06
4.2770952534996434e-05   -5.28026411076828e-06   -8.37137274099358e-06
3.105872588066048e-05   -6.100948892872899e-06   1.1641415885496132e-05
3.105872588066048e-05   -6.100948892872899e-06   1.1641415885496132e-05
3.105872588066048e-05   -6.100948892872899e-06   1.1641415885496132e-05
3.105872588066048e-05   -6.100948892872899e-06   1.1641415885496132e-05
4.277095253499635e-05   -7.503171871926697e-06   3.0034303828564268e-05
4.277095253499635e-05   -7.503171871926697e-06   3.0034303828564268e-05
4.277095253499635e-05   -7.503171871926697e-06   3.0034303828564268e-05
4.277095253499635e-05   -7.503171871926697e-06   3.0034303828564268e-05
1.9727546593261723e-05   -5.28026411076828e-06   -7.037628084298865e-06
1.9727546593261723e-05   -5.28026411076828e-06   -7.037628084298865e-06
1.9727546593261723e-05   -5.28026411076828e-06   -7.037628084298865e-06
1.9727546593261723e-05   -5.28026411076828e-06   -7.037628084298865e-06
1.8667072483179177e-05   -7.5865152602749494e-06   2.680662838077958e-05
1.8667072483179177e-05   -7.5865152602749494e-06   2.680662838077958e-05
1.8667072483179177e-05   -7.5865152602749494e-06   2.680662838077958e-05
1.8667072483179177e-05   -7.5865152602749494e-06   2.680662838077958e-05
4.080000590084065e-05   -5.503533658354071e-06   -1.1331382943141841e-05
4.080000590084065e-05   -5.503533658354071e-06   -1.1331382943141841e-05
4.080000590084065e-05   -5.503533658354071e-06   -1.1331382943141841e-05
4.080000590084065e-05   -5.503533658354071e-06   -1.1331382943141841e-05
2.9218534056181498e-05   -6.066577403402752e-06   8.308896378319609e-06
2.9218534056181498e-05   -6.066577403402752e-06   8.308896378319609e-06
2.9218534056181498e-05   -6.066577403402752e-06   8.308896378319609e-06
2.9218534056181498e-05   -6.066577403402752e-06   8.308896378319609e-06
2.1917074709374667e-05   -1.2026937703350782e-06   4.4974772794336045e-05
2.1917074709374667e-05   -1.2026937703350782e-06   4.4974772794336045e-05
2.1917074709374667e-05   -1.2026937703350782e-06   4.4974772794336045e-05
2.1917074709374667e-05   -1.2026937703350782e-06   4.4974772794336045e-05
-1.3992259905286364e-06   -1.915702290810478e-08   6.824393676286775e-06
-1.3992259905286364e-06   -1.915702290810478e-08   6.824393676286775e-06
-1.3992259905286364e-06   -1.915702290810478e-08   6.824393676286775e-06
-1.3992259905286364e-06   -1.915702290810478e-08   6.824393676286775e-06
-2.3776677180105702e-06   -1.9188590539417558e-06   4.5055440997498726e-05
-2.3776677180105702e-06   -1.9188590539417558e-06   4.5055440997498726e-05
-2.3776677180105702e-06   -1.9188590539417558e-06   4.5055440997498726e-05
-2.3776677180105702e-06   -1.9188590539417558e-06   4.5055440997498726e-05
2.0876186050208485e-05   -7.930040923278397e-07   5.62350507349847e-06
2.0876186050208485e-05   -7.930040923278397e-07   5.62350507349847e-06
2.0876186050208485e-05   -7.930040923278397e-07   5.62350507349847e-06
2.0876186050208485e-05   -7.930040923278397e-07   5.62350507349847e-06
9.596147471036668e-06   -1.0114528410437237e-06   2.4554638621347843e-05
9.596147471036668e-06   -1.0114528410437237e-06   2.4554638621347843e-05
9.596147471036668e-06   -1.0114528410437237e-06   2.4554638621347843e-05
9.596147471036668e-06   -1.0114528410437237e-06   2.4554638621347843e-05
2.0876186050208437e-05   -1.9188590539417558e-06   4.43799280205302e-05
2.0876186050208437e-05   -1.9188590539417558e-06   4.43799280205302e-05
2.0876186050208437e-05   -1.9188590539417558e-06   4.43799280205302e-05
2.0876186050208437e-05   -1.9188590539417558e-06   4.43799280205302e-05
-2.3776677180105702e-06   -7.930040923278397e-07   6.299018050466912e-06
-2.3776677180105702e-06   -7.930040923278397e-07   6.299018050466912e-06
-2.3776677180105702e-06   -7.930040923278397e-07   6.299018050466912e-06
-2.3776677180105702e-06   -7.930040923278397e-07   6.299018050466912e-06
-3.376870070116814e-06   -2.451258290506707e-06   4.437951690770283e-05
-3.376870070116814e-06   -2.451258290506707e-06   4.437951690770283e-05
-3.376870070116814e-06   -2.451258290506707e-06   4.437951690770283e-05
-3.376870070116814e-06   -2.451258290506707e-06   4.437951690770283e-05
1.9727546593261723e-05   -1.4033924620113214e-06   5.243436304974683e-06
1.9727546593261723e-05   -1.4033924620113214e-06   5.243436304974683e-06
1.9727546593261723e-05   -1.4033924620113214e-06   5.243436304974683e-06
1.9727546593261723e-05   -1.4033924620113214e-06   5.243436304974683e-06
8.499041288441454e-06   -1.4892437617888832e-06   2.4009122592876897e-05
8.499041288441454e-06   -1.4892437617888832e-06   2.4009122592876897e-05
8.499041288441454e-06   -1.4892437617888832e-06   2.4009122592876897e-05
8.499041288441454e-06   -1.4892437617888832e-06   2.4009122592876897e-05
1.972754659326169e-05   -2.451258290506273e-06   4.3750797410605814e-05
1.972754659326169e-05   -2.451258290506273e-06   4.3750797410605814e-05
1.972754659326169e-05   -2.451258290506273e-06   4.3750797410605814e-05
1.972754659326169e-05   -2.451258290506273e-06   4.3750797410605814e-05
-3.376870070116814e-06   -1.4033924620113214e-06   5.872155802071847e-06
-3.376870070116814e-06   -1.4033924620113214e-06   5.872155802071847e-06
-3.376870070116814e-06   -1.4033924620113214e-06   5.872155802071847e-06
-3.376870070116814e-06   -1.4033924620113214e-06   5.872155802071847e-06
-4.381458445813237e-06   -2.871720326793649e-06   4.4691077892126474e-05
-4.381458445813237e-06   -2.871720326793649e-06   4.4691077892126474e-05
-4.381458445813237e-06   -2.871720326793649e-06   4.4691077892126474e-05
-4.381458445813237e-06   -2.871720326793649e-06   4.4691077892126474e-05
1.8667072483179197e-05   -1.9692008045263214e-06   5.735347963778463e-06
1.8667072483179197e-05   -1.9692008045263214e-06   5.735347963778463e-06
1.8667072483179197e-05   -1.9692008045263214e-06   5.735347963778463e-06
1.8667072483179197e-05   -1.9692008045263214e-06   5.735347963778463e-06
7.660622282609798e-06   -1.843417265397218e-06   2.4003961507917644e-05
7.660622282609798e-06   -1.843417265397218e-06   2.4003961507917644e-05
7.660622282609798e-06   -1.843417265397218e-06   2.4003961507917644e-05
7.660622282609798e-06   -1.843417265397218e-06   2.4003961507917644e-05
-1.3992259905286635e-06   3.9078593841732415e-06   4.761987514317694e-05
-1.3992259905286635e-06   3.9078593841732415e-06   4.761987514317694e-05
-1.3992259905286635e-06   3.9078593841732415e-06   4.761987514317694e-05
-1.3992259905286635e-06   3.9078593841732415e-06   4.761987514317694e-05
-2.4226398124333056e-05   4.021453539366539e-06   9.642744746619003e-06
-2.4226398124333056e-05   4.021453539366539e-06   9.642744746619003e-06
-2.4226398124333056e-05   4.021453539366539e-06   9.642744746619003e-06
-2.4226398124333056e-05   4.021453539366539e-06   9.642744746619003e-06
-2.5209968771081417e-05   3.3114642328350985e-06   4.7475768552576996e-05
-2.5209968771081417e-05   3.3114642328350985e-06   4.7475768552576996e-05
-2.5209968771081417e-05   3.3114642328350985e-06   4.7475768552576996e-05
-2.5209968771081417e-05   3.3114642328350985e-06   4.7475768552576996e-05
-2.3776677180105702e-06   3.3410321704655313e-06   9.404192701547556e-06
-2.3776677180105702e-06   3.3410321704655313e-06   9.404192701547556e-06
-2.3776677180105702e-06   3.3410321704655313e-06   9.404192701547556e-06
-2.3776677180105702e-06   3.3410321704655313e-06   9.404192701547556e-06
-1.3337871457815698e-05   3.582000974700593e-06   2.7526617652014976e-05
-1.3337871457815698e-05   3.582000974700593e-06   2.7526617652014976e-05
-1.3337871457815698e-05   3.582000974700593e-06   2.7526617652014976e-05
-1.3337871457815698e-05   3.582000974700593e-06   2.7526617652014976e-05
-2.3776677180105702e-06   3.3114642328350985e-06   4.745802778999926e-05
-2.3776677180105702e-06   3.3114642328350985e-06   4.745802778999926e-05
-2.3776677180105702e-06   3.3114642328350985e-06   4.745802778999926e-05
-2.3776677180105702e-06   3.3114642328350985e-06   4.745802778999926e-05
-2.5209968771081417e-05   3.3410321704655313e-06   9.421933464125783e-06
-2.5209968771081417e-05   3.3410321704655313e-06   9.421933464125783e-06
-2.5209968771081417e-05   3.3410321704655313e-06   9.421933464125783e-06
-2.5209968771081417e-05   3.3410321704655313e-06   9.421933464125783e-06
-2.6218176228081714e-05   2.7323443955265016e-06   4.7736637514070876e-05
-2.6218176228081714e-05   2.7323443955265016e-06   4.7736637514070876e-05
-2.6218176228081714e-05   2.7323443955265016e-06   4.7736637514070876e-05
-2.6218176228081714e-05   2.7323443955265016e-06   4.7736637514070876e-05
-3.3768700701168413e-06   2.671388663115677e-06   9.704367356908999e-06
-3.3768700701168413e-06   2.671388663115677e-06   9.704367356908999e-06
-3.3768700701168413e-06   2.671388663115677e-06   9.704367356908999e-06
-3.3768700701168413e-06   2.671388663115677e-06   9.704367356908999e-06
-1.42512064986564e-05   3.124313877603778e-06   2.755650627578321e-05
-1.42512064986564e-05   3.124313877603778e-06   2.755650627578321e-05
-1.42512064986564e-05   3.124313877603778e-06   2.755650627578321e-05
-1.42512064986564e-05   3.124313877603778e-06   2.755650627578321e-05
-3.3768700701168413e-06   2.732344395526068e-06   4.777321095351733e-05
-3.3768700701168413e-06   2.732344395526068e-06   4.777321095351733e-05
-3.3768700701168413e-06   2.732344395526068e-06   4.777321095351733e-05
-3.3768700701168413e-06   2.732344395526068e-06   4.777321095351733e-05
-2.6218176228081714e-05   2.671388663115677e-06   9.667793917462683e-06
-2.6218176228081714e-05   2.671388663115677e-06   9.667793917462683e-06
-2.6218176228081714e-05   2.671388663115677e-06   9.667793917462683e-06
-2.6218176228081714e-05   2.671388663115677e-06   9.667793917462683e-06
-2.7226051163070294e-05   2.216829904735842e-06   4.8331425998554556e-05
-2.7226051163070294e-05   2.216829904735842e-06   4.8331425998554556e-05
-2.7226051163070294e-05   2.216829904735842e-06   4.8331425998554556e-05
-2.7226051163070294e-05   2.216829904735842e-06   4.8331425998554556e-05
-4.3814584458132645e-06   2.035917728889468e-06   1.0365652108634019e-05
-4.3814584458132645e-06   2.035917728889468e-06   1.0365652108634019e-05
-4.3814584458132645e-06   2.035917728889468e-06   1.0365652108634019e-05
-4.3814584458132645e-06   2.035917728889468e-06   1.0365652108634019e-05
-1.5207321997871487e-05   2.678270191213035e-06   2.8023346551337715e-05
-1.5207321997871487e-05   2.678270191213035e-06   2.8023346551337715e-05
-1.5207321997871487e-05   2.678270191213035e-06   2.8023346551337715e-05
-1.5207321997871487e-05   2.678270191213035e-06   2.8023346551337715e-05
-2.4226398124333002e-05   8.87923957759067e-06   4.1885379426466344e-05
-2.4226398124333002e-05   8.87923957759067e-06   4.1885379426466344e-05
-2.4226398124333002e-05   8.87923957759067e-06   4.1885379426466344e-05
-2.4226398124333002e-05   8.87923957759067e-06   4.1885379426466344e-05
-4.654545225041631e-05   7.909208139444436e-06   4.1049370201064715e-06
-4.654545225041631e-05   7.909208139444436e-06   4.1049370201064715e-06
-4.654545225041631e-05   7.909208139444436e-06   4.1049370201064715e-06
-4.654545225041631e-05   7.909208139444436e-06   4.1049370201064715e-06
-4.760367715589886e-05   8.309311095733123e-06   4.160992428585333e-05
-4.760367715589886e-05   8.309311095733123e-06   4.160992428585333e-05
-4.760367715589886e-05   8.309311095733123e-06   4.160992428585333e-05
-4.760367715589886e-05   8.309311095733123e-06   4.160992428585333e-05
-2.520996877108147e-05   7.257166953560882e-06   4.9183634631274026e-06
-2.520996877108147e-05   7.257166953560882e-06   4.9183634631274026e-06
-2.520996877108147e-05   7.257166953560882e-06   4.9183634631274026e-06
-2.520996877108147e-05   7.257166953560882e-06   4.9183634631274026e-06
-3.577788338860481e-05   7.98374535417555e-06   2.2095607451964243e-05
-3.577788338860481e-05   7.98374535417555e-06   2.2095607451964243e-05
-3.577788338860481e-05   7.98374535417555e-06   2.2095607451964243e-05
-3.577788338860481e-05   7.98374535417555e-06   2.2095607451964243e-05
-2.5209968771081417e-05   8.309311095732689e-06   4.224121077115654e-05
-2.5209968771081417e-05   8.309311095732689e-06   4.224121077115654e-05
-2.5209968771081417e-05   8.309311095732689e-06   4.224121077115654e-05
-2.5209968771081417e-05   8.309311095732689e-06   4.224121077115654e-05
-4.760367715589886e-05   7.257166953560882e-06   4.287076977824459e-06
-4.760367715589886e-05   7.257166953560882e-06   4.287076977824459e-06
-4.760367715589886e-05   7.257166953560882e-06   4.287076977824459e-06
-4.760367715589886e-05   7.257166953560882e-06   4.287076977824459e-06
-4.8768813638932844e-05   7.784259213038883e-06   4.316936192043331e-05
-4.8768813638932844e-05   7.784259213038883e-06   4.316936192043331e-05
-4.8768813638932844e-05   7.784259213038883e-06   4.316936192043331e-05
-4.8768813638932844e-05   7.784259213038883e-06   4.316936192043331e-05
-2.621817622808174e-05   6.650008649765338e-06   6.265516573645549e-06
-2.621817622808174e-05   6.650008649765338e-06   6.265516573645549e-06
-2.621817622808174e-05   6.650008649765338e-06   6.265516573645549e-06
-2.621817622808174e-05   6.650008649765338e-06   6.265516573645549e-06
-3.653832597289318e-05   7.5672854673572085e-06   2.2915400057777358e-05
-3.653832597289318e-05   7.5672854673572085e-06   2.2915400057777358e-05
-3.653832597289318e-05   7.5672854673572085e-06   2.2915400057777358e-05
-3.653832597289318e-05   7.5672854673572085e-06   2.2915400057777358e-05
-2.6218176228081714e-05   7.784259213038883e-06   4.38499122583974e-05
-2.6218176228081714e-05   7.784259213038883e-06   4.38499122583974e-05
-2.6218176228081714e-05   7.784259213038883e-06   4.38499122583974e-05
-2.6218176228081714e-05   7.784259213038883e-06   4.38499122583974e-05
-4.8768813638932844e-05   6.650008649765338e-06   5.58496623568141e-06
-4.8768813638932844e-05   6.650008649765338e-06   5.58496623568141e-06
-4.8768813638932844e-05   6.650008649765338e-06   5.58496623568141e-06
-4.8768813638932844e-05   6.650008649765338e-06   5.58496623568141e-06
-4.983439498362378e-05   7.143373764193026e-06   4.43434567764492e-05
-4.983439498362378e-05   7.143373764193026e-06   4.43434567764492e-05
-4.983439498362378e-05   7.143373764193026e-06   4.43434567764492e-05
-4.983439498362378e-05   7.143373764193026e-06   4.43434567764492e-05
-2.722605116307035e-05   5.943319668352126e-06   7.382916199697928e-06
-2.722605116307035e-05   5.943319668352126e-06   7.382916199697928e-06
-2.722605116307035e-05   5.943319668352126e-06   7.382916199697928e-06
-2.722605116307035e-05   5.943319668352126e-06   7.382916199697928e-06
-3.7746510439808654e-05   7.09795034798278e-06   2.4224236586485202e-05
-3.7746510439808654e-05   7.09795034798278e-06   2.4224236586485202e-05
-3.7746510439808654e-05   7.09795034798278e-06   2.4224236586485202e-05
-3.7746510439808654e-05   7.09795034798278e-06   2.4224236586485202e-05
-4.654545225041631e-05   1.2779750077567854e-05   2.0246548416110073e-05
-4.654545225041631e-05   1.2779750077567854e-05   2.0246548416110073e-05
-4.654545225041631e-05   1.2779750077567854e-05   2.0246548416110073e-05
-4.654545225041631e-05   1.2779750077567854e-05   2.0246548416110073e-05
-6.773047468940048e-05   1.0895047413971102e-05   -1.619264391368848e-05
-6.773047468940048e-05   1.0895047413971102e-05   -1.619264391368848e-05
-6.773047468940048e-05   1.0895047413971102e-05   -1.619264391368848e-05
-6.773047468940048e-05   1.0895047413971102e-05   -1.619264391368848e-05
-6.963182955656809e-05   1.2913919226202348e-05   2.6892833202788596e-05
-6.963182955656809e-05   1.2913919226202348e-05   2.6892833202788596e-05
-6.963182955656809e-05   1.2913919226202348e-05   2.6892833202788596e-05
-6.963182955656809e-05   1.2913919226202348e-05   2.6892833202788596e-05
-4.760367715589886e-05   1.0839052637478044e-05   -8.575834178425694e-06
-4.760367715589886e-05   1.0839052637478044e-05   -8.575834178425694e-06
-4.760367715589886e-05   1.0839052637478044e-05   -8.575834178425694e-06
-4.760367715589886e-05   1.0839052637478044e-05   -8.575834178425694e-06
-5.5676094346689587e-05   1.1683887094110154e-05   4.371293798913125e-06
-5.5676094346689587e-05   1.1683887094110154e-05   4.371293798913125e-06
-5.5676094346689587e-05   1.1683887094110154e-05   4.371293798913125e-06
-5.5676094346689587e-05   1.1683887094110154e-05   4.371293798913125e-06
-4.760367715589886e-05   1.2913919226202348e-05   2.8137753156023352e-05
-4.760367715589886e-05   1.2913919226202348e-05   2.8137753156023352e-05
-4.760367715589886e-05   1.2913919226202348e-05   2.8137753156023352e-05
-4.760367715589886e-05   1.2913919226202348e-05   2.8137753156023352e-05
-6.96318295565682e-05   1.0839052637478044e-05   -9.820754131660667e-06
-6.96318295565682e-05   1.0839052637478044e-05   -9.820754131660667e-06
-6.96318295565682e-05   1.0839052637478044e-05   -9.820754131660667e-06
-6.96318295565682e-05   1.0839052637478044e-05   -9.820754131660667e-06
-7.133464852604308e-05   1.277139890341547e-05   3.2267602640688106e-05
-7.133464852604308e-05   1.277139890341547e-05   3.2267602640688106e-05
-7.133464852604308e-05   1.277139890341547e-05   3.2267602640688106e-05
-7.133464852604308e-05   1.277139890341547e-05   3.2267602640688106e-05
-4.8768813638932844e-05   1.0617668609819511e-05   -4.049883995004694e-06
-4.8768813638932844e-05   1.0617668609819511e-05   -4.049883995004694e-06
-4.8768813638932844e-05   1.0617668609819511e-05   -4.049883995004694e-06
-4.8768813638932844e-05   1.0617668609819511e-05   -4.049883995004694e-06
-5.7859302600984095e-05   1.1812366302067605e-05   1.0384112326400135e-05
-5.7859302600984095e-05   1.1812366302067605e-05   1.0384112326400135e-05
-5.7859302600984095e-05   1.1812366302067605e-05   1.0384112326400135e-05
-5.7859302600984095e-05   1.1812366302067605e-05   1.0384112326400135e-05
-4.8768813638932844e-05   1.277139890341547e-05   3.355984081684633e-05
-4.8768813638932844e-05   1.277139890341547e-05   3.355984081684633e-05
-4.8768813638932844e-05   1.277139890341547e-05   3.355984081684633e-05
-4.8768813638932844e-05   1.277139890341547e-05   3.355984081684633e-05
-7.133464852604319e-05   1.0617668609819511e-05   -5.3421221711624865e-06
-7.133464852604319e-05   1.0617668609819511e-05   -5.3421221711624865e-06
-7.133464852604319e-05   1.0617668609819511e-05   -5.3421221711624865e-06
-7.133464852604319e-05   1.0617668609819511e-05   -5.3421221711624865e-06
-7.329169101976177e-05   1.1785638410136221e-05   4.151722555826784e-05
-7.329169101976177e-05   1.1785638410136221e-05   4.151722555826784e-05
-7.329169101976177e-05   1.1785638410136221e-05   4.151722555826784e-05
-7.329169101976177e-05   1.1785638410136221e-05   4.151722555826784e-05
-4.983439498362378e-05   9.642316469988914e-06   3.7077253287926167e-06
-4.983439498362378e-05   9.642316469988914e-06   3.7077253287926167e-06
-4.983439498362378e-05   9.642316469988914e-06   3.7077253287926167e-06
-4.983439498362378e-05   9.642316469988914e-06   3.7077253287926167e-06
-5.832969224845504e-05   1.1408116827705574e-05   1.6807073888882727e-05
-5.832969224845504e-05   1.1408116827705574e-05   1.6807073888882727e-05
-5.832969224845504e-05   1.1408116827705574e-05   1.6807073888882727e-05
-5.832969224845504e-05   1.1408116827705574e-05   1.6807073888882727e-05
3.203982001910075e-05   -4.153298271959878e-06   3.2159691925107625e-05
3.203982001910075e-05   -4.153298271959878e-06   3.2159691925107625e-05
3.203982001910075e-05   -4.153298271959878e-06   3.2159691925107625e-05
3.203982001910075e-05   -4.153298271959878e-06   3.2159691925107625e-05
1.3292617264352547e-05   -2.037164811039254e-06   2.1840340770798265e-06
1.3292617264352547e-05   -2.037164811039254e-06   2.1840340770798265e-06
1.3292617264352547e-05   -2.037164811039254e-06   2.1840340770798265e-06
1.3292617264352547e-05   -2.037164811039254e-06   2.1840340770798265e-06
1.2455854891215336e-05   -5.042489906193978e-06   2.8918046625164623e-05
1.2455854891215336e-05   -5.042489906193978e-06   2.8918046625164623e-05
1.2455854891215336e-05   -5.042489906193978e-06   2.8918046625164623e-05
1.2455854891215336e-05   -5.042489906193978e-06   2.8918046625164623e-05
3.0259215377323597e-05   -2.8319574636218557e-06   -2.08054031722581e-06
3.0259215377323597e-05   -2.8319574636218557e-06   -2.08054031722581e-06
3.0259215377323597e-05   -2.8319574636218557e-06   -2.08054031722581e-06
3.0259215377323597e-05   -2.8319574636218557e-06   -2.08054031722581e-06
2.091647028669828e-05   -3.601023037751172e-06   1.3952140844961255e-05
2.091647028669828e-05   -3.601023037751172e-06   1.3952140844961255e-05
2.091647028669828e-05   -3.601023037751172e-06   1.3952140844961255e-05
2.091647028669828e-05   -3.601023037751172e-06   1.3952140844961255e-05
3.0259215377323658e-05   -5.042489906194412e-06   2.759172715962135e-05
3.0259215377323658e-05   -5.042489906194412e-06   2.759172715962135e-05
3.0259215377323658e-05   -5.042489906194412e-06   2.759172715962135e-05
3.0259215377323658e-05   -5.042489906194412e-06   2.759172715962135e-05
1.2455854891215295e-05   -2.8319574636218557e-06   -7.542208516825907e-07
1.2455854891215295e-05   -2.8319574636218557e-06   -7.542208516825907e-07
1.2455854891215295e-05   -2.8319574636218557e-06   -7.542208516825907e-07
1.2455854891215295e-05   -2.8319574636218557e-06   -7.542208516825907e-07
1.1516333255108658e-05   -5.28026411076828e-06   2.651026129662148e-05
1.1516333255108658e-05   -5.28026411076828e-06   2.651026129662148e-05
1.1516333255108658e-05   -5.28026411076828e-06   2.651026129662148e-05
1.1516333255108658e-05   -5.28026411076828e-06   2.651026129662148e-05
2.8730979808919137e-05   -3.1058780252655495e-06   -3.485447944364501e-06
2.8730979808919137e-05   -3.1058780252655495e-06   -3.485447944364501e-06
2.8730979808919137e-05   -3.1058780252655495e-06   -3.485447944364501e-06
2.8730979808919137e-05   -3.1058780252655495e-06   -3.485447944364501e-06
2.012293090427423e-05   -3.938033527808339e-06   1.1360593531570002e-05
2.012293090427423e-05   -3.938033527808339e-06   1.1360593531570002e-05
2.012293090427423e-05   -3.938033527808339e-06   1.1360593531570002e-05
2.012293090427423e-05   -3.938033527808339e-06   1.1360593531570002e-05
2.8730979808919184e-05   -5.28026411076828e-06   2.520562964531954e-05
2.8730979808919184e-05   -5.28026411076828e-06   2.520562964531954e-05
2.8730979808919184e-05   -5.28026411076828e-06   2.520562964531954e-05
2.8730979808919184e-05   -5.28026411076828e-06   2.520562964531954e-05
1.1516333255108638e-05   -3.1058780252655495e-06   -2.180816293062505e-06
1.1516333255108638e-05   -3.1058780252655495e-06   -2.180816293062505e-06
1.1516333255108638e-05   -3.1058780252655495e-06   -2.180816293062505e-06
1.1516333255108638e-05   -3.1058780252655495e-06   -2.180816293062505e-06
1.0674269685281566e-05   -5.503533658354071e-06   2.3386046623673044e-05
1.0674269685281566e-05   -5.503533658354071e-06   2.3386046623673044e-05
1.0674269685281566e-05   -5.503533658354071e-06   2.3386046623673044e-05
1.0674269685281566e-05   -5.503533658354071e-06   2.3386046623673044e-05
2.6998134042232556e-05   -3.4689885979721086e-06   -5.0411210074745565e-06
2.6998134042232556e-05   -3.4689885979721086e-06   -5.0411210074745565e-06
2.6998134042232556e-05   -3.4689885979721086e-06   -5.0411210074745565e-06
2.6998134042232556e-05   -3.4689885979721086e-06   -5.0411210074745565e-06
1.8657382556230734e-05   -4.004767539073258e-06   9.181598833856016e-06
1.8657382556230734e-05   -4.004767539073258e-06   9.181598833856016e-06
1.8657382556230734e-05   -4.004767539073258e-06   9.181598833856016e-06
1.8657382556230734e-05   -4.004767539073258e-06   9.181598833856016e-06
1.3292617264352595e-05   -1.9157022908538462e-08   3.9783836816219666e-05
1.3292617264352595e-05   -1.9157022908538462e-08   3.9783836816219666e-05
1.3292617264352595e-05   -1.9157022908538462e-08   3.9783836816219666e-05
1.3292617264352595e-05   -1.9157022908538462e-08   3.9783836816219666e-05
-4.302171887114866e-06   1.054296168681492e-06   1.1103260145394313e-05
-4.302171887114866e-06   1.054296168681492e-06   1.1103260145394313e-05
-4.302171887114866e-06   1.054296168681492e-06   1.1103260145394313e-05
-4.302171887114866e-06   1.054296168681492e-06   1.1103260145394313e-05
-5.070915563061703e-06   -7.930040923278397e-07   3.986123657513359e-05
-5.070915563061703e-06   -7.930040923278397e-07   3.986123657513359e-05
-5.070915563061703e-06   -7.930040923278397e-07   3.986123657513359e-05
-5.070915563061703e-06   -7.930040923278397e-07   3.986123657513359e-05
1.2455854891215295e-05   2.4912330192977325e-07   1.0024676048117421e-05
1.2455854891215295e-05   2.4912330192977325e-07   1.0024676048117421e-05
1.2455854891215295e-05   2.4912330192977325e-07   1.0024676048117421e-05
1.2455854891215295e-05   2.4912330192977325e-07   1.0024676048117421e-05
3.968518291842194e-06   5.378746037627835e-08   2.428743855200559e-05
3.968518291842194e-06   5.378746037627835e-08   2.428743855200559e-05
3.968518291842194e-06   5.378746037627835e-08   2.428743855200559e-05
3.968518291842194e-06   5.378746037627835e-08   2.428743855200559e-05
1.2455854891215322e-05   -7.930040923274061e-07   3.923596013857898e-05
1.2455854891215322e-05   -7.930040923274061e-07   3.923596013857898e-05
1.2455854891215322e-05   -7.930040923274061e-07   3.923596013857898e-05
1.2455854891215322e-05   -7.930040923274061e-07   3.923596013857898e-05
-5.07091556306173e-06   2.4912330192933957e-07   1.0649952484672025e-05
-5.07091556306173e-06   2.4912330192933957e-07   1.0649952484672025e-05
-5.07091556306173e-06   2.4912330192933957e-07   1.0649952484672025e-05
-5.07091556306173e-06   2.4912330192933957e-07   1.0649952484672025e-05
-5.8568348257812236e-06   -1.4033924620113214e-06   3.938728424690281e-05
-5.8568348257812236e-06   -1.4033924620113214e-06   3.938728424690281e-05
-5.8568348257812236e-06   -1.4033924620113214e-06   3.938728424690281e-05
-5.8568348257812236e-06   -1.4033924620113214e-06   3.938728424690281e-05
1.1516333255108638e-05   -4.101281936654856e-07   9.836045551079109e-06
1.1516333255108638e-05   -4.101281936654856e-07   9.836045551079109e-06
1.1516333255108638e-05   -4.101281936654856e-07   9.836045551079109e-06
1.1516333255108638e-05   -4.101281936654856e-07   9.836045551079109e-06
3.123611883532954e-06   -4.834888836092836e-07   2.3867930917672816e-05
3.123611883532954e-06   -4.834888836092836e-07   2.3867930917672816e-05
3.123611883532954e-06   -4.834888836092836e-07   2.3867930917672816e-05
3.123611883532954e-06   -4.834888836092836e-07   2.3867930917672816e-05
1.1516333255108679e-05   -1.4033924620113214e-06   3.8791325685895396e-05
1.1516333255108679e-05   -1.4033924620113214e-06   3.8791325685895396e-05
1.1516333255108679e-05   -1.4033924620113214e-06   3.8791325685895396e-05
1.1516333255108679e-05   -1.4033924620113214e-06   3.8791325685895396e-05
-5.8568348257811965e-06   -4.101281936654856e-07   1.0432004112086645e-05
-5.8568348257811965e-06   -4.101281936654856e-07   1.0432004112086645e-05
-5.8568348257811965e-06   -4.101281936654856e-07   1.0432004112086645e-05
-5.8568348257811965e-06   -4.101281936654856e-07   1.0432004112086645e-05
-6.636101453225563e-06   -1.9692008045263214e-06   3.9748326510801076e-05
-6.636101453225563e-06   -1.9692008045263214e-06   3.9748326510801076e-05
-6.636101453225563e-06   -1.9692008045263214e-06   3.9748326510801076e-05
-6.636101453225563e-06   -1.9692008045263214e-06   3.9748326510801076e-05
1.0674269685281525e-05   -1.0603042355930917e-06   1.0352370005262796e-05
1.0674269685281525e-05   -1.0603042355930917e-06   1.0352370005262796e-05
1.0674269685281525e-05   -1.0603042355930917e-06   1.0352370005262796e-05
1.0674269685281525e-05   -1.0603042355930917e-06   1.0352370005262796e-05
2.455636977020154e-06   -9.319100460658709e-07   2.3973054671981944e-05
2.455636977020154e-06   -9.319100460658709e-07   2.3973054671981944e-05
2.455636977020154e-06   -9.319100460658709e-07   2.3973054671981944e-05
2.455636977020154e-06   -9.319100460658709e-07   2.3973054671981944e-05
-4.302171887114839e-06   4.0214535393669724e-06   4.317810330838946e-05
-4.302171887114839e-06   4.0214535393669724e-06   4.317810330838946e-05
-4.302171887114839e-06   4.0214535393669724e-06   4.317810330838946e-05
-4.302171887114839e-06   4.0214535393669724e-06   4.317810330838946e-05
-2.1608133720681284e-05   3.956077200069526e-06   1.4295607782200325e-05
-2.1608133720681284e-05   3.956077200069526e-06   1.4295607782200325e-05
-2.1608133720681284e-05   3.956077200069526e-06   1.4295607782200325e-05
-2.1608133720681284e-05   3.956077200069526e-06   1.4295607782200325e-05
-2.2366418905006233e-05   3.3410321704655313e-06   4.289617327320715e-05
-2.2366418905006233e-05   3.3410321704655313e-06   4.289617327320715e-05
-2.2366418905006233e-05   3.3410321704655313e-06   4.289617327320715e-05
-2.2366418905006233e-05   3.3410321704655313e-06   4.289617327320715e-05
-5.070915563061703e-06   3.2239689154536268e-06   1.414057232297357e-05
-5.070915563061703e-06   3.2239689154536268e-06   1.414057232297357e-05
-5.070915563061703e-06   3.2239689154536268e-06   1.414057232297357e-05
-5.070915563061703e-06   3.2239689154536268e-06   1.414057232297357e-05
-1.3370133932704434e-05   3.545852649609535e-06   2.7779472698552087e-05
-1.3370133932704434e-05   3.545852649609535e-06   2.7779472698552087e-05
-1.3370133932704434e-05   3.545852649609535e-06   2.7779472698552087e-05
-1.3370133932704434e-05   3.545852649609535e-06   2.7779472698552087e-05
-5.070915563061703e-06   3.3410321704655313e-06   4.296641122621429e-05
-5.070915563061703e-06   3.3410321704655313e-06   4.296641122621429e-05
-5.070915563061703e-06   3.3410321704655313e-06   4.296641122621429e-05
-5.070915563061703e-06   3.3410321704655313e-06   4.296641122621429e-05
-2.2366418905006233e-05   3.2239689154540604e-06   1.4070334369966644e-05
-2.2366418905006233e-05   3.2239689154540604e-06   1.4070334369966644e-05
-2.2366418905006233e-05   3.2239689154540604e-06   1.4070334369966644e-05
-2.2366418905006233e-05   3.2239689154540604e-06   1.4070334369966644e-05
-2.3143001671164555e-05   2.671388663115677e-06   4.311680919596257e-05
-2.3143001671164555e-05   2.671388663115677e-06   4.311680919596257e-05
-2.3143001671164555e-05   2.671388663115677e-06   4.311680919596257e-05
-2.3143001671164555e-05   2.671388663115677e-06   4.311680919596257e-05
-5.8568348257811965e-06   2.5002443201542837e-06   1.4409217726100987e-05
-5.8568348257811965e-06   2.5002443201542837e-06   1.4409217726100987e-05
-5.8568348257811965e-06   2.5002443201542837e-06   1.4409217726100987e-05
-5.8568348257811965e-06   2.5002443201542837e-06   1.4409217726100987e-05
-1.40647456951704e-05   3.014283941741615e-06   2.7780645402131242e-05
-1.40647456951704e-05   3.014283941741615e-06   2.7780645402131242e-05
-1.40647456951704e-05   3.014283941741615e-06   2.7780645402131242e-05
-1.40647456951704e-05   3.014283941741615e-06   2.7780645402131242e-05
-5.8568348257811965e-06   2.671388663115677e-06   4.321949580173988e-05
-5.8568348257811965e-06   2.671388663115677e-06   4.321949580173988e-05
-5.8568348257811965e-06   2.671388663115677e-06   4.321949580173988e-05
-5.8568348257811965e-06   2.671388663115677e-06   4.321949580173988e-05
-2.3143001671164555e-05   2.50024432015385e-06   1.4306531120323674e-05
-2.3143001671164555e-05   2.50024432015385e-06   1.4306531120323674e-05
-2.3143001671164555e-05   2.50024432015385e-06   1.4306531120323674e-05
-2.3143001671164555e-05   2.50024432015385e-06   1.4306531120323674e-05
-2.3910604076359822e-05   2.035917728889468e-06   4.369762414227615e-05
-2.3910604076359822e-05   2.035917728889468e-06   4.369762414227615e-05
-2.3910604076359822e-05   2.035917728889468e-06   4.369762414227615e-05
-2.3910604076359822e-05   2.035917728889468e-06   4.369762414227615e-05
-6.636101453225536e-06   1.8034263955233644e-06   1.5046281237072372e-05
-6.636101453225536e-06   1.8034263955233644e-06   1.5046281237072372e-05
-6.636101453225536e-06   1.8034263955233644e-06   1.5046281237072372e-05
-6.636101453225536e-06   1.8034263955233644e-06   1.5046281237072372e-05
-1.4791224111994453e-05   2.49516198234977e-06   2.8223110982924582e-05
-1.4791224111994453e-05   2.49516198234977e-06   2.8223110982924582e-05
-1.4791224111994453e-05   2.49516198234977e-06   2.8223110982924582e-05
-1.4791224111994453e-05   2.49516198234977e-06   2.8223110982924582e-05
-2.1608133720681284e-05   7.909208139444436e-06   3.818308864118598e-05
-2.1608133720681284e-05   7.909208139444436e-06   3.818308864118598e-05
-2.1608133720681284e-05   7.909208139444436e-06   3.818308864118598e-05
-2.1608133720681284e-05   7.909208139444436e-06   3.818308864118598e-05
-3.8620091430246084e-05   6.778686692388101e-06   9.15151292367781e-06
-3.8620091430246084e-05   6.778686692388101e-06   9.15151292367781e-06
-3.8620091430246084e-05   6.778686692388101e-06   9.15151292367781e-06
-3.8620091430246084e-05   6.778686692388101e-06   9.15151292367781e-06
-3.943330876537461e-05   7.257166953560882e-06   3.767620186838783e-05
-3.943330876537461e-05   7.257166953560882e-06   3.767620186838783e-05
-3.943330876537461e-05   7.257166953560882e-06   3.767620186838783e-05
-3.943330876537461e-05   7.257166953560882e-06   3.767620186838783e-05
-2.2366418905006124e-05   6.063164613859164e-06   9.94778683826176e-06
-2.2366418905006124e-05   6.063164613859164e-06   9.94778683826176e-06
-2.2366418905006124e-05   6.063164613859164e-06   9.94778683826176e-06
-2.2366418905006124e-05   6.063164613859164e-06   9.94778683826176e-06
-3.0420894120883842e-05   6.88348434099359e-06   2.287972036177778e-05
-3.0420894120883842e-05   6.88348434099359e-06   2.287972036177778e-05
-3.0420894120883842e-05   6.88348434099359e-06   2.287972036177778e-05
-3.0420894120883842e-05   6.88348434099359e-06   2.287972036177778e-05
-2.2366418905006233e-05   7.257166953560882e-06   3.8392603272209254e-05
-2.2366418905006233e-05   7.257166953560882e-06   3.8392603272209254e-05
-2.2366418905006233e-05   7.257166953560882e-06   3.8392603272209254e-05
-2.2366418905006233e-05   7.257166953560882e-06   3.8392603272209254e-05
-3.94333087653745e-05   6.0631646138587306e-06   9.23138543444061e-06
-3.94333087653745e-05   6.0631646138587306e-06   9.23138543444061e-06
-3.94333087653745e-05   6.0631646138587306e-06   9.23138543444061e-06
-3.94333087653745e-05   6.0631646138587306e-06   9.23138543444061e-06
-4.0348693241335e-05   6.650008649765338e-06   3.89653995568587e-05
-4.0348693241335e-05   6.650008649765338e-06   3.89653995568587e-05
-4.0348693241335e-05   6.650008649765338e-06   3.89653995568587e-05
-4.0348693241335e-05   6.650008649765338e-06   3.89653995568587e-05
-2.31430016711645e-05   5.4014548242875375e-06   1.103837923519484e-05
-2.31430016711645e-05   5.4014548242875375e-06   1.103837923519484e-05
-2.31430016711645e-05   5.4014548242875375e-06   1.103837923519484e-05
-2.31430016711645e-05   5.4014548242875375e-06   1.103837923519484e-05
-3.098495535407349e-05   6.395916041380522e-06   2.3511625309788255e-05
-3.098495535407349e-05   6.395916041380522e-06   2.3511625309788255e-05
-3.098495535407349e-05   6.395916041380522e-06   2.3511625309788255e-05
-3.098495535407349e-05   6.395916041380522e-06   2.3511625309788255e-05
-2.3143001671164555e-05   6.650008649765338e-06   3.971453185214516e-05
-2.3143001671164555e-05   6.650008649765338e-06   3.971453185214516e-05
-2.3143001671164555e-05   6.650008649765338e-06   3.971453185214516e-05
-2.3143001671164555e-05   6.650008649765338e-06   3.971453185214516e-05
-4.034869324133494e-05   5.4014548242875375e-06   1.0289246939908323e-05
-4.034869324133494e-05   5.4014548242875375e-06   1.0289246939908323e-05
-4.034869324133494e-05   5.4014548242875375e-06   1.0289246939908323e-05
-4.034869324133494e-05   5.4014548242875375e-06   1.0289246939908323e-05
-4.1162820070251855e-05   5.943319668352126e-06   4.005470662397123e-05
-4.1162820070251855e-05   5.943319668352126e-06   4.005470662397123e-05
-4.1162820070251855e-05   5.943319668352126e-06   4.005470662397123e-05
-4.1162820070251855e-05   5.943319668352126e-06   4.005470662397123e-05
-2.391060407635974e-05   4.662104810223763e-06   1.2069742215694906e-05
-2.391060407635974e-05   4.662104810223763e-06   1.2069742215694906e-05
-2.391060407635974e-05   4.662104810223763e-06   1.2069742215694906e-05
-2.391060407635974e-05   4.662104810223763e-06   1.2069742215694906e-05
-3.1901988909515276e-05   5.883137687822011e-06   2.465609721106208e-05
-3.1901988909515276e-05   5.883137687822011e-06   2.465609721106208e-05
-3.1901988909515276e-05   5.883137687822011e-06   2.465609721106208e-05
-3.1901988909515276e-05   5.883137687822011e-06   2.465609721106208e-05
-3.8620091430246084e-05   1.0895047413970668e-05   1.8338016437315823e-05
-3.8620091430246084e-05   1.0895047413970668e-05   1.8338016437315823e-05
-3.8620091430246084e-05   1.0895047413970668e-05   1.8338016437315823e-05
-3.8620091430246084e-05   1.0895047413970668e-05   1.8338016437315823e-05
-5.4561567123340485e-05   8.88627124261002e-06   -9.43637542065803e-06
-5.4561567123340485e-05   8.88627124261002e-06   -9.43637542065803e-06
-5.4561567123340485e-05   8.88627124261002e-06   -9.43637542065803e-06
-5.4561567123340485e-05   8.88627124261002e-06   -9.43637542065803e-06
-5.6261174016190775e-05   1.0839052637478044e-05   2.35033243803182e-05
-5.6261174016190775e-05   1.0839052637478044e-05   2.35033243803182e-05
-5.6261174016190775e-05   1.0839052637478044e-05   2.35033243803182e-05
-5.6261174016190775e-05   1.0839052637478044e-05   2.35033243803182e-05
-3.943330876537445e-05   8.655775417778372e-06   -3.233151372556038e-06
-3.943330876537445e-05   8.655775417778372e-06   -3.233151372556038e-06
-3.943330876537445e-05   8.655775417778372e-06   -3.233151372556038e-06
-3.943330876537445e-05   8.655775417778372e-06   -3.233151372556038e-06
-4.544965114725843e-05   9.640968933893618e-06   6.202969820915489e-06
-4.544965114725843e-05   9.640968933893618e-06   6.202969820915489e-06
-4.544965114725843e-05   9.640968933893618e-06   6.202969820915489e-06
-4.544965114725843e-05   9.640968933893618e-06   6.202969820915489e-06
-3.9433308765374556e-05   1.083905263747761e-05   2.4813290712138005e-05
-3.9433308765374556e-05   1.083905263747761e-05   2.4813290712138005e-05
-3.9433308765374556e-05   1.083905263747761e-05   2.4813290712138005e-05
-3.9433308765374556e-05   1.083905263747761e-05   2.4813290712138005e-05
-5.6261174016190884e-05   8.655775417778372e-06   -4.543117704375516e-06
-5.6261174016190884e-05   8.655775417778372e-06   -4.543117704375516e-06
-5.6261174016190884e-05   8.655775417778372e-06   -4.543117704375516e-06
-5.6261174016190884e-05   8.655775417778372e-06   -4.543117704375516e-06
-5.774452953180814e-05   1.0617668609819511e-05   2.798514981758077e-05
-5.774452953180814e-05   1.0617668609819511e-05   2.798514981758077e-05
-5.774452953180814e-05   1.0617668609819511e-05   2.798514981758077e-05
-5.774452953180814e-05   1.0617668609819511e-05   2.798514981758077e-05
-4.034869324133489e-05   8.375336095499657e-06   3.3748884205049134e-07
-4.034869324133489e-05   8.375336095499657e-06   3.3748884205049134e-07
-4.034869324133489e-05   8.375336095499657e-06   3.3748884205049134e-07
-4.034869324133489e-05   8.375336095499657e-06   3.3748884205049134e-07
-4.7247900151824976e-05   9.646523776057556e-06   1.1073454417868142e-05
-4.7247900151824976e-05   9.646523776057556e-06   1.1073454417868142e-05
-4.7247900151824976e-05   9.646523776057556e-06   1.1073454417868142e-05
-4.7247900151824976e-05   9.646523776057556e-06   1.1073454417868142e-05
-4.0348693241335e-05   1.0617668609819511e-05   2.9330549326172595e-05
-4.0348693241335e-05   1.0617668609819511e-05   2.9330549326172595e-05
-4.0348693241335e-05   1.0617668609819511e-05   2.9330549326172595e-05
-4.0348693241335e-05   1.0617668609819511e-05   2.9330549326172595e-05
-5.774452953180814e-05   8.375336095499657e-06   -1.007910666541009e-06
-5.774452953180814e-05   8.375336095499657e-06   -1.007910666541009e-06
-5.774452953180814e-05   8.375336095499657e-06   -1.007910666541009e-06
-5.774452953180814e-05   8.375336095499657e-06   -1.007910666541009e-06
-5.9465636097744275e-05   9.642316469988914e-06   3.577531795614258e-05
-5.9465636097744275e-05   9.642316469988914e-06   3.577531795614258e-05
-5.9465636097744275e-05   9.642316469988914e-06   3.577531795614258e-05
-5.9465636097744275e-05   9.642316469988914e-06   3.577531795614258e-05
-4.116282007025169e-05   7.435266045942735e-06   6.594854831416439e-06
-4.116282007025169e-05   7.435266045942735e-06   6.594854831416439e-06
-4.116282007025169e-05   7.435266045942735e-06   6.594854831416439e-06
-4.116282007025169e-05   7.435266045942735e-06   6.594854831416439e-06
-4.765233516316119e-05   9.237217769383303e-06   1.6329542285534225e-05
-4.765233516316119e-05   9.237217769383303e-06   1.6329542285534225e-05
-4.765233516316119e-05   9.237217769383303e-06   1.6329542285534225e-05
-4.765233516316119e-05   9.237217769383303e-06   1.6329542285534225e-05
1.7756893600125005e-05   -2.037164811039254e-06   2.5283285867470397e-05
1.7756893600125005e-05   -2.037164811039254e-06   2.5283285867470397e-05
1.7756893600125005e-05   -2.037164811039254e-06   2.5283285867470397e-05
1.7756893600125005e-05   -2.037164811039254e-06   2.5283285867470397e-05
4.629001321992455e-06   5.5528470289121015e-08   4.659081372713212e-06
4.629001321992455e-06   5.5528470289121015e-08   4.659081372713212e-06
4.629001321992455e-06   5.5528470289121015e-08   4.659081372713212e-06
4.629001321992455e-06   5.5528470289121015e-08   4.659081372713212e-06
4.003703067840124e-06   -2.8319574636218557e-06   2.3578038555177507e-05
4.003703067840124e-06   -2.8319574636218557e-06   2.3578038555177507e-05
4.003703067840124e-06   -2.8319574636218557e-06   2.3578038555177507e-05
4.003703067840124e-06   -2.8319574636218557e-06   2.3578038555177507e-05
1.621169792411848e-05   -6.563107802716635e-07   1.925992451370413e-06
1.621169792411848e-05   -6.563107802716635e-07   1.925992451370413e-06
1.621169792411848e-05   -6.563107802716635e-07   1.925992451370413e-06
1.621169792411848e-05   -6.563107802716635e-07   1.925992451370413e-06
1.002085229984275e-05   -1.468250469406629e-06   1.273123230531169e-05
1.002085229984275e-05   -1.468250469406629e-06   1.273123230531169e-05
1.002085229984275e-05   -1.468250469406629e-06   1.273123230531169e-05
1.002085229984275e-05   -1.468250469406629e-06   1.273123230531169e-05
1.6211697924118493e-05   -2.8319574636222894e-06   2.227265054516748e-05
1.6211697924118493e-05   -2.8319574636222894e-06   2.227265054516748e-05
1.6211697924118493e-05   -2.8319574636222894e-06   2.227265054516748e-05
1.6211697924118493e-05   -2.8319574636222894e-06   2.227265054516748e-05
4.0037030678401175e-06   -6.563107802716635e-07   3.23138046138074e-06
4.0037030678401175e-06   -6.563107802716635e-07   3.23138046138074e-06
4.0037030678401175e-06   -6.563107802716635e-07   3.23138046138074e-06
4.0037030678401175e-06   -6.563107802716635e-07   3.23138046138074e-06
3.275277835974901e-06   -3.105878025265116e-06   2.213235247505328e-05
3.275277835974901e-06   -3.105878025265116e-06   2.213235247505328e-05
3.275277835974901e-06   -3.105878025265116e-06   2.213235247505328e-05
3.275277835974901e-06   -3.105878025265116e-06   2.213235247505328e-05
1.4903757386213766e-05   -9.636860907515782e-07   1.466238063947044e-06
1.4903757386213766e-05   -9.636860907515782e-07   1.466238063947044e-06
1.4903757386213766e-05   -9.636860907515782e-07   1.466238063947044e-06
1.4903757386213766e-05   -9.636860907515782e-07   1.466238063947044e-06
9.273001434253675e-06   -1.77892600900279e-06   1.1339975268164588e-05
9.273001434253675e-06   -1.77892600900279e-06   1.1339975268164588e-05
9.273001434253675e-06   -1.77892600900279e-06   1.1339975268164588e-05
9.273001434253675e-06   -1.77892600900279e-06   1.1339975268164588e-05
1.4903757386213793e-05   -3.105878025265116e-06   2.0847037314345026e-05
1.4903757386213793e-05   -3.105878025265116e-06   2.0847037314345026e-05
1.4903757386213793e-05   -3.105878025265116e-06   2.0847037314345026e-05
1.4903757386213793e-05   -3.105878025265116e-06   2.0847037314345026e-05
3.2752778359748875e-06   -9.636860907515782e-07   2.751553224655378e-06
3.2752778359748875e-06   -9.636860907515782e-07   2.751553224655378e-06
3.2752778359748875e-06   -9.636860907515782e-07   2.751553224655378e-06
3.2752778359748875e-06   -9.636860907515782e-07   2.751553224655378e-06
2.6443211743060603e-06   -3.468988597971675e-06   2.046441015380652e-05
2.6443211743060603e-06   -3.468988597971675e-06   2.046441015380652e-05
2.6443211743060603e-06   -3.468988597971675e-06   2.046441015380652e-05
2.6443211743060603e-06   -3.468988597971675e-06   2.046441015380652e-05
1.3372675731298234e-05   -1.476555431480361e-06   1.38835932559156e-06
1.3372675731298234e-05   -1.476555431480361e-06   1.38835932559156e-06
1.3372675731298234e-05   -1.476555431480361e-06   1.38835932559156e-06
1.3372675731298234e-05   -1.476555431480361e-06   1.38835932559156e-06
8.174188187820033e-06   -1.940036244177986e-06   1.0330593719007461e-05
8.174188187820033e-06   -1.940036244177986e-06   1.0330593719007461e-05
8.174188187820033e-06   -1.940036244177986e-06   1.0330593719007461e-05
8.174188187820033e-06   -1.940036244177986e-06   1.0330593719007461e-05
4.629001321992462e-06   1.0542961686810584e-06   3.48140559896285e-05
4.629001321992462e-06   1.0542961686810584e-06   3.48140559896285e-05
4.629001321992462e-06   1.0542961686810584e-06   3.48140559896285e-05
4.629001321992462e-06   1.0542961686810584e-06   3.48140559896285e-05
-7.3334659911956554e-06   2.0009267557902135e-06   1.544458881991371e-05
-7.3334659911956554e-06   2.0009267557902135e-06   1.544458881991371e-05
-7.3334659911956554e-06   2.0009267557902135e-06   1.544458881991371e-05
-7.3334659911956554e-06   2.0009267557902135e-06   1.544458881991371e-05
-7.882601573357253e-06   2.4912330192933957e-07   3.492502162726822e-05
-7.882601573357253e-06   2.4912330192933957e-07   3.492502162726822e-05
-7.882601573357253e-06   2.4912330192933957e-07   3.492502162726822e-05
-7.882601573357253e-06   2.4912330192933957e-07   3.492502162726822e-05
4.0037030678401175e-06   1.1959335890804508e-06   1.4546427719648923e-05
4.0037030678401175e-06   1.1959335890804508e-06   1.4546427719648923e-05
4.0037030678401175e-06   1.1959335890804508e-06   1.4546427719648923e-05
4.0037030678401175e-06   1.1959335890804508e-06   1.4546427719648923e-05
-1.7351233358904402e-06   1.0450789061401677e-06   2.4201651202298364e-05
-1.7351233358904402e-06   1.0450789061401677e-06   2.4201651202298364e-05
-1.7351233358904402e-06   1.0450789061401677e-06   2.4201651202298364e-05
-1.7351233358904402e-06   1.0450789061401677e-06   2.4201651202298364e-05
4.003703067840121e-06   2.4912330192977325e-07   3.435693545497751e-05
4.003703067840121e-06   2.4912330192977325e-07   3.435693545497751e-05
4.003703067840121e-06   2.4912330192977325e-07   3.435693545497751e-05
4.003703067840121e-06   2.4912330192977325e-07   3.435693545497751e-05
-7.882601573357253e-06   1.1959335890804508e-06   1.5114513891939627e-05
-7.882601573357253e-06   1.1959335890804508e-06   1.5114513891939627e-05
-7.882601573357253e-06   1.1959335890804508e-06   1.5114513891939627e-05
-7.882601573357253e-06   1.1959335890804508e-06   1.5114513891939627e-05
-8.447699558916297e-06   -4.101281936654856e-07   3.470324417390535e-05
-8.447699558916297e-06   -4.101281936654856e-07   3.470324417390535e-05
-8.447699558916297e-06   -4.101281936654856e-07   3.470324417390535e-05
-8.447699558916297e-06   -4.101281936654856e-07   3.470324417390535e-05
3.2752778359748875e-06   5.132548975186196e-07   1.4610918661042884e-05
3.2752778359748875e-06   5.132548975186196e-07   1.4610918661042884e-05
3.2752778359748875e-06   5.132548975186196e-07   1.4610918661042884e-05
3.2752778359748875e-06   5.132548975186196e-07   1.4610918661042884e-05
-2.3210952080286103e-06   4.833574934897961e-07   2.395614551013313e-05
-2.3210952080286103e-06   4.833574934897961e-07   2.395614551013313e-05
-2.3210952080286103e-06   4.833574934897961e-07   2.395614551013313e-05
-2.3210952080286103e-06   4.833574934897961e-07   2.395614551013313e-05
3.275277835974901e-06   -4.101281936654856e-07   3.41492143191948e-05
3.275277835974901e-06   -4.101281936654856e-07   3.41492143191948e-05
3.275277835974901e-06   -4.101281936654856e-07   3.41492143191948e-05
3.275277835974901e-06   -4.101281936654856e-07   3.41492143191948e-05
-8.447699558916324e-06   5.132548975186196e-07   1.5164948515753373e-05
-8.447699558916324e-06   5.132548975186196e-07   1.5164948515753373e-05
-8.447699558916324e-06   5.132548975186196e-07   1.5164948515753373e-05
-8.447699558916324e-06   5.132548975186196e-07   1.5164948515753373e-05
-9.004283348486747e-06   -1.0603042355930917e-06   3.516239378696922e-05
-9.004283348486747e-06   -1.0603042355930917e-06   3.516239378696922e-05
-9.004283348486747e-06   -1.0603042355930917e-06   3.516239378696922e-05
-9.004283348486747e-06   -1.0603042355930917e-06   3.516239378696922e-05
2.6443211743060535e-06   -1.8493814116790977e-07   1.5222833258993256e-05
2.6443211743060535e-06   -1.8493814116790977e-07   1.5222833258993256e-05
2.6443211743060535e-06   -1.8493814116790977e-07   1.5222833258993256e-05
2.6443211743060535e-06   -1.8493814116790977e-07   1.5222833258993256e-05
-2.8175832089859506e-06   -2.1232067232623483e-08   2.4227783586786044e-05
-2.8175832089859506e-06   -2.1232067232623483e-08   2.4227783586786044e-05
-2.8175832089859506e-06   -2.1232067232623483e-08   2.4227783586786044e-05
-2.8175832089859506e-06   -2.1232067232623483e-08   2.4227783586786044e-05
-7.3334659911956554e-06   3.956077200069526e-06   3.861360778227856e-05
-7.3334659911956554e-06   3.956077200069526e-06   3.861360778227856e-05
-7.3334659911956554e-06   3.956077200069526e-06   3.861360778227856e-05
-7.3334659911956554e-06   3.956077200069526e-06   3.861360778227856e-05
-1.9095005320106774e-05   3.727857254621266e-06   1.8874110266824313e-05
-1.9095005320106774e-05   3.727857254621266e-06   1.8874110266824313e-05
-1.9095005320106774e-05   3.727857254621266e-06   1.8874110266824313e-05
-1.9095005320106774e-05   3.727857254621266e-06   1.8874110266824313e-05
-1.9621738242778697e-05   3.2239689154540604e-06   3.82724112989116e-05
-1.9621738242778697e-05   3.2239689154540604e-06   3.82724112989116e-05
-1.9621738242778697e-05   3.2239689154540604e-06   3.82724112989116e-05
-1.9621738242778697e-05   3.2239689154540604e-06   3.82724112989116e-05
-7.882601573357226e-06   2.9852519710237436e-06   1.8850413683200865e-05
-7.882601573357226e-06   2.9852519710237436e-06   1.8850413683200865e-05
-7.882601573357226e-06   2.9852519710237436e-06   1.8850413683200865e-05
-7.882601573357226e-06   2.9852519710237436e-06   1.8850413683200865e-05
-1.350821140782009e-05   3.390718462827026e-06   2.798315017889149e-05
-1.350821140782009e-05   3.390718462827026e-06   2.798315017889149e-05
-1.350821140782009e-05   3.390718462827026e-06   2.798315017889149e-05
-1.350821140782009e-05   3.390718462827026e-06   2.798315017889149e-05
-7.882601573357253e-06   3.2239689154540604e-06   3.841564146557009e-05
-7.882601573357253e-06   3.2239689154540604e-06   3.841564146557009e-05
-7.882601573357253e-06   3.2239689154540604e-06   3.841564146557009e-05
-7.882601573357253e-06   3.2239689154540604e-06   3.841564146557009e-05
-1.9621738242778643e-05   2.9852519710237436e-06   1.8707183516542642e-05
-1.9621738242778643e-05   2.9852519710237436e-06   1.8707183516542642e-05
-1.9621738242778643e-05   2.9852519710237436e-06   1.8707183516542642e-05
-1.9621738242778643e-05   2.9852519710237436e-06   1.8707183516542642e-05
-2.0165802125341186e-05   2.50024432015385e-06   3.852817252605737e-05
-2.0165802125341186e-05   2.50024432015385e-06   3.852817252605737e-05
-2.0165802125341186e-05   2.50024432015385e-06   3.852817252605737e-05
-2.0165802125341186e-05   2.50024432015385e-06   3.852817252605737e-05
-8.447699558916297e-06   2.246435550383105e-06   1.9150286843878353e-05
-8.447699558916297e-06   2.246435550383105e-06   1.9150286843878353e-05
-8.447699558916297e-06   2.246435550383105e-06   1.9150286843878353e-05
-8.447699558916297e-06   2.246435550383105e-06   1.9150286843878353e-05
-1.3977320679125878e-05   2.8256570287008963e-06   2.801878915723705e-05
-1.3977320679125878e-05   2.8256570287008963e-06   2.801878915723705e-05
-1.3977320679125878e-05   2.8256570287008963e-06   2.801878915723705e-05
-1.3977320679125878e-05   2.8256570287008963e-06   2.801878915723705e-05
-8.447699558916324e-06   2.50024432015385e-06   3.868045778791969e-05
-8.447699558916324e-06   2.50024432015385e-06   3.868045778791969e-05
-8.447699558916324e-06   2.50024432015385e-06   3.868045778791969e-05
-8.447699558916324e-06   2.50024432015385e-06   3.868045778791969e-05
-2.016580212534113e-05   2.246435550383322e-06   1.8998001582015982e-05
-2.016580212534113e-05   2.246435550383322e-06   1.8998001582015982e-05
-2.016580212534113e-05   2.246435550383322e-06   1.8998001582015982e-05
-2.016580212534113e-05   2.246435550383322e-06   1.8998001582015982e-05
-2.070141014782513e-05   1.8034263955233644e-06   3.91522366969346e-05
-2.070141014782513e-05   1.8034263955233644e-06   3.91522366969346e-05
-2.070141014782513e-05   1.8034263955233644e-06   3.91522366969346e-05
-2.070141014782513e-05   1.8034263955233644e-06   3.91522366969346e-05
-9.00428334848672e-06   1.538875761381963e-06   1.9815755745188936e-05
-9.00428334848672e-06   1.538875761381963e-06   1.9815755745188936e-05
-9.00428334848672e-06   1.538875761381963e-06   1.9815755745188936e-05
-9.00428334848672e-06   1.538875761381963e-06   1.9815755745188936e-05
-1.4476227403170135e-05   2.271852642572519e-06   2.8495876374280834e-05
-1.4476227403170135e-05   2.271852642572519e-06   2.8495876374280834e-05
-1.4476227403170135e-05   2.271852642572519e-06   2.8495876374280834e-05
-1.4476227403170135e-05   2.271852642572519e-06   2.8495876374280834e-05
-1.9095005320106774e-05   6.778686692388101e-06   3.401089382472052e-05
-1.9095005320106774e-05   6.778686692388101e-06   3.401089382472052e-05
-1.9095005320106774e-05   6.778686692388101e-06   3.401089382472052e-05
-1.9095005320106774e-05   6.778686692388101e-06   3.401089382472052e-05
-3.0640018926999905e-05   5.5342030792862075e-06   1.402251431203733e-05
-3.0640018926999905e-05   5.5342030792862075e-06   1.402251431203733e-05
-3.0640018926999905e-05   5.5342030792862075e-06   1.402251431203733e-05
-3.0640018926999905e-05   5.5342030792862075e-06   1.402251431203733e-05
-3.121396851141282e-05   6.063164613859164e-06   3.338301017525658e-05
-3.121396851141282e-05   6.063164613859164e-06   3.338301017525658e-05
-3.121396851141282e-05   6.063164613859164e-06   3.338301017525658e-05
-3.121396851141282e-05   6.063164613859164e-06   3.338301017525658e-05
-1.9621738242778697e-05   4.78507529394186e-06   1.482947998615033e-05
-1.9621738242778697e-05   4.78507529394186e-06   1.482947998615033e-05
-1.9621738242778697e-05   4.78507529394186e-06   1.482947998615033e-05
-1.9621738242778697e-05   4.78507529394186e-06   1.482947998615033e-05
-2.5082125869017467e-05   5.696686370954343e-06   2.3383159383675613e-05
-2.5082125869017467e-05   5.696686370954343e-06   2.3383159383675613e-05
-2.5082125869017467e-05   5.696686370954343e-06   2.3383159383675613e-05
-2.5082125869017467e-05   5.696686370954343e-06   2.3383159383675613e-05
-1.9621738242778697e-05   6.063164613859164e-06   3.414986376720688e-05
-1.9621738242778697e-05   6.063164613859164e-06   3.414986376720688e-05
-1.9621738242778697e-05   6.063164613859164e-06   3.414986376720688e-05
-1.9621738242778697e-05   6.063164613859164e-06   3.414986376720688e-05
-3.1213968511412766e-05   4.78507529394186e-06   1.4062626394200197e-05
-3.1213968511412766e-05   4.78507529394186e-06   1.4062626394200197e-05
-3.1213968511412766e-05   4.78507529394186e-06   1.4062626394200197e-05
-3.1213968511412766e-05   4.78507529394186e-06   1.4062626394200197e-05
-3.189390163438869e-05   5.401454824287971e-06   3.44817467404575e-05
-3.189390163438869e-05   5.401454824287971e-06   3.44817467404575e-05
-3.189390163438869e-05   5.401454824287971e-06   3.44817467404575e-05
-3.189390163438869e-05   5.401454824287971e-06   3.44817467404575e-05
-2.0165802125341077e-05   4.104331656836109e-06   1.57131881258492e-05
-2.0165802125341077e-05   4.104331656836109e-06   1.57131881258492e-05
-2.0165802125341077e-05   4.104331656836109e-06   1.57131881258492e-05
-2.0165802125341077e-05   4.104331656836109e-06   1.57131881258492e-05
-2.545462007438762e-05   5.166657018459411e-06   2.3890489490619197e-05
-2.545462007438762e-05   5.166657018459411e-06   2.3890489490619197e-05
-2.545462007438762e-05   5.166657018459411e-06   2.3890489490619197e-05
-2.545462007438762e-05   5.166657018459411e-06   2.3890489490619197e-05
-2.016580212534113e-05   5.401454824287971e-06   3.526002064092827e-05
-2.016580212534113e-05   5.401454824287971e-06   3.526002064092827e-05
-2.016580212534113e-05   5.401454824287971e-06   3.526002064092827e-05
-2.016580212534113e-05   5.401454824287971e-06   3.526002064092827e-05
-3.1893901634388584e-05   4.104331656836109e-06   1.4934914225378103e-05
-3.1893901634388584e-05   4.104331656836109e-06   1.4934914225378103e-05
-3.1893901634388584e-05   4.104331656836109e-06   1.4934914225378103e-05
-3.1893901634388584e-05   4.104331656836109e-06   1.4934914225378103e-05
-3.247764003662558e-05   4.662104810223763e-06   3.554425303420924e-05
-3.247764003662558e-05   4.662104810223763e-06   3.554425303420924e-05
-3.247764003662558e-05   4.662104810223763e-06   3.554425303420924e-05
-3.247764003662558e-05   4.662104810223763e-06   3.554425303420924e-05
-2.0701410147825076e-05   3.3772057412779014e-06   1.668814266090967e-05
-2.0701410147825076e-05   3.3772057412779014e-06   1.668814266090967e-05
-2.0701410147825076e-05   3.3772057412779014e-06   1.668814266090967e-05
-2.0701410147825076e-05   3.3772057412779014e-06   1.668814266090967e-05
-2.6094061331651263e-05   4.636251952402004e-06   2.4920466907279873e-05
-2.6094061331651263e-05   4.636251952402004e-06   2.4920466907279873e-05
-2.6094061331651263e-05   4.636251952402004e-06   2.4920466907279873e-05
-2.6094061331651263e-05   4.636251952402004e-06   2.4920466907279873e-05
-3.0640018927000014e-05   8.88627124261002e-06   1.588158101533993e-05
-3.0640018927000014e-05   8.88627124261002e-06   1.588158101533993e-05
-3.0640018927000014e-05   8.88627124261002e-06   1.588158101533993e-05
-3.0640018927000014e-05   8.88627124261002e-06   1.588158101533993e-05
-4.1040910586884324e-05   6.803177555805232e-06   -2.703094629883686e-06
-4.1040910586884324e-05   6.803177555805232e-06   -2.703094629883686e-06
-4.1040910586884324e-05   6.803177555805232e-06   -2.703094629883686e-06
-4.1040910586884324e-05   6.803177555805232e-06   -2.703094629883686e-06
-4.251180179803851e-05   8.655775417778372e-06   1.957615679359318e-05
-4.251180179803851e-05   8.655775417778372e-06   1.957615679359318e-05
-4.251180179803851e-05   8.655775417778372e-06   1.957615679359318e-05
-4.251180179803851e-05   8.655775417778372e-06   1.957615679359318e-05
-3.121396851141271e-05   6.418581126667192e-06   2.0887512238837967e-06
-3.121396851141271e-05   6.418581126667192e-06   2.0887512238837967e-06
-3.121396851141271e-05   6.418581126667192e-06   2.0887512238837967e-06
-3.121396851141271e-05   6.418581126667192e-06   2.0887512238837967e-06
-3.502812356542012e-05   7.550428709020805e-06   7.76656776448558e-06
-3.502812356542012e-05   7.550428709020805e-06   7.76656776448558e-06
-3.502812356542012e-05   7.550428709020805e-06   7.76656776448558e-06
-3.502812356542012e-05   7.550428709020805e-06   7.76656776448558e-06
-3.121396851141271e-05   8.655775417778372e-06   2.0918473368259716e-05
-3.121396851141271e-05   8.655775417778372e-06   2.0918473368259716e-05
-3.121396851141271e-05   8.655775417778372e-06   2.0918473368259716e-05
-3.121396851141271e-05   8.655775417778372e-06   2.0918473368259716e-05
-4.251180179803851e-05   6.418581126667192e-06   7.46434649217208e-07
-4.251180179803851e-05   6.418581126667192e-06   7.46434649217208e-07
-4.251180179803851e-05   6.418581126667192e-06   7.46434649217208e-07
-4.251180179803851e-05   6.418581126667192e-06   7.46434649217208e-07
-4.377869654690627e-05   8.375336095500091e-06   2.3163556739614352e-05
-4.377869654690627e-05   8.375336095500091e-06   2.3163556739614352e-05
-4.377869654690627e-05   8.375336095500091e-06   2.3163556739614352e-05
-4.377869654690627e-05   8.375336095500091e-06   2.3163556739614352e-05
-3.1893901634388584e-05   6.097949590524749e-06   4.721997121736807e-06
-3.1893901634388584e-05   6.097949590524749e-06   4.721997121736807e-06
-3.1893901634388584e-05   6.097949590524749e-06   4.721997121736807e-06
-3.1893901634388584e-05   6.097949590524749e-06   4.721997121736807e-06
-3.643929905222158e-05   7.4502544634962725e-06   1.1486276561009558e-05
-3.643929905222158e-05   7.4502544634962725e-06   1.1486276561009558e-05
-3.643929905222158e-05   7.4502544634962725e-06   1.1486276561009558e-05
-3.643929905222158e-05   7.4502544634962725e-06   1.1486276561009558e-05
-3.189390163438864e-05   8.375336095499657e-06   2.4529988642599558e-05
-3.189390163438864e-05   8.375336095499657e-06   2.4529988642599558e-05
-3.189390163438864e-05   8.375336095499657e-06   2.4529988642599558e-05
-3.189390163438864e-05   8.375336095499657e-06   2.4529988642599558e-05
-4.377869654690627e-05   6.097949590524749e-06   3.355565218751764e-06
-4.377869654690627e-05   6.097949590524749e-06   3.355565218751764e-06
-4.377869654690627e-05   6.097949590524749e-06   3.355565218751764e-06
-4.377869654690627e-05   6.097949590524749e-06   3.355565218751764e-06
-4.5295497621760414e-05   7.435266045942735e-06   2.951314470801868e-05
-4.5295497621760414e-05   7.435266045942735e-06   2.951314470801868e-05
-4.5295497621760414e-05   7.435266045942735e-06   2.951314470801868e-05
-4.5295497621760414e-05   7.435266045942735e-06   2.951314470801868e-05
-3.247764003662547e-05   5.2270162846277356e-06   9.474998589583078e-06
-3.247764003662547e-05   5.2270162846277356e-06   9.474998589583078e-06
-3.247764003662547e-05   5.2270162846277356e-06   9.474998589583078e-06
-3.247764003662547e-05   5.2270162846277356e-06   9.474998589583078e-06
-3.679335999020583e-05   7.054209908936198e-06   1.5571549004299193e-05
-3.679335999020583e-05   7.054209908936198e-06   1.5571549004299193e-05
-3.679335999020583e-05   7.054209908936198e-06   1.5571549004299193e-05
-3.679335999020583e-05   7.054209908936198e-06   1.5571549004299193e-05
3.492183307635604e-06   5.5528470289337856e-08   1.884528078426994e-05
3.492183307635604e-06   5.5528470289337856e-08   1.884528078426994e-05
3.492183307635604e-06   5.5528470289337856e-08   1.884528078426994e-05
3.492183307635604e-06   5.5528470289337856e-08   1.884528078426994e-05
-4.000056304940178e-06   2.0630601046977594e-06   7.56273374395548e-06
-4.000056304940178e-06   2.0630601046977594e-06   7.56273374395548e-06
-4.000056304940178e-06   2.0630601046977594e-06   7.56273374395548e-06
-4.000056304940178e-06   2.0630601046977594e-06   7.56273374395548e-06
-4.441895537695375e-06   -6.563107802716635e-07   1.8596389636207802e-05
-4.441895537695375e-06   -6.563107802716635e-07   1.8596389636207802e-05
-4.441895537695375e-06   -6.563107802716635e-07   1.8596389636207802e-05
-4.441895537695375e-06   -6.563107802716635e-07   1.8596389636207802e-05
2.146658542276323e-06   1.3990736789071777e-06   6.3822354940807865e-06
2.146658542276323e-06   1.3990736789071777e-06   6.3822354940807865e-06
2.146658542276323e-06   1.3990736789071777e-06   6.3822354940807865e-06
2.146658542276323e-06   1.3990736789071777e-06   6.3822354940807865e-06
-8.743534382426134e-07   6.019143416588404e-07   1.189555106396133e-05
-8.743534382426134e-07   6.019143416588404e-07   1.189555106396133e-05
-8.743534382426134e-07   6.019143416588404e-07   1.189555106396133e-05
-8.743534382426134e-07   6.019143416588404e-07   1.189555106396133e-05
2.146658542276323e-06   -6.563107802716635e-07   1.7363158960700346e-05
2.146658542276323e-06   -6.563107802716635e-07   1.7363158960700346e-05
2.146658542276323e-06   -6.563107802716635e-07   1.7363158960700346e-05
2.146658542276323e-06   -6.563107802716635e-07   1.7363158960700346e-05
-4.441895537695375e-06   1.3990736789071777e-06   7.61546616958827e-06
-4.441895537695375e-06   1.3990736789071777e-06   7.61546616958827e-06
-4.441895537695375e-06   1.3990736789071777e-06   7.61546616958827e-06
-4.441895537695375e-06   1.3990736789071777e-06   7.61546616958827e-06
-4.987537704877143e-06   -9.636860907513613e-07   1.8115452366225938e-05
-4.987537704877143e-06   -9.636860907513613e-07   1.8115452366225938e-05
-4.987537704877143e-06   -9.636860907513613e-07   1.8115452366225938e-05
-4.987537704877143e-06   -9.636860907513613e-07   1.8115452366225938e-05
9.795323748324424e-07   1.0329105243262783e-06   6.972377597663424e-06
9.795323748324424e-07   1.0329105243262783e-06   6.972377597663424e-06
9.795323748324424e-07   1.0329105243262783e-06   6.972377597663424e-06
9.795323748324424e-07   1.0329105243262783e-06   6.972377597663424e-06
-1.6011683740736883e-06   3.189371601299007e-07   1.1701929531024717e-05
-1.6011683740736883e-06   3.189371601299007e-07   1.1701929531024717e-05
-1.6011683740736883e-06   3.189371601299007e-07   1.1701929531024717e-05
-1.6011683740736883e-06   3.189371601299007e-07   1.1701929531024717e-05
9.795323748324424e-07   -9.636860907515782e-07   1.6917494397179094e-05
9.795323748324424e-07   -9.636860907515782e-07   1.6917494397179094e-05
9.795323748324424e-07   -9.636860907515782e-07   1.6917494397179094e-05
9.795323748324424e-07   -9.636860907515782e-07   1.6917494397179094e-05
-4.987537704877133e-06   1.0329105243262783e-06   8.170335566709888e-06
-4.987537704877133e-06   1.0329105243262783e-06   8.170335566709888e-06
-4.987537704877133e-06   1.0329105243262783e-06   8.170335566709888e-06
-4.987537704877133e-06   1.0329105243262783e-06   8.170335566709888e-06
-5.443275193160301e-06   -1.4765554314805779e-06   1.7952632693017342e-05
-5.443275193160301e-06   -1.4765554314805779e-06   1.7952632693017342e-05
-5.443275193160301e-06   -1.4765554314805779e-06   1.7952632693017342e-05
-5.443275193160301e-06   -1.4765554314805779e-06   1.7952632693017342e-05
-4.843523207865631e-07   2.556520456735347e-07   8.648436752768923e-06
-4.843523207865631e-07   2.556520456735347e-07   8.648436752768923e-06
-4.843523207865631e-07   2.556520456735347e-07   8.648436752768923e-06
-4.843523207865631e-07   2.556520456735347e-07   8.648436752768923e-06
-2.3816600049804743e-06   5.857391823980117e-08   1.1928863102885683e-05
-2.3816600049804743e-06   5.857391823980117e-08   1.1928863102885683e-05
-2.3816600049804743e-06   5.857391823980117e-08   1.1928863102885683e-05
-2.3816600049804743e-06   5.857391823980117e-08   1.1928863102885683e-05
-4.000056304940178e-06   2.0009267557902135e-06   3.0267328859849996e-05
-4.000056304940178e-06   2.0009267557902135e-06   3.0267328859849996e-05
-4.000056304940178e-06   2.0009267557902135e-06   3.0267328859849996e-05
-4.000056304940178e-06   2.0009267557902135e-06   3.0267328859849996e-05
-1.0272468269489725e-05   2.3957447067241098e-06   2.0050199689494296e-05
-1.0272468269489725e-05   2.3957447067241098e-06   2.0050199689494296e-05
-1.0272468269489725e-05   2.3957447067241098e-06   2.0050199689494296e-05
-1.0272468269489725e-05   2.3957447067241098e-06   2.0050199689494296e-05
-1.0605324744565017e-05   1.1959335890804508e-06   3.0186207367198905e-05
-1.0605324744565017e-05   1.1959335890804508e-06   3.0186207367198905e-05
-1.0605324744565017e-05   1.1959335890804508e-06   3.0186207367198905e-05
-1.0605324744565017e-05   1.1959335890804508e-06   3.0186207367198905e-05
-4.441895537695375e-06   1.653884376951343e-06   1.963905488302693e-05
-4.441895537695375e-06   1.653884376951343e-06   1.963905488302693e-05
-4.441895537695375e-06   1.653884376951343e-06   1.963905488302693e-05
-4.441895537695375e-06   1.653884376951343e-06   1.963905488302693e-05
-7.372932398965259e-06   1.725945245816679e-06   2.448087979715739e-05
-7.372932398965259e-06   1.725945245816679e-06   2.448087979715739e-05
-7.372932398965259e-06   1.725945245816679e-06   2.448087979715739e-05
-7.372932398965259e-06   1.725945245816679e-06   2.448087979715739e-05
-4.4418955376953785e-06   1.1959335890804508e-06   2.9911436894476196e-05
-4.4418955376953785e-06   1.1959335890804508e-06   2.9911436894476196e-05
-4.4418955376953785e-06   1.1959335890804508e-06   2.9911436894476196e-05
-4.4418955376953785e-06   1.1959335890804508e-06   2.9911436894476196e-05
-1.060532474456499e-05   1.653884376951343e-06   1.9913825355749332e-05
-1.060532474456499e-05   1.653884376951343e-06   1.9913825355749332e-05
-1.060532474456499e-05   1.653884376951343e-06   1.9913825355749332e-05
-1.060532474456499e-05   1.653884376951343e-06   1.9913825355749332e-05
-1.0948595885930108e-05   5.132548975186196e-07   3.024794417088943e-05
-1.0948595885930108e-05   5.132548975186196e-07   3.024794417088943e-05
-1.0948595885930108e-05   5.132548975186196e-07   3.024794417088943e-05
-1.0948595885930108e-05   5.132548975186196e-07   3.024794417088943e-05
-4.987537704877133e-06   9.684655113114185e-07   2.0039720834192096e-05
-4.987537704877133e-06   9.684655113114185e-07   2.0039720834192096e-05
-4.987537704877133e-06   9.684655113114185e-07   2.0039720834192096e-05
-4.987537704877133e-06   9.684655113114185e-07   2.0039720834192096e-05
-7.71267905115016e-06   1.1834429162480356e-06   2.4452636635018956e-05
-7.71267905115016e-06   1.1834429162480356e-06   2.4452636635018956e-05
-7.71267905115016e-06   1.1834429162480356e-06   2.4452636635018956e-05
-7.71267905115016e-06   1.1834429162480356e-06   2.4452636635018956e-05
-4.987537704877143e-06   5.132548975186196e-07   2.99748178026136e-05
-4.987537704877143e-06   5.132548975186196e-07   2.99748178026136e-05
-4.987537704877143e-06   5.132548975186196e-07   2.99748178026136e-05
-4.987537704877143e-06   5.132548975186196e-07   2.99748178026136e-05
-1.0948595885930108e-05   9.684655113114185e-07   2.031284720246788e-05
-1.0948595885930108e-05   9.684655113114185e-07   2.031284720246788e-05
-1.0948595885930108e-05   9.684655113114185e-07   2.031284720246788e-05
-1.0948595885930108e-05   9.684655113114185e-07   2.031284720246788e-05
-1.128519021236578e-05   -1.8493814116790977e-07   3.083775564719318e-05
-1.128519021236578e-05   -1.8493814116790977e-07   3.083775564719318e-05
-1.128519021236578e-05   -1.8493814116790977e-07   3.083775564719318e-05
-1.128519021236578e-05   -1.8493814116790977e-07   3.083775564719318e-05
-5.443275193160294e-06   2.2524339328075516e-07   2.085512169451524e-05
-5.443275193160294e-06   2.2524339328075516e-07   2.085512169451524e-05
-5.443275193160294e-06   2.2524339328075516e-07   2.085512169451524e-05
-5.443275193160294e-06   2.2524339328075516e-07   2.085512169451524e-05
-8.052257975302287e-06   6.496455172164215e-07   2.494878505705713e-05
-8.052257975302287e-06   6.496455172164215e-07   2.494878505705713e-05
-8.052257975302287e-06   6.496455172164215e-07   2.494878505705713e-05
-8.052257975302287e-06   6.496455172164215e-07   2.494878505705713e-05
-1.0272468269489725e-05   3.7278572546210493e-06   3.4070673044589656e-05
-1.0272468269489725e-05   3.7278572546210493e-06   3.4070673044589656e-05
-1.0272468269489725e-05   3.7278572546210493e-06   3.4070673044589656e-05
-1.0272468269489725e-05   3.7278572546210493e-06   3.4070673044589656e-05
-1.65268082356866e-05   2.868920950031134e-06   2.3131411318174093e-05
-1.65268082356866e-05   2.868920950031134e-06   2.3131411318174093e-05
-1.65268082356866e-05   2.868920950031134e-06   2.3131411318174093e-05
-1.65268082356866e-05   2.868920950031134e-06   2.3131411318174093e-05
-1.680828319069891e-05   2.9852519710235267e-06   3.343952893836307e-05
-1.680828319069891e-05   2.9852519710235267e-06   3.343952893836307e-05
-1.680828319069891e-05   2.9852519710235267e-06   3.343952893836307e-05
-1.680828319069891e-05   2.9852519710235267e-06   3.343952893836307e-05
-1.060532474456499e-05   2.1809549375286386e-06   2.3583843081570357e-05
-1.060532474456499e-05   2.1809549375286386e-06   2.3583843081570357e-05
-1.060532474456499e-05   2.1809549375286386e-06   2.3583843081570357e-05
-1.060532474456499e-05   2.1809549375286386e-06   2.3583843081570357e-05
-1.3559783691182394e-05   2.884512193989351e-06   2.8085806972056248e-05
-1.3559783691182394e-05   2.884512193989351e-06   2.8085806972056248e-05
-1.3559783691182394e-05   2.884512193989351e-06   2.8085806972056248e-05
-1.3559783691182394e-05   2.884512193989351e-06   2.8085806972056248e-05
-1.060532474456499e-05   2.9852519710235267e-06   3.39221071584602e-05
-1.060532474456499e-05   2.9852519710235267e-06   3.39221071584602e-05
-1.060532474456499e-05   2.9852519710235267e-06   3.39221071584602e-05
-1.060532474456499e-05   2.9852519710235267e-06   3.39221071584602e-05
-1.680828319069891e-05   2.1809549375286386e-06   2.310126486147323e-05
-1.680828319069891e-05   2.1809549375286386e-06   2.310126486147323e-05
-1.680828319069891e-05   2.1809549375286386e-06   2.310126486147323e-05
-1.680828319069891e-05   2.1809549375286386e-06   2.310126486147323e-05
-1.7109994279513176e-05   2.246435550383105e-06   3.3774436216417025e-05
-1.7109994279513176e-05   2.246435550383105e-06   3.3774436216417025e-05
-1.7109994279513176e-05   2.246435550383105e-06   3.3774436216417025e-05
-1.7109994279513176e-05   2.246435550383105e-06   3.3774436216417025e-05
-1.0948595885930108e-05   1.4816917460543262e-06   2.3964285176376128e-05
-1.0948595885930108e-05   1.4816917460543262e-06   2.3964285176376128e-05
-1.0948595885930108e-05   1.4816917460543262e-06   2.3964285176376128e-05
-1.0948595885930108e-05   1.4816917460543262e-06   2.3964285176376128e-05
-1.380026129031749e-05   2.3333451375519808e-06   2.82060688154565e-05
-1.380026129031749e-05   2.3333451375519808e-06   2.82060688154565e-05
-1.380026129031749e-05   2.3333451375519808e-06   2.82060688154565e-05
-1.380026129031749e-05   2.3333451375519808e-06   2.82060688154565e-05
-1.0948595885930108e-05   2.246435550383322e-06   3.423328249901436e-05
-1.0948595885930108e-05   2.246435550383322e-06   3.423328249901436e-05
-1.0948595885930108e-05   2.246435550383322e-06   3.423328249901436e-05
-1.0948595885930108e-05   2.246435550383322e-06   3.423328249901436e-05
-1.710999427951312e-05   1.4816917460543262e-06   2.3505438893778633e-05
-1.710999427951312e-05   1.4816917460543262e-06   2.3505438893778633e-05
-1.710999427951312e-05   1.4816917460543262e-06   2.3505438893778633e-05
-1.710999427951312e-05   1.4816917460543262e-06   2.3505438893778633e-05
-1.740546998326304e-05   1.538875761381963e-06   3.447326191675297e-05
-1.740546998326304e-05   1.538875761381963e-06   3.447326191675297e-05
-1.740546998326304e-05   1.538875761381963e-06   3.447326191675297e-05
-1.740546998326304e-05   1.538875761381963e-06   3.447326191675297e-05
-1.1285190212365754e-05   8.185481614139158e-07   2.4704992191905038e-05
-1.1285190212365754e-05   8.185481614139158e-07   2.4704992191905038e-05
-1.1285190212365754e-05   8.185481614139158e-07   2.4704992191905038e-05
-1.1285190212365754e-05   8.185481614139158e-07   2.4704992191905038e-05
-1.4068217600852743e-05   1.7903736880433944e-06   2.8760275856739214e-05
-1.4068217600852743e-05   1.7903736880433944e-06   2.8760275856739214e-05
-1.4068217600852743e-05   1.7903736880433944e-06   2.8760275856739214e-05
-1.4068217600852743e-05   1.7903736880433944e-06   2.8760275856739214e-05
-1.6526808235686654e-05   5.5342030792862075e-06   2.9450405474910142e-05
-1.6526808235686654e-05   5.5342030792862075e-06   2.9450405474910142e-05
-1.6526808235686654e-05   5.5342030792862075e-06   2.9450405474910142e-05
-1.6526808235686654e-05   5.5342030792862075e-06   2.9450405474910142e-05
-2.2676568035992766e-05   3.875875883262592e-06   1.8205809490119175e-05
-2.2676568035992766e-05   3.875875883262592e-06   1.8205809490119175e-05
-2.2676568035992766e-05   3.875875883262592e-06   1.8205809490119175e-05
-2.2676568035992766e-05   3.875875883262592e-06   1.8205809490119175e-05
-2.2985765396061415e-05   4.78507529394186e-06   2.8581991315763163e-05
-2.2985765396061415e-05   4.78507529394186e-06   2.8581991315763163e-05
-2.2985765396061415e-05   4.78507529394186e-06   2.8581991315763163e-05
-2.2985765396061415e-05   4.78507529394186e-06   2.8581991315763163e-05
-1.680828319069891e-05   3.1520184735958894e-06   1.9266021732366437e-05
-1.680828319069891e-05   3.1520184735958894e-06   1.9266021732366437e-05
-1.680828319069891e-05   3.1520184735958894e-06   1.9266021732366437e-05
-1.680828319069891e-05   3.1520184735958894e-06   1.9266021732366437e-05
-1.9707534100002174e-05   4.300536509902961e-06   2.3408995759420926e-05
-1.9707534100002174e-05   4.300536509902961e-06   2.3408995759420926e-05
-1.9707534100002174e-05   4.300536509902961e-06   2.3408995759420926e-05
-1.9707534100002174e-05   4.300536509902961e-06   2.3408995759420926e-05
-1.680828319069891e-05   4.785075293942077e-06   2.9561825407970702e-05
-1.680828319069891e-05   4.785075293942077e-06   2.9561825407970702e-05
-1.680828319069891e-05   4.785075293942077e-06   2.9561825407970702e-05
-1.680828319069891e-05   4.785075293942077e-06   2.9561825407970702e-05
-2.298576539606136e-05   3.1520184735956726e-06   1.8286187640158844e-05
-2.298576539606136e-05   3.1520184735956726e-06   1.8286187640158844e-05
-2.298576539606136e-05   3.1520184735956726e-06   1.8286187640158844e-05
-2.298576539606136e-05   3.1520184735956726e-06   1.8286187640158844e-05
-2.3413536783731574e-05   4.104331656835892e-06   2.9532011059934735e-05
-2.3413536783731574e-05   4.104331656835892e-06   2.9532011059934735e-05
-2.3413536783731574e-05   4.104331656835892e-06   2.9532011059934735e-05
-2.3413536783731574e-05   4.104331656835892e-06   2.9532011059934735e-05
-1.7109994279513176e-05   2.5083121563097225e-06   1.9983718586553e-05
-1.7109994279513176e-05   2.5083121563097225e-06   1.9983718586553e-05
-1.7109994279513176e-05   2.5083121563097225e-06   1.9983718586553e-05
-1.7109994279513176e-05   2.5083121563097225e-06   1.9983718586553e-05
-1.987564474322594e-05   3.7663436187219002e-06   2.3838317148627223e-05
-1.987564474322594e-05   3.7663436187219002e-06   2.3838317148627223e-05
-1.987564474322594e-05   3.7663436187219002e-06   2.3838317148627223e-05
-1.987564474322594e-05   3.7663436187219002e-06   2.3838317148627223e-05
-1.7109994279513176e-05   4.104331656835892e-06   3.0489622760250024e-05
-1.7109994279513176e-05   4.104331656835892e-06   3.0489622760250024e-05
-1.7109994279513176e-05   4.104331656835892e-06   3.0489622760250024e-05
-1.7109994279513176e-05   4.104331656835892e-06   3.0489622760250024e-05
-2.341353678373152e-05   2.5083121563097225e-06   1.9026106886237468e-05
-2.341353678373152e-05   2.5083121563097225e-06   1.9026106886237468e-05
-2.341353678373152e-05   2.5083121563097225e-06   1.9026106886237468e-05
-2.341353678373152e-05   2.5083121563097225e-06   1.9026106886237468e-05
-2.375657957109597e-05   3.3772057412779014e-06   3.058976274820393e-05
-2.375657957109597e-05   3.3772057412779014e-06   3.058976274820393e-05
-2.375657957109597e-05   3.3772057412779014e-06   3.058976274820393e-05
-2.375657957109597e-05   3.3772057412779014e-06   3.058976274820393e-05
-1.7405469983262987e-05   1.8528449666870006e-06   2.0919196566570415e-05
-1.7405469983262987e-05   1.8528449666870006e-06   2.0919196566570415e-05
-1.7405469983262987e-05   1.8528449666870006e-06   2.0919196566570415e-05
-1.7405469983262987e-05   1.8528449666870006e-06   2.0919196566570415e-05
-2.0229692365848924e-05   3.258678246086371e-06   2.4782733903241233e-05
-2.0229692365848924e-05   3.258678246086371e-06   2.4782733903241233e-05
-2.0229692365848924e-05   3.258678246086371e-06   2.4782733903241233e-05
-2.0229692365848924e-05   3.258678246086371e-06   2.4782733903241233e-05
-2.2676568035992766e-05   6.803177555805232e-06   1.297965642745784e-05
-2.2676568035992766e-05   6.803177555805232e-06   1.297965642745784e-05
-2.2676568035992766e-05   6.803177555805232e-06   1.297965642745784e-05
-2.2676568035992766e-05   6.803177555805232e-06   1.297965642745784e-05
-2.7491785913487323e-05   4.574674699414421e-06   3.61719158446599e-06
-2.7491785913487323e-05   4.574674699414421e-06   3.61719158446599e-06
-2.7491785913487323e-05   4.574674699414421e-06   3.61719158446599e-06
-2.7491785913487323e-05   4.574674699414421e-06   3.61719158446599e-06
-2.8666677343158883e-05   6.418581126667192e-06   1.521272586791321e-05
-2.8666677343158883e-05   6.418581126667192e-06   1.521272586791321e-05
-2.8666677343158883e-05   6.418581126667192e-06   1.521272586791321e-05
-2.8666677343158883e-05   6.418581126667192e-06   1.521272586791321e-05
-2.298576539606136e-05   4.092930664111342e-06   7.139929566950839e-06
-2.298576539606136e-05   4.092930664111342e-06   7.139929566950839e-06
-2.298576539606136e-05   4.092930664111342e-06   7.139929566950839e-06
-2.298576539606136e-05   4.092930664111342e-06   7.139929566950839e-06
-2.4572306705847454e-05   5.418115031258913e-06   8.98905446297248e-06
-2.4572306705847454e-05   5.418115031258913e-06   8.98905446297248e-06
-2.4572306705847454e-05   5.418115031258913e-06   8.98905446297248e-06
-2.4572306705847454e-05   5.418115031258913e-06   8.98905446297248e-06
-2.2985765396061415e-05   6.418581126667192e-06   1.6608116145446546e-05
-2.2985765396061415e-05   6.418581126667192e-06   1.6608116145446546e-05
-2.2985765396061415e-05   6.418581126667192e-06   1.6608116145446546e-05
-2.2985765396061415e-05   6.418581126667192e-06   1.6608116145446546e-05
-2.866667734315899e-05   4.092930664111559e-06   5.744539289417466e-06
-2.866667734315899e-05   4.092930664111559e-06   5.744539289417466e-06
-2.866667734315899e-05   4.092930664111559e-06   5.744539289417466e-06
-2.866667734315899e-05   4.092930664111559e-06   5.744539289417466e-06
-2.967573118223179e-05   6.097949590524749e-06   1.791774020575964e-05
-2.967573118223179e-05   6.097949590524749e-06   1.791774020575964e-05
-2.967573118223179e-05   6.097949590524749e-06   1.791774020575964e-05
-2.967573118223179e-05   6.097949590524749e-06   1.791774020575964e-05
-2.341353678373152e-05   3.7623600063019322e-06   8.882103292126033e-06
-2.341353678373152e-05   3.7623600063019322e-06   8.882103292126033e-06
-2.341353678373152e-05   3.7623600063019322e-06   8.882103292126033e-06
-2.341353678373152e-05   3.7623600063019322e-06   8.882103292126033e-06
-2.556719562515458e-05   5.228639119990788e-06   1.1591767226285356e-05
-2.556719562515458e-05   5.228639119990788e-06   1.1591767226285356e-05
-2.556719562515458e-05   5.228639119990788e-06   1.1591767226285356e-05
-2.556719562515458e-05   5.228639119990788e-06   1.1591767226285356e-05
-2.341353678373152e-05   6.097949590524749e-06   1.9319093956293113e-05
-2.341353678373152e-05   6.097949590524749e-06   1.9319093956293113e-05
-2.341353678373152e-05   6.097949590524749e-06   1.9319093956293113e-05
-2.341353678373152e-05   6.097949590524749e-06   1.9319093956293113e-05
-2.9675731182231897e-05   3.7623600063019322e-06   7.480749541592379e-06
-2.9675731182231897e-05   3.7623600063019322e-06   7.480749541592379e-06
-2.9675731182231897e-05   3.7623600063019322e-06   7.480749541592379e-06
-2.9675731182231897e-05   3.7623600063019322e-06   7.480749541592379e-06
-3.096138951294699e-05   5.2270162846277356e-06   2.2814134362615776e-05
-3.096138951294699e-05   5.2270162846277356e-06   2.2814134362615776e-05
-3.096138951294699e-05   5.2270162846277356e-06   2.2814134362615776e-05
-3.096138951294699e-05   5.2270162846277356e-06   2.2814134362615776e-05
-2.3756579571095917e-05   3.004643358579329e-06   1.2139541548492993e-05
-2.3756579571095917e-05   3.004643358579329e-06   1.2139541548492993e-05
-2.3756579571095917e-05   3.004643358579329e-06   1.2139541548492993e-05
-2.3756579571095917e-05   3.004643358579329e-06   1.2139541548492993e-05
-2.5852654846779215e-05   4.867215771844815e-06   1.4515456893339235e-05
-2.5852654846779215e-05   4.867215771844815e-06   1.4515456893339235e-05
-2.5852654846779215e-05   4.867215771844815e-06   1.4515456893339235e-05
-2.5852654846779215e-05   4.867215771844815e-06   1.4515456893339235e-05
-1.1379272940080165e-05   2.0630601046977594e-06   1.3422973362064365e-05
-1.1379272940080165e-05   2.0630601046977594e-06   1.3422973362064365e-05
-1.1379272940080165e-05   2.0630601046977594e-06   1.3422973362064365e-05
-1.1379272940080165e-05   2.0630601046977594e-06   1.3422973362064365e-05
-1.2389815987668852e-05   3.88675351477416e-06   1.2832950995462231e-05
-1.2389815987668852e-05   3.88675351477416e-06   1.2832950995462231e-05
-1.2389815987668852e-05   3.88675351477416e-06   1.2832950995462231e-05
-1.2389815987668852e-05   3.88675351477416e-06   1.2832950995462231e-05
-1.2705721820588457e-05   1.3990736789071777e-06   1.4434136635373606e-05
-1.2705721820588457e-05   1.3990736789071777e-06   1.4434136635373606e-05
-1.2705721820588457e-05   1.3990736789071777e-06   1.4434136635373606e-05
-1.2705721820588457e-05   1.3990736789071777e-06   1.4434136635373606e-05
-1.2714119761149213e-05   3.0385693822340904e-06   1.3464435780978826e-05
-1.2714119761149213e-05   3.0385693822340904e-06   1.3464435780978826e-05
-1.2714119761149213e-05   3.0385693822340904e-06   1.3464435780978826e-05
-1.2714119761149213e-05   3.0385693822340904e-06   1.3464435780978826e-05
-1.1990151937244997e-05   2.428298944312079e-06   1.2623985003891566e-05
-1.1990151937244997e-05   2.428298944312079e-06   1.2623985003891566e-05
-1.1990151937244997e-05   2.428298944312079e-06   1.2623985003891566e-05
-1.1990151937244997e-05   2.428298944312079e-06   1.2623985003891566e-05
-1.271411976114924e-05   1.3990736789071777e-06   1.3450439213377394e-05
-1.271411976114924e-05   1.3990736789071777e-06   1.3450439213377394e-05
-1.271411976114924e-05   1.3990736789071777e-06   1.3450439213377394e-05
-1.271411976114924e-05   1.3990736789071777e-06   1.3450439213377394e-05
-1.2705721820588457e-05   3.0385693822340904e-06   1.444813320297493e-05
-1.2705721820588457e-05   3.0385693822340904e-06   1.444813320297493e-05
-1.2705721820588457e-05   3.0385693822340904e-06   1.444813320297493e-05
-1.2705721820588457e-05   3.0385693822340904e-06   1.444813320297493e-05
-1.3115841427632565e-05   1.0329105243262783e-06   1.489929646494078e-05
-1.3115841427632565e-05   1.0329105243262783e-06   1.489929646494078e-05
-1.3115841427632565e-05   1.0329105243262783e-06   1.489929646494078e-05
-1.3115841427632565e-05   1.0329105243262783e-06   1.489929646494078e-05
-1.4011749943177503e-05   2.451443324477166e-06   1.5541357644091526e-05
-1.4011749943177503e-05   2.451443324477166e-06   1.5541357644091526e-05
-1.4011749943177503e-05   2.451443324477166e-06   1.5541357644091526e-05
-1.4011749943177503e-05   2.451443324477166e-06   1.5541357644091526e-05
-1.2784967387033135e-05   2.0622253463693264e-06   1.3730250837381999e-05
-1.2784967387033135e-05   2.0622253463693264e-06   1.3730250837381999e-05
-1.2784967387033135e-05   2.0622253463693264e-06   1.3730250837381999e-05
-1.2784967387033135e-05   2.0622253463693264e-06   1.3730250837381999e-05
-1.401174994317753e-05   1.0329105243262783e-06   1.40481767848499e-05
-1.401174994317753e-05   1.0329105243262783e-06   1.40481767848499e-05
-1.401174994317753e-05   1.0329105243262783e-06   1.40481767848499e-05
-1.401174994317753e-05   1.0329105243262783e-06   1.40481767848499e-05
-1.3115841427632565e-05   2.451443324477166e-06   1.639247732418219e-05
-1.3115841427632565e-05   2.451443324477166e-06   1.639247732418219e-05
-1.3115841427632565e-05   2.451443324477166e-06   1.639247732418219e-05
-1.3115841427632565e-05   2.451443324477166e-06   1.639247732418219e-05
-1.3375874984400147e-05   2.556520456735347e-07   1.6390352205696815e-05
-1.3375874984400147e-05   2.556520456735347e-07   1.6390352205696815e-05
-1.3375874984400147e-05   2.556520456735347e-07   1.6390352205696815e-05
-1.3375874984400147e-05   2.556520456735347e-07   1.6390352205696815e-05
-1.5392969459044473e-05   1.0069227436106977e-06   1.9301413911341478e-05
-1.5392969459044473e-05   1.0069227436106977e-06   1.9301413911341478e-05
-1.5392969459044473e-05   1.0069227436106977e-06   1.9301413911341478e-05
-1.5392969459044473e-05   1.0069227436106977e-06   1.9301413911341478e-05
-1.3339527455937453e-05   1.6119691138953562e-06   1.55159827506587e-05
-1.3339527455937453e-05   1.6119691138953562e-06   1.55159827506587e-05
-1.3339527455937453e-05   1.6119691138953562e-06   1.55159827506587e-05
-1.3339527455937453e-05   1.6119691138953562e-06   1.55159827506587e-05
-1.2389815987668832e-05   2.395744706723893e-06   2.6767764583088705e-05
-1.2389815987668832e-05   2.395744706723893e-06   2.6767764583088705e-05
-1.2389815987668832e-05   2.395744706723893e-06   2.6767764583088705e-05
-1.2389815987668832e-05   2.395744706723893e-06   2.6767764583088705e-05
-1.252547350326632e-05   1.005543134073735e-06   2.5707547780169345e-05
-1.252547350326632e-05   1.005543134073735e-06   2.5707547780169345e-05
-1.252547350326632e-05   1.005543134073735e-06   2.5707547780169345e-05
-1.252547350326632e-05   1.005543134073735e-06   2.5707547780169345e-05
-1.2621653674382323e-05   1.653884376951343e-06   2.5755441105064936e-05
-1.2621653674382323e-05   1.653884376951343e-06   2.5755441105064936e-05
-1.2621653674382323e-05   1.653884376951343e-06   2.5755441105064936e-05
-1.2621653674382323e-05   1.653884376951343e-06   2.5755441105064936e-05
-1.2705721820588457e-05   4.834106373724284e-07   2.659783892582249e-05
-1.2705721820588457e-05   4.834106373724284e-07   2.659783892582249e-05
-1.2705721820588457e-05   4.834106373724284e-07   2.659783892582249e-05
-1.2705721820588457e-05   4.834106373724284e-07   2.659783892582249e-05
-1.2521485326398303e-05   1.2249630195197876e-06   2.5845846672883856e-05
-1.2521485326398303e-05   1.2249630195197876e-06   2.5845846672883856e-05
-1.2521485326398303e-05   1.2249630195197876e-06   2.5845846672883856e-05
-1.2521485326398303e-05   1.2249630195197876e-06   2.5845846672883856e-05
-1.2705721820588443e-05   1.6538843769515598e-06   2.6457725348811743e-05
-1.2705721820588443e-05   1.6538843769515598e-06   2.6457725348811743e-05
-1.2705721820588443e-05   1.6538843769515598e-06   2.6457725348811743e-05
-1.2705721820588443e-05   1.6538843769515598e-06   2.6457725348811743e-05
-1.2621653674382323e-05   4.834106373724284e-07   2.5895554682075074e-05
-1.2621653674382323e-05   4.834106373724284e-07   2.5895554682075074e-05
-1.2621653674382323e-05   4.834106373724284e-07   2.5895554682075074e-05
-1.2621653674382323e-05   4.834106373724284e-07   2.5895554682075074e-05
-1.2741111871597712e-05   9.684655113116353e-07   2.6113681638286965e-05
-1.2741111871597712e-05   9.684655113116353e-07   2.6113681638286965e-05
-1.2741111871597712e-05   9.684655113116353e-07   2.6113681638286965e-05
-1.2741111871597712e-05   9.684655113116353e-07   2.6113681638286965e-05
-1.3115841427632565e-05   -1.2320131224832342e-07   2.739323099248084e-05
-1.3115841427632565e-05   -1.2320131224832342e-07   2.739323099248084e-05
-1.3115841427632565e-05   -1.2320131224832342e-07   2.739323099248084e-05
-1.3115841427632565e-05   -1.2320131224832342e-07   2.739323099248084e-05
-1.263966467252217e-05   7.91826925440435e-07   2.6050586124683222e-05
-1.263966467252217e-05   7.91826925440435e-07   2.6050586124683222e-05
-1.263966467252217e-05   7.91826925440435e-07   2.6050586124683222e-05
-1.263966467252217e-05   7.91826925440435e-07   2.6050586124683222e-05
-1.3115841427632565e-05   9.684655113114185e-07   2.6768681732422398e-05
-1.3115841427632565e-05   9.684655113114185e-07   2.6768681732422398e-05
-1.3115841427632565e-05   9.684655113114185e-07   2.6768681732422398e-05
-1.3115841427632565e-05   9.684655113114185e-07   2.6768681732422398e-05
-1.2741111871597657e-05   -1.2320131224843184e-07   2.6738230898344878e-05
-1.2741111871597657e-05   -1.2320131224843184e-07   2.6738230898344878e-05
-1.2741111871597657e-05   -1.2320131224843184e-07   2.6738230898344878e-05
-1.2741111871597657e-05   -1.2320131224843184e-07   2.6738230898344878e-05
-1.282717926005754e-05   2.2524339328075516e-07   2.6869933372178053e-05
-1.282717926005754e-05   2.2524339328075516e-07   2.6869933372178053e-05
-1.282717926005754e-05   2.2524339328075516e-07   2.6869933372178053e-05
-1.282717926005754e-05   2.2524339328075516e-07   2.6869933372178053e-05
-1.337587498440014e-05   -9.210554216738422e-07   2.8472205535054763e-05
-1.337587498440014e-05   -9.210554216738422e-07   2.8472205535054763e-05
-1.337587498440014e-05   -9.210554216738422e-07   2.8472205535054763e-05
-1.337587498440014e-05   -9.210554216738422e-07   2.8472205535054763e-05
-1.2827832779602152e-05   2.821264736389568e-07   2.683689272320341e-05
-1.2827832779602152e-05   2.821264736389568e-07   2.683689272320341e-05
-1.2827832779602152e-05   2.821264736389568e-07   2.683689272320341e-05
-1.2827832779602152e-05   2.821264736389568e-07   2.683689272320341e-05
-1.2525473503266374e-05   2.868920950031134e-06   2.953021705093251e-05
-1.2525473503266374e-05   2.868920950031134e-06   2.953021705093251e-05
-1.2525473503266374e-05   2.868920950031134e-06   2.953021705093251e-05
-1.2525473503266374e-05   2.868920950031134e-06   2.953021705093251e-05
-1.346202594218975e-05   2.7904816337536234e-07   2.6415372647399873e-05
-1.346202594218975e-05   2.7904816337536234e-07   2.6415372647399873e-05
-1.346202594218975e-05   2.7904816337536234e-07   2.6415372647399873e-05
-1.346202594218975e-05   2.7904816337536234e-07   2.6415372647399873e-05
-1.3492813915611651e-05   2.1809549375286386e-06   2.8019253975508163e-05
-1.3492813915611651e-05   2.1809549375286386e-06   2.8019253975508163e-05
-1.3492813915611651e-05   2.1809549375286386e-06   2.8019253975508163e-05
-1.3492813915611651e-05   2.1809549375286386e-06   2.8019253975508163e-05
-1.2621653674382323e-05   -1.6271982143385277e-07   2.7973525095503413e-05
-1.2621653674382323e-05   -1.6271982143385277e-07   2.7973525095503413e-05
-1.2621653674382323e-05   -1.6271982143385277e-07   2.7973525095503413e-05
-1.2621653674382323e-05   -1.6271982143385277e-07   2.7973525095503413e-05
-1.300286091049557e-05   1.2483498283059977e-06   2.776222869918174e-05
-1.300286091049557e-05   1.2483498283059977e-06   2.776222869918174e-05
-1.300286091049557e-05   1.2483498283059977e-06   2.776222869918174e-05
-1.300286091049557e-05   1.2483498283059977e-06   2.776222869918174e-05
-1.2621653674382323e-05   2.1809549375286386e-06   2.9425458830885745e-05
-1.2621653674382323e-05   2.1809549375286386e-06   2.9425458830885745e-05
-1.2621653674382323e-05   2.1809549375286386e-06   2.9425458830885745e-05
-1.2621653674382323e-05   2.1809549375286386e-06   2.9425458830885745e-05
-1.3492813915611651e-05   -1.6271982143385277e-07   2.6567320240125967e-05
-1.3492813915611651e-05   -1.6271982143385277e-07   2.6567320240125967e-05
-1.3492813915611651e-05   -1.6271982143385277e-07   2.6567320240125967e-05
-1.3492813915611651e-05   -1.6271982143385277e-07   2.6567320240125967e-05
-1.3550542390367026e-05   1.4816917460543262e-06   2.846103803674652e-05
-1.3550542390367026e-05   1.4816917460543262e-06   2.846103803674652e-05
-1.3550542390367026e-05   1.4816917460543262e-06   2.846103803674652e-05
-1.3550542390367026e-05   1.4816917460543262e-06   2.846103803674652e-05
-1.2741111871597657e-05   -6.917775463600182e-07   2.8416068747579373e-05
-1.2741111871597657e-05   -6.917775463600182e-07   2.8416068747579373e-05
-1.2741111871597657e-05   -6.917775463600182e-07   2.8416068747579373e-05
-1.2741111871597657e-05   -6.917775463600182e-07   2.8416068747579373e-05
-1.3007919784377629e-05   8.104775466829302e-07   2.7959395546386207e-05
-1.3007919784377629e-05   8.104775466829302e-07   2.7959395546386207e-05
-1.3007919784377629e-05   8.104775466829302e-07   2.7959395546386207e-05
-1.3007919784377629e-05   8.104775466829302e-07   2.7959395546386207e-05
-1.2741111871597712e-05   1.4816917460543262e-06   2.9765119612194888e-05
-1.2741111871597712e-05   1.4816917460543262e-06   2.9765119612194888e-05
-1.2741111871597712e-05   1.4816917460543262e-06   2.9765119612194888e-05
-1.2741111871597712e-05   1.4816917460543262e-06   2.9765119612194888e-05
-1.3550542390367026e-05   -6.917775463600182e-07   2.7111987172130842e-05
-1.3550542390367026e-05   -6.917775463600182e-07   2.7111987172130842e-05
-1.3550542390367026e-05   -6.917775463600182e-07   2.7111987172130842e-05
-1.3550542390367026e-05   -6.917775463600182e-07   2.7111987172130842e-05
-1.3586601804022145e-05   8.185481614141326e-07   2.9248475026745968e-05
-1.3586601804022145e-05   8.185481614141326e-07   2.9248475026745968e-05
-1.3586601804022145e-05   8.185481614141326e-07   2.9248475026745968e-05
-1.3586601804022145e-05   8.185481614141326e-07   2.9248475026745968e-05
-1.282717926005754e-05   -1.2234850421743515e-06   2.9207990708957857e-05
-1.282717926005754e-05   -1.2234850421743515e-06   2.9207990708957857e-05
-1.282717926005754e-05   -1.2234850421743515e-06   2.9207990708957857e-05
-1.282717926005754e-05   -1.2234850421743515e-06   2.9207990708957857e-05
-1.303448219272318e-05   3.6020878506218615e-07   2.860327930039085e-05
-1.303448219272318e-05   3.6020878506218615e-07   2.860327930039085e-05
-1.303448219272318e-05   3.6020878506218615e-07   2.860327930039085e-05
-1.303448219272318e-05   3.6020878506218615e-07   2.860327930039085e-05
-1.346202594218975e-05   3.875875883262592e-06   2.4045687868497938e-05
-1.346202594218975e-05   3.875875883262592e-06   2.4045687868497938e-05
-1.346202594218975e-05   3.875875883262592e-06   2.4045687868497938e-05
-1.346202594218975e-05   3.875875883262592e-06   2.4045687868497938e-05
-1.482698662926029e-05   1.2715215347535976e-06   2.0208140780941877e-05
-1.482698662926029e-05   1.2715215347535976e-06   2.0208140780941877e-05
-1.482698662926029e-05   1.2715215347535976e-06   2.0208140780941877e-05
-1.482698662926029e-05   1.2715215347535976e-06   2.0208140780941877e-05
-1.4849055524223395e-05   3.1520184735956726e-06   2.270664911965814e-05
-1.4849055524223395e-05   3.1520184735956726e-06   2.270664911965814e-05
-1.4849055524223395e-05   3.1520184735956726e-06   2.270664911965814e-05
-1.4849055524223395e-05   3.1520184735956726e-06   2.270664911965814e-05
-1.3492813915611651e-05   6.897489290234047e-07   2.1923608165382068e-05
-1.3492813915611651e-05   6.897489290234047e-07   2.1923608165382068e-05
-1.3492813915611651e-05   6.897489290234047e-07   2.1923608165382068e-05
-1.3492813915611651e-05   6.897489290234047e-07   2.1923608165382068e-05
-1.4120649219862908e-05   2.301160683996833e-06   2.200315328615009e-05
-1.4120649219862908e-05   2.301160683996833e-06   2.200315328615009e-05
-1.4120649219862908e-05   2.301160683996833e-06   2.200315328615009e-05
-1.4120649219862908e-05   2.301160683996833e-06   2.200315328615009e-05
-1.3492813915611651e-05   3.1520184735958894e-06   2.418401084640137e-05
-1.3492813915611651e-05   3.1520184735958894e-06   2.418401084640137e-05
-1.3492813915611651e-05   3.1520184735958894e-06   2.418401084640137e-05
-1.3492813915611651e-05   3.1520184735958894e-06   2.418401084640137e-05
-1.4849055524223395e-05   6.897489290234047e-07   2.0446246438638536e-05
-1.4849055524223395e-05   6.897489290234047e-07   2.0446246438638536e-05
-1.4849055524223395e-05   6.897489290234047e-07   2.0446246438638536e-05
-1.4849055524223395e-05   6.897489290234047e-07   2.0446246438638536e-05
-1.500821863960729e-05   2.5083121563097225e-06   2.3549370300368806e-05
-1.500821863960729e-05   2.5083121563097225e-06   2.3549370300368806e-05
-1.500821863960729e-05   2.5083121563097225e-06   2.3549370300368806e-05
-1.500821863960729e-05   2.5083121563097225e-06   2.3549370300368806e-05
-1.3550542390366972e-05   1.9173310772250315e-07   2.2509857314120287e-05
-1.3550542390366972e-05   1.9173310772250315e-07   2.2509857314120287e-05
-1.3550542390366972e-05   1.9173310772250315e-07   2.2509857314120287e-05
-1.3550542390366972e-05   1.9173310772250315e-07   2.2509857314120287e-05
-1.4078281183048087e-05   1.8228673750318898e-06   2.2410741408202244e-05
-1.4078281183048087e-05   1.8228673750318898e-06   2.2410741408202244e-05
-1.4078281183048087e-05   1.8228673750318898e-06   2.2410741408202244e-05
-1.4078281183048087e-05   1.8228673750318898e-06   2.2410741408202244e-05
-1.3550542390367026e-05   2.5083121563097225e-06   2.4939317729520292e-05
-1.3550542390367026e-05   2.5083121563097225e-06   2.4939317729520292e-05
-1.3550542390367026e-05   2.5083121563097225e-06   2.4939317729520292e-05
-1.3550542390367026e-05   2.5083121563097225e-06   2.4939317729520292e-05
-1.500821863960729e-05   1.9173310772250315e-07   2.111990988496798e-05
-1.500821863960729e-05   1.9173310772250315e-07   2.111990988496798e-05
-1.500821863960729e-05   1.9173310772250315e-07   2.111990988496798e-05
-1.500821863960729e-05   1.9173310772250315e-07   2.111990988496798e-05
-1.5102481127657699e-05   1.8528449666870006e-06   2.4597046729884185e-05
-1.5102481127657699e-05   1.8528449666870006e-06   2.4597046729884185e-05
-1.5102481127657699e-05   1.8528449666870006e-06   2.4597046729884185e-05
-1.5102481127657699e-05   1.8528449666870006e-06   2.4597046729884185e-05
-1.3586601804022145e-05   -3.1020375249274455e-07   2.336841042199886e-05
-1.3586601804022145e-05   -3.1020375249274455e-07   2.336841042199886e-05
-1.3586601804022145e-05   -3.1020375249274455e-07   2.336841042199886e-05
-1.3586601804022145e-05   -3.1020375249274455e-07   2.336841042199886e-05
-1.4146700741363952e-05   1.3958776794438348e-06   2.3278259791739502e-05
-1.4146700741363952e-05   1.3958776794438348e-06   2.3278259791739502e-05
-1.4146700741363952e-05   1.3958776794438348e-06   2.3278259791739502e-05
-1.4146700741363952e-05   1.3958776794438348e-06   2.3278259791739502e-05
-1.4826986629260235e-05   4.574674699414421e-06   9.23155906757398e-06
-1.4826986629260235e-05   4.574674699414421e-06   9.23155906757398e-06
-1.4826986629260235e-05   4.574674699414421e-06   9.23155906757398e-06
-1.4826986629260235e-05   4.574674699414421e-06   9.23155906757398e-06
-1.4611606526150687e-05   2.091951134444714e-06   8.100891767107973e-06
-1.4611606526150687e-05   2.091951134444714e-06   8.100891767107973e-06
-1.4611606526150687e-05   2.091951134444714e-06   8.100891767107973e-06
-1.4611606526150687e-05   2.091951134444714e-06   8.100891767107973e-06
-1.536280837169412e-05   4.092930664111559e-06   1.011305640233242e-05
-1.536280837169412e-05   4.092930664111559e-06   1.011305640233242e-05
-1.536280837169412e-05   4.092930664111559e-06   1.011305640233242e-05
-1.536280837169412e-05   4.092930664111559e-06   1.011305640233242e-05
-1.4849055524223395e-05   1.6807062572486448e-06   1.070413630066536e-05
-1.4849055524223395e-05   1.6807062572486448e-06   1.070413630066536e-05
-1.4849055524223395e-05   1.6807062572486448e-06   1.070413630066536e-05
-1.4849055524223395e-05   1.6807062572486448e-06   1.070413630066536e-05
-1.4428428551550344e-05   3.2170811581537853e-06   9.08126640566725e-06
-1.4428428551550344e-05   3.2170811581537853e-06   9.08126640566725e-06
-1.4428428551550344e-05   3.2170811581537853e-06   9.08126640566725e-06
-1.4428428551550344e-05   3.2170811581537853e-06   9.08126640566725e-06
-1.4849055524223341e-05   4.092930664111342e-06   1.1560391046449648e-05
-1.4849055524223341e-05   4.092930664111342e-06   1.1560391046449648e-05
-1.4849055524223341e-05   4.092930664111342e-06   1.1560391046449648e-05
-1.4849055524223341e-05   4.092930664111342e-06   1.1560391046449648e-05
-1.536280837169423e-05   1.6807062572486448e-06   9.256801656547752e-06
-1.536280837169423e-05   1.6807062572486448e-06   9.256801656547752e-06
-1.536280837169423e-05   1.6807062572486448e-06   9.256801656547752e-06
-1.536280837169423e-05   1.6807062572486448e-06   9.256801656547752e-06
-1.602267234322957e-05   3.7623600063017154e-06   1.1994960935903746e-05
-1.602267234322957e-05   3.7623600063017154e-06   1.1994960935903746e-05
-1.602267234322957e-05   3.7623600063017154e-06   1.1994960935903746e-05
-1.602267234322957e-05   3.7623600063017154e-06   1.1994960935903746e-05
-1.500821863960729e-05   1.4116837223791595e-06   1.171461053355331e-05
-1.500821863960729e-05   1.4116837223791595e-06   1.171461053355331e-05
-1.500821863960729e-05   1.4116837223791595e-06   1.171461053355331e-05
-1.500821863960729e-05   1.4116837223791595e-06   1.171461053355331e-05
-1.496295249543586e-05   2.9761440256104686e-06   1.0700490777994839e-05
-1.496295249543586e-05   2.9761440256104686e-06   1.0700490777994839e-05
-1.496295249543586e-05   2.9761440256104686e-06   1.0700490777994839e-05
-1.496295249543586e-05   2.9761440256104686e-06   1.0700490777994839e-05
-1.5008218639607235e-05   3.7623600063019322e-06   1.340536670625691e-05
-1.5008218639607235e-05   3.7623600063019322e-06   1.340536670625691e-05
-1.5008218639607235e-05   3.7623600063019322e-06   1.340536670625691e-05
-1.5008218639607235e-05   3.7623600063019322e-06   1.340536670625691e-05
-1.6022672343229678e-05   1.411683722379268e-06   1.0304204763199765e-05
-1.6022672343229678e-05   1.411683722379268e-06   1.0304204763199765e-05
-1.6022672343229678e-05   1.411683722379268e-06   1.0304204763199765e-05
-1.6022672343229678e-05   1.411683722379268e-06   1.0304204763199765e-05
-1.7005739730654394e-05   3.004643358579329e-06   1.5452415026440732e-05
-1.7005739730654394e-05   3.004643358579329e-06   1.5452415026440732e-05
-1.7005739730654394e-05   3.004643358579329e-06   1.5452415026440732e-05
-1.7005739730654394e-05   3.004643358579329e-06   1.5452415026440732e-05
-1.5102481127657645e-05   8.71988108379026e-07   1.3559910504899676e-05
-1.5102481127657645e-05   8.71988108379026e-07   1.3559910504899676e-05
-1.5102481127657645e-05   8.71988108379026e-07   1.3559910504899676e-05
-1.5102481127657645e-05   8.71988108379026e-07   1.3559910504899676e-05
-1.5143478655246122e-05   2.690762699579779e-06   1.2536974962825374e-05
-1.5143478655246122e-05   2.690762699579779e-06   1.2536974962825374e-05
-1.5143478655246122e-05   2.690762699579779e-06   1.2536974962825374e-05
-1.5143478655246122e-05   2.690762699579779e-06   1.2536974962825374e-05
-2.935771982419813e-05   3.88675351477416e-06   1.1207327449932894e-05
-2.935771982419813e-05   3.88675351477416e-06   1.1207327449932894e-05
-2.935771982419813e-05   3.88675351477416e-06   1.1207327449932894e-05
-2.935771982419813e-05   3.88675351477416e-06   1.1207327449932894e-05
-1.9790891748830308e-05   5.385480123544875e-06   2.8051276874141798e-05
-1.9790891748830308e-05   5.385480123544875e-06   2.8051276874141798e-05
-1.9790891748830308e-05   5.385480123544875e-06   2.8051276874141798e-05
-1.9790891748830308e-05   5.385480123544875e-06   2.8051276874141798e-05
-1.9779381276792678e-05   3.0385693822340904e-06   1.275866895984355e-05
-1.9779381276792678e-05   3.0385693822340904e-06   1.275866895984355e-05
-1.9779381276792678e-05   3.0385693822340904e-06   1.275866895984355e-05
-1.9779381276792678e-05   3.0385693822340904e-06   1.275866895984355e-05
-3.232120569456402e-05   2.1967453409294283e-06   3.416680408091223e-05
-3.232120569456402e-05   2.1967453409294283e-06   3.416680408091223e-05
-3.232120569456402e-05   2.1967453409294283e-06   3.416680408091223e-05
-3.232120569456402e-05   2.1967453409294283e-06   3.416680408091223e-05
-2.4006734613331412e-05   3.194846214640986e-06   1.9710491754630817e-05
-2.4006734613331412e-05   3.194846214640986e-06   1.9710491754630817e-05
-2.4006734613331412e-05   3.194846214640986e-06   1.9710491754630817e-05
-2.4006734613331412e-05   3.194846214640986e-06   1.9710491754630817e-05
-3.2321205694564074e-05   3.038569382233982e-06   1.3263763384626357e-05
-3.2321205694564074e-05   3.038569382233982e-06   1.3263763384626357e-05
-3.2321205694564074e-05   3.038569382233982e-06   1.3263763384626357e-05
-3.2321205694564074e-05   3.038569382233982e-06   1.3263763384626357e-05
-1.9779381276792678e-05   2.1967453409294283e-06   3.366170965612937e-05
-1.9779381276792678e-05   2.1967453409294283e-06   3.366170965612937e-05
-1.9779381276792678e-05   2.1967453409294283e-06   3.366170965612937e-05
-1.9779381276792678e-05   2.1967453409294283e-06   3.366170965612937e-05
-2.0043990141712013e-05   2.451443324477166e-06   1.4284115839962393e-05
-2.0043990141712013e-05   2.451443324477166e-06   1.4284115839962393e-05
-2.0043990141712013e-05   2.451443324477166e-06   1.4284115839962393e-05
-2.0043990141712013e-05   2.451443324477166e-06   1.4284115839962393e-05
-3.243023722229672e-05   1.5816826992345575e-06   3.5449717349415646e-05
-3.243023722229672e-05   1.5816826992345575e-06   3.5449717349415646e-05
-3.243023722229672e-05   1.5816826992345575e-06   3.5449717349415646e-05
-3.243023722229672e-05   1.5816826992345575e-06   3.5449717349415646e-05
-2.5608829423288175e-05   2.001498691551985e-06   2.382881475567741e-05
-2.5608829423288175e-05   2.001498691551985e-06   2.382881475567741e-05
-2.5608829423288175e-05   2.001498691551985e-06   2.382881475567741e-05
-2.5608829423288175e-05   2.001498691551985e-06   2.382881475567741e-05
-3.243023722229678e-05   2.451443324477166e-06   1.4805972215107958e-05
-3.243023722229678e-05   2.451443324477166e-06   1.4805972215107958e-05
-3.243023722229678e-05   2.451443324477166e-06   1.4805972215107958e-05
-3.243023722229678e-05   2.451443324477166e-06   1.4805972215107958e-05
-2.0043990141711993e-05   1.5816826992345575e-06   3.4927860974270095e-05
-2.0043990141711993e-05   1.5816826992345575e-06   3.4927860974270095e-05
-2.0043990141711993e-05   1.5816826992345575e-06   3.4927860974270095e-05
-2.0043990141711993e-05   1.5816826992345575e-06   3.4927860974270095e-05
-1.982489497365085e-05   1.0069227436106977e-06   1.695327877653072e-05
-1.982489497365085e-05   1.0069227436106977e-06   1.695327877653072e-05
-1.982489497365085e-05   1.0069227436106977e-06   1.695327877653072e-05
-1.982489497365085e-05   1.0069227436106977e-06   1.695327877653072e-05
-3.277307446978134e-05   -1.0307901566152227e-06   3.9756205676883555e-05
-3.277307446978134e-05   -1.0307901566152227e-06   3.9756205676883555e-05
-3.277307446978134e-05   -1.0307901566152227e-06   3.9756205676883555e-05
-3.277307446978134e-05   -1.0307901566152227e-06   3.9756205676883555e-05
-2.521268811057275e-05   9.772774257820957e-07   2.5950721195430856e-05
-2.521268811057275e-05   9.772774257820957e-07   2.5950721195430856e-05
-2.521268811057275e-05   9.772774257820957e-07   2.5950721195430856e-05
-2.521268811057275e-05   9.772774257820957e-07   2.5950721195430856e-05
-1.9790891748830356e-05   1.005543134073735e-06   2.5815281143492705e-05
-1.9790891748830356e-05   1.005543134073735e-06   2.5815281143492705e-05
-1.9790891748830356e-05   1.005543134073735e-06   2.5815281143492705e-05
-1.9790891748830356e-05   1.005543134073735e-06   2.5815281143492705e-05
-1.2129584419857904e-05   -6.0329749158521484e-06   3.436101586182469e-05
-1.2129584419857904e-05   -6.0329749158521484e-06   3.436101586182469e-05
-1.2129584419857904e-05   -6.0329749158521484e-06   3.436101586182469e-05
-1.2129584419857904e-05   -6.0329749158521484e-06   3.436101586182469e-05
-1.2150897649122484e-05   4.834106373725368e-07   2.165655646522405e-05
-1.2150897649122484e-05   4.834106373725368e-07   2.165655646522405e-05
-1.2150897649122484e-05   4.834106373725368e-07   2.165655646522405e-05
-1.2150897649122484e-05   4.834106373725368e-07   2.165655646522405e-05
-1.9779381276792678e-05   -4.936286391739406e-06   3.7622514062141745e-05
-1.9779381276792678e-05   -4.936286391739406e-06   3.7622514062141745e-05
-1.9779381276792678e-05   -4.936286391739406e-06   3.7622514062141745e-05
-1.9779381276792678e-05   -4.936286391739406e-06   3.7622514062141745e-05
-1.5876782363447314e-05   -2.9825501670813865e-06   2.9945940805104718e-05
-1.5876782363447314e-05   -2.9825501670813865e-06   2.9945940805104718e-05
-1.5876782363447314e-05   -2.9825501670813865e-06   2.9945940805104718e-05
-1.5876782363447314e-05   -2.9825501670813865e-06   2.9945940805104718e-05
-1.9779381276792712e-05   4.834106373725368e-07   2.4908374682690987e-05
-1.9779381276792712e-05   4.834106373725368e-07   2.4908374682690987e-05
-1.9779381276792712e-05   4.834106373725368e-07   2.4908374682690987e-05
-1.9779381276792712e-05   4.834106373725368e-07   2.4908374682690987e-05
-1.2150897649122484e-05   -4.936286391739406e-06   3.437069584467462e-05
-1.2150897649122484e-05   -4.936286391739406e-06   3.437069584467462e-05
-1.2150897649122484e-05   -4.936286391739406e-06   3.437069584467462e-05
-1.2150897649122484e-05   -4.936286391739406e-06   3.437069584467462e-05
-1.2194007028985154e-05   -1.2320131224832342e-07   2.2329115269804196e-05
-1.2194007028985154e-05   -1.2320131224832342e-07   2.2329115269804196e-05
-1.2194007028985154e-05   -1.2320131224832342e-07   2.2329115269804196e-05
-1.2194007028985154e-05   -1.2320131224832342e-07   2.2329115269804196e-05
-2.0043990141711993e-05   -5.049458376342984e-06   3.8368174696138925e-05
-2.0043990141711993e-05   -5.049458376342984e-06   3.8368174696138925e-05
-2.0043990141711993e-05   -5.049458376342984e-06   3.8368174696138925e-05
-2.0043990141711993e-05   -5.049458376342984e-06   3.8368174696138925e-05
-1.575761127440365e-05   -2.6056195106365088e-06   2.9757906597867735e-05
-1.575761127440365e-05   -2.6056195106365088e-06   2.9757906597867735e-05
-1.575761127440365e-05   -2.6056195106365088e-06   2.9757906597867735e-05
-1.575761127440365e-05   -2.6056195106365088e-06   2.9757906597867735e-05
-2.0043990141712013e-05   -1.2320131224832342e-07   2.5284869508261057e-05
-2.0043990141712013e-05   -1.2320131224832342e-07   2.5284869508261057e-05
-2.0043990141712013e-05   -1.2320131224832342e-07   2.5284869508261057e-05
-2.0043990141712013e-05   -1.2320131224832342e-07   2.5284869508261057e-05
-1.2194007028985127e-05   -5.049458376342984e-06   3.5412420457682145e-05
-1.2194007028985127e-05   -5.049458376342984e-06   3.5412420457682145e-05
-1.2194007028985127e-05   -5.049458376342984e-06   3.5412420457682145e-05
-1.2194007028985127e-05   -5.049458376342984e-06   3.5412420457682145e-05
-1.2069437073302893e-05   -9.210554216738422e-07   2.3166700752092124e-05
-1.2069437073302893e-05   -9.210554216738422e-07   2.3166700752092124e-05
-1.2069437073302893e-05   -9.210554216738422e-07   2.3166700752092124e-05
-1.2069437073302893e-05   -9.210554216738422e-07   2.3166700752092124e-05
-1.982489497365079e-05   -5.098734137323074e-06   3.859907114872802e-05
-1.982489497365079e-05   -5.098734137323074e-06   3.859907114872802e-05
-1.982489497365079e-05   -5.098734137323074e-06   3.859907114872802e-05
-1.982489497365079e-05   -5.098734137323074e-06   3.859907114872802e-05
-1.582605295911066e-05   -2.9279930204262035e-06   3.0631889787689775e-05
-1.582605295911066e-05   -2.9279930204262035e-06   3.0631889787689775e-05
-1.582605295911066e-05   -2.9279930204262035e-06   3.0631889787689775e-05
-1.582605295911066e-05   -2.9279930204262035e-06   3.0631889787689775e-05
-1.2129584419857904e-05   2.790481633752539e-07   2.385391885276119e-05
-1.2129584419857904e-05   2.790481633752539e-07   2.385391885276119e-05
-1.2129584419857904e-05   2.790481633752539e-07   2.385391885276119e-05
-1.2129584419857904e-05   2.790481633752539e-07   2.385391885276119e-05
-8.910351113406844e-06   -4.7125296342005155e-06   2.6224361018300973e-05
-8.910351113406844e-06   -4.7125296342005155e-06   2.6224361018300973e-05
-8.910351113406844e-06   -4.7125296342005155e-06   2.6224361018300973e-05
-8.910351113406844e-06   -4.7125296342005155e-06   2.6224361018300973e-05
-8.827304498365367e-06   -1.6271982143385277e-07   2.105521651395246e-05
-8.827304498365367e-06   -1.6271982143385277e-07   2.105521651395246e-05
-8.827304498365367e-06   -1.6271982143385277e-07   2.105521651395246e-05
-8.827304498365367e-06   -1.6271982143385277e-07   2.105521651395246e-05
-1.2150897649122484e-05   -4.628237095933717e-06   2.9273848796581106e-05
-1.2150897649122484e-05   -4.628237095933717e-06   2.9273848796581106e-05
-1.2150897649122484e-05   -4.628237095933717e-06   2.9273848796581106e-05
-1.2150897649122484e-05   -4.628237095933717e-06   2.9273848796581106e-05
-1.0439465561321197e-05   -2.382362494120758e-06   2.5073937222491423e-05
-1.0439465561321197e-05   -2.382362494120758e-06   2.5073937222491423e-05
-1.0439465561321197e-05   -2.382362494120758e-06   2.5073937222491423e-05
-1.0439465561321197e-05   -2.382362494120758e-06   2.5073937222491423e-05
-1.2150897649122484e-05   -1.6271982143385277e-07   2.3734526878652442e-05
-1.2150897649122484e-05   -1.6271982143385277e-07   2.3734526878652442e-05
-1.2150897649122484e-05   -1.6271982143385277e-07   2.3734526878652442e-05
-1.2150897649122484e-05   -1.6271982143385277e-07   2.3734526878652442e-05
-8.827304498365421e-06   -4.628237095933717e-06   2.6594538431881237e-05
-8.827304498365421e-06   -4.628237095933717e-06   2.6594538431881237e-05
-8.827304498365421e-06   -4.628237095933717e-06   2.6594538431881237e-05
-8.827304498365421e-06   -4.628237095933717e-06   2.6594538431881237e-05
-8.754911351350103e-06   -6.917775463600182e-07   2.155986228954607e-05
-8.754911351350103e-06   -6.917775463600182e-07   2.155986228954607e-05
-8.754911351350103e-06   -6.917775463600182e-07   2.155986228954607e-05
-8.754911351350103e-06   -6.917775463600182e-07   2.155986228954607e-05
-1.2194007028985127e-05   -4.77026226218118e-06   2.9738779248430396e-05
-1.2194007028985127e-05   -4.77026226218118e-06   2.9738779248430396e-05
-1.2194007028985127e-05   -4.77026226218118e-06   2.9738779248430396e-05
-1.2194007028985127e-05   -4.77026226218118e-06   2.9738779248430396e-05
-1.0343861391009268e-05   -2.5423667004502958e-06   2.5318465848098084e-05
-1.0343861391009268e-05   -2.5423667004502958e-06   2.5318465848098084e-05
-1.0343861391009268e-05   -2.5423667004502958e-06   2.5318465848098084e-05
-1.0343861391009268e-05   -2.5423667004502958e-06   2.5318465848098084e-05
-1.2194007028985127e-05   -6.917775463600182e-07   2.40069531190388e-05
-1.2194007028985127e-05   -6.917775463600182e-07   2.40069531190388e-05
-1.2194007028985127e-05   -6.917775463600182e-07   2.40069531190388e-05
-1.2194007028985127e-05   -6.917775463600182e-07   2.40069531190388e-05
-8.754911351350103e-06   -4.77026226218118e-06   2.7291688418937836e-05
-8.754911351350103e-06   -4.77026226218118e-06   2.7291688418937836e-05
-8.754911351350103e-06   -4.77026226218118e-06   2.7291688418937836e-05
-8.754911351350103e-06   -4.77026226218118e-06   2.7291688418937836e-05
-8.578426741843548e-06   -1.2234850421743515e-06   2.234078757779056e-05
-8.578426741843548e-06   -1.2234850421743515e-06   2.234078757779056e-05
-8.578426741843548e-06   -1.2234850421743515e-06   2.234078757779056e-05
-8.578426741843548e-06   -1.2234850421743515e-06   2.234078757779056e-05
-1.2069437073302866e-05   -4.97261443746966e-06   3.040861576739974e-05
-1.2069437073302866e-05   -4.97261443746966e-06   3.040861576739974e-05
-1.2069437073302866e-05   -4.97261443746966e-06   3.040861576739974e-05
-1.2069437073302866e-05   -4.97261443746966e-06   3.040861576739974e-05
-1.0231838252925275e-05   -2.7749321133326834e-06   2.6027341672288254e-05
-1.0231838252925275e-05   -2.7749321133326834e-06   2.6027341672288254e-05
-1.0231838252925275e-05   -2.7749321133326834e-06   2.6027341672288254e-05
-1.0231838252925275e-05   -2.7749321133326834e-06   2.6027341672288254e-05
-8.910351113406844e-06   1.2715215347535976e-06   1.6214352916863123e-05
-8.910351113406844e-06   1.2715215347535976e-06   1.6214352916863123e-05
-8.910351113406844e-06   1.2715215347535976e-06   1.6214352916863123e-05
-8.910351113406844e-06   1.2715215347535976e-06   1.6214352916863123e-05
-7.413285163739957e-06   -1.9323654003081093e-06   1.6787130671937396e-05
-7.413285163739957e-06   -1.9323654003081093e-06   1.6787130671937396e-05
-7.413285163739957e-06   -1.9323654003081093e-06   1.6787130671937396e-05
-7.413285163739957e-06   -1.9323654003081093e-06   1.6787130671937396e-05
-7.250102128011275e-06   6.897489290234047e-07   1.4639688989006357e-05
-7.250102128011275e-06   6.897489290234047e-07   1.4639688989006357e-05
-7.250102128011275e-06   6.897489290234047e-07   1.4639688989006357e-05
-7.250102128011275e-06   6.897489290234047e-07   1.4639688989006357e-05
-8.827304498365367e-06   -2.2632768213138254e-06   1.904017505646564e-05
-8.827304498365367e-06   -2.2632768213138254e-06   1.904017505646564e-05
-8.827304498365367e-06   -2.2632768213138254e-06   1.904017505646564e-05
-8.827304498365367e-06   -2.2632768213138254e-06   1.904017505646564e-05
-8.040975568136024e-06   -4.4061540958374203e-07   1.663602999237891e-05
-8.040975568136024e-06   -4.4061540958374203e-07   1.663602999237891e-05
-8.040975568136024e-06   -4.4061540958374203e-07   1.663602999237891e-05
-8.040975568136024e-06   -4.4061540958374203e-07   1.663602999237891e-05
-8.827304498365367e-06   6.897489290234047e-07   1.641150443920864e-05
-8.827304498365367e-06   6.897489290234047e-07   1.641150443920864e-05
-8.827304498365367e-06   6.897489290234047e-07   1.641150443920864e-05
-8.827304498365367e-06   6.897489290234047e-07   1.641150443920864e-05
-7.250102128011275e-06   -2.2632768213138254e-06   1.7268359606263358e-05
-7.250102128011275e-06   -2.2632768213138254e-06   1.7268359606263358e-05
-7.250102128011275e-06   -2.2632768213138254e-06   1.7268359606263358e-05
-7.250102128011275e-06   -2.2632768213138254e-06   1.7268359606263358e-05
-7.174310924476469e-06   1.9173310772250315e-07   1.533293718799242e-05
-7.174310924476469e-06   1.9173310772250315e-07   1.533293718799242e-05
-7.174310924476469e-06   1.9173310772250315e-07   1.533293718799242e-05
-7.174310924476469e-06   1.9173310772250315e-07   1.533293718799242e-05
-8.754911351349995e-06   -2.5162589648491723e-06   1.9592066476324796e-05
-8.754911351349995e-06   -2.5162589648491723e-06   1.9592066476324796e-05
-8.754911351349995e-06   -2.5162589648491723e-06   1.9592066476324796e-05
-8.754911351349995e-06   -2.5162589648491723e-06   1.9592066476324796e-05
-7.879289937173876e-06   -7.956143972162035e-07   1.7100310712117096e-05
-7.879289937173876e-06   -7.956143972162035e-07   1.7100310712117096e-05
-7.879289937173876e-06   -7.956143972162035e-07   1.7100310712117096e-05
-7.879289937173876e-06   -7.956143972162035e-07   1.7100310712117096e-05
-8.754911351349995e-06   1.9173310772250315e-07   1.695773243153535e-05
-8.754911351349995e-06   1.9173310772250315e-07   1.695773243153535e-05
-8.754911351349995e-06   1.9173310772250315e-07   1.695773243153535e-05
-8.754911351349995e-06   1.9173310772250315e-07   1.695773243153535e-05
-7.174310924476523e-06   -2.5162589648492265e-06   1.796727123278165e-05
-7.174310924476523e-06   -2.5162589648492265e-06   1.796727123278165e-05
-7.174310924476523e-06   -2.5162589648492265e-06   1.796727123278165e-05
-7.174310924476523e-06   -2.5162589648492265e-06   1.796727123278165e-05
-7.051627121403958e-06   -3.1020375249274455e-07   1.6203530723727126e-05
-7.051627121403958e-06   -3.1020375249274455e-07   1.6203530723727126e-05
-7.051627121403958e-06   -3.1020375249274455e-07   1.6203530723727126e-05
-7.051627121403958e-06   -3.1020375249274455e-07   1.6203530723727126e-05
-8.578426741843548e-06   -2.848364567922194e-06   2.0271093247050905e-05
-8.578426741843548e-06   -2.848364567922194e-06   2.0271093247050905e-05
-8.578426741843548e-06   -2.848364567922194e-06   2.0271093247050905e-05
-8.578426741843548e-06   -2.848364567922194e-06   2.0271093247050905e-05
-7.752559755926265e-06   -1.1063741912546547e-06   1.7849454044521935e-05
-7.752559755926265e-06   -1.1063741912546547e-06   1.7849454044521935e-05
-7.752559755926265e-06   -1.1063741912546547e-06   1.7849454044521935e-05
-7.752559755926265e-06   -1.1063741912546547e-06   1.7849454044521935e-05
-7.413285163739957e-06   2.0919511344446055e-06   3.6744058809740727e-06
-7.413285163739957e-06   2.0919511344446055e-06   3.6744058809740727e-06
-7.413285163739957e-06   2.0919511344446055e-06   3.6744058809740727e-06
-7.413285163739957e-06   2.0919511344446055e-06   3.6744058809740727e-06
-4.263126435592474e-06   -2.184510842192025e-07   7.538429096688162e-06
-4.263126435592474e-06   -2.184510842192025e-07   7.538429096688162e-06
-4.263126435592474e-06   -2.184510842192025e-07   7.538429096688162e-06
-4.263126435592474e-06   -2.184510842192025e-07   7.538429096688162e-06
-4.502164188318518e-06   1.6807062572486448e-06   3.7069667975521935e-06
-4.502164188318518e-06   1.6807062572486448e-06   3.7069667975521935e-06
-4.502164188318518e-06   1.6807062572486448e-06   3.7069667975521935e-06
-4.502164188318518e-06   1.6807062572486448e-06   3.7069667975521935e-06
-7.250102128011275e-06   -3.0364716521936357e-07   9.477475417187962e-06
-7.250102128011275e-06   -3.0364716521936357e-07   9.477475417187962e-06
-7.250102128011275e-06   -3.0364716521936357e-07   9.477475417187962e-06
-7.250102128011275e-06   -3.0364716521936357e-07   9.477475417187962e-06
-5.6558222023925405e-06   1.0748448106712855e-06   5.993247022289161e-06
-5.6558222023925405e-06   1.0748448106712855e-06   5.993247022289161e-06
-5.6558222023925405e-06   1.0748448106712855e-06   5.993247022289161e-06
-5.6558222023925405e-06   1.0748448106712855e-06   5.993247022289161e-06
-7.250102128011275e-06   1.6807062572486448e-06   4.897578851032771e-06
-7.250102128011275e-06   1.6807062572486448e-06   4.897578851032771e-06
-7.250102128011275e-06   1.6807062572486448e-06   4.897578851032771e-06
-7.250102128011275e-06   1.6807062572486448e-06   4.897578851032771e-06
-4.50216418831841e-06   -3.0364716521936357e-07   8.286863363707276e-06
-4.50216418831841e-06   -3.0364716521936357e-07   8.286863363707276e-06
-4.50216418831841e-06   -3.0364716521936357e-07   8.286863363707276e-06
-4.50216418831841e-06   -3.0364716521936357e-07   8.286863363707276e-06
-4.697851943371656e-06   1.4116837223791595e-06   4.829054514023535e-06
-4.697851943371656e-06   1.4116837223791595e-06   4.829054514023535e-06
-4.697851943371656e-06   1.4116837223791595e-06   4.829054514023535e-06
-4.697851943371656e-06   1.4116837223791595e-06   4.829054514023535e-06
-7.174310924476469e-06   -4.192884818778552e-07   1.0055069471752594e-05
-7.174310924476469e-06   -4.192884818778552e-07   1.0055069471752594e-05
-7.174310924476469e-06   -4.192884818778552e-07   1.0055069471752594e-05
-7.174310924476469e-06   -4.192884818778552e-07   1.0055069471752594e-05
-5.751416025476567e-06   8.708663472647982e-07   6.909485075933452e-06
-5.751416025476567e-06   8.708663472647982e-07   6.909485075933452e-06
-5.751416025476567e-06   8.708663472647982e-07   6.909485075933452e-06
-5.751416025476567e-06   8.708663472647982e-07   6.909485075933452e-06
-7.174310924476469e-06   1.4116837223791595e-06   5.9276378365779605e-06
-7.174310924476469e-06   1.4116837223791595e-06   5.9276378365779605e-06
-7.174310924476469e-06   1.4116837223791595e-06   5.9276378365779605e-06
-7.174310924476469e-06   1.4116837223791595e-06   5.9276378365779605e-06
-4.697851943371548e-06   -4.192884818778552e-07   8.956486149198331e-06
-4.697851943371548e-06   -4.192884818778552e-07   8.956486149198331e-06
-4.697851943371548e-06   -4.192884818778552e-07   8.956486149198331e-06
-4.697851943371548e-06   -4.192884818778552e-07   8.956486149198331e-06
-5.186168995726498e-06   8.71988108379026e-07   6.83452395406031e-06
-5.186168995726498e-06   8.71988108379026e-07   6.83452395406031e-06
-5.186168995726498e-06   8.71988108379026e-07   6.83452395406031e-06
-5.186168995726498e-06   8.71988108379026e-07   6.83452395406031e-06
-7.051627121403958e-06   -5.585720317468441e-07   1.0801956914264794e-05
-7.051627121403958e-06   -5.585720317468441e-07   1.0801956914264794e-05
-7.051627121403958e-06   -5.585720317468441e-07   1.0801956914264794e-05
-7.051627121403958e-06   -5.585720317468441e-07   1.0801956914264794e-05
-5.761141879904026e-06   7.33413012732353e-07   7.875957151744e-06
-5.761141879904026e-06   7.33413012732353e-07   7.875957151744e-06
-5.761141879904026e-06   7.33413012732353e-07   7.875957151744e-06
-5.761141879904026e-06   7.33413012732353e-07   7.875957151744e-06
-6.860549968425388e-05   5.385480123544875e-06   2.919739531571274e-05
-6.860549968425388e-05   5.385480123544875e-06   2.919739531571274e-05
-6.860549968425388e-05   5.385480123544875e-06   2.919739531571274e-05
-6.860549968425388e-05   5.385480123544875e-06   2.919739531571274e-05
-1.615168414930527e-05   -3.327655797847322e-05   9.342319834608294e-05
-1.615168414930527e-05   -3.327655797847322e-05   9.342319834608294e-05
-1.615168414930527e-05   -3.327655797847322e-05   9.342319834608294e-05
-1.615168414930527e-05   -3.327655797847322e-05   9.342319834608294e-05
-1.8942036214433642e-05   2.1967453409294283e-06   1.6047697979565005e-05
-1.8942036214433642e-05   2.1967453409294283e-06   1.6047697979565005e-05
-1.8942036214433642e-05   2.1967453409294283e-06   1.6047697979565005e-05
-1.8942036214433642e-05   2.1967453409294283e-06   1.6047697979565005e-05
-6.257003711331552e-05   -2.5826765224349506e-05   0.00010557513915020195
-6.257003711331552e-05   -2.5826765224349506e-05   0.00010557513915020195
-6.257003711331552e-05   -2.5826765224349506e-05   0.00010557513915020195
-6.257003711331552e-05   -2.5826765224349506e-05   0.00010557513915020195
-4.1724453840977896e-05   -1.285950757112442e-05   6.305214577103755e-05
-4.1724453840977896e-05   -1.285950757112442e-05   6.305214577103755e-05
-4.1724453840977896e-05   -1.285950757112442e-05   6.305214577103755e-05
-4.1724453840977896e-05   -1.285950757112442e-05   6.305214577103755e-05
-6.257003711331541e-05   2.1967453409294283e-06   3.286180431873227e-05
-6.257003711331541e-05   2.1967453409294283e-06   3.286180431873227e-05
-6.257003711331541e-05   2.1967453409294283e-06   3.286180431873227e-05
-6.257003711331541e-05   2.1967453409294283e-06   3.286180431873227e-05
-1.8942036214433683e-05   -2.5826765224349506e-05   8.876103281103462e-05
-1.8942036214433683e-05   -2.5826765224349506e-05   8.876103281103462e-05
-1.8942036214433683e-05   -2.5826765224349506e-05   8.876103281103462e-05
-1.8942036214433683e-05   -2.5826765224349506e-05   8.876103281103462e-05
-1.93623972051617e-05   1.5816826992345575e-06   1.7633097662308388e-05
-1.93623972051617e-05   1.5816826992345575e-06   1.7633097662308388e-05
-1.93623972051617e-05   1.5816826992345575e-06   1.7633097662308388e-05
-1.93623972051617e-05   1.5816826992345575e-06   1.7633097662308388e-05
-5.9034808678124814e-05   -2.2232051502022658e-05   9.804202397133445e-05
-5.9034808678124814e-05   -2.2232051502022658e-05   9.804202397133445e-05
-5.9034808678124814e-05   -2.2232051502022658e-05   9.804202397133445e-05
-5.9034808678124814e-05   -2.2232051502022658e-05   9.804202397133445e-05
-4.047023733298198e-05   -1.217909659987287e-05   6.106929878813991e-05
-4.047023733298198e-05   -1.217909659987287e-05   6.106929878813991e-05
-4.047023733298198e-05   -1.217909659987287e-05   6.106929878813991e-05
-4.047023733298198e-05   -1.217909659987287e-05   6.106929878813991e-05
-5.903480867812471e-05   1.5816826992345575e-06   3.192133818306271e-05
-5.903480867812471e-05   1.5816826992345575e-06   3.192133818306271e-05
-5.903480867812471e-05   1.5816826992345575e-06   3.192133818306271e-05
-5.903480867812471e-05   1.5816826992345575e-06   3.192133818306271e-05
-1.936239720516173e-05   -2.2232051502022658e-05   8.375378345058012e-05
-1.936239720516173e-05   -2.2232051502022658e-05   8.375378345058012e-05
-1.936239720516173e-05   -2.2232051502022658e-05   8.375378345058012e-05
-1.936239720516173e-05   -2.2232051502022658e-05   8.375378345058012e-05
-2.119311759727091e-05   -1.0307901566152227e-06   2.20881864693327e-05
-2.119311759727091e-05   -1.0307901566152227e-06   2.20881864693327e-05
-2.119311759727091e-05   -1.0307901566152227e-06   2.20881864693327e-05
-2.119311759727091e-05   -1.0307901566152227e-06   2.20881864693327e-05
-5.450587763911325e-05   -1.7461496437415188e-05   8.746787697421643e-05
-5.450587763911325e-05   -1.7461496437415188e-05   8.746787697421643e-05
-5.450587763911325e-05   -1.7461496437415188e-05   8.746787697421643e-05
-5.450587763911325e-05   -1.7461496437415188e-05   8.746787697421643e-05
-3.8918118942523856e-05   -1.1240636254504087e-05   5.775576303682085e-05
-3.8918118942523856e-05   -1.1240636254504087e-05   5.775576303682085e-05
-3.8918118942523856e-05   -1.1240636254504087e-05   5.775576303682085e-05
-3.8918118942523856e-05   -1.1240636254504087e-05   5.775576303682085e-05
-1.6151684149305243e-05   -6.0329749158521484e-06   1.653302227214024e-05
-1.6151684149305243e-05   -6.0329749158521484e-06   1.653302227214024e-05
-1.6151684149305243e-05   -6.0329749158521484e-06   1.653302227214024e-05
-1.6151684149305243e-05   -6.0329749158521484e-06   1.653302227214024e-05
-5.633104574546402e-06   -1.0247235595559363e-05   3.1535431822247396e-05
-5.633104574546402e-06   -1.0247235595559363e-05   3.1535431822247396e-05
-5.633104574546402e-06   -1.0247235595559363e-05   3.1535431822247396e-05
-5.633104574546402e-06   -1.0247235595559363e-05   3.1535431822247396e-05
-6.283398522256693e-06   -4.936286391739406e-06   1.4801472312546654e-05
-6.283398522256693e-06   -4.936286391739406e-06   1.4801472312546654e-05
-6.283398522256693e-06   -4.936286391739406e-06   1.4801472312546654e-05
-6.283398522256693e-06   -4.936286391739406e-06   1.4801472312546654e-05
-1.8942036214433683e-05   -1.361466984679061e-05   4.110623187253889e-05
-1.8942036214433683e-05   -1.361466984679061e-05   4.110623187253889e-05
-1.8942036214433683e-05   -1.361466984679061e-05   4.110623187253889e-05
-1.8942036214433683e-05   -1.361466984679061e-05   4.110623187253889e-05
-1.1139840850902967e-05   -7.143423633673913e-06   2.4219825205450948e-05
-1.1139840850902967e-05   -7.143423633673913e-06   2.4219825205450948e-05
-1.1139840850902967e-05   -7.143423633673913e-06   2.4219825205450948e-05
-1.1139840850902967e-05   -7.143423633673913e-06   2.4219825205450948e-05
-1.894203621443363e-05   -4.936286391739406e-06   2.0008502385577138e-05
-1.894203621443363e-05   -4.936286391739406e-06   2.0008502385577138e-05
-1.894203621443363e-05   -4.936286391739406e-06   2.0008502385577138e-05
-1.894203621443363e-05   -4.936286391739406e-06   2.0008502385577138e-05
-6.283398522256666e-06   -1.361466984679061e-05   3.589920179950814e-05
-6.283398522256666e-06   -1.361466984679061e-05   3.589920179950814e-05
-6.283398522256666e-06   -1.361466984679061e-05   3.589920179950814e-05
-6.283398522256666e-06   -1.361466984679061e-05   3.589920179950814e-05
-6.8398199511006624e-06   -5.049458376342984e-06   1.6641635720880904e-05
-6.8398199511006624e-06   -5.049458376342984e-06   1.6641635720880904e-05
-6.8398199511006624e-06   -5.049458376342984e-06   1.6641635720880904e-05
-6.8398199511006624e-06   -5.049458376342984e-06   1.6641635720880904e-05
-1.936239720516173e-05   -1.243575114850353e-05   4.194437347427893e-05
-1.936239720516173e-05   -1.243575114850353e-05   4.194437347427893e-05
-1.936239720516173e-05   -1.243575114850353e-05   4.194437347427893e-05
-1.936239720516173e-05   -1.243575114850353e-05   4.194437347427893e-05
-1.2551095461753542e-05   -8.742574107436862e-06   2.8376297677292146e-05
-1.2551095461753542e-05   -8.742574107436862e-06   2.8376297677292146e-05
-1.2551095461753542e-05   -8.742574107436862e-06   2.8376297677292146e-05
-1.2551095461753542e-05   -8.742574107436862e-06   2.8376297677292146e-05
-1.93623972051617e-05   -5.049458376342984e-06   2.1073411384177245e-05
-1.93623972051617e-05   -5.049458376342984e-06   2.1073411384177245e-05
-1.93623972051617e-05   -5.049458376342984e-06   2.1073411384177245e-05
-1.93623972051617e-05   -5.049458376342984e-06   2.1073411384177245e-05
-6.839819951100635e-06   -1.243575114850353e-05   3.751259781098262e-05
-6.839819951100635e-06   -1.243575114850353e-05   3.751259781098262e-05
-6.839819951100635e-06   -1.243575114850353e-05   3.751259781098262e-05
-6.839819951100635e-06   -1.243575114850353e-05   3.751259781098262e-05
-7.743369323393967e-06   -5.098734137323128e-06   1.819660955620911e-05
-7.743369323393967e-06   -5.098734137323128e-06   1.819660955620911e-05
-7.743369323393967e-06   -5.098734137323128e-06   1.819660955620911e-05
-7.743369323393967e-06   -5.098734137323128e-06   1.819660955620911e-05
-2.1193117597270936e-05   -1.1693851012495961e-05   4.456992680444092e-05
-2.1193117597270936e-05   -1.1693851012495961e-05   4.456992680444092e-05
-2.1193117597270936e-05   -1.1693851012495961e-05   4.456992680444092e-05
-2.1193117597270936e-05   -1.1693851012495961e-05   4.456992680444092e-05
-1.3369485222070497e-05   -7.980870119604665e-06   2.9302750976705448e-05
-1.3369485222070497e-05   -7.980870119604665e-06   2.9302750976705448e-05
-1.3369485222070497e-05   -7.980870119604665e-06   2.9302750976705448e-05
-1.3369485222070497e-05   -7.980870119604665e-06   2.9302750976705448e-05
-5.633104574546402e-06   -4.7125296342005155e-06   8.862757699337623e-06
-5.633104574546402e-06   -4.7125296342005155e-06   8.862757699337623e-06
-5.633104574546402e-06   -4.7125296342005155e-06   8.862757699337623e-06
-5.633104574546402e-06   -4.7125296342005155e-06   8.862757699337623e-06
-3.1386398264215227e-06   -2.8241939180615727e-06   1.415320037589571e-05
-3.1386398264215227e-06   -2.8241939180615727e-06   1.415320037589571e-05
-3.1386398264215227e-06   -2.8241939180615727e-06   1.415320037589571e-05
-3.1386398264215227e-06   -2.8241939180615727e-06   1.415320037589571e-05
-3.012046745069991e-06   -4.628237095933771e-06   1.0255890344901893e-05
-3.012046745069991e-06   -4.628237095933771e-06   1.0255890344901893e-05
-3.012046745069991e-06   -4.628237095933771e-06   1.0255890344901893e-05
-3.012046745069991e-06   -4.628237095933771e-06   1.0255890344901893e-05
-6.283398522256666e-06   -3.7094619618525075e-06   1.5156878226430816e-05
-6.283398522256666e-06   -3.7094619618525075e-06   1.5156878226430816e-05
-6.283398522256666e-06   -3.7094619618525075e-06   1.5156878226430816e-05
-6.283398522256666e-06   -3.7094619618525075e-06   1.5156878226430816e-05
-4.23141683986473e-06   -3.76265843805108e-06   1.1768826641496465e-05
-4.23141683986473e-06   -3.76265843805108e-06   1.1768826641496465e-05
-4.23141683986473e-06   -3.76265843805108e-06   1.1768826641496465e-05
-4.23141683986473e-06   -3.76265843805108e-06   1.1768826641496465e-05
-6.283398522256666e-06   -4.628237095933663e-06   9.704625264453034e-06
-6.283398522256666e-06   -4.628237095933663e-06   9.704625264453034e-06
-6.283398522256666e-06   -4.628237095933663e-06   9.704625264453034e-06
-6.283398522256666e-06   -4.628237095933663e-06   9.704625264453034e-06
-3.012046745069991e-06   -3.7094619618525075e-06   1.5708143306879566e-05
-3.012046745069991e-06   -3.7094619618525075e-06   1.5708143306879566e-05
-3.012046745069991e-06   -3.7094619618525075e-06   1.5708143306879566e-05
-3.012046745069991e-06   -3.7094619618525075e-06   1.5708143306879566e-05
-3.0126524772132e-06   -4.770262262181234e-06   1.0962615582835893e-05
-3.0126524772132e-06   -4.770262262181234e-06   1.0962615582835893e-05
-3.0126524772132e-06   -4.770262262181234e-06   1.0962615582835893e-05
-3.0126524772132e-06   -4.770262262181234e-06   1.0962615582835893e-05
-6.839819951100635e-06   -4.779227143503418e-06   1.734660696810805e-05
-6.839819951100635e-06   -4.779227143503418e-06   1.734660696810805e-05
-6.839819951100635e-06   -4.779227143503418e-06   1.734660696810805e-05
-6.839819951100635e-06   -4.779227143503418e-06   1.734660696810805e-05
-4.4812311270689e-06   -4.11424211558864e-06   1.301663457797304e-05
-4.4812311270689e-06   -4.11424211558864e-06   1.301663457797304e-05
-4.4812311270689e-06   -4.11424211558864e-06   1.301663457797304e-05
-4.4812311270689e-06   -4.11424211558864e-06   1.301663457797304e-05
-6.8398199511006624e-06   -4.77026226218118e-06   1.0967994511629155e-05
-6.8398199511006624e-06   -4.77026226218118e-06   1.0967994511629155e-05
-6.8398199511006624e-06   -4.77026226218118e-06   1.0967994511629155e-05
-6.8398199511006624e-06   -4.77026226218118e-06   1.0967994511629155e-05
-3.0126524772132e-06   -4.779227143503418e-06   1.7341228039314735e-05
-3.0126524772132e-06   -4.779227143503418e-06   1.7341228039314735e-05
-3.0126524772132e-06   -4.779227143503418e-06   1.7341228039314735e-05
-3.0126524772132e-06   -4.779227143503418e-06   1.7341228039314735e-05
-3.0503804350747116e-06   -4.972614437469714e-06   1.2018386429239877e-05
-3.0503804350747116e-06   -4.972614437469714e-06   1.2018386429239877e-05
-3.0503804350747116e-06   -4.972614437469714e-06   1.2018386429239877e-05
-3.0503804350747116e-06   -4.972614437469714e-06   1.2018386429239877e-05
-7.743369323393967e-06   -5.7965727291871996e-06   2.03344095514688e-05
-7.743369323393967e-06   -5.7965727291871996e-06   2.03344095514688e-05
-7.743369323393967e-06   -5.7965727291871996e-06   2.03344095514688e-05
-7.743369323393967e-06   -5.7965727291871996e-06   2.03344095514688e-05
-4.76476423368649e-06   -4.497044972375522e-06   1.4590351081202773e-05
-4.76476423368649e-06   -4.497044972375522e-06   1.4590351081202773e-05
-4.76476423368649e-06   -4.497044972375522e-06   1.4590351081202773e-05
-4.76476423368649e-06   -4.497044972375522e-06   1.4590351081202773e-05
-3.1386398264215227e-06   -1.9323654003081635e-06   2.4808609436945e-06
-3.1386398264215227e-06   -1.9323654003081635e-06   2.4808609436945e-06
-3.1386398264215227e-06   -1.9323654003081635e-06   2.4808609436945e-06
-3.1386398264215227e-06   -1.9323654003081635e-06   2.4808609436945e-06
-2.322154541346865e-06   5.301604186093485e-07   5.319185243502877e-06
-2.322154541346865e-06   5.301604186093485e-07   5.319185243502877e-06
-2.322154541346865e-06   5.301604186093485e-07   5.319185243502877e-06
-2.322154541346865e-06   5.301604186093485e-07   5.319185243502877e-06
-1.875490893360769e-06   -2.2632768213138254e-06   4.189243628946698e-06
-1.875490893360769e-06   -2.2632768213138254e-06   4.189243628946698e-06
-1.875490893360769e-06   -2.2632768213138254e-06   4.189243628946698e-06
-1.875490893360769e-06   -2.2632768213138254e-06   4.189243628946698e-06
-3.012046745069991e-06   2.1625094445346912e-07   4.595786722334772e-06
-3.012046745069991e-06   2.1625094445346912e-07   4.595786722334772e-06
-3.012046745069991e-06   2.1625094445346912e-07   4.595786722334772e-06
-3.012046745069991e-06   2.1625094445346912e-07   4.595786722334772e-06
-2.427746096974481e-06   -8.945001589807553e-07   4.2884029709026016e-06
-2.427746096974481e-06   -8.945001589807553e-07   4.2884029709026016e-06
-2.427746096974481e-06   -8.945001589807553e-07   4.2884029709026016e-06
-2.427746096974481e-06   -8.945001589807553e-07   4.2884029709026016e-06
-3.012046745069991e-06   -2.2632768213138254e-06   2.701526969486304e-06
-3.012046745069991e-06   -2.2632768213138254e-06   2.701526969486304e-06
-3.012046745069991e-06   -2.2632768213138254e-06   2.701526969486304e-06
-3.012046745069991e-06   -2.2632768213138254e-06   2.701526969486304e-06
-1.875490893360769e-06   2.1625094445346912e-07   6.083503381795166e-06
-1.875490893360769e-06   2.1625094445346912e-07   6.083503381795166e-06
-1.875490893360769e-06   2.1625094445346912e-07   6.083503381795166e-06
-1.875490893360769e-06   2.1625094445346912e-07   6.083503381795166e-06
-1.6289246021288471e-06   -2.5162589648491723e-06   4.601706026526758e-06
-1.6289246021288471e-06   -2.5162589648491723e-06   4.601706026526758e-06
-1.6289246021288471e-06   -2.5162589648491723e-06   4.601706026526758e-06
-1.6289246021288471e-06   -2.5162589648491723e-06   4.601706026526758e-06
-3.0126524772132e-06   -2.8507165434263067e-07   5.569206765363268e-06
-3.0126524772132e-06   -2.8507165434263067e-07   5.569206765363268e-06
-3.0126524772132e-06   -2.8507165434263067e-07   5.569206765363268e-06
-3.0126524772132e-06   -2.8507165434263067e-07   5.569206765363268e-06
-2.1972688710925785e-06   -1.1485542414000044e-06   4.72832364073006e-06
-2.1972688710925785e-06   -1.1485542414000044e-06   4.72832364073006e-06
-2.1972688710925785e-06   -1.1485542414000044e-06   4.72832364073006e-06
-2.1972688710925785e-06   -1.1485542414000044e-06   4.72832364073006e-06
-3.012652477213146e-06   -2.5162589648491723e-06   3.2629936402225348e-06
-3.012652477213146e-06   -2.5162589648491723e-06   3.2629936402225348e-06
-3.012652477213146e-06   -2.5162589648491723e-06   3.2629936402225348e-06
-3.012652477213146e-06   -2.5162589648491723e-06   3.2629936402225348e-06
-1.6289246021288471e-06   -2.8507165434263067e-07   6.907919151667328e-06
-1.6289246021288471e-06   -2.8507165434263067e-07   6.907919151667328e-06
-1.6289246021288471e-06   -2.8507165434263067e-07   6.907919151667328e-06
-1.6289246021288471e-06   -2.8507165434263067e-07   6.907919151667328e-06
-1.250509276878376e-06   -2.848364567922194e-06   5.047749146300327e-06
-1.250509276878376e-06   -2.848364567922194e-06   5.047749146300327e-06
-1.250509276878376e-06   -2.848364567922194e-06   5.047749146300327e-06
-1.250509276878376e-06   -2.848364567922194e-06   5.047749146300327e-06
-3.0503804350747116e-06   -1.3193519008681648e-06   7.130126809728565e-06
-3.0503804350747116e-06   -1.3193519008681648e-06   7.130126809728565e-06
-3.0503804350747116e-06   -1.3193519008681648e-06   7.130126809728565e-06
-3.0503804350747116e-06   -1.3193519008681648e-06   7.130126809728565e-06
-2.0077717998119907e-06   -1.5389296147476589e-06   5.524192379285269e-06
-2.0077717998119907e-06   -1.5389296147476589e-06   5.524192379285269e-06
-2.0077717998119907e-06   -1.5389296147476589e-06   5.524192379285269e-06
-2.0077717998119907e-06   -1.5389296147476589e-06   5.524192379285269e-06
-2.322154541346865e-06   -2.184510842192025e-07   -3.904083809005846e-06
-2.322154541346865e-06   -2.184510842192025e-07   -3.904083809005846e-06
-2.322154541346865e-06   -2.184510842192025e-07   -3.904083809005846e-06
-2.322154541346865e-06   -2.184510842192025e-07   -3.904083809005846e-06
-4.228593426983769e-07   3.3615782093853976e-07   -4.0582646816374277e-07
-4.228593426983769e-07   3.3615782093853976e-07   -4.0582646816374277e-07
-4.228593426983769e-07   3.3615782093853976e-07   -4.0582646816374277e-07
-4.228593426983769e-07   3.3615782093853976e-07   -4.0582646816374277e-07
1.6088206272941476e-08   -3.036471652194178e-07   -3.069647319225424e-06
1.6088206272941476e-08   -3.036471652194178e-07   -3.069647319225424e-06
1.6088206272941476e-08   -3.036471652194178e-07   -3.069647319225424e-06
1.6088206272941476e-08   -3.036471652194178e-07   -3.069647319225424e-06
-1.875490893360769e-06   5.830082362855729e-07   -4.490087274058646e-07
-1.875490893360769e-06   5.830082362855729e-07   -4.490087274058646e-07
-1.875490893360769e-06   5.830082362855729e-07   -4.490087274058646e-07
-1.875490893360769e-06   5.830082362855729e-07   -4.490087274058646e-07
-1.0522410881276545e-06   1.5433661840465814e-07   -1.5638887653997074e-06
-1.0522410881276545e-06   1.5433661840465814e-07   -1.5638887653997074e-06
-1.0522410881276545e-06   1.5433661840465814e-07   -1.5638887653997074e-06
-1.0522410881276545e-06   1.5433661840465814e-07   -1.5638887653997074e-06
-1.8754908933607149e-06   -3.0364716521936357e-07   -3.60164056012886e-06
-1.8754908933607149e-06   -3.0364716521936357e-07   -3.60164056012886e-06
-1.8754908933607149e-06   -3.0364716521936357e-07   -3.60164056012886e-06
-1.8754908933607149e-06   -3.0364716521936357e-07   -3.60164056012886e-06
1.6088206272941476e-08   5.830082362855729e-07   8.298451349697533e-08
1.6088206272941476e-08   5.830082362855729e-07   8.298451349697533e-08
1.6088206272941476e-08   5.830082362855729e-07   8.298451349697533e-08
1.6088206272941476e-08   5.830082362855729e-07   8.298451349697533e-08
2.475516601691376e-07   -4.192884818778552e-07   -2.7571488045593194e-06
2.475516601691376e-07   -4.192884818778552e-07   -2.7571488045593194e-06
2.475516601691376e-07   -4.192884818778552e-07   -2.7571488045593194e-06
2.475516601691376e-07   -4.192884818778552e-07   -2.7571488045593194e-06
-1.6289246021288471e-06   5.029564013603463e-07   -1.8303529733922422e-07
-1.6289246021288471e-06   5.029564013603463e-07   -1.8303529733922422e-07
-1.6289246021288471e-06   5.029564013603463e-07   -1.8303529733922422e-07
-1.6289246021288471e-06   5.029564013603463e-07   -1.8303529733922422e-07
-7.271480856748617e-07   1.0110438686833519e-07   -1.4448849494000772e-06
-7.271480856748617e-07   1.0110438686833519e-07   -1.4448849494000772e-06
-7.271480856748617e-07   1.0110438686833519e-07   -1.4448849494000772e-06
-7.271480856748617e-07   1.0110438686833519e-07   -1.4448849494000772e-06
-1.6289246021288471e-06   -4.192884818778552e-07   -3.310495734502243e-06
-1.6289246021288471e-06   -4.192884818778552e-07   -3.310495734502243e-06
-1.6289246021288471e-06   -4.192884818778552e-07   -3.310495734502243e-06
-1.6289246021288471e-06   -4.192884818778552e-07   -3.310495734502243e-06
2.475516601691376e-07   5.029564013603463e-07   3.7031163260359094e-07
2.475516601691376e-07   5.029564013603463e-07   3.7031163260359094e-07
2.475516601691376e-07   5.029564013603463e-07   3.7031163260359094e-07
2.475516601691376e-07   5.029564013603463e-07   3.7031163260359094e-07
5.365898728001105e-07   -5.585720317467899e-07   -2.300229972780187e-06
5.365898728001105e-07   -5.585720317467899e-07   -2.300229972780187e-06
5.365898728001105e-07   -5.585720317467899e-07   -2.300229972780187e-06
5.365898728001105e-07   -5.585720317467899e-07   -2.300229972780187e-06
-1.250509276878376e-06   4.3852917566592435e-07   8.000788556910936e-08
-1.250509276878376e-06   4.3852917566592435e-07   8.000788556910936e-08
-1.250509276878376e-06   4.3852917566592435e-07   8.000788556910936e-08
-1.250509276878376e-06   4.3852917566592435e-07   8.000788556910936e-08
-4.3256971218053335e-07   3.7408843278743985e-08   -1.0425525228280894e-06
-4.3256971218053335e-07   3.7408843278743985e-08   -1.0425525228280894e-06
-4.3256971218053335e-07   3.7408843278743985e-08   -1.0425525228280894e-06
-4.3256971218053335e-07   3.7408843278743985e-08   -1.0425525228280894e-06
              </DataArray>   
             <DataArray type="Float64" NumberOfComponents="3" Name="Stress" format="ascii">   
-3.5579101935230635   -0.8894775483807659   -0.8894775483807659
-3.5579101935230635   -0.8894775483807659   -0.8894775483807659
-3.5579101935230635   -0.8894775483807659   -0.8894775483807659
-3.5579101935230635   -0.8894775483807659   -0.8894775483807659
-2.058985520023598   -0.06511718938282152   -0.04123599112377149
-2.058985520023598   -0.06511718938282152   -0.04123599112377149
-2.058985520023598   -0.06511718938282152   -0.04123599112377149
-2.058985520023598   -0.06511718938282152   -0.04123599112377149
-2.2194680334569274   -0.5548670083642319   -0.5548670083642319
-2.2194680334569274   -0.5548670083642319   -0.5548670083642319
-2.2194680334569274   -0.5548670083642319   -0.5548670083642319
-2.2194680334569274   -0.5548670083642319   -0.5548670083642319
-3.429128889780358   -0.28151370334365067   -0.10763057411819682
-3.429128889780358   -0.28151370334365067   -0.10763057411819682
-3.429128889780358   -0.28151370334365067   -0.10763057411819682
-3.429128889780358   -0.28151370334365067   -0.10763057411819682
-2.6894781597157627   -0.44086966581328957   -0.007420122060568531
-2.6894781597157627   -0.44086966581328957   -0.007420122060568531
-2.6894781597157627   -0.44086966581328957   -0.007420122060568531
-2.6894781597157627   -0.44086966581328957   -0.007420122060568531
-3.7236667047644376   -0.9309166761911094   -0.9309166761911094
-3.7236667047644376   -0.9309166761911094   -0.9309166761911094
-3.7236667047644376   -0.9309166761911094   -0.9309166761911094
-3.7236667047644376   -0.9309166761911094   -0.9309166761911094
-1.9947710044027647   0.024695178553314823   -0.01094405001096417
-1.9947710044027647   0.024695178553314823   -0.01094405001096417
-1.9947710044027647   0.024695178553314823   -0.01094405001096417
-1.9947710044027647   0.024695178553314823   -0.01094405001096417
-2.225854384806104   -0.556463596201526   -0.556463596201526
-2.225854384806104   -0.556463596201526   -0.556463596201526
-2.225854384806104   -0.556463596201526   -0.556463596201526
-2.225854384806104   -0.556463596201526   -0.556463596201526
-3.544518053426246   -0.28425385775248324   -0.15773247055209472
-3.544518053426246   -0.28425385775248324   -0.15773247055209472
-3.544518053426246   -0.28425385775248324   -0.15773247055209472
-3.544518053426246   -0.28425385775248324   -0.15773247055209472
-2.7899258695509053   -0.4151314589017099   -0.14807543731912132
-2.7899258695509053   -0.4151314589017099   -0.14807543731912132
-2.7899258695509053   -0.4151314589017099   -0.14807543731912132
-2.7899258695509053   -0.4151314589017099   -0.14807543731912132
-3.840134208628152   -0.960033552157038   -0.960033552157038
-3.840134208628152   -0.960033552157038   -0.960033552157038
-3.840134208628152   -0.960033552157038   -0.960033552157038
-3.840134208628152   -0.960033552157038   -0.960033552157038
-1.9890917130464805   0.06046261476075232   0.01042355163431366
-1.9890917130464805   0.06046261476075232   0.01042355163431366
-1.9890917130464805   0.06046261476075232   0.01042355163431366
-1.9890917130464805   0.06046261476075232   0.01042355163431366
-2.224827657276533   -0.5562069143191333   -0.5562069143191333
-2.224827657276533   -0.5562069143191333   -0.5562069143191333
-2.224827657276533   -0.5562069143191333   -0.5562069143191333
-2.224827657276533   -0.5562069143191333   -0.5562069143191333
-3.750616048280623   -0.24941401184295042   -0.09456580270066231
-3.750616048280623   -0.24941401184295042   -0.09456580270066231
-3.750616048280623   -0.24941401184295042   -0.09456580270066231
-3.750616048280623   -0.24941401184295042   -0.09456580270066231
-2.8645034894160815   -0.4087102575724824   -0.2676429912224073
-2.8645034894160815   -0.4087102575724824   -0.2676429912224073
-2.8645034894160815   -0.4087102575724824   -0.2676429912224073
-2.8645034894160815   -0.4087102575724824   -0.2676429912224073
-2.264127648802537   -0.5660319122006342   -0.5660319122006342
-2.264127648802537   -0.5660319122006342   -0.5660319122006342
-2.264127648802537   -0.5660319122006342   -0.5660319122006342
-2.264127648802537   -0.5660319122006342   -0.5660319122006342
-0.9444890731931215   -0.06276838907297055   -0.0204062944324237
-0.9444890731931215   -0.06276838907297055   -0.0204062944324237
-0.9444890731931215   -0.06276838907297055   -0.0204062944324237
-0.9444890731931215   -0.06276838907297055   -0.0204062944324237
-0.9916760384323509   -0.24791900960808771   -0.24791900960808771
-0.9916760384323509   -0.24791900960808771   -0.24791900960808771
-0.9916760384323509   -0.24791900960808771   -0.24791900960808771
-0.9916760384323509   -0.24791900960808771   -0.24791900960808771
-2.0614401400674867   -0.24240922710439552   -0.0771853226768632
-2.0614401400674867   -0.24240922710439552   -0.0771853226768632
-2.0614401400674867   -0.24240922710439552   -0.0771853226768632
-2.0614401400674867   -0.24240922710439552   -0.0771853226768632
-1.5203276196139814   -0.2879809312001609   0.011901129408738713
-1.5203276196139814   -0.2879809312001609   0.011901129408738713
-1.5203276196139814   -0.2879809312001609   0.011901129408738713
-1.5203276196139814   -0.2879809312001609   0.011901129408738713
-2.2194680334569252   -0.5548670083642313   -0.5548670083642313
-2.2194680334569252   -0.5548670083642313   -0.5548670083642313
-2.2194680334569252   -0.5548670083642313   -0.5548670083642313
-2.2194680334569252   -0.5548670083642313   -0.5548670083642313
-0.8912116797221267   0.006975236972531884   -0.0004914626375860584
-0.8912116797221267   0.006975236972531884   -0.0004914626375860584
-0.8912116797221267   0.006975236972531884   -0.0004914626375860584
-0.8912116797221267   0.006975236972531884   -0.0004914626375860584
-0.9696710496640042   -0.24241776241600105   -0.24241776241600105
-0.9696710496640042   -0.24241776241600105   -0.24241776241600105
-0.9696710496640042   -0.24241776241600105   -0.24241776241600105
-0.9696710496640042   -0.24241776241600105   -0.24241776241600105
-2.05637909748706   -0.19778837622445483   -0.06776237958337716
-2.05637909748706   -0.19778837622445483   -0.06776237958337716
-2.05637909748706   -0.19778837622445483   -0.06776237958337716
-2.05637909748706   -0.19778837622445483   -0.06776237958337716
-1.499286723644335   -0.24246817801642015   -0.07840250318317357
-1.499286723644335   -0.24246817801642015   -0.07840250318317357
-1.499286723644335   -0.24246817801642015   -0.07840250318317357
-1.499286723644335   -0.24246817801642015   -0.07840250318317357
-2.225854384806104   -0.556463596201526   -0.556463596201526
-2.225854384806104   -0.556463596201526   -0.556463596201526
-2.225854384806104   -0.556463596201526   -0.556463596201526
-2.225854384806104   -0.556463596201526   -0.556463596201526
-0.8559488209195505   0.060504398986479774   0.023271219903786472
-0.8559488209195505   0.060504398986479774   0.023271219903786472
-0.8559488209195505   0.060504398986479774   0.023271219903786472
-0.8559488209195505   0.060504398986479774   0.023271219903786472
-0.9496547731700045   -0.23741369329250112   -0.23741369329250112
-0.9496547731700045   -0.23741369329250112   -0.23741369329250112
-0.9496547731700045   -0.23741369329250112   -0.23741369329250112
-0.9496547731700045   -0.23741369329250112   -0.23741369329250112
-2.0414082987125255   -0.15265395613934069   -0.042663079678914764
-2.0414082987125255   -0.15265395613934069   -0.042663079678914764
-2.0414082987125255   -0.15265395613934069   -0.042663079678914764
-2.0414082987125255   -0.15265395613934069   -0.042663079678914764
-1.5068395660664389   -0.21460606948948466   -0.17469615539646915
-1.5068395660664389   -0.21460606948948466   -0.17469615539646915
-1.5068395660664389   -0.21460606948948466   -0.17469615539646915
-1.5068395660664389   -0.21460606948948466   -0.17469615539646915
-1.0309490405467159   -0.25773726013667897   -0.25773726013667897
-1.0309490405467159   -0.25773726013667897   -0.25773726013667897
-1.0309490405467159   -0.25773726013667897   -0.25773726013667897
-1.0309490405467159   -0.25773726013667897   -0.25773726013667897
0.12266950126488085   0.008080103716097072   0.000999872799453209
0.12266950126488085   0.008080103716097072   0.000999872799453209
0.12266950126488085   0.008080103716097072   0.000999872799453209
0.12266950126488085   0.008080103716097072   0.000999872799453209
0.15929066693978955   0.03982266673494739   0.03982266673494739
0.15929066693978955   0.03982266673494739   0.03982266673494739
0.15929066693978955   0.03982266673494739   0.03982266673494739
0.15929066693978955   0.03982266673494739   0.03982266673494739
-0.9322630632792758   -0.1611381073464499   -0.03763503610435003
-0.9322630632792758   -0.1611381073464499   -0.03763503610435003
-0.9322630632792758   -0.1611381073464499   -0.03763503610435003
-0.9322630632792758   -0.1611381073464499   -0.03763503610435003
-0.3989277411898427   -0.1012060336872827   0.06779866835364877
-0.3989277411898427   -0.1012060336872827   0.06779866835364877
-0.3989277411898427   -0.1012060336872827   0.06779866835364877
-0.3989277411898427   -0.1012060336872827   0.06779866835364877
-0.9916760384323509   -0.24791900960808771   -0.24791900960808771
-0.9916760384323509   -0.24791900960808771   -0.24791900960808771
-0.9916760384323509   -0.24791900960808771   -0.24791900960808771
-0.9916760384323509   -0.24791900960808771   -0.24791900960808771
0.16211201942077552   0.07001194632449559   0.02374014955032793
0.16211201942077552   0.07001194632449559   0.02374014955032793
0.16211201942077552   0.07001194632449559   0.02374014955032793
0.16211201942077552   0.07001194632449559   0.02374014955032793
0.17901255608877856   0.04475313902219464   0.04475313902219464
0.17901255608877856   0.04475313902219464   0.04475313902219464
0.17901255608877856   0.04475313902219464   0.04475313902219464
0.17901255608877856   0.04475313902219464   0.04475313902219464
-0.8994563919771356   -0.10852231992880995   -0.025239916468856573
-0.8994563919771356   -0.10852231992880995   -0.025239916468856573
-0.8994563919771356   -0.10852231992880995   -0.025239916468856573
-0.8994563919771356   -0.10852231992880995   -0.025239916468856573
-0.3828371000533548   -0.06257145625198315   -0.02312120874175405
-0.3828371000533548   -0.06257145625198315   -0.02312120874175405
-0.3828371000533548   -0.06257145625198315   -0.02312120874175405
-0.3828371000533548   -0.06257145625198315   -0.02312120874175405
-0.9696710496640042   -0.24241776241600105   -0.24241776241600105
-0.9696710496640042   -0.24241776241600105   -0.24241776241600105
-0.9696710496640042   -0.24241776241600105   -0.24241776241600105
-0.9696710496640042   -0.24241776241600105   -0.24241776241600105
0.1937743349767598   0.1231957027104997   0.04011946977379444
0.1937743349767598   0.1231957027104997   0.04011946977379444
0.1937743349767598   0.1231957027104997   0.04011946977379444
0.1937743349767598   0.1231957027104997   0.04011946977379444
0.20559063009236128   0.05139765752309032   0.05139765752309032
0.20559063009236128   0.05139765752309032   0.05139765752309032
0.20559063009236128   0.05139765752309032   0.05139765752309032
0.20559063009236128   0.05139765752309032   0.05139765752309032
-0.863750523786458   -0.04576344933365184   0.0004573096663782472
-0.863750523786458   -0.04576344933365184   0.0004573096663782472
-0.863750523786458   -0.04576344933365184   0.0004573096663782472
-0.863750523786458   -0.04576344933365184   0.0004573096663782472
-0.37154742294282594   -0.025326672308908588   -0.11322949836902865
-0.37154742294282594   -0.025326672308908588   -0.11322949836902865
-0.37154742294282594   -0.025326672308908588   -0.11322949836902865
-0.37154742294282594   -0.025326672308908588   -0.11322949836902865
0.13428167329085666   0.033570418322714166   0.033570418322714166
0.13428167329085666   0.033570418322714166   0.033570418322714166
0.13428167329085666   0.033570418322714166   0.033570418322714166
0.13428167329085666   0.033570418322714166   0.033570418322714166
1.2907386253582793   0.11841118535445577   0.039719464005286226
1.2907386253582793   0.11841118535445577   0.039719464005286226
1.2907386253582793   0.11841118535445577   0.039719464005286226
1.2907386253582793   0.11841118535445577   0.039719464005286226
1.4013205755103415   0.3503301438775854   0.3503301438775854
1.4013205755103415   0.3503301438775854   0.3503301438775854
1.4013205755103415   0.3503301438775854   0.3503301438775854
1.4013205755103415   0.3503301438775854   0.3503301438775854
0.12137017133125874   -0.0909009422018926   -0.01905620237086915
0.12137017133125874   -0.0909009422018926   -0.01905620237086915
0.12137017133125874   -0.0909009422018926   -0.01905620237086915
0.12137017133125874   -0.0909009422018926   -0.01905620237086915
0.7360992405107721   0.09163572923645233   0.1337554135147121
0.7360992405107721   0.09163572923645233   0.1337554135147121
0.7360992405107721   0.09163572923645233   0.1337554135147121
0.7360992405107721   0.09163572923645233   0.1337554135147121
0.1592906669397901   0.039822666734947526   0.039822666734947526
0.1592906669397901   0.039822666734947526   0.039822666734947526
0.1592906669397901   0.039822666734947526   0.039822666734947526
0.1592906669397901   0.039822666734947526   0.039822666734947526
1.3058797994361637   0.1620862544750989   0.061370152909183184
1.3058797994361637   0.1620862544750989   0.061370152909183184
1.3058797994361637   0.1620862544750989   0.061370152909183184
1.3058797994361637   0.1620862544750989   0.061370152909183184
1.3951629486059127   0.3487907371514782   0.3487907371514782
1.3951629486059127   0.3487907371514782   0.3487907371514782
1.3951629486059127   0.3487907371514782   0.3487907371514782
1.3951629486059127   0.3487907371514782   0.3487907371514782
0.1532340283850469   -0.03945710212712772   7.074165285735068e-05
0.1532340283850469   -0.03945710212712772   7.074165285735068e-05
0.1532340283850469   -0.03945710212712772   7.074165285735068e-05
0.1532340283850469   -0.03945710212712772   7.074165285735068e-05
0.7305080121899765   0.12020492400579369   0.03481450196625757
0.7305080121899765   0.12020492400579369   0.03481450196625757
0.7305080121899765   0.12020492400579369   0.03481450196625757
0.7305080121899765   0.12020492400579369   0.03481450196625757
0.17901255608877872   0.04475313902219468   0.04475313902219468
0.17901255608877872   0.04475313902219468   0.04475313902219468
0.17901255608877872   0.04475313902219468   0.04475313902219468
0.17901255608877872   0.04475313902219468   0.04475313902219468
1.3124160446341027   0.20761211973407773   0.07623483470982857
1.3124160446341027   0.20761211973407773   0.07623483470982857
1.3124160446341027   0.20761211973407773   0.07623483470982857
1.3124160446341027   0.20761211973407773   0.07623483470982857
1.4220331864115403   0.3555082966028851   0.3555082966028851
1.4220331864115403   0.3555082966028851   0.3555082966028851
1.4220331864115403   0.3555082966028851   0.3555082966028851
1.4220331864115403   0.3555082966028851   0.3555082966028851
0.19504644808681143   0.028616377637270814   0.02145802738115899
0.19504644808681143   0.028616377637270814   0.02145802738115899
0.19504644808681143   0.028616377637270814   0.02145802738115899
0.19504644808681143   0.028616377637270814   0.02145802738115899
0.7416914323028448   0.16303093081948125   -0.056926689930971934
0.7416914323028448   0.16303093081948125   -0.056926689930971934
0.7416914323028448   0.16303093081948125   -0.056926689930971934
0.7416914323028448   0.16303093081948125   -0.056926689930971934
1.3990138838737012   0.3497534709684253   0.3497534709684253
1.3990138838737012   0.3497534709684253   0.3497534709684253
1.3990138838737012   0.3497534709684253   0.3497534709684253
1.3990138838737012   0.3497534709684253   0.3497534709684253
2.90111147340919   0.22109095813482965   0.07564147460035715
2.90111147340919   0.22109095813482965   0.07564147460035715
2.90111147340919   0.22109095813482965   0.07564147460035715
2.90111147340919   0.22109095813482965   0.07564147460035715
2.9651825983532047   0.7412956495883012   0.7412956495883012
2.9651825983532047   0.7412956495883012   0.7412956495883012
2.9651825983532047   0.7412956495883012   0.7412956495883012
2.9651825983532047   0.7412956495883012   0.7412956495883012
1.2455894853072553   -0.07083546848704142   -0.0071596947732183724
1.2455894853072553   -0.07083546848704142   -0.0071596947732183724
1.2455894853072553   -0.07083546848704142   -0.0071596947732183724
1.2455894853072553   -0.07083546848704142   -0.0071596947732183724
2.0691771673392494   0.29280707099879294   0.233636680686917
2.0691771673392494   0.29280707099879294   0.233636680686917
2.0691771673392494   0.29280707099879294   0.233636680686917
2.0691771673392494   0.29280707099879294   0.233636680686917
1.4013205755103404   0.3503301438775851   0.3503301438775851
1.4013205755103404   0.3503301438775851   0.3503301438775851
1.4013205755103404   0.3503301438775851   0.3503301438775851
1.4013205755103404   0.3503301438775851   0.3503301438775851
2.7478016784361436   0.2584802075097083   0.13720649208163566
2.7478016784361436   0.2584802075097083   0.13720649208163566
2.7478016784361436   0.2584802075097083   0.13720649208163566
2.7478016784361436   0.2584802075097083   0.13720649208163566
2.876419223868546   0.7191048059671366   0.7191048059671366
2.876419223868546   0.7191048059671366   0.7191048059671366
2.876419223868546   0.7191048059671366   0.7191048059671366
2.876419223868546   0.7191048059671366   0.7191048059671366
1.2497989339870856   -0.039146106429605754   0.009907507638426627
1.2497989339870856   -0.039146106429605754   0.009907507638426627
1.2497989339870856   -0.039146106429605754   0.009907507638426627
1.2497989339870856   -0.039146106429605754   0.009907507638426627
2.0076334361695394   0.30121317123093905   0.11203946101426665
2.0076334361695394   0.30121317123093905   0.11203946101426665
2.0076334361695394   0.30121317123093905   0.11203946101426665
2.0076334361695394   0.30121317123093905   0.11203946101426665
1.3951629486059127   0.3487907371514782   0.3487907371514782
1.3951629486059127   0.3487907371514782   0.3487907371514782
1.3951629486059127   0.3487907371514782   0.3487907371514782
1.3951629486059127   0.3487907371514782   0.3487907371514782
2.659172857442848   0.25928561057919003   0.09269216922663702
2.659172857442848   0.25928561057919003   0.09269216922663702
2.659172857442848   0.25928561057919003   0.09269216922663702
2.659172857442848   0.25928561057919003   0.09269216922663702
2.7443845437435277   0.6860961359358819   0.6860961359358819
2.7443845437435277   0.6860961359358819   0.6860961359358819
2.7443845437435277   0.6860961359358819   0.6860961359358819
2.7443845437435277   0.6860961359358819   0.6860961359358819
1.2958909470216458   0.040748337513146715   0.03955705874315063
1.2958909470216458   0.040748337513146715   0.03955705874315063
1.2958909470216458   0.040748337513146715   0.03955705874315063
1.2958909470216458   0.040748337513146715   0.03955705874315063
1.922231603084271   0.32653994228035743   -0.029363784645254767
1.922231603084271   0.32653994228035743   -0.029363784645254767
1.922231603084271   0.32653994228035743   -0.029363784645254767
1.922231603084271   0.32653994228035743   -0.029363784645254767
-2.8133533081638586   -0.2014355127201602   0.03154018032979959
-2.8133533081638586   -0.2014355127201602   0.03154018032979959
-2.8133533081638586   -0.2014355127201602   0.03154018032979959
-2.8133533081638586   -0.2014355127201602   0.03154018032979959
-1.7906130129674578   -0.0411841474487038   -0.01153421995859838
-1.7906130129674578   -0.0411841474487038   -0.01153421995859838
-1.7906130129674578   -0.0411841474487038   -0.01153421995859838
-1.7906130129674578   -0.0411841474487038   -0.01153421995859838
-1.8028547328215412   0.07278121219832462   0.037569846632868734
-1.8028547328215412   0.07278121219832462   0.037569846632868734
-1.8028547328215412   0.07278121219832462   0.037569846632868734
-1.8028547328215412   0.07278121219832462   0.037569846632868734
-2.855295132025727   -0.19470204644693406   -0.033752037887128314
-2.855295132025727   -0.19470204644693406   -0.033752037887128314
-2.855295132025727   -0.19470204644693406   -0.033752037887128314
-2.855295132025727   -0.19470204644693406   -0.033752037887128314
-2.2243974714873946   -0.07592530829203331   -0.008750368281717866
-2.2243974714873946   -0.07592530829203331   -0.008750368281717866
-2.2243974714873946   -0.07592530829203331   -0.008750368281717866
-2.2243974714873946   -0.07592530829203331   -0.008750368281717866
-2.8345992109766525   -0.13839712381417452   0.013422644725485003
-2.8345992109766525   -0.13839712381417452   0.013422644725485003
-2.8345992109766525   -0.13839712381417452   0.013422644725485003
-2.8345992109766525   -0.13839712381417452   0.013422644725485003
-1.826552938482461   0.01347400495372647   -0.021613974427099628
-1.826552938482461   0.01347400495372647   -0.021613974427099628
-1.826552938482461   0.01347400495372647   -0.021613974427099628
-1.826552938482461   0.01347400495372647   -0.021613974427099628
-1.805086174418681   0.1037393627234226   0.04280175281987331
-1.805086174418681   0.1037393627234226   0.04280175281987331
-1.805086174418681   0.1037393627234226   0.04280175281987331
-1.805086174418681   0.1037393627234226   0.04280175281987331
-2.872719548013051   -0.17152903095362843   -0.04456459185802107
-2.872719548013051   -0.17152903095362843   -0.04456459185802107
-2.872719548013051   -0.17152903095362843   -0.04456459185802107
-2.872719548013051   -0.17152903095362843   -0.04456459185802107
-2.2869663019382633   -0.05086178009881154   -0.021655541034557482
-2.2869663019382633   -0.05086178009881154   -0.021655541034557482
-2.2869663019382633   -0.05086178009881154   -0.021655541034557482
-2.2869663019382633   -0.05086178009881154   -0.021655541034557482
-2.821213010398786   -0.0831321183205358   0.1245711835801867
-2.821213010398786   -0.0831321183205358   0.1245711835801867
-2.821213010398786   -0.0831321183205358   0.1245711835801867
-2.821213010398786   -0.0831321183205358   0.1245711835801867
-1.8351197779916992   0.036815384131575535   -0.040442286453353
-1.8351197779916992   0.036815384131575535   -0.040442286453353
-1.8351197779916992   0.036815384131575535   -0.040442286453353
-1.8351197779916992   0.036815384131575535   -0.040442286453353
-1.7723455414273814   0.18071802361356903   0.07782386772869562
-1.7723455414273814   0.18071802361356903   0.07782386772869562
-1.7723455414273814   0.18071802361356903   0.07782386772869562
-1.7723455414273814   0.18071802361356903   0.07782386772869562
-2.793501310199477   -0.13847438773398812   -0.07293563231791758
-2.793501310199477   -0.13847438773398812   -0.07293563231791758
-2.793501310199477   -0.13847438773398812   -0.07293563231791758
-2.793501310199477   -0.13847438773398812   -0.07293563231791758
-2.1996334571012848   0.020438771812642254   0.048722419589371346
-2.1996334571012848   0.020438771812642254   0.048722419589371346
-2.1996334571012848   0.020438771812642254   0.048722419589371346
-2.1996334571012848   0.020438771812642254   0.048722419589371346
-1.835133922981761   -0.24323390303331469   -0.0320890144455031
-1.835133922981761   -0.24323390303331469   -0.0320890144455031
-1.835133922981761   -0.24323390303331469   -0.0320890144455031
-1.835133922981761   -0.24323390303331469   -0.0320890144455031
-0.8452675121520457   -0.018707473195849533   0.008991639358979633
-0.8452675121520457   -0.018707473195849533   0.008991639358979633
-0.8452675121520457   -0.018707473195849533   0.008991639358979633
-0.8452675121520457   -0.018707473195849533   0.008991639358979633
-0.8577282991744645   0.016323034632042877   0.012764145112310624
-0.8577282991744645   0.016323034632042877   0.012764145112310624
-0.8577282991744645   0.016323034632042877   0.012764145112310624
-0.8577282991744645   0.016323034632042877   0.012764145112310624
-1.8715555906704582   -0.17805610366994573   -0.055097126743446856
-1.8715555906704582   -0.17805610366994573   -0.055097126743446856
-1.8715555906704582   -0.17805610366994573   -0.055097126743446856
-1.8715555906704582   -0.17805610366994573   -0.055097126743446856
-1.3523776519401927   -0.10976382630126025   -0.030966867106062335
-1.3523776519401927   -0.10976382630126025   -0.030966867106062335
-1.3523776519401927   -0.10976382630126025   -0.030966867106062335
-1.3523776519401927   -0.10976382630126025   -0.030966867106062335
-1.8698091104854762   -0.19460843545859963   -0.02981239402989018
-1.8698091104854762   -0.19460843545859963   -0.02981239402989018
-1.8698091104854762   -0.19460843545859963   -0.02981239402989018
-1.8698091104854762   -0.19460843545859963   -0.02981239402989018
-0.8561377848389244   0.03621236094121874   0.0008273904808415999
-0.8561377848389244   0.03621236094121874   0.0008273904808415999
-0.8561377848389244   0.03621236094121874   0.0008273904808415999
-0.8561377848389244   0.03621236094121874   0.0008273904808415999
-0.8545736723455397   0.059597294801217504   0.01736055040346808
-0.8545736723455397   0.059597294801217504   0.01736055040346808
-0.8545736723455397   0.059597294801217504   0.01736055040346808
-0.8545736723455397   0.059597294801217504   0.01736055040346808
-1.8724163618563414   -0.13052363462698702   -0.0595861870180196
-1.8724163618563414   -0.13052363462698702   -0.0595861870180196
-1.8724163618563414   -0.13052363462698702   -0.0595861870180196
-1.8724163618563414   -0.13052363462698702   -0.0595861870180196
-1.3498335554320244   -0.06110344590138672   -0.014719381587514749
-1.3498335554320244   -0.06110344590138672   -0.014719381587514749
-1.3498335554320244   -0.06110344590138672   -0.014719381587514749
-1.3498335554320244   -0.06110344590138672   -0.014719381587514749
-1.8651078610078529   -0.1472459304103763   -0.006321386992187747
-1.8651078610078529   -0.1472459304103763   -0.006321386992187747
-1.8651078610078529   -0.1472459304103763   -0.006321386992187747
-1.8651078610078529   -0.1472459304103763   -0.006321386992187747
-0.8556868093916916   0.08251495438694548   -0.011122794413006898
-0.8556868093916916   0.08251495438694548   -0.011122794413006898
-0.8556868093916916   0.08251495438694548   -0.011122794413006898
-0.8556868093916916   0.08251495438694548   -0.011122794413006898
-0.840336109401432   0.10307466056321232   0.0349078145227565
-0.840336109401432   0.10307466056321232   0.0349078145227565
-0.840336109401432   0.10307466056321232   0.0349078145227565
-0.840336109401432   0.10307466056321232   0.0349078145227565
-1.8524534513194824   -0.07560463347751867   -0.06639302464072921
-1.8524534513194824   -0.07560463347751867   -0.06639302464072921
-1.8524534513194824   -0.07560463347751867   -0.06639302464072921
-1.8524534513194824   -0.07560463347751867   -0.06639302464072921
-1.34427915282012   -0.015057156137494365   0.006752411731855368
-1.34427915282012   -0.015057156137494365   0.006752411731855368
-1.34427915282012   -0.015057156137494365   0.006752411731855368
-1.34427915282012   -0.015057156137494365   0.006752411731855368
-0.8913627651707376   -0.2024706199308207   -0.03772147899951695
-0.8913627651707376   -0.2024706199308207   -0.03772147899951695
-0.8913627651707376   -0.2024706199308207   -0.03772147899951695
-0.8913627651707376   -0.2024706199308207   -0.03772147899951695
0.0927805462417611   0.021093925044058857   0.03472513348752023
0.0927805462417611   0.021093925044058857   0.03472513348752023
0.0927805462417611   0.021093925044058857   0.03472513348752023
0.0927805462417611   0.021093925044058857   0.03472513348752023
0.08849842358178582   0.05109492140682853   0.002768620800980495
0.08849842358178582   0.05109492140682853   0.002768620800980495
0.08849842358178582   0.05109492140682853   0.002768620800980495
0.08849842358178582   0.05109492140682853   0.002768620800980495
-0.8951940850770451   -0.13415797431808313   -0.02408377545046697
-0.8951940850770451   -0.13415797431808313   -0.02408377545046697
-0.8951940850770451   -0.13415797431808313   -0.02408377545046697
-0.8951940850770451   -0.13415797431808313   -0.02408377545046697
-0.405199365321839   -0.06710492667070148   -0.01280130528015652
-0.405199365321839   -0.06710492667070148   -0.01280130528015652
-0.405199365321839   -0.06710492667070148   -0.01280130528015652
-0.405199365321839   -0.06710492667070148   -0.01280130528015652
-0.9013848894585369   -0.15439551641386154   -0.03480025526214716
-0.9013848894585369   -0.15439551641386154   -0.03480025526214716
-0.9013848894585369   -0.15439551641386154   -0.03480025526214716
-0.9013848894585369   -0.15439551641386154   -0.03480025526214716
0.09813430887453424   0.07477754441386492   0.027265424257686167
0.09813430887453424   0.07477754441386492   0.027265424257686167
0.09813430887453424   0.07477754441386492   0.027265424257686167
0.09813430887453424   0.07477754441386492   0.027265424257686167
0.09542893535515964   0.09873224742279325   0.016147592956864285
0.09542893535515964   0.09873224742279325   0.016147592956864285
0.09542893535515964   0.09873224742279325   0.016147592956864285
0.09542893535515964   0.09873224742279325   0.016147592956864285
-0.8923580277581595   -0.0819206679726372   -0.03004326388577659
-0.8923580277581595   -0.0819206679726372   -0.03004326388577659
-0.8923580277581595   -0.0819206679726372   -0.03004326388577659
-0.8923580277581595   -0.0819206679726372   -0.03004326388577659
-0.3989121952222069   -0.016475285059486075   0.004783202702274437
-0.3989121952222069   -0.016475285059486075   0.004783202702274437
-0.3989121952222069   -0.016475285059486075   0.004783202702274437
-0.3989121952222069   -0.016475285059486075   0.004783202702274437
-0.8947455331930885   -0.10609371390403408   -0.017807745129024284
-0.8947455331930885   -0.10609371390403408   -0.017807745129024284
-0.8947455331930885   -0.10609371390403408   -0.017807745129024284
-0.8947455331930885   -0.10609371390403408   -0.017807745129024284
0.10152280007768087   0.12661165264178237   0.01873751135048079
0.10152280007768087   0.12661165264178237   0.01873751135048079
0.10152280007768087   0.12661165264178237   0.01873751135048079
0.10152280007768087   0.12661165264178237   0.01873751135048079
0.09759491056781858   0.15173235882698816   0.0265909161153037
0.09759491056781858   0.15173235882698816   0.0265909161153037
0.09759491056781858   0.15173235882698816   0.0265909161153037
0.09759491056781858   0.15173235882698816   0.0265909161153037
-0.8807164822994401   -0.026073057943435368   -0.03784633146063276
-0.8807164822994401   -0.026073057943435368   -0.03784633146063276
-0.8807164822994401   -0.026073057943435368   -0.03784633146063276
-0.8807164822994401   -0.026073057943435368   -0.03784633146063276
-0.38896354794429927   0.036471870426926054   0.024033809972804823
-0.38896354794429927   0.036471870426926054   0.024033809972804823
-0.38896354794429927   0.036471870426926054   0.024033809972804823
-0.38896354794429927   0.036471870426926054   0.024033809972804823
0.042676793729661607   -0.1484041788150903   -0.04629552521382811
0.042676793729661607   -0.1484041788150903   -0.04629552521382811
0.042676793729661607   -0.1484041788150903   -0.04629552521382811
0.042676793729661607   -0.1484041788150903   -0.04629552521382811
1.0621976944137976   0.0733458856106518   0.06371178880031278
1.0621976944137976   0.0733458856106518   0.06371178880031278
1.0621976944137976   0.0733458856106518   0.06371178880031278
1.0621976944137976   0.0733458856106518   0.06371178880031278
1.0608850176130151   0.09877767563093888   -0.010177959488470011
1.0608850176130151   0.09877767563093888   -0.010177959488470011
1.0608850176130151   0.09877767563093888   -0.010177959488470011
1.0608850176130151   0.09877767563093888   -0.010177959488470011
0.06115707456933288   -0.08918738083223238   0.006344177977776724
0.06115707456933288   -0.08918738083223238   0.006344177977776724
0.06115707456933288   -0.08918738083223238   0.006344177977776724
0.06115707456933288   -0.08918738083223238   0.006344177977776724
0.5498719044910396   -0.012695465383084803   0.0011806450660211756
0.5498719044910396   -0.012695465383084803   0.0011806450660211756
0.5498719044910396   -0.012695465383084803   0.0011806450660211756
0.5498719044910396   -0.012695465383084803   0.0011806450660211756
0.049126244713388556   -0.10844829789844014   -0.03454905423573661
0.049126244713388556   -0.10844829789844014   -0.03454905423573661
0.049126244713388556   -0.10844829789844014   -0.03454905423573661
0.049126244713388556   -0.10844829789844014   -0.03454905423573661
1.079104626624021   0.12422737185220756   0.05547038934528077
1.079104626624021   0.12422737185220756   0.05547038934528077
1.079104626624021   0.12422737185220756   0.05547038934528077
1.079104626624021   0.12422737185220756   0.05547038934528077
1.0692385600727248   0.14589019448763743   0.010802693039003282
1.0692385600727248   0.14589019448763743   0.010802693039003282
1.0692385600727248   0.14589019448763743   0.010802693039003282
1.0692385600727248   0.14589019448763743   0.010802693039003282
0.063321542402903   -0.042503738718510584   -0.003153385663115179
0.063321542402903   -0.042503738718510584   -0.003153385663115179
0.063321542402903   -0.042503738718510584   -0.003153385663115179
0.063321542402903   -0.042503738718510584   -0.003153385663115179
0.5571933658008349   0.032339719143003945   0.022791776712304566
0.5571933658008349   0.032339719143003945   0.022791776712304566
0.5571933658008349   0.032339719143003945   0.022791776712304566
0.5571933658008349   0.032339719143003945   0.022791776712304566
0.054560909782929656   -0.06424827639535022   -0.02521201108614176
0.054560909782929656   -0.06424827639535022   -0.02521201108614176
0.054560909782929656   -0.06424827639535022   -0.02521201108614176
0.054560909782929656   -0.06424827639535022   -0.02521201108614176
1.082477163525137   0.1721127029969132   0.050773201791769695
1.082477163525137   0.1721127029969132   0.050773201791769695
1.082477163525137   0.1721127029969132   0.050773201791769695
1.082477163525137   0.1721127029969132   0.050773201791769695
1.0520581839585887   0.200265924021851   0.022694023432280823
1.0520581839585887   0.200265924021851   0.022694023432280823
1.0520581839585887   0.200265924021851   0.022694023432280823
1.0520581839585887   0.200265924021851   0.022694023432280823
0.06273859809493938   0.015319476793599926   -0.011277764215703997
0.06273859809493938   0.015319476793599926   -0.011277764215703997
0.06273859809493938   0.015319476793599926   -0.011277764215703997
0.06273859809493938   0.015319476793599926   -0.011277764215703997
0.5654152162775209   0.08382688165674951   0.042793926808773676
0.5654152162775209   0.08382688165674951   0.042793926808773676
0.5654152162775209   0.08382688165674951   0.042793926808773676
0.5654152162775209   0.08382688165674951   0.042793926808773676
0.9785484745894663   -0.1956563512427708   -0.08553207346792134
0.9785484745894663   -0.1956563512427708   -0.08553207346792134
0.9785484745894663   -0.1956563512427708   -0.08553207346792134
0.9785484745894663   -0.1956563512427708   -0.08553207346792134
2.0147037329385244   0.13307191909937677   0.06201598349065665
2.0147037329385244   0.13307191909937677   0.06201598349065665
2.0147037329385244   0.13307191909937677   0.06201598349065665
2.0147037329385244   0.13307191909937677   0.06201598349065665
2.03747002452907   0.063241225991082   -0.12865676160441736
2.03747002452907   0.063241225991082   -0.12865676160441736
2.03747002452907   0.063241225991082   -0.12865676160441736
2.03747002452907   0.063241225991082   -0.12865676160441736
1.042535076900251   -0.04021672966403586   0.03706674224266594
1.042535076900251   -0.04021672966403586   0.03706674224266594
1.042535076900251   -0.04021672966403586   0.03706674224266594
1.042535076900251   -0.04021672966403586   0.03706674224266594
1.442841651631868   -0.025146493738399167   -0.036051799017483316
1.442841651631868   -0.025146493738399167   -0.036051799017483316
1.442841651631868   -0.025146493738399167   -0.036051799017483316
1.442841651631868   -0.025146493738399167   -0.036051799017483316
1.0060877258531036   -0.12865102496220432   -0.0567357176948889
1.0060877258531036   -0.12865102496220432   -0.0567357176948889
1.0060877258531036   -0.12865102496220432   -0.0567357176948889
1.0060877258531036   -0.12865102496220432   -0.0567357176948889
2.0924067160171846   0.17016486173022133   0.039103060097018236
2.0924067160171846   0.17016486173022133   0.039103060097018236
2.0924067160171846   0.17016486173022133   0.039103060097018236
2.0924067160171846   0.17016486173022133   0.039103060097018236
2.05987253352317   0.11507503778056816   -0.02906037084678792
2.05987253352317   0.11507503778056816   -0.02906037084678792
2.05987253352317   0.11507503778056816   -0.02906037084678792
2.05987253352317   0.11507503778056816   -0.02906037084678792
1.0383271457530951   -0.016944669060149797   0.01908048498862379
1.0383271457530951   -0.016944669060149797   0.01908048498862379
1.0383271457530951   -0.016944669060149797   0.01908048498862379
1.0383271457530951   -0.016944669060149797   0.01908048498862379
1.5183168636312254   0.037922674154577174   0.024937889754730075
1.5183168636312254   0.037922674154577174   0.024937889754730075
1.5183168636312254   0.037922674154577174   0.024937889754730075
1.5183168636312254   0.037922674154577174   0.024937889754730075
1.0090949270419662   -0.09839455405978895   -0.04563072356737165
1.0090949270419662   -0.09839455405978895   -0.04563072356737165
1.0090949270419662   -0.09839455405978895   -0.04563072356737165
1.0090949270419662   -0.09839455405978895   -0.04563072356737165
2.0866511889416666   0.19407135948757742   0.025836584538688215
2.0866511889416666   0.19407135948757742   0.025836584538688215
2.0866511889416666   0.19407135948757742   0.025836584538688215
2.0866511889416666   0.19407135948757742   0.025836584538688215
2.0563777666351863   0.1760307244552895   -0.0445178261596762
2.0563777666351863   0.1760307244552895   -0.0445178261596762
2.0563777666351863   0.1760307244552895   -0.0445178261596762
2.0563777666351863   0.1760307244552895   -0.0445178261596762
1.0169255825155614   0.036713829373753976   0.010583110865222747
1.0169255825155614   0.036713829373753976   0.010583110865222747
1.0169255825155614   0.036713829373753976   0.010583110865222747
1.0169255825155614   0.036713829373753976   0.010583110865222747
1.4794592777374838   0.06644092196197249   0.01845360821072696
1.4794592777374838   0.06644092196197249   0.01845360821072696
1.4794592777374838   0.06644092196197249   0.01845360821072696
1.4794592777374838   0.06644092196197249   0.01845360821072696
-2.2122657860199486   -0.1004677186945826   0.11370069686449846
-2.2122657860199486   -0.1004677186945826   0.11370069686449846
-2.2122657860199486   -0.1004677186945826   0.11370069686449846
-2.2122657860199486   -0.1004677186945826   0.11370069686449846
-1.4689174881397187   -0.055688240928755905   -0.02958543338143574
-1.4689174881397187   -0.055688240928755905   -0.02958543338143574
-1.4689174881397187   -0.055688240928755905   -0.02958543338143574
-1.4689174881397187   -0.055688240928755905   -0.02958543338143574
-1.4160509687729235   0.11897937234902306   0.09541089283985345
-1.4160509687729235   0.11897937234902306   0.09541089283985345
-1.4160509687729235   0.11897937234902306   0.09541089283985345
-1.4160509687729235   0.11897937234902306   0.09541089283985345
-2.2224888907492324   -0.15862819458480387   -0.046369365499927526
-2.2224888907492324   -0.15862819458480387   -0.046369365499927526
-2.2224888907492324   -0.15862819458480387   -0.046369365499927526
-2.2224888907492324   -0.15862819458480387   -0.046369365499927526
-1.7556068433640453   -0.027147657860447982   -0.0031555060472648333
-1.7556068433640453   -0.027147657860447982   -0.0031555060472648333
-1.7556068433640453   -0.027147657860447982   -0.0031555060472648333
-1.7556068433640453   -0.027147657860447982   -0.0031555060472648333
-2.160712500960609   -0.02354852907067323   0.12743291792905787
-2.160712500960609   -0.02354852907067323   0.12743291792905787
-2.160712500960609   -0.02354852907067323   0.12743291792905787
-2.160712500960609   -0.02354852907067323   0.12743291792905787
-1.468095731222569   -0.006368665826130104   -0.039464881233221935
-1.468095731222569   -0.006368665826130104   -0.039464881233221935
-1.468095731222569   -0.006368665826130104   -0.039464881233221935
-1.468095731222569   -0.006368665826130104   -0.039464881233221935
-1.410299013161239   0.14755874616418524   0.08845375887923536
-1.410299013161239   0.14755874616418524   0.08845375887923536
-1.410299013161239   0.14755874616418524   0.08845375887923536
-1.410299013161239   0.14755874616418524   0.08845375887923536
-2.1881296577048897   -0.13272480712866352   -0.06350050845546751
-2.1881296577048897   -0.13272480712866352   -0.06350050845546751
-2.1881296577048897   -0.13272480712866352   -0.06350050845546751
-2.1881296577048897   -0.13272480712866352   -0.06350050845546751
-1.7593952067622407   0.006431404042222089   0.020319562863788845
-1.7593952067622407   0.006431404042222089   0.020319562863788845
-1.7593952067622407   0.006431404042222089   0.020319562863788845
-1.7593952067622407   0.006431404042222089   0.020319562863788845
-2.130597520573026   0.0034128057675154033   0.08802256430767298
-2.130597520573026   0.0034128057675154033   0.08802256430767298
-2.130597520573026   0.0034128057675154033   0.08802256430767298
-2.130597520573026   0.0034128057675154033   0.08802256430767298
-1.4646234826388163   0.014628800922297402   -0.050238643266751634
-1.4646234826388163   0.014628800922297402   -0.050238643266751634
-1.4646234826388163   0.014628800922297402   -0.050238643266751634
-1.4646234826388163   0.014628800922297402   -0.050238643266751634
-1.4116847721668917   0.16651288949288645   0.07018421578386994
-1.4116847721668917   0.16651288949288645   0.07018421578386994
-1.4116847721668917   0.16651288949288645   0.07018421578386994
-1.4116847721668917   0.16651288949288645   0.07018421578386994
-2.1435133124060624   -0.10521706209958426   -0.08098809041675079
-2.1435133124060624   -0.10521706209958426   -0.08098809041675079
-2.1435133124060624   -0.10521706209958426   -0.08098809041675079
-2.1435133124060624   -0.10521706209958426   -0.08098809041675079
-1.7088724443764918   0.036493607458693844   0.042210357801951634
-1.7088724443764918   0.036493607458693844   0.042210357801951634
-1.7088724443764918   0.036493607458693844   0.042210357801951634
-1.7088724443764918   0.036493607458693844   0.042210357801951634
-1.4733550276731457   -0.139679648806109   0.0322182768287826
-1.4733550276731457   -0.139679648806109   0.0322182768287826
-1.4733550276731457   -0.139679648806109   0.0322182768287826
-1.4733550276731457   -0.139679648806109   0.0322182768287826
-0.7437904682474822   -0.026827238982224194   0.0014385140292760626
-0.7437904682474822   -0.026827238982224194   0.0014385140292760626
-0.7437904682474822   -0.026827238982224194   0.0014385140292760626
-0.7437904682474822   -0.026827238982224194   0.0014385140292760626
-0.7227340494349523   0.07309957836891512   0.05185974221535122
-0.7227340494349523   0.07309957836891512   0.05185974221535122
-0.7227340494349523   0.07309957836891512   0.05185974221535122
-0.7227340494349523   0.07309957836891512   0.05185974221535122
-1.4967934269104795   -0.1377492104575678   -0.05157281504135102
-1.4967934269104795   -0.1377492104575678   -0.05157281504135102
-1.4967934269104795   -0.1377492104575678   -0.05157281504135102
-1.4967934269104795   -0.1377492104575678   -0.05157281504135102
-1.105219324581479   -0.05423430966374379   -0.022356304807431004
-1.105219324581479   -0.05423430966374379   -0.022356304807431004
-1.105219324581479   -0.05423430966374379   -0.022356304807431004
-1.105219324581479   -0.05423430966374379   -0.022356304807431004
-1.46873328754203   -0.08023040285575278   0.031209074199089526
-1.46873328754203   -0.08023040285575278   0.031209074199089526
-1.46873328754203   -0.08023040285575278   0.031209074199089526
-1.46873328754203   -0.08023040285575278   0.031209074199089526
-0.7451048001668995   0.0212701594036048   -0.008164592479068249
-0.7451048001668995   0.0212701594036048   -0.008164592479068249
-0.7451048001668995   0.0212701594036048   -0.008164592479068249
-0.7451048001668995   0.0212701594036048   -0.008164592479068249
-0.7204584242439114   0.12075973789731553   0.0448727379910632
-0.7204584242439114   0.12075973789731553   0.0448727379910632
-0.7204584242439114   0.12075973789731553   0.0448727379910632
-0.7204584242439114   0.12075973789731553   0.0448727379910632
-1.488331259559132   -0.09325872767561436   -0.0608899992704306
-1.488331259559132   -0.09325872767561436   -0.0608899992704306
-1.488331259559132   -0.09325872767561436   -0.0608899992704306
-1.488331259559132   -0.09325872767561436   -0.0608899992704306
-1.0931687131617212   -0.006004728031955314   -5.9366651412262605e-05
-1.0931687131617212   -0.006004728031955314   -5.9366651412262605e-05
-1.0931687131617212   -0.006004728031955314   -5.9366651412262605e-05
-1.0931687131617212   -0.006004728031955314   -5.9366651412262605e-05
-1.4596973858925373   -0.031882061461029176   0.020902702847957685
-1.4596973858925373   -0.031882061461029176   0.020902702847957685
-1.4596973858925373   -0.031882061461029176   0.020902702847957685
-1.4596973858925373   -0.031882061461029176   0.020902702847957685
-0.7444593537794558   0.0640160158137843   -0.018388187603113566
-0.7444593537794558   0.0640160158137843   -0.018388187603113566
-0.7444593537794558   0.0640160158137843   -0.018388187603113566
-0.7444593537794558   0.0640160158137843   -0.018388187603113566
-0.720257937252107   0.17083861676209328   0.03362771248993997
-0.720257937252107   0.17083861676209328   0.03362771248993997
-0.720257937252107   0.17083861676209328   0.03362771248993997
-0.720257937252107   0.17083861676209328   0.03362771248993997
-1.4811810230157478   -0.045256864534111096   -0.06552728443342047
-1.4811810230157478   -0.045256864534111096   -0.06552728443342047
-1.4811810230157478   -0.045256864534111096   -0.06552728443342047
-1.4811810230157478   -0.045256864534111096   -0.06552728443342047
-1.0938959888122324   0.03821628570693872   0.016978680402159246
-1.0938959888122324   0.03821628570693872   0.016978680402159246
-1.0938959888122324   0.03821628570693872   0.016978680402159246
-1.0938959888122324   0.03821628570693872   0.016978680402159246
-0.7715198520835568   -0.15959859178764513   -0.0044370523456817
-0.7715198520835568   -0.15959859178764513   -0.0044370523456817
-0.7715198520835568   -0.15959859178764513   -0.0044370523456817
-0.7715198520835568   -0.15959859178764513   -0.0044370523456817
-0.025398335207425057   0.007980906386938345   0.03294974969838117
-0.025398335207425057   0.007980906386938345   0.03294974969838117
-0.025398335207425057   0.007980906386938345   0.03294974969838117
-0.025398335207425057   0.007980906386938345   0.03294974969838117
-0.028232856652182836   0.04719975003850854   0.015743617907621382
-0.028232856652182836   0.04719975003850854   0.015743617907621382
-0.028232856652182836   0.04719975003850854   0.015743617907621382
-0.028232856652182836   0.04719975003850854   0.015743617907621382
-0.7720513440190336   -0.10231578250629209   -0.01931136982984781
-0.7720513440190336   -0.10231578250629209   -0.01931136982984781
-0.7720513440190336   -0.10231578250629209   -0.01931136982984781
-0.7720513440190336   -0.10231578250629209   -0.01931136982984781
-0.40052364730938556   -0.050009030272196796   -0.012505479340368044
-0.40052364730938556   -0.050009030272196796   -0.012505479340368044
-0.40052364730938556   -0.050009030272196796   -0.012505479340368044
-0.40052364730938556   -0.050009030272196796   -0.012505479340368044
-0.7712204392109501   -0.10670084642826269   -0.010771781867459808
-0.7712204392109501   -0.10670084642826269   -0.010771781867459808
-0.7712204392109501   -0.10670084642826269   -0.010771781867459808
-0.7712204392109501   -0.10670084642826269   -0.010771781867459808
-0.024821925313569825   0.0558266501071744   0.024171374532020905
-0.024821925313569825   0.0558266501071744   0.024171374532020905
-0.024821925313569825   0.0558266501071744   0.024171374532020905
-0.024821925313569825   0.0558266501071744   0.024171374532020905
-0.02472724742338632   0.09912673093181103   0.007562950301691282
-0.02472724742338632   0.09912673093181103   0.007562950301691282
-0.02472724742338632   0.09912673093181103   0.007562950301691282
-0.02472724742338632   0.09912673093181103   0.007562950301691282
-0.7701229867662208   -0.05439006253625571   -0.0283002741869046
-0.7701229867662208   -0.05439006253625571   -0.0283002741869046
-0.7701229867662208   -0.05439006253625571   -0.0283002741869046
-0.7701229867662208   -0.05439006253625571   -0.0283002741869046
-0.39664593627864286   -0.0019908618204709794   0.005509001620179883
-0.39664593627864286   -0.0019908618204709794   0.005509001620179883
-0.39664593627864286   -0.0019908618204709794   0.005509001620179883
-0.39664593627864286   -0.0019908618204709794   0.005509001620179883
-0.768963475206184   -0.0555097170580684   -0.02138306186490814
-0.768963475206184   -0.0555097170580684   -0.02138306186490814
-0.768963475206184   -0.0555097170580684   -0.02138306186490814
-0.768963475206184   -0.0555097170580684   -0.02138306186490814
-0.022383996137541714   0.1037491482995051   0.01465678936322049
-0.022383996137541714   0.1037491482995051   0.01465678936322049
-0.022383996137541714   0.1037491482995051   0.01465678936322049
-0.022383996137541714   0.1037491482995051   0.01465678936322049
-0.023992369529331793   0.15260777112797627   -0.0011662988736829624
-0.023992369529331793   0.15260777112797627   -0.0011662988736829624
-0.023992369529331793   0.15260777112797627   -0.0011662988736829624
-0.023992369529331793   0.15260777112797627   -0.0011662988736829624
-0.7697566881907507   -0.005647139827549746   -0.03738028561363936
-0.7697566881907507   -0.005647139827549746   -0.03738028561363936
-0.7697566881907507   -0.005647139827549746   -0.03738028561363936
-0.7697566881907507   -0.005647139827549746   -0.03738028561363936
-0.3936374214244098   0.04607277381451881   0.022028404840611193
-0.3936374214244098   0.04607277381451881   0.022028404840611193
-0.3936374214244098   0.04607277381451881   0.022028404840611193
-0.3936374214244098   0.04607277381451881   0.022028404840611193
-0.07617323263882493   -0.1747161864785593   -0.03822764459312022
-0.07617323263882493   -0.1747161864785593   -0.03822764459312022
-0.07617323263882493   -0.1747161864785593   -0.03822764459312022
-0.07617323263882493   -0.1747161864785593   -0.03822764459312022
0.6903227953650508   0.04873384837470136   0.06263785002109111
0.6903227953650508   0.04873384837470136   0.06263785002109111
0.6903227953650508   0.04873384837470136   0.06263785002109111
0.6903227953650508   0.04873384837470136   0.06263785002109111
0.6677488480201818   0.025929902856535306   -0.024661177029233674
0.6677488480201818   0.025929902856535306   -0.024661177029233674
0.6677488480201818   0.025929902856535306   -0.024661177029233674
0.6677488480201818   0.025929902856535306   -0.024661177029233674
-0.05093386986535096   -0.06400679967426555   0.013445101554555215
-0.05093386986535096   -0.06400679967426555   0.013445101554555215
-0.05093386986535096   -0.06400679967426555   0.013445101554555215
-0.05093386986535096   -0.06400679967426555   0.013445101554555215
0.3033862210480047   -0.04039219023209574   -0.007047951696149218
0.3033862210480047   -0.04039219023209574   -0.007047951696149218
0.3033862210480047   -0.04039219023209574   -0.007047951696149218
0.3033862210480047   -0.04039219023209574   -0.007047951696149218
-0.075914082974245   -0.12746916722444823   -0.047993596439732306
-0.075914082974245   -0.12746916722444823   -0.047993596439732306
-0.075914082974245   -0.12746916722444823   -0.047993596439732306
-0.075914082974245   -0.12746916722444823   -0.047993596439732306
0.6975532569511642   0.0942164662288103   0.056074304253403914
0.6975532569511642   0.0942164662288103   0.056074304253403914
0.6975532569511642   0.0942164662288103   0.056074304253403914
0.6975532569511642   0.0942164662288103   0.056074304253403914
0.6785104507940396   0.07423535005636131   -0.03464685017988471
0.6785104507940396   0.07423535005636131   -0.03464685017988471
0.6785104507940396   0.07423535005636131   -0.03464685017988471
0.6785104507940396   0.07423535005636131   -0.03464685017988471
-0.049507918288402224   -0.021068765839330567   0.003855092747754198
-0.049507918288402224   -0.021068765839330567   0.003855092747754198
-0.049507918288402224   -0.021068765839330567   0.003855092747754198
-0.049507918288402224   -0.021068765839330567   0.003855092747754198
0.30602134798101666   0.003039496046358947   0.01084896342590145
0.30602134798101666   0.003039496046358947   0.01084896342590145
0.30602134798101666   0.003039496046358947   0.01084896342590145
0.30602134798101666   0.003039496046358947   0.01084896342590145
-0.07380207887228535   -0.08086223420260312   -0.05782224180838955
-0.07380207887228535   -0.08086223420260312   -0.05782224180838955
-0.07380207887228535   -0.08086223420260312   -0.05782224180838955
-0.07380207887228535   -0.08086223420260312   -0.05782224180838955
0.7080616046644141   0.13928581170612644   0.04805845752222281
0.7080616046644141   0.13928581170612644   0.04805845752222281
0.7080616046644141   0.13928581170612644   0.04805845752222281
0.7080616046644141   0.13928581170612644   0.04805845752222281
0.6851316628482116   0.1348228695820788   -0.03615386502658185
0.6851316628482116   0.1348228695820788   -0.03615386502658185
0.6851316628482116   0.1348228695820788   -0.03615386502658185
0.6851316628482116   0.1348228695820788   -0.03615386502658185
-0.04959828112415862   0.02912317631180293   -0.005711262031643325
-0.04959828112415862   0.02912317631180293   -0.005711262031643325
-0.04959828112415862   0.02912317631180293   -0.005711262031643325
-0.04959828112415862   0.02912317631180293   -0.005711262031643325
0.31656107457009897   0.05148533514801989   0.032108664479733776
0.31656107457009897   0.05148533514801989   0.032108664479733776
0.31656107457009897   0.05148533514801989   0.032108664479733776
0.31656107457009897   0.05148533514801989   0.032108664479733776
0.6184791309312578   -0.173454602295701   -0.07439202147746571
0.6184791309312578   -0.173454602295701   -0.07439202147746571
0.6184791309312578   -0.173454602295701   -0.07439202147746571
0.6184791309312578   -0.173454602295701   -0.07439202147746571
1.3593987946100994   0.10099349300599689   0.06959994670399577
1.3593987946100994   0.10099349300599689   0.06959994670399577
1.3593987946100994   0.10099349300599689   0.06959994670399577
1.3593987946100994   0.10099349300599689   0.06959994670399577
1.348790913088212   -0.006182399723782539   -0.09901744424403612
1.348790913088212   -0.006182399723782539   -0.09901744424403612
1.348790913088212   -0.006182399723782539   -0.09901744424403612
1.348790913088212   -0.006182399723782539   -0.09901744424403612
0.673921255341182   -0.014566674924222478   0.04669743735653257
0.673921255341182   -0.014566674924222478   0.04669743735653257
0.673921255341182   -0.014566674924222478   0.04669743735653257
0.673921255341182   -0.014566674924222478   0.04669743735653257
0.9516021176329031   -0.033784109425299746   -0.031182130231962868
0.9516021176329031   -0.033784109425299746   -0.031182130231962868
0.9516021176329031   -0.033784109425299746   -0.031182130231962868
0.9516021176329031   -0.033784109425299746   -0.031182130231962868
0.6190686965489706   -0.1506248004071451   -0.09150723112159982
0.6190686965489706   -0.1506248004071451   -0.09150723112159982
0.6190686965489706   -0.1506248004071451   -0.09150723112159982
0.6190686965489706   -0.1506248004071451   -0.09150723112159982
1.4075856346995033   0.1338178885782165   0.054955875510421255
1.4075856346995033   0.1338178885782165   0.054955875510421255
1.4075856346995033   0.1338178885782165   0.054955875510421255
1.4075856346995033   0.1338178885782165   0.054955875510421255
1.3817665117489675   0.021370329709131386   -0.13278388716084244
1.3817665117489675   0.021370329709131386   -0.13278388716084244
1.3817665117489675   0.021370329709131386   -0.13278388716084244
1.3817665117489675   0.021370329709131386   -0.13278388716084244
0.6788383784588866   0.006450085742946976   0.03477805245777572
0.6788383784588866   0.006450085742946976   0.03477805245777572
0.6788383784588866   0.006450085742946976   0.03477805245777572
0.6788383784588866   0.006450085742946976   0.03477805245777572
0.9945819675516291   -0.004007084072576661   -0.009534862103325208
0.9945819675516291   -0.004007084072576661   -0.009534862103325208
0.9945819675516291   -0.004007084072576661   -0.009534862103325208
0.9945819675516291   -0.004007084072576661   -0.009534862103325208
0.6260555657093995   -0.1231268893132976   -0.09955903623341956
0.6260555657093995   -0.1231268893132976   -0.09955903623341956
0.6260555657093995   -0.1231268893132976   -0.09955903623341956
0.6260555657093995   -0.1231268893132976   -0.09955903623341956
1.4432555290168838   0.15965350928380637   0.03637801960407546
1.4432555290168838   0.15965350928380637   0.03637801960407546
1.4432555290168838   0.15965350928380637   0.03637801960407546
1.4432555290168838   0.15965350928380637   0.03637801960407546
1.4341324180385187   0.09306488124730167   -0.1248684652899958
1.4341324180385187   0.09306488124730167   -0.1248684652899958
1.4341324180385187   0.09306488124730167   -0.1248684652899958
1.4341324180385187   0.09306488124730167   -0.1248684652899958
0.6810580811507825   0.05291708799174498   0.025384008076620185
0.6810580811507825   0.05291708799174498   0.025384008076620185
0.6810580811507825   0.05291708799174498   0.025384008076620185
0.6810580811507825   0.05291708799174498   0.025384008076620185
1.0018475190090883   0.030058063117344908   0.014402445759325894
1.0018475190090883   0.030058063117344908   0.014402445759325894
1.0018475190090883   0.030058063117344908   0.014402445759325894
1.0018475190090883   0.030058063117344908   0.014402445759325894
-1.5821227805222347   -0.05179824337133887   0.10306984678816508
-1.5821227805222347   -0.05179824337133887   0.10306984678816508
-1.5821227805222347   -0.05179824337133887   0.10306984678816508
-1.5821227805222347   -0.05179824337133887   0.10306984678816508
-1.1065305364277644   -0.07380435580868061   -0.03895439561449596
-1.1065305364277644   -0.07380435580868061   -0.03895439561449596
-1.1065305364277644   -0.07380435580868061   -0.03895439561449596
-1.1065305364277644   -0.07380435580868061   -0.03895439561449596
-1.0415761028898793   0.10440868172698842   0.08790222819968098
-1.0415761028898793   0.10440868172698842   0.08790222819968098
-1.0415761028898793   0.10440868172698842   0.08790222819968098
-1.0415761028898793   0.10440868172698842   0.08790222819968098
-1.5822509050314284   -0.13021441885294682   -0.056975505352338474
-1.5822509050314284   -0.13021441885294682   -0.056975505352338474
-1.5822509050314284   -0.13021441885294682   -0.056975505352338474
-1.5822509050314284   -0.13021441885294682   -0.056975505352338474
-1.2736865304599077   -0.020324377553527784   -0.0027190866563951144
-1.2736865304599077   -0.020324377553527784   -0.0027190866563951144
-1.2736865304599077   -0.020324377553527784   -0.0027190866563951144
-1.2736865304599077   -0.020324377553527784   -0.0027190866563951144
-1.5231771776625593   0.010119803050273435   0.0980589095887859
-1.5231771776625593   0.010119803050273435   0.0980589095887859
-1.5231771776625593   0.010119803050273435   0.0980589095887859
-1.5231771776625593   0.010119803050273435   0.0980589095887859
-1.0958457173066285   -0.03112142722410971   -0.04791573493295315
-1.0958457173066285   -0.03112142722410971   -0.04791573493295315
-1.0958457173066285   -0.03112142722410971   -0.04791573493295315
-1.0958457173066285   -0.03112142722410971   -0.04791573493295315
-1.0317708417248532   0.1261060663799477   0.07429504310753683
-1.0317708417248532   0.1261060663799477   0.07429504310753683
-1.0317708417248532   0.1261060663799477   0.07429504310753683
-1.0317708417248532   0.1261060663799477   0.07429504310753683
-1.5448608090931357   -0.10603111753411304   -0.07204033484943902
-1.5448608090931357   -0.10603111753411304   -0.07204033484943902
-1.5448608090931357   -0.10603111753411304   -0.07204033484943902
-1.5448608090931357   -0.10603111753411304   -0.07204033484943902
-1.2648255971387046   0.008299628938523818   0.013425304620077086
-1.2648255971387046   0.008299628938523818   0.013425304620077086
-1.2648255971387046   0.008299628938523818   0.013425304620077086
-1.2648255971387046   0.008299628938523818   0.013425304620077086
-1.4862852399660869   0.03608788063377677   0.0787185126179157
-1.4862852399660869   0.03608788063377677   0.0787185126179157
-1.4862852399660869   0.03608788063377677   0.0787185126179157
-1.4862852399660869   0.03608788063377677   0.0787185126179157
-1.0860013636135721   -0.011667884549605795   -0.05908361540649663
-1.0860013636135721   -0.011667884549605795   -0.05908361540649663
-1.0860013636135721   -0.011667884549605795   -0.05908361540649663
-1.0860013636135721   -0.011667884549605795   -0.05908361540649663
-1.0263396659489281   0.1472018304714051   0.0639327259810467
-1.0263396659489281   0.1472018304714051   0.0639327259810467
-1.0263396659489281   0.1472018304714051   0.0639327259810467
-1.0263396659489281   0.1472018304714051   0.0639327259810467
-1.4947651018435681   -0.07407343845086906   -0.08626122880415078
-1.4947651018435681   -0.07407343845086906   -0.08626122880415078
-1.4947651018435681   -0.07407343845086906   -0.08626122880415078
-1.4947651018435681   -0.07407343845086906   -0.08626122880415078
-1.2173932521541062   0.03510436914342574   0.036093806686970376
-1.2173932521541062   0.03510436914342574   0.036093806686970376
-1.2173932521541062   0.03510436914342574   0.036093806686970376
-1.2173932521541062   0.03510436914342574   0.036093806686970376
-1.0941489667441195   -0.08946401840699988   0.03861311540203528
-1.0941489667441195   -0.08946401840699988   0.03861311540203528
-1.0941489667441195   -0.08946401840699988   0.03861311540203528
-1.0941489667441195   -0.08946401840699988   0.03861311540203528
-0.6340677211957909   -0.04782669000904856   -0.006285489021862944
-0.6340677211957909   -0.04782669000904856   -0.006285489021862944
-0.6340677211957909   -0.04782669000904856   -0.006285489021862944
-0.6340677211957909   -0.04782669000904856   -0.006285489021862944
-0.6018599417006921   0.06103131564549566   0.04739633026417881
-0.6018599417006921   0.06103131564549566   0.04739633026417881
-0.6018599417006921   0.06103131564549566   0.04739633026417881
-0.6018599417006921   0.06103131564549566   0.04739633026417881
-1.1105846058411577   -0.10643938874523512   -0.04629221608448631
-1.1105846058411577   -0.10643938874523512   -0.04629221608448631
-1.1105846058411577   -0.10643938874523512   -0.04629221608448631
-1.1105846058411577   -0.10643938874523512   -0.04629221608448631
-0.8566933309231773   -0.04180106121124788   -0.01745330507300351
-0.8566933309231773   -0.04180106121124788   -0.01745330507300351
-0.8566933309231773   -0.04180106121124788   -0.01745330507300351
-0.8566933309231773   -0.04180106121124788   -0.01745330507300351
-1.081333639830981   -0.038031704157635904   0.03155492937879453
-1.081333639830981   -0.038031704157635904   0.03155492937879453
-1.081333639830981   -0.038031704157635904   0.03155492937879453
-1.081333639830981   -0.038031704157635904   0.03155492937879453
-0.6273595386292146   -0.003624999860447342   -0.015445338872490465
-0.6273595386292146   -0.003624999860447342   -0.015445338872490465
-0.6273595386292146   -0.003624999860447342   -0.015445338872490465
-0.6273595386292146   -0.003624999860447342   -0.015445338872490465
-0.5942033722737058   0.10551789779096557   0.03886524077704267
-0.5942033722737058   0.10551789779096557   0.03886524077704267
-0.5942033722737058   0.10551789779096557   0.03886524077704267
-0.5942033722737058   0.10551789779096557   0.03886524077704267
-1.095647795258996   -0.06444316092052066   -0.05454049726270886
-1.095647795258996   -0.06444316092052066   -0.05454049726270886
-1.095647795258996   -0.06444316092052066   -0.05454049726270886
-1.095647795258996   -0.06444316092052066   -0.05454049726270886
-0.8402456508177691   0.001941210292557255   0.0013371495958135124
-0.8402456508177691   0.001941210292557255   0.0013371495958135124
-0.8402456508177691   0.001941210292557255   0.0013371495958135124
-0.8402456508177691   0.001941210292557255   0.0013371495958135124
-1.0641828992562643   0.00951425717094273   0.028826564659487013
-1.0641828992562643   0.00951425717094273   0.028826564659487013
-1.0641828992562643   0.00951425717094273   0.028826564659487013
-1.0641828992562643   0.00951425717094273   0.028826564659487013
-0.6210096620088207   0.03621908596711479   -0.025867396074676245
-0.6210096620088207   0.03621908596711479   -0.025867396074676245
-0.6210096620088207   0.03621908596711479   -0.025867396074676245
-0.6210096620088207   0.03621908596711479   -0.025867396074676245
-0.5868061903109728   0.1529077159157253   0.030920785110971225
-0.5868061903109728   0.1529077159157253   0.030920785110971225
-0.5868061903109728   0.1529077159157253   0.030920785110971225
-0.5868061903109728   0.1529077159157253   0.030920785110971225
-1.0844628082402608   -0.019199022985245423   -0.060282132018962285
-1.0844628082402608   -0.019199022985245423   -0.060282132018962285
-1.0844628082402608   -0.019199022985245423   -0.060282132018962285
-1.0844628082402608   -0.019199022985245423   -0.060282132018962285
-0.8338800678299126   0.04308471611765122   0.019224458640119152
-0.8338800678299126   0.04308471611765122   0.019224458640119152
-0.8338800678299126   0.04308471611765122   0.019224458640119152
-0.8338800678299126   0.04308471611765122   0.019224458640119152
-0.6474856840540181   -0.12272242665538916   0.0015204333333366713
-0.6474856840540181   -0.12272242665538916   0.0015204333333366713
-0.6474856840540181   -0.12272242665538916   0.0015204333333366713
-0.6474856840540181   -0.12272242665538916   0.0015204333333366713
-0.1665181860925016   -0.014233556360481228   0.026407867166986343
-0.1665181860925016   -0.014233556360481228   0.026407867166986343
-0.1665181860925016   -0.014233556360481228   0.026407867166986343
-0.1665181860925016   -0.014233556360481228   0.026407867166986343
-0.16241332127676233   0.025275219009955135   0.009005615009117082
-0.16241332127676233   0.025275219009955135   0.009005615009117082
-0.16241332127676233   0.025275219009955135   0.009005615009117082
-0.16241332127676233   0.025275219009955135   0.009005615009117082
-0.6403816819832256   -0.0718317602712152   -0.012349295231783994
-0.6403816819832256   -0.0718317602712152   -0.012349295231783994
-0.6403816819832256   -0.0718317602712152   -0.012349295231783994
-0.6403816819832256   -0.0718317602712152   -0.012349295231783994
-0.40488697600459045   -0.0439205239475674   -0.012399645406298104
-0.40488697600459045   -0.0439205239475674   -0.012399645406298104
-0.40488697600459045   -0.0439205239475674   -0.012399645406298104
-0.40488697600459045   -0.0439205239475674   -0.012399645406298104
-0.6393396632203968   -0.07308780393197178   -0.005883157756883016
-0.6393396632203968   -0.07308780393197178   -0.005883157756883016
-0.6393396632203968   -0.07308780393197178   -0.005883157756883016
-0.6393396632203968   -0.07308780393197178   -0.005883157756883016
-0.1596945939313345   0.030292008778968427   0.01758246196724288
-0.1596945939313345   0.030292008778968427   0.01758246196724288
-0.1596945939313345   0.030292008778968427   0.01758246196724288
-0.1596945939313345   0.030292008778968427   0.01758246196724288
-0.15316876173177263   0.07513351328479576   0.002363379883904615
-0.15316876173177263   0.07513351328479576   0.002363379883904615
-0.15316876173177263   0.07513351328479576   0.002363379883904615
-0.15316876173177263   0.07513351328479576   0.002363379883904615
-0.6327179393325751   -0.02699806473772172   -0.021191631988617458
-0.6327179393325751   -0.02699806473772172   -0.021191631988617458
-0.6327179393325751   -0.02699806473772172   -0.021191631988617458
-0.6327179393325751   -0.02699806473772172   -0.021191631988617458
-0.3950135880496598   0.0008910874486777465   0.005306697458799112
-0.3950135880496598   0.0008910874486777465   0.005306697458799112
-0.3950135880496598   0.0008910874486777465   0.005306697458799112
-0.3950135880496598   0.0008910874486777465   0.005306697458799112
-0.6303680361957887   -0.02338921149439145   -0.013050969548015306
-0.6303680361957887   -0.02338921149439145   -0.013050969548015306
-0.6303680361957887   -0.02338921149439145   -0.013050969548015306
-0.6303680361957887   -0.02338921149439145   -0.013050969548015306
-0.1520464437117376   0.07499688119828726   0.008111602070589783
-0.1520464437117376   0.07499688119828726   0.008111602070589783
-0.1520464437117376   0.07499688119828726   0.008111602070589783
-0.1520464437117376   0.07499688119828726   0.008111602070589783
-0.1448780000055397   0.12571488199808445   -0.005448864670664008
-0.1448780000055397   0.12571488199808445   -0.005448864670664008
-0.1448780000055397   0.12571488199808445   -0.005448864670664008
-0.1448780000055397   0.12571488199808445   -0.005448864670664008
-0.6259876611845686   0.018356633134969935   -0.030435486476254804
-0.6259876611845686   0.018356633134969935   -0.030435486476254804
-0.6259876611845686   0.018356633134969935   -0.030435486476254804
-0.6259876611845686   0.018356633134969935   -0.030435486476254804
-0.3859985970792629   0.04591738820814191   0.022364953887050676
-0.3859985970792629   0.04591738820814191   0.022364953887050676
-0.3859985970792629   0.04591738820814191   0.022364953887050676
-0.3859985970792629   0.04591738820814191   0.022364953887050676
-0.20589923284868278   -0.14998692655595333   -0.034743996418448705
-0.20589923284868278   -0.14998692655595333   -0.034743996418448705
-0.20589923284868278   -0.14998692655595333   -0.034743996418448705
-0.20589923284868278   -0.14998692655595333   -0.034743996418448705
0.29493002538362645   0.023444795735742284   0.05727130820815556
0.29493002538362645   0.023444795735742284   0.05727130820815556
0.29493002538362645   0.023444795735742284   0.05727130820815556
0.29493002538362645   0.023444795735742284   0.05727130820815556
0.2744711803508274   -0.00799026924299967   -0.03187729650529377
0.2744711803508274   -0.00799026924299967   -0.03187729650529377
0.2744711803508274   -0.00799026924299967   -0.03187729650529377
0.2744711803508274   -0.00799026924299967   -0.03187729650529377
-0.1720022871787338   -0.03485146142718512   0.02118746593639989
-0.1720022871787338   -0.03485146142718512   0.02118746593639989
-0.1720022871787338   -0.03485146142718512   0.02118746593639989
-0.1720022871787338   -0.03485146142718512   0.02118746593639989
0.0460076425425754   -0.04117221727810789   -0.00882261668278796
0.0460076425425754   -0.04117221727810789   -0.00882261668278796
0.0460076425425754   -0.04117221727810789   -0.00882261668278796
0.0460076425425754   -0.04117221727810789   -0.00882261668278796
-0.19878238021142042   -0.10481534515436176   -0.04274911549985644
-0.19878238021142042   -0.10481534515436176   -0.04274911549985644
-0.19878238021142042   -0.10481534515436176   -0.04274911549985644
-0.19878238021142042   -0.10481534515436176   -0.04274911549985644
0.30572728952788597   0.06644963062855333   0.04996334950844174
0.30572728952788597   0.06644963062855333   0.04996334950844174
0.30572728952788597   0.06644963062855333   0.04996334950844174
0.30572728952788597   0.06644963062855333   0.04996334950844174
0.29166302512612075   0.03917187210682272   -0.036112660936002315
0.29166302512612075   0.03917187210682272   -0.036112660936002315
0.29166302512612075   0.03917187210682272   -0.036112660936002315
0.29166302512612075   0.03917187210682272   -0.036112660936002315
-0.1653303258500805   0.005243465624552156   0.011445606952610429
-0.1653303258500805   0.005243465624552156   0.011445606952610429
-0.1653303258500805   0.005243465624552156   0.011445606952610429
-0.1653303258500805   0.005243465624552156   0.011445606952610429
0.05514692715935514   -0.000549663715808734   0.009186580012892579
0.05514692715935514   -0.000549663715808734   0.009186580012892579
0.05514692715935514   -0.000549663715808734   0.009186580012892579
0.05514692715935514   -0.000549663715808734   0.009186580012892579
-0.1911741675728957   -0.06056588454430247   -0.05196425149261182
-0.1911741675728957   -0.06056588454430247   -0.05196425149261182
-0.1911741675728957   -0.06056588454430247   -0.05196425149261182
-0.1911741675728957   -0.06056588454430247   -0.05196425149261182
0.32138834991315324   0.108862705339899   0.04282312976608024
0.32138834991315324   0.108862705339899   0.04282312976608024
0.32138834991315324   0.108862705339899   0.04282312976608024
0.32138834991315324   0.108862705339899   0.04282312976608024
0.3055035168545387   0.0929413789975819   -0.04172204658146121
0.3055035168545387   0.0929413789975819   -0.04172204658146121
0.3055035168545387   0.0929413789975819   -0.04172204658146121
0.3055035168545387   0.0929413789975819   -0.04172204658146121
-0.1581988067826107   0.051483525187755196   0.002178458254308749
-0.1581988067826107   0.051483525187755196   0.002178458254308749
-0.1581988067826107   0.051483525187755196   0.002178458254308749
-0.1581988067826107   0.051483525187755196   0.002178458254308749
0.06928291762506375   0.04366189718306235   0.02784275980139478
0.06928291762506375   0.04366189718306235   0.02784275980139478
0.06928291762506375   0.04366189718306235   0.02784275980139478
0.06928291762506375   0.04366189718306235   0.02784275980139478
0.23476874566547318   -0.15155880421091728   -0.06853149043594892
0.23476874566547318   -0.15155880421091728   -0.06853149043594892
0.23476874566547318   -0.15155880421091728   -0.06853149043594892
0.23476874566547318   -0.15155880421091728   -0.06853149043594892
0.7053801767379172   0.0694910672826289   0.07411260872591215
0.7053801767379172   0.0694910672826289   0.07411260872591215
0.7053801767379172   0.0694910672826289   0.07411260872591215
0.7053801767379172   0.0694910672826289   0.07411260872591215
0.6983864596097402   -0.03705558887632876   -0.09021233667254192
0.6983864596097402   -0.03705558887632876   -0.09021233667254192
0.6983864596097402   -0.03705558887632876   -0.09021233667254192
0.6983864596097402   -0.03705558887632876   -0.09021233667254192
0.2960032497176823   0.012496489298467237   0.055296291787511734
0.2960032497176823   0.012496489298467237   0.055296291787511734
0.2960032497176823   0.012496489298467237   0.055296291787511734
0.2960032497176823   0.012496489298467237   0.055296291787511734
0.4584306167731149   -0.031288538678986205   -0.02416430475606684
0.4584306167731149   -0.031288538678986205   -0.02416430475606684
0.4584306167731149   -0.031288538678986205   -0.02416430475606684
0.4584306167731149   -0.031288538678986205   -0.02416430475606684
0.2413357555987747   -0.1262768335381016   -0.07926785597045563
0.2413357555987747   -0.1262768335381016   -0.07926785597045563
0.2413357555987747   -0.1262768335381016   -0.07926785597045563
0.2413357555987747   -0.1262768335381016   -0.07926785597045563
0.757617596274703   0.10628137650630066   0.06260638126965816
0.757617596274703   0.10628137650630066   0.06260638126965816
0.757617596274703   0.10628137650630066   0.06260638126965816
0.757617596274703   0.10628137650630066   0.06260638126965816
0.7363862446327563   -0.010630695372446403   -0.10817371929306074
0.7363862446327563   -0.010630695372446403   -0.10817371929306074
0.7363862446327563   -0.010630695372446403   -0.10817371929306074
0.7363862446327563   -0.010630695372446403   -0.10817371929306074
0.3060428762216607   0.03185160493919208   0.043106861709324436
0.3060428762216607   0.03185160493919208   0.043106861709324436
0.3060428762216607   0.03185160493919208   0.043106861709324436
0.3060428762216607   0.03185160493919208   0.043106861709324436
0.49685617939894744   -0.0046536916180563714   -0.0029376662358103663
0.49685617939894744   -0.0046536916180563714   -0.0029376662358103663
0.49685617939894744   -0.0046536916180563714   -0.0029376662358103663
0.49685617939894744   -0.0046536916180563714   -0.0029376662358103663
0.25181125149321076   -0.10429240128374162   -0.0919072557099915
0.25181125149321076   -0.10429240128374162   -0.0919072557099915
0.25181125149321076   -0.10429240128374162   -0.0919072557099915
0.25181125149321076   -0.10429240128374162   -0.0919072557099915
0.795371516999862   0.13026695848914513   0.04585498868088828
0.795371516999862   0.13026695848914513   0.04585498868088828
0.795371516999862   0.13026695848914513   0.04585498868088828
0.795371516999862   0.13026695848914513   0.04585498868088828
0.7947126257207823   0.0474155653208745   -0.11577814984773195
0.7947126257207823   0.0474155653208745   -0.11577814984773195
0.7947126257207823   0.0474155653208745   -0.11577814984773195
0.7947126257207823   0.0474155653208745   -0.11577814984773195
0.316318574749828   0.07104832352260804   0.034246298369957
0.316318574749828   0.07104832352260804   0.034246298369957
0.316318574749828   0.07104832352260804   0.034246298369957
0.316318574749828   0.07104832352260804   0.034246298369957
0.5159565667581646   0.02471910954883079   0.015313537218996039
0.5159565667581646   0.02471910954883079   0.015313537218996039
0.5159565667581646   0.02471910954883079   0.015313537218996039
0.5159565667581646   0.02471910954883079   0.015313537218996039
-0.9491963121714517   -0.01605309628798296   0.09246767773264887
-0.9491963121714517   -0.01605309628798296   0.09246767773264887
-0.9491963121714517   -0.01605309628798296   0.09246767773264887
-0.9491963121714517   -0.01605309628798296   0.09246767773264887
-0.7397831633556367   -0.09379636683167543   -0.04579457064264278
-0.7397831633556367   -0.09379636683167543   -0.04579457064264278
-0.7397831633556367   -0.09379636683167543   -0.04579457064264278
-0.7397831633556367   -0.09379636683167543   -0.04579457064264278
-0.6696590766725798   0.07951583478015292   0.07908393445431147
-0.6696590766725798   0.07951583478015292   0.07908393445431147
-0.6696590766725798   0.07951583478015292   0.07908393445431147
-0.6696590766725798   0.07951583478015292   0.07908393445431147
-0.9451570233071639   -0.10293475109208591   -0.06231277116668367
-0.9451570233071639   -0.10293475109208591   -0.06231277116668367
-0.9451570233071639   -0.10293475109208591   -0.06231277116668367
-0.9451570233071639   -0.10293475109208591   -0.06231277116668367
-0.7943090324024795   -0.021893154374981405   -0.01159643793189813
-0.7943090324024795   -0.021893154374981405   -0.01159643793189813
-0.7943090324024795   -0.021893154374981405   -0.01159643793189813
-0.7943090324024795   -0.021893154374981405   -0.01159643793189813
-0.8868503227005063   0.03793166236550752   0.08835431840901098
-0.8868503227005063   0.03793166236550752   0.08835431840901098
-0.8868503227005063   0.03793166236550752   0.08835431840901098
-0.8868503227005063   0.03793166236550752   0.08835431840901098
-0.7239203336630204   -0.05730513506121708   -0.055401380656513635
-0.7239203336630204   -0.05730513506121708   -0.055401380656513635
-0.7239203336630204   -0.05730513506121708   -0.055401380656513635
-0.7239203336630204   -0.05730513506121708   -0.055401380656513635
-0.6530125489704952   0.10012670655846115   0.0669005254907915
-0.6530125489704952   0.10012670655846115   0.0669005254907915
-0.6530125489704952   0.10012670655846115   0.0669005254907915
-0.6530125489704952   0.10012670655846115   0.0669005254907915
-0.9018086776471063   -0.07958032773760049   -0.0778713363857904
-0.9018086776471063   -0.07958032773760049   -0.0778713363857904
-0.9018086776471063   -0.07958032773760049   -0.0778713363857904
-0.9018086776471063   -0.07958032773760049   -0.0778713363857904
-0.7716495279190257   0.005092636806921819   0.005614419710365547
-0.7716495279190257   0.005092636806921819   0.005614419710365547
-0.7716495279190257   0.005092636806921819   0.005614419710365547
-0.7716495279190257   0.005092636806921819   0.005614419710365547
-0.8434493857723816   0.06294016095831001   0.0714046342919223
-0.8434493857723816   0.06294016095831001   0.0714046342919223
-0.8434493857723816   0.06294016095831001   0.0714046342919223
-0.8434493857723816   0.06294016095831001   0.0714046342919223
-0.7075404517020779   -0.038562392994306166   -0.06704988861434706
-0.7075404517020779   -0.038562392994306166   -0.06704988861434706
-0.7075404517020779   -0.038562392994306166   -0.06704988861434706
-0.7075404517020779   -0.038562392994306166   -0.06704988861434706
-0.6395189228041855   0.12576805526134643   0.057700060717575
-0.6395189228041855   0.12576805526134643   0.057700060717575
-0.6395189228041855   0.12576805526134643   0.057700060717575
-0.6395189228041855   0.12576805526134643   0.057700060717575
-0.8435666310502589   -0.04219641814601105   -0.09012483957521937
-0.8435666310502589   -0.04219641814601105   -0.09012483957521937
-0.8435666310502589   -0.04219641814601105   -0.09012483957521937
-0.8435666310502589   -0.04219641814601105   -0.09012483957521937
-0.7258904860551554   0.03168496013703917   0.026981193206824336
-0.7258904860551554   0.03168496013703917   0.026981193206824336
-0.7258904860551554   0.03168496013703917   0.026981193206824336
-0.7258904860551554   0.03168496013703917   0.026981193206824336
-0.7139176023821732   -0.05382682913613232   0.04356369652913115
-0.7139176023821732   -0.05382682913613232   0.04356369652913115
-0.7139176023821732   -0.05382682913613232   0.04356369652913115
-0.7139176023821732   -0.05382682913613232   0.04356369652913115
-0.52358365050797   -0.07112270649195589   -0.013561893397382181
-0.52358365050797   -0.07112270649195589   -0.013561893397382181
-0.52358365050797   -0.07112270649195589   -0.013561893397382181
-0.52358365050797   -0.07112270649195589   -0.013561893397382181
-0.48445868320798513   0.03612976074353967   0.040427608726215085
-0.48445868320798513   0.03612976074353967   0.040427608726215085
-0.48445868320798513   0.03612976074353967   0.040427608726215085
-0.48445868320798513   0.03612976074353967   0.040427608726215085
-0.7244124701197847   -0.07600503281034279   -0.03916216519120511
-0.7244124701197847   -0.07600503281034279   -0.03916216519120511
-0.7244124701197847   -0.07600503281034279   -0.03916216519120511
-0.7244124701197847   -0.07600503281034279   -0.03916216519120511
-0.6098905531854757   -0.03796715297344283   -0.016394417877585006
-0.6098905531854757   -0.03796715297344283   -0.016394417877585006
-0.6098905531854757   -0.03796715297344283   -0.016394417877585006
-0.6098905531854757   -0.03796715297344283   -0.016394417877585006
-0.6953062367957796   -0.006710398329646705   0.03707436694810843
-0.6953062367957796   -0.006710398329646705   0.03707436694810843
-0.6953062367957796   -0.006710398329646705   0.03707436694810843
-0.6953062367957796   -0.006710398329646705   0.03707436694810843
-0.5103019090347343   -0.02990186623991331   -0.022756893424077555
-0.5103019090347343   -0.02990186623991331   -0.022756893424077555
-0.5103019090347343   -0.02990186623991331   -0.022756893424077555
-0.5103019090347343   -0.02990186623991331   -0.022756893424077555
-0.4701006263293186   0.07804235523944385   0.032339914607466956
-0.4701006263293186   0.07804235523944385   0.032339914607466956
-0.4701006263293186   0.07804235523944385   0.032339914607466956
-0.4701006263293186   0.07804235523944385   0.032339914607466956
-0.7029324085772067   -0.03569108113098457   -0.04688098485330517
-0.7029324085772067   -0.03569108113098457   -0.04688098485330517
-0.7029324085772067   -0.03569108113098457   -0.04688098485330517
-0.7029324085772067   -0.03569108113098457   -0.04688098485330517
-0.5891457281781374   0.002462935546582168   0.0017139783229486033
-0.5891457281781374   0.002462935546582168   0.0017139783229486033
-0.5891457281781374   0.002462935546582168   0.0017139783229486033
-0.5891457281781374   0.002462935546582168   0.0017139783229486033
-0.6721186804753971   0.037891730328069445   0.03360484419667343
-0.6721186804753971   0.037891730328069445   0.03360484419667343
-0.6721186804753971   0.037891730328069445   0.03360484419667343
-0.6721186804753971   0.037891730328069445   0.03360484419667343
-0.49714726814112153   0.008226630070393454   -0.03307756928250034
-0.49714726814112153   0.008226630070393454   -0.03307756928250034
-0.49714726814112153   0.008226630070393454   -0.03307756928250034
-0.49714726814112153   0.008226630070393454   -0.03307756928250034
-0.45578896136172314   0.1235195397567902   0.024636834812678345
-0.45578896136172314   0.1235195397567902   0.024636834812678345
-0.45578896136172314   0.1235195397567902   0.024636834812678345
-0.45578896136172314   0.1235195397567902   0.024636834812678345
-0.6851881785269579   0.00832399395461017   -0.053202156589539015
-0.6851881785269579   0.00832399395461017   -0.053202156589539015
-0.6851881785269579   0.00832399395461017   -0.053202156589539015
-0.6851881785269579   0.00832399395461017   -0.053202156589539015
-0.574138411444259   0.0420774857306013   0.01941910702853232
-0.574138411444259   0.0420774857306013   0.01941910702853232
-0.574138411444259   0.0420774857306013   0.01941910702853232
-0.574138411444259   0.0420774857306013   0.01941910702853232
-0.5229736170768539   -0.08927758544791904   0.007643152714149589
-0.5229736170768539   -0.08927758544791904   0.007643152714149589
-0.5229736170768539   -0.08927758544791904   0.007643152714149589
-0.5229736170768539   -0.08927758544791904   0.007643152714149589
-0.31034341522102427   -0.037445438531995986   0.019229676835349263
-0.31034341522102427   -0.037445438531995986   0.019229676835349263
-0.31034341522102427   -0.037445438531995986   0.019229676835349263
-0.31034341522102427   -0.037445438531995986   0.019229676835349263
-0.29964203275664775   -0.0007166766232208216   0.0024864737816099568
-0.29964203275664775   -0.0007166766232208216   0.0024864737816099568
-0.29964203275664775   -0.0007166766232208216   0.0024864737816099568
-0.29964203275664775   -0.0007166766232208216   0.0024864737816099568
-0.5088278686597569   -0.04075196838312915   -0.004536589405975008
-0.5088278686597569   -0.04075196838312915   -0.004536589405975008
-0.5088278686597569   -0.04075196838312915   -0.004536589405975008
-0.5088278686597569   -0.04075196838312915   -0.004536589405975008
-0.41109847233003566   -0.040083129391039106   -0.011934012635052818
-0.41109847233003566   -0.040083129391039106   -0.011934012635052818
-0.41109847233003566   -0.040083129391039106   -0.011934012635052818
-0.41109847233003566   -0.040083129391039106   -0.011934012635052818
-0.5082262845584756   -0.04282245766370732   0.0005418203810053195
-0.5082262845584756   -0.04282245766370732   0.0005418203810053195
-0.5082262845584756   -0.04282245766370732   0.0005418203810053195
-0.5082262845584756   -0.04282245766370732   0.0005418203810053195
-0.29699906780375585   0.004598361711529858   0.010386260211319002
-0.29699906780375585   0.004598361711529858   0.010386260211319002
-0.29699906780375585   0.004598361711529858   0.010386260211319002
-0.29699906780375585   0.004598361711529858   0.010386260211319002
-0.2840510039507123   0.04615021289363447   -0.00411717921369947
-0.2840510039507123   0.04615021289363447   -0.00411717921369947
-0.2840510039507123   0.04615021289363447   -0.00411717921369947
-0.2840510039507123   0.04615021289363447   -0.00411717921369947
-0.49444419867105716   0.0018911552013120558   -0.013226747063097056
-0.49444419867105716   0.0018911552013120558   -0.013226747063097056
-0.49444419867105716   0.0018911552013120558   -0.013226747063097056
-0.49444419867105716   0.0018911552013120558   -0.013226747063097056
-0.39465546227769754   0.002060591265028819   0.005623521804137353
-0.39465546227769754   0.002060591265028819   0.005623521804137353
-0.39465546227769754   0.002060591265028819   0.005623521804137353
-0.39465546227769754   0.002060591265028819   0.005623521804137353
-0.4927315979262814   0.00390251026139804   -0.006675098399312494
-0.4927315979262814   0.00390251026139804   -0.006675098399312494
-0.4927315979262814   0.00390251026139804   -0.006675098399312494
-0.4927315979262814   0.00390251026139804   -0.006675098399312494
-0.2828296533736915   0.04707280915534405   0.0010669774096973318
-0.2828296533736915   0.04707280915534405   0.0010669774096973318
-0.2828296533736915   0.04707280915534405   0.0010669774096973318
-0.2828296533736915   0.04707280915534405   0.0010669774096973318
-0.269325532946196   0.09344524757781622   -0.011654542500396096
-0.269325532946196   0.09344524757781622   -0.011654542500396096
-0.269325532946196   0.09344524757781622   -0.011654542500396096
-0.269325532946196   0.09344524757781622   -0.011654542500396096
-0.48094963404341184   0.04486364969838702   -0.02251063853735969
-0.48094963404341184   0.04486364969838702   -0.02251063853735969
-0.48094963404341184   0.04486364969838702   -0.02251063853735969
-0.48094963404341184   0.04486364969838702   -0.02251063853735969
-0.3790993772752772   0.044355430525550216   0.02247481903595755
-0.3790993772752772   0.044355430525550216   0.02247481903595755
-0.3790993772752772   0.044355430525550216   0.02247481903595755
-0.3790993772752772   0.044355430525550216   0.02247481903595755
-0.3364550852366129   -0.12003442532071315   -0.0287396864538823
-0.3364550852366129   -0.12003442532071315   -0.0287396864538823
-0.3364550852366129   -0.12003442532071315   -0.0287396864538823
-0.3364550852366129   -0.12003442532071315   -0.0287396864538823
-0.10298802790198701   -0.001685833072904333   0.05042718262060827
-0.10298802790198701   -0.001685833072904333   0.05042718262060827
-0.10298802790198701   -0.001685833072904333   0.05042718262060827
-0.10298802790198701   -0.001685833072904333   0.05042718262060827
-0.1172253161367485   -0.03552427526528695   -0.03695357429612526
-0.1172253161367485   -0.03552427526528695   -0.03695357429612526
-0.1172253161367485   -0.03552427526528695   -0.03695357429612526
-0.1172253161367485   -0.03552427526528695   -0.03695357429612526
-0.29514503324312147   -0.004586371842759035   0.028841166568777214
-0.29514503324312147   -0.004586371842759035   0.028841166568777214
-0.29514503324312147   -0.004586371842759035   0.028841166568777214
-0.29514503324312147   -0.004586371842759035   0.028841166568777214
-0.21292740441076466   -0.03869072593265616   -0.008611028743864619
-0.21292740441076466   -0.03869072593265616   -0.008611028743864619
-0.21292740441076466   -0.03869072593265616   -0.008611028743864619
-0.21292740441076466   -0.03869072593265616   -0.008611028743864619
-0.32255819081508175   -0.07646861164040479   -0.03634238149338121
-0.32255819081508175   -0.07646861164040479   -0.03634238149338121
-0.32255819081508175   -0.07646861164040479   -0.03634238149338121
-0.32255819081508175   -0.07646861164040479   -0.03634238149338121
-0.0861760059732416   0.0399941171239104   0.04277458413221384
-0.0861760059732416   0.0399941171239104   0.04277458413221384
-0.0861760059732416   0.0399941171239104   0.04277458413221384
-0.0861760059732416   0.0399941171239104   0.04277458413221384
-0.09444766085319077   0.008811004056997022   -0.04159936588208563
-0.09444766085319077   0.008811004056997022   -0.04159936588208563
-0.09444766085319077   0.008811004056997022   -0.04159936588208563
-0.09444766085319077   0.008811004056997022   -0.04159936588208563
-0.281870158294055   0.0337040768268909   0.019233185136330617
-0.281870158294055   0.0337040768268909   0.019233185136330617
-0.281870158294055   0.0337040768268909   0.019233185136330617
-0.281870158294055   0.0337040768268909   0.019233185136330617
-0.19544531664229198   0.000552852630321489   0.009279179187205961
-0.19544531664229198   0.000552852630321489   0.009279179187205961
-0.19544531664229198   0.000552852630321489   0.009279179187205961
-0.19544531664229198   0.000552852630321489   0.009279179187205961
-0.30841347743596165   -0.03468179402700262   -0.045097539719313
-0.30841347743596165   -0.03468179402700262   -0.045097539719313
-0.30841347743596165   -0.03468179402700262   -0.045097539719313
-0.30841347743596165   -0.03468179402700262   -0.045097539719313
-0.06451972237425545   0.08058149424791858   0.03626983632166947
-0.06451972237425545   0.08058149424791858   0.03626983632166947
-0.06451972237425545   0.08058149424791858   0.03626983632166947
-0.06451972237425545   0.08058149424791858   0.03626983632166947
-0.0751787321713887   0.058332586370183764   -0.046596310444770424
-0.0751787321713887   0.058332586370183764   -0.046596310444770424
-0.0751787321713887   0.058332586370183764   -0.046596310444770424
-0.0751787321713887   0.058332586370183764   -0.046596310444770424
-0.26828051491867544   0.07704462662115866   0.009971168593864238
-0.26828051491867544   0.07704462662115866   0.009971168593864238
-0.26828051491867544   0.07704462662115866   0.009971168593864238
-0.26828051491867544   0.07704462662115866   0.009971168593864238
-0.1773385366412229   0.041478374871067175   0.027177954442218218
-0.1773385366412229   0.041478374871067175   0.027177954442218218
-0.1773385366412229   0.041478374871067175   0.027177954442218218
-0.1773385366412229   0.041478374871067175   0.027177954442218218
-0.1510434269644342   -0.1291027536299425   -0.06243289213459352
-0.1510434269644342   -0.1291027536299425   -0.06243289213459352
-0.1510434269644342   -0.1291027536299425   -0.06243289213459352
-0.1510434269644342   -0.1291027536299425   -0.06243289213459352
0.053988296174076335   0.03834289918075739   0.07683557713036658
0.053988296174076335   0.03834289918075739   0.07683557713036658
0.053988296174076335   0.03834289918075739   0.07683557713036658
0.053988296174076335   0.03834289918075739   0.07683557713036658
0.054427736688338446   -0.06340946897188532   -0.08265798653490722
0.054427736688338446   -0.06340946897188532   -0.08265798653490722
0.054427736688338446   -0.06340946897188532   -0.08265798653490722
0.054427736688338446   -0.06340946897188532   -0.08265798653490722
-0.08219204032050166   0.03980415230694587   0.06288437721287614
-0.08219204032050166   0.03980415230694587   0.06288437721287614
-0.08219204032050166   0.03980415230694587   0.06288437721287614
-0.08219204032050166   0.03980415230694587   0.06288437721287614
-0.03297918657438618   -0.027349556637512543   -0.01465429088872736
-0.03297918657438618   -0.027349556637512543   -0.01465429088872736
-0.03297918657438618   -0.027349556637512543   -0.01465429088872736
-0.03297918657438618   -0.027349556637512543   -0.01465429088872736
-0.13698734400646742   -0.09951540465488867   -0.0717725842551181
-0.13698734400646742   -0.09951540465488867   -0.0717725842551181
-0.13698734400646742   -0.09951540465488867   -0.0717725842551181
-0.13698734400646742   -0.09951540465488867   -0.0717725842551181
0.11311131677323262   0.07979836438887764   0.06755208052880067
0.11311131677323262   0.07979836438887764   0.06755208052880067
0.11311131677323262   0.07979836438887764   0.06755208052880067
0.11311131677323262   0.07979836438887764   0.06755208052880067
0.09800386838862046   -0.03801260092817141   -0.0981751597944528
0.09800386838862046   -0.03801260092817141   -0.0981751597944528
0.09800386838862046   -0.03801260092817141   -0.0981751597944528
0.09800386838862046   -0.03801260092817141   -0.0981751597944528
-0.06615846635357106   0.05823195170137072   0.050425658971639246
-0.06615846635357106   0.05823195170137072   0.050425658971639246
-0.06615846635357106   0.05823195170137072   0.050425658971639246
-0.06615846635357106   0.05823195170137072   0.050425658971639246
0.0028875761960785477   -0.0012278009351425504   0.004742310323910728
0.0028875761960785477   -0.0012278009351425504   0.004742310323910728
0.0028875761960785477   -0.0012278009351425504   0.004742310323910728
0.0028875761960785477   -0.0012278009351425504   0.004742310323910728
-0.12021260496784072   -0.0786195667668673   -0.08299351563147103
-0.12021260496784072   -0.0786195667668673   -0.08299351563147103
-0.12021260496784072   -0.0786195667668673   -0.08299351563147103
-0.12021260496784072   -0.0786195667668673   -0.08299351563147103
0.1559484301065596   0.1027293406437361   0.05080570722333541
0.1559484301065596   0.1027293406437361   0.05080570722333541
0.1559484301065596   0.1027293406437361   0.05080570722333541
0.1559484301065596   0.1027293406437361   0.05080570722333541
0.15903588568573393   0.01171814602067142   -0.10512190007563207
0.15903588568573393   0.01171814602067142   -0.10512190007563207
0.15903588568573393   0.01171814602067142   -0.10512190007563207
0.15903588568573393   0.01171814602067142   -0.10512190007563207
-0.051176801130886546   0.09076984117263558   0.04097608995528665
-0.051176801130886546   0.09076984117263558   0.04097608995528665
-0.051176801130886546   0.09076984117263558   0.04097608995528665
-0.051176801130886546   0.09076984117263558   0.04097608995528665
0.03514438475966594   0.026233389822184462   0.023688671774698286
0.03514438475966594   0.026233389822184462   0.023688671774698286
0.03514438475966594   0.026233389822184462   0.023688671774698286
0.03514438475966594   0.026233389822184462   0.023688671774698286
-0.31543980629690915   0.01778619083266199   0.08777486062031686
-0.31543980629690915   0.01778619083266199   0.08777486062031686
-0.31543980629690915   0.01778619083266199   0.08777486062031686
-0.31543980629690915   0.01778619083266199   0.08777486062031686
-0.3738038377403266   -0.11448721554911362   -0.05178619001525295
-0.3738038377403266   -0.11448721554911362   -0.05178619001525295
-0.3738038377403266   -0.11448721554911362   -0.05178619001525295
-0.3738038377403266   -0.11448721554911362   -0.05178619001525295
-0.2984342507908565   0.053249223637341775   0.07188432996411669
-0.2984342507908565   0.053249223637341775   0.07188432996411669
-0.2984342507908565   0.053249223637341775   0.07188432996411669
-0.2984342507908565   0.053249223637341775   0.07188432996411669
-0.30628160960872375   -0.07544897975229418   -0.06670800748497223
-0.30628160960872375   -0.07544897975229418   -0.06670800748497223
-0.30628160960872375   -0.07544897975229418   -0.06670800748497223
-0.30628160960872375   -0.07544897975229418   -0.06670800748497223
-0.31527370923129083   -0.024257286321538278   -0.023954481673233226
-0.31527370923129083   -0.024257286321538278   -0.023954481673233226
-0.31527370923129083   -0.024257286321538278   -0.023954481673233226
-0.31527370923129083   -0.024257286321538278   -0.023954481673233226
-0.248454215597567   0.06522030103906651   0.08175968177945087
-0.248454215597567   0.06522030103906651   0.08175968177945087
-0.248454215597567   0.06522030103906651   0.08175968177945087
-0.248454215597567   0.06522030103906651   0.08175968177945087
-0.3526459272696178   -0.08380433962161835   -0.062120489170729695
-0.3526459272696178   -0.08380433962161835   -0.062120489170729695
-0.3526459272696178   -0.08380433962161835   -0.062120489170729695
-0.3526459272696178   -0.08380433962161835   -0.062120489170729695
-0.27512409992285014   0.07343191010953674   0.0605052751256704
-0.27512409992285014   0.07343191010953674   0.0605052751256704
-0.27512409992285014   0.07343191010953674   0.0605052751256704
-0.27512409992285014   0.07343191010953674   0.0605052751256704
-0.25644033908199754   -0.052639923190916725   -0.08311626917777984
-0.25644033908199754   -0.052639923190916725   -0.08311626917777984
-0.25644033908199754   -0.052639923190916725   -0.08311626917777984
-0.25644033908199754   -0.052639923190916725   -0.08311626917777984
-0.27850225753252994   0.0015373211948201126   -0.004932978271900614
-0.27850225753252994   0.0015373211948201126   -0.004932978271900614
-0.27850225753252994   0.0015373211948201126   -0.004932978271900614
-0.27850225753252994   0.0015373211948201126   -0.004932978271900614
-0.19827026586111818   0.08976704720324089   0.06532712653245916
-0.19827026586111818   0.08976704720324089   0.06532712653245916
-0.19827026586111818   0.08976704720324089   0.06532712653245916
-0.19827026586111818   0.08976704720324089   0.06532712653245916
-0.3298817950016634   -0.06556268214255348   -0.07428860801629773
-0.3298817950016634   -0.06556268214255348   -0.07428860801629773
-0.3298817950016634   -0.06556268214255348   -0.07428860801629773
-0.3298817950016634   -0.06556268214255348   -0.07428860801629773
-0.2537899013423409   0.10423587054365509   0.05225987416519336
-0.2537899013423409   0.10423587054365509   0.05225987416519336
-0.2537899013423409   0.10423587054365509   0.05225987416519336
-0.2537899013423409   0.10423587054365509   0.05225987416519336
-0.18991567184513888   -0.00928087812697382   -0.0936387399672421
-0.18991567184513888   -0.00928087812697382   -0.0936387399672421
-0.18991567184513888   -0.00928087812697382   -0.0936387399672421
-0.18991567184513888   -0.00928087812697382   -0.0936387399672421
-0.23426950077583036   0.02847260854943459   0.01544291120608389
-0.23426950077583036   0.02847260854943459   0.01544291120608389
-0.23426950077583036   0.02847260854943459   0.01544291120608389
-0.23426950077583036   0.02847260854943459   0.01544291120608389
-0.33471358022940917   -0.02066728113226416   0.04984516312248497
-0.33471358022940917   -0.02066728113226416   0.04984516312248497
-0.33471358022940917   -0.02066728113226416   0.04984516312248497
-0.33471358022940917   -0.02066728113226416   0.04984516312248497
-0.41469727418780344   -0.09338076611780886   -0.02023461570529014
-0.41469727418780344   -0.09338076611780886   -0.02023461570529014
-0.41469727418780344   -0.09338076611780886   -0.02023461570529014
-0.41469727418780344   -0.09338076611780886   -0.02023461570529014
-0.3695929220038124   0.009461946428604845   0.03335318288756071
-0.3695929220038124   0.009461946428604845   0.03335318288756071
-0.3695929220038124   0.009461946428604845   0.03335318288756071
-0.3695929220038124   0.009461946428604845   0.03335318288756071
-0.33844165984266045   -0.044239316943053685   -0.03066417471450774
-0.33844165984266045   -0.044239316943053685   -0.03066417471450774
-0.33844165984266045   -0.044239316943053685   -0.03066417471450774
-0.33844165984266045   -0.044239316943053685   -0.03066417471450774
-0.36460797983097776   -0.0343618216447229   -0.016888523821506178
-0.36460797983097776   -0.0343618216447229   -0.016888523821506178
-0.36460797983097776   -0.0343618216447229   -0.016888523821506178
-0.36460797983097776   -0.0343618216447229   -0.016888523821506178
-0.31008062186233626   0.023395091273494747   0.043506606970564785
-0.31008062186233626   0.023395091273494747   0.043506606970564785
-0.31008062186233626   0.023395091273494747   0.043506606970564785
-0.31008062186233626   0.023395091273494747   0.043506606970564785
-0.3951229635846416   -0.05534146538844866   -0.029493613199532122
-0.3951229635846416   -0.05534146538844866   -0.029493613199532122
-0.3951229635846416   -0.05534146538844866   -0.029493613199532122
-0.3951229635846416   -0.05534146538844866   -0.029493613199532122
-0.3487738639658019   0.04960691930155808   0.02545047269800319
-0.3487738639658019   0.04960691930155808   0.02545047269800319
-0.3487738639658019   0.04960691930155808   0.02545047269800319
-0.3487738639658019   0.04960691930155808   0.02545047269800319
-0.3106289363645832   -0.005525644923376052   -0.03806135205007432
-0.3106289363645832   -0.005525644923376052   -0.03806135205007432
-0.3106289363645832   -0.005525644923376052   -0.03806135205007432
-0.3106289363645832   -0.005525644923376052   -0.03806135205007432
-0.3397517511419171   0.0031177481439421673   0.0006744293931298141
-0.3397517511419171   0.0031177481439421673   0.0006744293931298141
-0.3397517511419171   0.0031177481439421673   0.0006744293931298141
-0.3397517511419171   0.0031177481439421673   0.0006744293931298141
-0.28088996388875503   0.06592931488208617   0.03917855052359675
-0.28088996388875503   0.06592931488208617   0.03917855052359675
-0.28088996388875503   0.06592931488208617   0.03917855052359675
-0.28088996388875503   0.06592931488208617   0.03917855052359675
-0.3754955762096532   -0.018830780271929137   -0.039720388947769796
-0.3754955762096532   -0.018830780271929137   -0.039720388947769796
-0.3754955762096532   -0.018830780271929137   -0.039720388947769796
-0.3754955762096532   -0.018830780271929137   -0.039720388947769796
-0.3278552417935527   0.09401886938936035   0.0179392838508068
-0.3278552417935527   0.09401886938936035   0.0179392838508068
-0.3278552417935527   0.09401886938936035   0.0179392838508068
-0.3278552417935527   0.09401886938936035   0.0179392838508068
-0.2866127331561741   0.037419870715316106   -0.04503828507562595
-0.2866127331561741   0.037419870715316106   -0.04503828507562595
-0.2866127331561741   0.037419870715316106   -0.04503828507562595
-0.2866127331561741   0.037419870715316106   -0.04503828507562595
-0.3162539062772132   0.04179963268462257   0.0185414436917609
-0.3162539062772132   0.04179963268462257   0.0185414436917609
-0.3162539062772132   0.04179963268462257   0.0185414436917609
-0.3162539062772132   0.04179963268462257   0.0185414436917609
-0.4004833622624988   -0.056523773122235665   0.013977950925656086
-0.4004833622624988   -0.056523773122235665   0.013977950925656086
-0.4004833622624988   -0.056523773122235665   0.013977950925656086
-0.4004833622624988   -0.056523773122235665   0.013977950925656086
-0.45550267075331136   -0.05886085929600374   0.012250346280338498
-0.45550267075331136   -0.05886085929600374   0.012250346280338498
-0.45550267075331136   -0.05886085929600374   0.012250346280338498
-0.45550267075331136   -0.05886085929600374   0.012250346280338498
-0.43880085261639284   -0.02670186654242332   -0.004313096245809913
-0.43880085261639284   -0.02670186654242332   -0.004313096245809913
-0.43880085261639284   -0.02670186654242332   -0.004313096245809913
-0.43880085261639284   -0.02670186654242332   -0.004313096245809913
-0.3789658884625235   -0.008031264700598104   0.003981561723208005
-0.3789658884625235   -0.008031264700598104   0.003981561723208005
-0.3789658884625235   -0.008031264700598104   0.003981561723208005
-0.3789658884625235   -0.008031264700598104   0.003981561723208005
-0.4190655622322289   -0.035401359065882765   -0.01119713772543239
-0.4190655622322289   -0.035401359065882765   -0.01119713772543239
-0.4190655622322289   -0.035401359065882765   -0.01119713772543239
-0.4190655622322289   -0.035401359065882765   -0.01119713772543239
-0.3792830573909195   -0.012552331476701276   0.006916783857327042
-0.3792830573909195   -0.012552331476701276   0.006916783857327042
-0.3792830573909195   -0.012552331476701276   0.006916783857327042
-0.3792830573909195   -0.012552331476701276   0.006916783857327042
-0.4358157143766612   -0.019512830454984573   0.0034235588654133765
-0.4358157143766612   -0.019512830454984573   0.0034235588654133765
-0.4358157143766612   -0.019512830454984573   0.0034235588654133765
-0.4358157143766612   -0.019512830454984573   0.0034235588654133765
-0.4169365935583504   0.017847752270928635   -0.010951366827720913
-0.4169365935583504   0.017847752270928635   -0.010951366827720913
-0.4169365935583504   0.017847752270928635   -0.010951366827720913
-0.4169365935583504   0.017847752270928635   -0.010951366827720913
-0.3582171999544001   0.03240406621030348   -0.004563354153733403
-0.3582171999544001   0.03240406621030348   -0.004563354153733403
-0.3582171999544001   0.03240406621030348   -0.004563354153733403
-0.3582171999544001   0.03240406621030348   -0.004563354153733403
-0.39622805596184324   0.004429191344786421   0.006138818371183786
-0.39622805596184324   0.004429191344786421   0.006138818371183786
-0.39622805596184324   0.004429191344786421   0.006138818371183786
-0.39622805596184324   0.004429191344786421   0.006138818371183786
-0.3575026296619626   0.03183960926625094   -0.0004260457474970676
-0.3575026296619626   0.03183960926625094   -0.0004260457474970676
-0.3575026296619626   0.03183960926625094   -0.0004260457474970676
-0.3575026296619626   0.03183960926625094   -0.0004260457474970676
-0.4153247191805122   0.020738653885256156   -0.005782896552857918
-0.4153247191805122   0.020738653885256156   -0.005782896552857918
-0.4153247191805122   0.020738653885256156   -0.005782896552857918
-0.4153247191805122   0.020738653885256156   -0.005782896552857918
-0.3960016370775487   0.06266560475687828   -0.0184488602107665
-0.3960016370775487   0.06266560475687828   -0.0184488602107665
-0.3960016370775487   0.06266560475687828   -0.0184488602107665
-0.3960016370775487   0.06266560475687828   -0.0184488602107665
-0.33843407638855966   0.07300492766191477   -0.013940947396782304
-0.33843407638855966   0.07300492766191477   -0.013940947396782304
-0.33843407638855966   0.07300492766191477   -0.013940947396782304
-0.33843407638855966   0.07300492766191477   -0.013940947396782304
-0.3744424869758408   0.04433184185682666   0.022664062677286934
-0.3744424869758408   0.04433184185682666   0.022664062677286934
-0.3744424869758408   0.04433184185682666   0.022664062677286934
-0.3744424869758408   0.04433184185682666   0.022664062677286934
-0.46864124695316195   -0.08946882684187182   -0.022834567173054217
-0.46864124695316195   -0.08946882684187182   -0.022834567173054217
-0.46864124695316195   -0.08946882684187182   -0.022834567173054217
-0.46864124695316195   -0.08946882684187182   -0.022834567173054217
-0.4997308835866568   -0.02505600247372368   0.04330566051804725
-0.4997308835866568   -0.02505600247372368   0.04330566051804725
-0.4997308835866568   -0.02505600247372368   0.04330566051804725
-0.4997308835866568   -0.02505600247372368   0.04330566051804725
-0.5077162290869668   -0.061359481797546786   -0.04245318736131618
-0.5077162290869668   -0.061359481797546786   -0.04245318736131618
-0.5077162290869668   -0.061359481797546786   -0.04245318736131618
-0.5077162290869668   -0.061359481797546786   -0.04245318736131618
-0.4199284172764792   0.02684153756369073   0.03650567634764381
-0.4199284172764792   0.02684153756369073   0.03650567634764381
-0.4199284172764792   0.02684153756369073   0.03650567634764381
-0.4199284172764792   0.02684153756369073   0.03650567634764381
-0.4720432992216529   -0.034843159591676665   -0.007033135625484875
-0.4720432992216529   -0.034843159591676665   -0.007033135625484875
-0.4720432992216529   -0.034843159591676665   -0.007033135625484875
-0.4720432992216529   -0.034843159591676665   -0.007033135625484875
-0.448014065920306   -0.04695384796125484   -0.030127181346547967
-0.448014065920306   -0.04695384796125484   -0.030127181346547967
-0.448014065920306   -0.04695384796125484   -0.030127181346547967
-0.448014065920306   -0.04695384796125484   -0.030127181346547967
-0.47683285507506357   0.015233629095479748   0.03537057180517323
-0.47683285507506357   0.015233629095479748   0.03537057180517323
-0.47683285507506357   0.015233629095479748   0.03537057180517323
-0.47683285507506357   0.015233629095479748   0.03537057180517323
-0.4790908035270232   -0.019112634382945637   -0.047629725679914456
-0.4790908035270232   -0.019112634382945637   -0.047629725679914456
-0.4790908035270232   -0.019112634382945637   -0.047629725679914456
-0.4790908035270232   -0.019112634382945637   -0.047629725679914456
-0.4002321026098538   0.06331332739659588   0.02710551278909095
-0.4002321026098538   0.06331332739659588   0.02710551278909095
-0.4002321026098538   0.06331332739659588   0.02710551278909095
-0.4002321026098538   0.06331332739659588   0.02710551278909095
-0.44611511382108   0.003506744619308527   0.010858387959359062
-0.44611511382108   0.003506744619308527   0.010858387959359062
-0.44611511382108   0.003506744619308527   0.010858387959359062
-0.44611511382108   0.003506744619308527   0.010858387959359062
-0.427448240243377   -0.006992121822188918   -0.03866972615974637
-0.427448240243377   -0.006992121822188918   -0.03866972615974637
-0.427448240243377   -0.006992121822188918   -0.03866972615974637
-0.427448240243377   -0.006992121822188918   -0.03866972615974637
-0.4490471721509465   0.05402030857839224   0.029455488239134707
-0.4490471721509465   0.05402030857839224   0.029455488239134707
-0.4490471721509465   0.05402030857839224   0.029455488239134707
-0.4490471721509465   0.05402030857839224   0.029455488239134707
-0.45403710340702763   0.027446966101897535   -0.052260545514089186
-0.45403710340702763   0.027446966101897535   -0.052260545514089186
-0.45403710340702763   0.027446966101897535   -0.052260545514089186
-0.45403710340702763   0.027446966101897535   -0.052260545514089186
-0.3804812479270456   0.10398385281486942   0.017834837483758074
-0.3804812479270456   0.10398385281486942   0.017834837483758074
-0.3804812479270456   0.10398385281486942   0.017834837483758074
-0.3804812479270456   0.10398385281486942   0.017834837483758074
-0.4240669337912154   0.04158305757464495   0.02797277529299451
-0.4240669337912154   0.04158305757464495   0.02797277529299451
-0.4240669337912154   0.04158305757464495   0.02797277529299451
-0.4240669337912154   0.04158305757464495   0.02797277529299451
-0.536106439290729   -0.10647398952790489   -0.05715413094813947
-0.536106439290729   -0.10647398952790489   -0.05715413094813947
-0.536106439290729   -0.10647398952790489   -0.05715413094813947
-0.536106439290729   -0.10647398952790489   -0.05715413094813947
-0.5920711867888282   0.008412104963184258   0.07783244409729786
-0.5920711867888282   0.008412104963184258   0.07783244409729786
-0.5920711867888282   0.008412104963184258   0.07783244409729786
-0.5920711867888282   0.008412104963184258   0.07783244409729786
-0.5839765559559328   -0.08834877175945083   -0.07609572748367613
-0.5839765559559328   -0.08834877175945083   -0.07609572748367613
-0.5839765559559328   -0.08834877175945083   -0.07609572748367613
-0.5839765559559328   -0.08834877175945083   -0.07609572748367613
-0.45957947560713186   0.06710329635967627   0.06976780188063146
-0.45957947560713186   0.06710329635967627   0.06976780188063146
-0.45957947560713186   0.06710329635967627   0.06976780188063146
-0.45957947560713186   0.06710329635967627   0.06976780188063146
-0.5211948176603938   -0.022806181461746483   -0.003547506518997094
-0.5211948176603938   -0.022806181461746483   -0.003547506518997094
-0.5211948176603938   -0.022806181461746483   -0.003547506518997094
-0.5211948176603938   -0.022806181461746483   -0.003547506518997094
-0.5144828150528398   -0.07229999823312591   -0.06534560075511384
-0.5144828150528398   -0.07229999823312591   -0.06534560075511384
-0.5144828150528398   -0.07229999823312591   -0.06534560075511384
-0.5144828150528398   -0.07229999823312591   -0.06534560075511384
-0.5261153452355625   0.054012394108011175   0.07084916025070609
-0.5261153452355625   0.054012394108011175   0.07084916025070609
-0.5261153452355625   0.054012394108011175   0.07084916025070609
-0.5261153452355625   0.054012394108011175   0.07084916025070609
-0.5345961509530128   -0.06367763978300432   -0.09068461385082481
-0.5345961509530128   -0.06367763978300432   -0.09068461385082481
-0.5345961509530128   -0.06367763978300432   -0.09068461385082481
-0.5345961509530128   -0.06367763978300432   -0.09068461385082481
-0.4374260846039777   0.08448002872672816   0.057101205825639316
-0.4374260846039777   0.08448002872672816   0.057101205825639316
-0.4374260846039777   0.08448002872672816   0.057101205825639316
-0.4374260846039777   0.08448002872672816   0.057101205825639316
-0.48771029299990876   0.0029682894720049896   0.01362846089423719
-0.48771029299990876   0.0029682894720049896   0.01362846089423719
-0.48771029299990876   0.0029682894720049896   0.01362846089423719
-0.48771029299990876   0.0029682894720049896   0.01362846089423719
-0.4912592585925278   -0.05199188801568341   -0.0755927473747054
-0.4912592585925278   -0.05199188801568341   -0.0755927473747054
-0.4912592585925278   -0.05199188801568341   -0.0755927473747054
-0.4912592585925278   -0.05199188801568341   -0.0755927473747054
-0.4776638251066454   0.07589342881722363   0.054405946780784385
-0.4776638251066454   0.07589342881722363   0.054405946780784385
-0.4776638251066454   0.07589342881722363   0.054405946780784385
-0.4776638251066454   0.07589342881722363   0.054405946780784385
-0.469826474801447   -0.020973270760350493   -0.09908979603908323
-0.469826474801447   -0.020973270760350493   -0.09908979603908323
-0.469826474801447   -0.020973270760350493   -0.09908979603908323
-0.469826474801447   -0.020973270760350493   -0.09908979603908323
-0.41757920466078213   0.11044241191462098   0.04703350240441334
-0.41757920466078213   0.11044241191462098   0.04703350240441334
-0.41757920466078213   0.11044241191462098   0.04703350240441334
-0.41757920466078213   0.11044241191462098   0.04703350240441334
-0.4420287989271234   0.02873802778015422   0.03349718071449262
-0.4420287989271234   0.02873802778015422   0.03349718071449262
-0.4420287989271234   0.02873802778015422   0.03349718071449262
-0.4420287989271234   0.02873802778015422   0.03349718071449262
0.32425551724744883   0.05247889189462751   0.08498499221564662
0.32425551724744883   0.05247889189462751   0.08498499221564662
0.32425551724744883   0.05247889189462751   0.08498499221564662
0.32425551724744883   0.05247889189462751   0.08498499221564662
-0.008210152366138208   -0.13663525376080582   -0.05617562454486613
-0.008210152366138208   -0.13663525376080582   -0.05617562454486613
-0.008210152366138208   -0.13663525376080582   -0.05617562454486613
-0.008210152366138208   -0.13663525376080582   -0.05617562454486613
0.07226889444048724   0.02673737756322407   0.06567327504337736
0.07226889444048724   0.02673737756322407   0.06567327504337736
0.07226889444048724   0.02673737756322407   0.06567327504337736
0.07226889444048724   0.02673737756322407   0.06567327504337736
0.3384620855287525   -0.048054023865992945   -0.07028448906141499
0.3384620855287525   -0.048054023865992945   -0.07028448906141499
0.3384620855287525   -0.048054023865992945   -0.07028448906141499
0.3384620855287525   -0.048054023865992945   -0.07028448906141499
0.1654300949569225   -0.026618113421724716   -0.040446816465192104
0.1654300949569225   -0.026618113421724716   -0.040446816465192104
0.1654300949569225   -0.026618113421724716   -0.040446816465192104
0.1654300949569225   -0.026618113421724716   -0.040446816465192104
0.3962132998333865   0.09372926279356736   0.07668829580219455
0.3962132998333865   0.09372926279356736   0.07668829580219455
0.3962132998333865   0.09372926279356736   0.07668829580219455
0.3962132998333865   0.09372926279356736   0.07668829580219455
0.01806004388552815   -0.11150354534666136   -0.06713005482153267
0.01806004388552815   -0.11150354534666136   -0.06713005482153267
0.01806004388552815   -0.11150354534666136   -0.06713005482153267
0.01806004388552815   -0.11150354534666136   -0.06713005482153267
0.10168572784146379   0.04657279790051413   0.05482126935591312
0.10168572784146379   0.04657279790051413   0.05482126935591312
0.10168572784146379   0.04657279790051413   0.05482126935591312
0.10168572784146379   0.04657279790051413   0.05482126935591312
0.39468010361795597   -0.025643933300840957   -0.08795676076486045
0.39468010361795597   -0.025643933300840957   -0.08795676076486045
0.39468010361795597   -0.025643933300840957   -0.08795676076486045
0.39468010361795597   -0.025643933300840957   -0.08795676076486045
0.21614944514184922   -0.0018758218919072145   -0.018978233372828498
0.21614944514184922   -0.0018758218919072145   -0.018978233372828498
0.21614944514184922   -0.0018758218919072145   -0.018978233372828498
0.21614944514184922   -0.0018758218919072145   -0.018978233372828498
0.4530758161701678   0.1179684461951199   0.060409422500237966
0.4530758161701678   0.1179684461951199   0.060409422500237966
0.4530758161701678   0.1179684461951199   0.060409422500237966
0.4530758161701678   0.1179684461951199   0.060409422500237966
0.04675953090680798   -0.0935700659778894   -0.07966685143895473
0.04675953090680798   -0.0935700659778894   -0.07966685143895473
0.04675953090680798   -0.0935700659778894   -0.07966685143895473
0.04675953090680798   -0.0935700659778894   -0.07966685143895473
0.1302392611442742   0.08296612957566386   0.047441365556533256
0.1302392611442742   0.08296612957566386   0.047441365556533256
0.1302392611442742   0.08296612957566386   0.047441365556533256
0.1302392611442742   0.08296612957566386   0.047441365556533256
0.46929455180400065   0.024522239194691257   -0.09701132021402871
0.46929455180400065   0.024522239194691257   -0.09701132021402871
0.46929455180400065   0.024522239194691257   -0.09701132021402871
0.46929455180400065   0.024522239194691257   -0.09701132021402871
0.2587822841820282   0.02583549438068222   0.001335725801329137
0.2587822841820282   0.02583549438068222   0.001335725801329137
0.2587822841820282   0.02583549438068222   0.001335725801329137
0.2587822841820282   0.02583549438068222   0.001335725801329137
0.04469047935650484   0.014068469828012397   0.05762381047953854
0.04469047935650484   0.014068469828012397   0.05762381047953854
0.04469047935650484   0.014068469828012397   0.05762381047953854
0.04469047935650484   0.014068469828012397   0.05762381047953854
-0.3091163672599429   -0.11597719489167702   -0.02576505443855428
-0.3091163672599429   -0.11597719489167702   -0.02576505443855428
-0.3091163672599429   -0.11597719489167702   -0.02576505443855428
-0.3091163672599429   -0.11597719489167702   -0.02576505443855428
-0.25828938628583425   -0.016803546113591313   0.026362405875947216
-0.25828938628583425   -0.016803546113591313   0.026362405875947216
-0.25828938628583425   -0.016803546113591313   0.026362405875947216
-0.25828938628583425   -0.016803546113591313   0.026362405875947216
0.046995358689460705   -0.013457962139121727   -0.020499064009409533
0.046995358689460705   -0.013457962139121727   -0.020499064009409533
0.046995358689460705   -0.013457962139121727   -0.020499064009409533
0.046995358689460705   -0.013457962139121727   -0.020499064009409533
-0.12147123257001619   -0.03007214742745639   -0.019459522711521654
-0.12147123257001619   -0.03007214742745639   -0.019459522711521654
-0.12147123257001619   -0.03007214742745639   -0.019459522711521654
-0.12147123257001619   -0.03007214742745639   -0.019459522711521654
0.07497179718126815   0.05480103555561231   0.051124130754893624
0.07497179718126815   0.05480103555561231   0.051124130754893624
0.07497179718126815   0.05480103555561231   0.051124130754893624
0.07497179718126815   0.05480103555561231   0.051124130754893624
-0.28369020060679917   -0.08248691963747776   -0.03495829220499118
-0.28369020060679917   -0.08248691963747776   -0.03495829220499118
-0.28369020060679917   -0.08248691963747776   -0.03495829220499118
-0.28369020060679917   -0.08248691963747776   -0.03495829220499118
-0.23146067998993947   0.02164760841770136   0.018636658280638308
-0.23146067998993947   0.02164760841770136   0.018636658280638308
-0.23146067998993947   0.02164760841770136   0.018636658280638308
-0.23146067998993947   0.02164760841770136   0.018636658280638308
0.08047155272653228   0.023058529721474333   -0.02773533803970471
0.08047155272653228   0.023058529721474333   -0.02773533803970471
0.08047155272653228   0.023058529721474333   -0.02773533803970471
0.08047155272653228   0.023058529721474333   -0.02773533803970471
-0.0930379062414161   0.003868264938438823   -0.002348651465109217
-0.0930379062414161   0.003868264938438823   -0.002348651465109217
-0.0930379062414161   0.003868264938438823   -0.002348651465109217
-0.0930379062414161   0.003868264938438823   -0.002348651465109217
0.10962232159244847   0.09529357023359607   0.04578346577775455
0.10962232159244847   0.09529357023359607   0.04578346577775455
0.10962232159244847   0.09529357023359607   0.04578346577775455
0.10962232159244847   0.09529357023359607   0.04578346577775455
-0.258134095722165   -0.0481100789607246   -0.04497273300206343
-0.258134095722165   -0.0481100789607246   -0.04497273300206343
-0.258134095722165   -0.0481100789607246   -0.04497273300206343
-0.258134095722165   -0.0481100789607246   -0.04497273300206343
-0.20447496036423377   0.06510943785830123   0.011271777847359398
-0.20447496036423377   0.06510943785830123   0.011271777847359398
-0.20447496036423377   0.06510943785830123   0.011271777847359398
-0.20447496036423377   0.06510943785830123   0.011271777847359398
0.10996141494721218   0.06444227131848652   -0.035424007171599464
0.10996141494721218   0.06444227131848652   -0.035424007171599464
0.10996141494721218   0.06444227131848652   -0.035424007171599464
0.10996141494721218   0.06444227131848652   -0.035424007171599464
-0.0616163817336377   0.041318503473556055   0.015884936784110036
-0.0616163817336377   0.041318503473556055   0.015884936784110036
-0.0616163817336377   0.041318503473556055   0.015884936784110036
-0.0616163817336377   0.041318503473556055   0.015884936784110036
-0.28108363100587963   -0.022285695178806048   0.02070712711889519
-0.28108363100587963   -0.022285695178806048   0.02070712711889519
-0.28108363100587963   -0.022285695178806048   0.02070712711889519
-0.28108363100587963   -0.022285695178806048   0.02070712711889519
-0.6045884498265771   -0.08228811834068148   0.005372860185858483
-0.6045884498265771   -0.08228811834068148   0.005372860185858483
-0.6045884498265771   -0.08228811834068148   0.005372860185858483
-0.6045884498265771   -0.08228811834068148   0.005372860185858483
-0.5810756178000286   -0.05152910121531411   -0.011397891512867016
-0.5810756178000286   -0.05152910121531411   -0.011397891512867016
-0.5810756178000286   -0.05152910121531411   -0.011397891512867016
-0.5810756178000286   -0.05152910121531411   -0.011397891512867016
-0.2533349377065111   0.02145369350709042   0.01287740915188481
-0.2533349377065111   0.02145369350709042   0.01287740915188481
-0.2533349377065111   0.02145369350709042   0.01287740915188481
-0.2533349377065111   0.02145369350709042   0.01287740915188481
-0.4306498463511572   -0.030901838419110553   -0.011314027389177053
-0.4306498463511572   -0.030901838419110553   -0.011314027389177053
-0.4306498463511572   -0.030901838419110553   -0.011314027389177053
-0.4306498463511572   -0.030901838419110553   -0.011314027389177053
-0.2536777110307982   0.018961254707177702   0.013655981330361822
-0.2536777110307982   0.018961254707177702   0.013655981330361822
-0.2536777110307982   0.018961254707177702   0.013655981330361822
-0.2536777110307982   0.018961254707177702   0.013655981330361822
-0.5785263906007331   -0.04683020854040322   -0.0033506481913001436
-0.5785263906007331   -0.04683020854040322   -0.0033506481913001436
-0.5785263906007331   -0.04683020854040322   -0.0033506481913001436
-0.5785263906007331   -0.04683020854040322   -0.0033506481913001436
-0.5528700671988799   -0.009198734926513005   -0.017924492593336044
-0.5528700671988799   -0.009198734926513005   -0.017924492593336044
-0.5528700671988799   -0.009198734926513005   -0.017924492593336044
-0.5528700671988799   -0.009198734926513005   -0.017924492593336044
-0.2267709019878831   0.059008504385280755   0.00472465232334451
-0.2267709019878831   0.059008504385280755   0.00472465232334451
-0.2267709019878831   0.059008504385280755   0.00472465232334451
-0.2267709019878831   0.059008504385280755   0.00472465232334451
-0.40153216721597207   0.006287003433758542   0.00591889378345508
-0.40153216721597207   0.006287003433758542   0.00591889378345508
-0.40153216721597207   0.006287003433758542   0.00591889378345508
-0.40153216721597207   0.006287003433758542   0.00591889378345508
-0.22610140942720994   0.06096334920740536   0.006117270304585757
-0.22610140942720994   0.06096334920740536   0.006117270304585757
-0.22610140942720994   0.06096334920740536   0.006117270304585757
-0.22610140942720994   0.06096334920740536   0.006117270304585757
-0.5517783850849025   -0.009392405073998106   -0.012272411875968964
-0.5517783850849025   -0.009392405073998106   -0.012272411875968964
-0.5517783850849025   -0.009392405073998106   -0.012272411875968964
-0.5517783850849025   -0.009392405073998106   -0.012272411875968964
-0.5258041986248785   0.03324352921901144   -0.025377817374980093
-0.5258041986248785   0.03324352921901144   -0.025377817374980093
-0.5258041986248785   0.03324352921901144   -0.025377817374980093
-0.5258041986248785   0.03324352921901144   -0.025377817374980093
-0.2013481533612151   0.09667398288207199   -0.0046587321613141205
-0.2013481533612151   0.09667398288207199   -0.0046587321613141205
-0.2013481533612151   0.09667398288207199   -0.0046587321613141205
-0.2013481533612151   0.09667398288207199   -0.0046587321613141205
-0.37392805906833315   0.04337161918152667   0.02202675297691204
-0.37392805906833315   0.04337161918152667   0.02202675297691204
-0.37392805906833315   0.04337161918152667   0.02202675297691204
-0.37392805906833315   0.04337161918152667   0.02202675297691204
-0.6042970828756262   -0.058101715929283065   -0.017356707470780323
-0.6042970828756262   -0.058101715929283065   -0.017356707470780323
-0.6042970828756262   -0.058101715929283065   -0.017356707470780323
-0.6042970828756262   -0.058101715929283065   -0.017356707470780323
-0.8968346783178437   -0.05063108347595524   0.03595742672110848
-0.8968346783178437   -0.05063108347595524   0.03595742672110848
-0.8968346783178437   -0.05063108347595524   0.03595742672110848
-0.8968346783178437   -0.05063108347595524   0.03595742672110848
-0.8969879221268815   -0.08551917501559295   -0.04823838169837232
-0.8969879221268815   -0.08551917501559295   -0.04823838169837232
-0.8969879221268815   -0.08551917501559295   -0.04823838169837232
-0.8969879221268815   -0.08551917501559295   -0.04823838169837232
-0.5487562672956684   0.05472736619453583   0.043942393599083675
-0.5487562672956684   0.05472736619453583   0.043942393599083675
-0.5487562672956684   0.05472736619453583   0.043942393599083675
-0.5487562672956684   0.05472736619453583   0.043942393599083675
-0.7326060721143425   -0.03128120978981211   -0.004751115577217094
-0.7326060721143425   -0.03128120978981211   -0.004751115577217094
-0.7326060721143425   -0.03128120978981211   -0.004751115577217094
-0.7326060721143425   -0.03128120978981211   -0.004751115577217094
-0.5766515342878812   -0.016637946784672064   -0.024168628382768127
-0.5766515342878812   -0.016637946784672064   -0.024168628382768127
-0.5766515342878812   -0.016637946784672064   -0.024168628382768127
-0.5766515342878812   -0.016637946784672064   -0.024168628382768127
-0.8672724251781906   -0.012333632079904872   0.02715356010940235
-0.8672724251781906   -0.012333632079904872   0.02715356010940235
-0.8672724251781906   -0.012333632079904872   0.02715356010940235
-0.8672724251781906   -0.012333632079904872   0.02715356010940235
-0.861680362807983   -0.045131831575982634   -0.053672021875703115
-0.861680362807983   -0.045131831575982634   -0.053672021875703115
-0.861680362807983   -0.045131831575982634   -0.053672021875703115
-0.861680362807983   -0.045131831575982634   -0.053672021875703115
-0.5226692949342515   0.08891151762768024   0.03496911617561285
-0.5226692949342515   0.08891151762768024   0.03496911617561285
-0.5226692949342515   0.08891151762768024   0.03496911617561285
-0.5226692949342515   0.08891151762768024   0.03496911617561285
-0.6977179188894304   0.006202124970132061   0.012999595941419764
-0.6977179188894304   0.006202124970132061   0.012999595941419764
-0.6977179188894304   0.006202124970132061   0.012999595941419764
-0.6977179188894304   0.006202124970132061   0.012999595941419764
-0.5496413124757477   0.02151207673730607   -0.032491530641494994
-0.5496413124757477   0.02151207673730607   -0.032491530641494994
-0.5496413124757477   0.02151207673730607   -0.032491530641494994
-0.5496413124757477   0.02151207673730607   -0.032491530641494994
-0.8326604484833903   0.024315506097498024   0.02198021207377939
-0.8326604484833903   0.024315506097498024   0.02198021207377939
-0.8326604484833903   0.024315506097498024   0.02198021207377939
-0.8326604484833903   0.024315506097498024   0.02198021207377939
-0.830089513601739   -0.0010585168439180281   -0.057768745135485834
-0.830089513601739   -0.0010585168439180281   -0.057768745135485834
-0.830089513601739   -0.0010585168439180281   -0.057768745135485834
-0.830089513601739   -0.0010585168439180281   -0.057768745135485834
-0.49685254585096833   0.12669394893997016   0.02593002677361153
-0.49685254585096833   0.12669394893997016   0.02593002677361153
-0.49685254585096833   0.12669394893997016   0.02593002677361153
-0.49685254585096833   0.12669394893997016   0.02593002677361153
-0.6715489381205259   0.041185036174336664   0.028916188545608977
-0.6715489381205259   0.041185036174336664   0.028916188545608977
-0.6715489381205259   0.041185036174336664   0.028916188545608977
-0.6715489381205259   0.041185036174336664   0.028916188545608977
-0.9211324712877453   -0.0834993042307749   -0.05266331737358071
-0.9211324712877453   -0.0834993042307749   -0.05266331737358071
-0.9211324712877453   -0.0834993042307749   -0.05266331737358071
-0.9211324712877453   -0.0834993042307749   -0.05266331737358071
-1.2298216265943445   -0.021461850515030606   0.07775860783473063
-1.2298216265943445   -0.021461850515030606   0.07775860783473063
-1.2298216265943445   -0.021461850515030606   0.07775860783473063
-1.2298216265943445   -0.021461850515030606   0.07775860783473063
-1.2124893277181996   -0.11147807859885409   -0.07022922080098329
-1.2124893277181996   -0.11147807859885409   -0.07022922080098329
-1.2124893277181996   -0.11147807859885409   -0.07022922080098329
-1.2124893277181996   -0.11147807859885409   -0.07022922080098329
-0.8364170872640029   0.09244121331113464   0.07665540428929388
-0.8364170872640029   0.09244121331113464   0.07665540428929388
-0.8364170872640029   0.09244121331113464   0.07665540428929388
-0.8364170872640029   0.09244121331113464   0.07665540428929388
-1.0047168103308253   -0.01780614808532291   0.008277554124888419
-1.0047168103308253   -0.01780614808532291   0.008277554124888419
-1.0047168103308253   -0.01780614808532291   0.008277554124888419
-1.0047168103308253   -0.01780614808532291   0.008277554124888419
-0.8911637763973013   -0.04507874148974153   -0.059558086576318565
-0.8911637763973013   -0.04507874148974153   -0.059558086576318565
-0.8911637763973013   -0.04507874148974153   -0.059558086576318565
-0.8911637763973013   -0.04507874148974153   -0.059558086576318565
-1.1560933576407324   0.027691157146188694   0.07258139384129375
-1.1560933576407324   0.027691157146188694   0.07258139384129375
-1.1560933576407324   0.027691157146188694   0.07258139384129375
-1.1560933576407324   0.027691157146188694   0.07258139384129375
-1.156695284256698   -0.08750824337913374   -0.08357095505094997
-1.156695284256698   -0.08750824337913374   -0.08357095505094997
-1.156695284256698   -0.08750824337913374   -0.08357095505094997
-1.156695284256698   -0.08750824337913374   -0.08357095505094997
-0.8076425123117484   0.10819927494234141   0.06318612408714004
-0.8076425123117484   0.10819927494234141   0.06318612408714004
-0.8076425123117484   0.10819927494234141   0.06318612408714004
-0.8076425123117484   0.10819927494234141   0.06318612408714004
-0.972980546664578   0.007337841000601836   0.02262231037482086
-0.972980546664578   0.007337841000601836   0.02262231037482086
-0.972980546664578   0.007337841000601836   0.02262231037482086
-0.972980546664578   0.007337841000601836   0.02262231037482086
-0.8607423619540394   -0.025355198120671357   -0.06875865106129658
-0.8607423619540394   -0.025355198120671357   -0.06875865106129658
-0.8607423619540394   -0.025355198120671357   -0.06875865106129658
-0.8607423619540394   -0.025355198120671357   -0.06875865106129658
-1.1015756117959643   0.048066052502320766   0.056453111371252626
-1.1015756117959643   0.048066052502320766   0.056453111371252626
-1.1015756117959643   0.048066052502320766   0.056453111371252626
-1.1015756117959643   0.048066052502320766   0.056453111371252626
-1.0880040551043062   -0.05168480797021335   -0.09317774657623437
-1.0880040551043062   -0.05168480797021335   -0.09317774657623437
-1.0880040551043062   -0.05168480797021335   -0.09317774657623437
-1.0880040551043062   -0.05168480797021335   -0.09317774657623437
-0.7823420940960653   0.12727421151434953   0.05263562403461469
-0.7823420940960653   0.12727421151434953   0.05263562403461469
-0.7823420940960653   0.12727421151434953   0.05263562403461469
-0.7823420940960653   0.12727421151434953   0.05263562403461469
-0.9138092861374116   0.030908932078695467   0.042806461769067765
-0.9138092861374116   0.030908932078695467   0.042806461769067765
-0.9138092861374116   0.030908932078695467   0.042806461769067765
-0.9138092861374116   0.030908932078695467   0.042806461769067765
0.9779469967413886   0.08882912558389042   0.08498912307108816
0.9779469967413886   0.08882912558389042   0.08498912307108816
0.9779469967413886   0.08882912558389042   0.08498912307108816
0.9779469967413886   0.08882912558389042   0.08498912307108816
0.3583578807392481   -0.16288095314035433   -0.05595072160778581
0.3583578807392481   -0.16288095314035433   -0.05595072160778581
0.3583578807392481   -0.16288095314035433   -0.05595072160778581
0.3583578807392481   -0.16288095314035433   -0.05595072160778581
0.4427653695400567   -0.0009032949309815685   0.06116587160233771
0.4427653695400567   -0.0009032949309815685   0.06116587160233771
0.4427653695400567   -0.0009032949309815685   0.06116587160233771
0.4427653695400567   -0.0009032949309815685   0.06116587160233771
0.9958412510008816   -0.02283007427508363   -0.07142026936378515
0.9958412510008816   -0.02283007427508363   -0.07142026936378515
0.9958412510008816   -0.02283007427508363   -0.07142026936378515
0.9958412510008816   -0.02283007427508363   -0.07142026936378515
0.6510543983057472   -0.029546912384319612   -0.06293247527583698
0.6510543983057472   -0.029546912384319612   -0.06293247527583698
0.6510543983057472   -0.029546912384319612   -0.06293247527583698
0.6510543983057472   -0.029546912384319612   -0.06293247527583698
1.0542532613685784   0.12393587562848074   0.07387383257112762
1.0542532613685784   0.12393587562848074   0.07387383257112762
1.0542532613685784   0.12393587562848074   0.07387383257112762
1.0542532613685784   0.12393587562848074   0.07387383257112762
0.388481359799646   -0.14354124420725975   -0.06761622782343019
0.388481359799646   -0.14354124420725975   -0.06761622782343019
0.388481359799646   -0.14354124420725975   -0.06761622782343019
0.388481359799646   -0.14354124420725975   -0.06761622782343019
0.47613363535381076   0.018328333028743038   0.05045103914720471
0.47613363535381076   0.018328333028743038   0.05045103914720471
0.47613363535381076   0.018328333028743038   0.05045103914720471
0.47613363535381076   0.018328333028743038   0.05045103914720471
1.056589169877189   -0.0009669061179780336   -0.09000195125195364
1.056589169877189   -0.0009669061179780336   -0.09000195125195364
1.056589169877189   -0.0009669061179780336   -0.09000195125195364
1.056589169877189   -0.0009669061179780336   -0.09000195125195364
0.7144575130544689   -0.005922360603380333   -0.03809654084078957
0.7144575130544689   -0.005922360603380333   -0.03809654084078957
0.7144575130544689   -0.005922360603380333   -0.03809654084078957
0.7144575130544689   -0.005922360603380333   -0.03809654084078957
1.1156579125331891   0.1475149598476584   0.05685989606240317
1.1156579125331891   0.1475149598476584   0.05685989606240317
1.1156579125331891   0.1475149598476584   0.05685989606240317
1.1156579125331891   0.1475149598476584   0.05685989606240317
0.4214629218159273   -0.1257555038187779   -0.07881869169469123
0.4214629218159273   -0.1257555038187779   -0.07881869169469123
0.4214629218159273   -0.1257555038187779   -0.07881869169469123
0.4214629218159273   -0.1257555038187779   -0.07881869169469123
0.509454163841755   0.06070171178517734   0.043726430700647266
0.509454163841755   0.06070171178517734   0.043726430700647266
0.509454163841755   0.06070171178517734   0.043726430700647266
0.509454163841755   0.06070171178517734   0.043726430700647266
1.1363447261544781   0.05605639216275868   -0.09709806876344745
1.1363447261544781   0.05605639216275868   -0.09709806876344745
1.1363447261544781   0.05605639216275868   -0.09709806876344745
1.1363447261544781   0.05605639216275868   -0.09709806876344745
0.7536658259529633   0.02280199751682971   -0.01659355422444185
0.7536658259529633   0.02280199751682971   -0.01659355422444185
0.7536658259529633   0.02280199751682971   -0.01659355422444185
0.7536658259529633   0.02280199751682971   -0.01659355422444185
0.4256359469122378   0.04969834171152503   0.06786031440527523
0.4256359469122378   0.04969834171152503   0.06786031440527523
0.4256359469122378   0.04969834171152503   0.06786031440527523
0.4256359469122378   0.04969834171152503   0.06786031440527523
-0.20703433881405775   -0.15196363946939706   -0.029298080555938508
-0.20703433881405775   -0.15196363946939706   -0.029298080555938508
-0.20703433881405775   -0.15196363946939706   -0.029298080555938508
-0.20703433881405775   -0.15196363946939706   -0.029298080555938508
-0.14894078236622155   -0.04442945546319916   0.020579610425885568
-0.14894078236622155   -0.04442945546319916   0.020579610425885568
-0.14894078236622155   -0.04442945546319916   0.020579610425885568
-0.14894078236622155   -0.04442945546319916   0.020579610425885568
0.42911503488826364   0.0010283363019188835   -0.009017432889528061
0.42911503488826364   0.0010283363019188835   -0.009017432889528061
0.42911503488826364   0.0010283363019188835   -0.009017432889528061
0.42911503488826364   0.0010283363019188835   -0.009017432889528061
0.1190966041421063   -0.032189862201532124   -0.02683901388895099
0.1190966041421063   -0.032189862201532124   -0.02683901388895099
0.1190966041421063   -0.032189862201532124   -0.02683901388895099
0.1190966041421063   -0.032189862201532124   -0.02683901388895099
0.4599035670051955   0.08534517093776434   0.060608393059285955
0.4599035670051955   0.08534517093776434   0.060608393059285955
0.4599035670051955   0.08534517093776434   0.060608393059285955
0.4599035670051955   0.08534517093776434   0.060608393059285955
-0.1772480344793558   -0.126265010095247   -0.03912109550773789
-0.1772480344793558   -0.126265010095247   -0.03912109550773789
-0.1772480344793558   -0.126265010095247   -0.03912109550773789
-0.1772480344793558   -0.126265010095247   -0.03912109550773789
-0.11785011056745785   -0.008455534774279398   0.013016002775516762
-0.11785011056745785   -0.008455534774279398   0.013016002775516762
-0.11785011056745785   -0.008455534774279398   0.013016002775516762
-0.11785011056745785   -0.008455534774279398   0.013016002775516762
0.46568079081448177   0.0333193685485951   -0.01680421906929206
0.46568079081448177   0.0333193685485951   -0.01680421906929206
0.46568079081448177   0.0333193685485951   -0.01680421906929206
0.46568079081448177   0.0333193685485951   -0.01680421906929206
0.1491440865308099   -0.0037561803474918803   -0.010676477033566473
0.1491440865308099   -0.0037561803474918803   -0.010676477033566473
0.1491440865308099   -0.0037561803474918803   -0.010676477033566473
0.1491440865308099   -0.0037561803474918803   -0.010676477033566473
0.4976993294538484   0.12281060100842145   0.05379724166771476
0.4976993294538484   0.12281060100842145   0.05379724166771476
0.4976993294538484   0.12281060100842145   0.05379724166771476
0.4976993294538484   0.12281060100842145   0.05379724166771476
-0.14738090521798805   -0.09545902324526931   -0.047634482006144355
-0.14738090521798805   -0.09545902324526931   -0.047634482006144355
-0.14738090521798805   -0.09545902324526931   -0.047634482006144355
-0.14738090521798805   -0.09545902324526931   -0.047634482006144355
-0.08715431028499175   0.033201016335292856   0.005485443144574716
-0.08715431028499175   0.033201016335292856   0.005485443144574716
-0.08715431028499175   0.033201016335292856   0.005485443144574716
-0.08715431028499175   0.033201016335292856   0.005485443144574716
0.49812203088711277   0.07175270569109626   -0.023985227978479323
0.49812203088711277   0.07175270569109626   -0.023985227978479323
0.49812203088711277   0.07175270569109626   -0.023985227978479323
0.49812203088711277   0.07175270569109626   -0.023985227978479323
0.18622297201913182   0.03109742402870362   0.008187960119242577
0.18622297201913182   0.03109742402870362   0.008187960119242577
0.18622297201913182   0.03109742402870362   0.008187960119242577
0.18622297201913182   0.03109742402870362   0.008187960119242577
-0.1628664782379773   0.010747683759076997   0.02882989909598965
-0.1628664782379773   0.010747683759076997   0.02882989909598965
-0.1628664782379773   0.010747683759076997   0.02882989909598965
-0.1628664782379773   0.010747683759076997   0.02882989909598965
-0.7611950516632142   -0.13413946575244498   -0.0038464002623974387
-0.7611950516632142   -0.13413946575244498   -0.0038464002623974387
-0.7611950516632142   -0.13413946575244498   -0.0038464002623974387
-0.7611950516632142   -0.13413946575244498   -0.0038464002623974387
-0.7243112046096654   -0.07889568242129372   -0.017893203586881616
-0.7243112046096654   -0.07889568242129372   -0.017893203586881616
-0.7243112046096654   -0.07889568242129372   -0.017893203586881616
-0.7243112046096654   -0.07889568242129372   -0.017893203586881616
-0.1363723007482775   0.019804590084424804   0.019187972967981914
-0.1363723007482775   0.019804590084424804   0.019187972967981914
-0.1363723007482775   0.019804590084424804   0.019187972967981914
-0.1363723007482775   0.019804590084424804   0.019187972967981914
-0.44697328666140046   -0.04126066851295765   -0.016750234388792425
-0.44697328666140046   -0.04126066851295765   -0.016750234388792425
-0.44697328666140046   -0.04126066851295765   -0.016750234388792425
-0.44697328666140046   -0.04126066851295765   -0.016750234388792425
-0.1302391451036543   0.0478575320436578   0.021800809231864914
-0.1302391451036543   0.0478575320436578   0.021800809231864914
-0.1302391451036543   0.0478575320436578   0.021800809231864914
-0.1302391451036543   0.0478575320436578   0.021800809231864914
-0.7287919298780923   -0.10529619400433046   -0.013896318345979606
-0.7287919298780923   -0.10529619400433046   -0.013896318345979606
-0.7287919298780923   -0.10529619400433046   -0.013896318345979606
-0.7287919298780923   -0.10529619400433046   -0.013896318345979606
-0.6900479215741349   -0.03942667972106108   -0.02417424862211284
-0.6900479215741349   -0.03942667972106108   -0.02417424862211284
-0.6900479215741349   -0.03942667972106108   -0.02417424862211284
-0.6900479215741349   -0.03942667972106108   -0.02417424862211284
-0.1061090034776886   0.05242190894869887   0.010844094501384724
-0.1061090034776886   0.05242190894869887   0.010844094501384724
-0.1061090034776886   0.05242190894869887   0.010844094501384724
-0.1061090034776886   0.05242190894869887   0.010844094501384724
-0.41241771035667457   -0.008235180031294156   -0.0002596467543609232
-0.41241771035667457   -0.008235180031294156   -0.0002596467543609232
-0.41241771035667457   -0.008235180031294156   -0.0002596467543609232
-0.41241771035667457   -0.008235180031294156   -0.0002596467543609232
-0.09870971122725508   0.08644025417765641   0.013822210524594758
-0.09870971122725508   0.08644025417765641   0.013822210524594758
-0.09870971122725508   0.08644025417765641   0.013822210524594758
-0.09870971122725508   0.08644025417765641   0.013822210524594758
-0.6959113474595404   -0.07190915858499068   -0.02100889918521114
-0.6959113474595404   -0.07190915858499068   -0.02100889918521114
-0.6959113474595404   -0.07190915858499068   -0.02100889918521114
-0.6959113474595404   -0.07190915858499068   -0.02100889918521114
-0.6581560242066874   -9.34756165387185e-05   -0.031688153808834066
-0.6581560242066874   -9.34756165387185e-05   -0.031688153808834066
-0.6581560242066874   -9.34756165387185e-05   -0.031688153808834066
-0.6581560242066874   -9.34756165387185e-05   -0.031688153808834066
-0.0772160853926611   0.0857394144446216   0.002638169496899219
-0.0772160853926611   0.0857394144446216   0.002638169496899219
-0.0772160853926611   0.0857394144446216   0.002638169496899219
-0.0772160853926611   0.0857394144446216   0.002638169496899219
-0.38067050172425915   0.02466496805498307   0.015434384046427517
-0.38067050172425915   0.02466496805498307   0.015434384046427517
-0.38067050172425915   0.02466496805498307   0.015434384046427517
-0.38067050172425915   0.02466496805498307   0.015434384046427517
-0.7416941592161906   -0.029075621463158063   -0.011405782316558769
-0.7416941592161906   -0.029075621463158063   -0.011405782316558769
-0.7416941592161906   -0.029075621463158063   -0.011405782316558769
-0.7416941592161906   -0.029075621463158063   -0.011405782316558769
-1.3025559725251352   -0.10861011592339129   0.025243153648810114
-1.3025559725251352   -0.10861011592339129   0.025243153648810114
-1.3025559725251352   -0.10861011592339129   0.025243153648810114
-1.3025559725251352   -0.10861011592339129   0.025243153648810114
-1.2845316755384932   -0.11198681810355424   -0.053853119648541996
-1.2845316755384932   -0.11198681810355424   -0.053853119648541996
-1.2845316755384932   -0.11198681810355424   -0.053853119648541996
-1.2845316755384932   -0.11198681810355424   -0.053853119648541996
-0.6852162211573368   0.05042397688683964   0.0482620543666342
-0.6852162211573368   0.05042397688683964   0.0482620543666342
-0.6852162211573368   0.05042397688683964   0.0482620543666342
-0.6852162211573368   0.05042397688683964   0.0482620543666342
-0.9965563332810478   -0.04352140038905897   -0.005833730243849186
-0.9965563332810478   -0.04352140038905897   -0.005833730243849186
-0.9965563332810478   -0.04352140038905897   -0.005833730243849186
-0.9965563332810478   -0.04352140038905897   -0.005833730243849186
-0.7062230269614852   0.010979946656751643   -0.01732794442402038
-0.7062230269614852   0.010979946656751643   -0.01732794442402038
-0.7062230269614852   0.010979946656751643   -0.01732794442402038
-0.7062230269614852   0.010979946656751643   -0.01732794442402038
-1.2634539344628268   -0.07247185260194652   0.012020620228193453
-1.2634539344628268   -0.07247185260194652   0.012020620228193453
-1.2634539344628268   -0.07247185260194652   0.012020620228193453
-1.2634539344628268   -0.07247185260194652   0.012020620228193453
-1.2397777440108646   -0.07341682382395337   -0.05956414200594215
-1.2397777440108646   -0.07341682382395337   -0.05956414200594215
-1.2397777440108646   -0.07341682382395337   -0.05956414200594215
-1.2397777440108646   -0.07341682382395337   -0.05956414200594215
-0.6533078552325396   0.08153305665067587   0.038566346714132935
-0.6533078552325396   0.08153305665067587   0.038566346714132935
-0.6533078552325396   0.08153305665067587   0.038566346714132935
-0.6533078552325396   0.08153305665067587   0.038566346714132935
-0.9510481688333907   -0.007013775488073248   0.010697111114615986
-0.9510481688333907   -0.007013775488073248   0.010697111114615986
-0.9510481688333907   -0.007013775488073248   0.010697111114615986
-0.9510481688333907   -0.007013775488073248   0.010697111114615986
-0.6730271233574397   0.04678895104665082   -0.025285888306345858
-0.6730271233574397   0.04678895104665082   -0.025285888306345858
-0.6730271233574397   0.04678895104665082   -0.025285888306345858
-0.6730271233574397   0.04678895104665082   -0.025285888306345858
-1.2190295998643246   -0.03764384219828898   0.008403597101093549
-1.2190295998643246   -0.03764384219828898   0.008403597101093549
-1.2190295998643246   -0.03764384219828898   0.008403597101093549
-1.2190295998643246   -0.03764384219828898   0.008403597101093549
-1.1997577268297992   -0.03159745997241531   -0.06262183680948505
-1.1997577268297992   -0.03159745997241531   -0.06262183680948505
-1.1997577268297992   -0.03159745997241531   -0.06262183680948505
-1.1997577268297992   -0.03159745997241531   -0.06262183680948505
-0.6224033872318826   0.11575585905945016   0.031225696389207844
-0.6224033872318826   0.11575585905945016   0.031225696389207844
-0.6224033872318826   0.11575585905945016   0.031225696389207844
-0.6224033872318826   0.11575585905945016   0.031225696389207844
-0.9202072373462274   0.024209479093169034   0.024961925167248038
-0.9202072373462274   0.024209479093169034   0.024961925167248038
-0.9202072373462274   0.024209479093169034   0.024961925167248038
-0.9202072373462274   0.024209479093169034   0.024961925167248038
-1.3080913855455865   -0.06239694112299396   -0.04864708625384397
-1.3080913855455865   -0.06239694112299396   -0.04864708625384397
-1.3080913855455865   -0.06239694112299396   -0.04864708625384397
-1.3080913855455865   -0.06239694112299396   -0.04864708625384397
-1.8640397914208573   -0.06717290207890375   0.08432044777900181
-1.8640397914208573   -0.06717290207890375   0.08432044777900181
-1.8640397914208573   -0.06717290207890375   0.08432044777900181
-1.8640397914208573   -0.06717290207890375   0.08432044777900181
-1.827981172100753   -0.13408215702789894   -0.06439736256912398
-1.827981172100753   -0.13408215702789894   -0.06439736256912398
-1.827981172100753   -0.13408215702789894   -0.06439736256912398
-1.827981172100753   -0.13408215702789894   -0.06439736256912398
-1.2133528213321267   0.10437377183970642   0.08568056144003056
-1.2133528213321267   0.10437377183970642   0.08568056144003056
-1.2133528213321267   0.10437377183970642   0.08568056144003056
-1.2133528213321267   0.10437377183970642   0.08568056144003056
-1.4844817232866672   -0.01835578354174744   0.017128773325069097
-1.4844817232866672   -0.01835578354174744   0.017128773325069097
-1.4844817232866672   -0.01835578354174744   0.017128773325069097
-1.4844817232866672   -0.01835578354174744   0.017128773325069097
-1.2661073418014441   -0.01964297688965111   -0.05407529217719376
-1.2661073418014441   -0.01964297688965111   -0.05407529217719376
-1.2661073418014441   -0.01964297688965111   -0.05407529217719376
-1.2661073418014441   -0.01964297688965111   -0.05407529217719376
-1.7743684840738807   -0.009207240740988276   0.07879116127831093
-1.7743684840738807   -0.009207240740988276   0.07879116127831093
-1.7743684840738807   -0.009207240740988276   0.07879116127831093
-1.7743684840738807   -0.009207240740988276   0.07879116127831093
-1.7603169792370146   -0.11013870379331242   -0.07582930266586292
-1.7603169792370146   -0.11013870379331242   -0.07582930266586292
-1.7603169792370146   -0.11013870379331242   -0.07582930266586292
-1.7603169792370146   -0.11013870379331242   -0.07582930266586292
-1.1757769718014617   0.11914375994688625   0.06787913527023305
-1.1757769718014617   0.11914375994688625   0.06787913527023305
-1.1757769718014617   0.11914375994688625   0.06787913527023305
-1.1757769718014617   0.11914375994688625   0.06787913527023305
-1.4494463473877732   0.007773713238419799   0.030906449464474295
-1.4494463473877732   0.007773713238419799   0.030906449464474295
-1.4494463473877732   0.007773713238419799   0.030906449464474295
-1.4494463473877732   0.007773713238419799   0.030906449464474295
-1.2255517917336993   -0.00032503887357560046   -0.061526165570494076
-1.2255517917336993   -0.00032503887357560046   -0.061526165570494076
-1.2255517917336993   -0.00032503887357560046   -0.061526165570494076
-1.2255517917336993   -0.00032503887357560046   -0.061526165570494076
-1.709689357164911   0.010182897167010263   0.0569872067343022
-1.709689357164911   0.010182897167010263   0.0569872067343022
-1.709689357164911   0.010182897167010263   0.0569872067343022
-1.709689357164911   0.010182897167010263   0.0569872067343022
-1.6863970746103323   -0.08134248722275361   -0.08639288913663434
-1.6863970746103323   -0.08134248722275361   -0.08639288913663434
-1.6863970746103323   -0.08134248722275361   -0.08639288913663434
-1.6863970746103323   -0.08134248722275361   -0.08639288913663434
-1.1427359057640956   0.13308225348818375   0.05780755505843389
-1.1427359057640956   0.13308225348818375   0.05780755505843389
-1.1427359057640956   0.13308225348818375   0.05780755505843389
-1.1427359057640956   0.13308225348818375   0.05780755505843389
-1.3749254595036131   0.029511424823651877   0.05169321321009712
-1.3749254595036131   0.029511424823651877   0.05169321321009712
-1.3749254595036131   0.029511424823651877   0.05169321321009712
-1.3749254595036131   0.029511424823651877   0.05169321321009712
1.6434378218775547   0.1227689493147553   0.08721884952951724
1.6434378218775547   0.1227689493147553   0.08721884952951724
1.6434378218775547   0.1227689493147553   0.08721884952951724
1.6434378218775547   0.1227689493147553   0.08721884952951724
0.7251978431758125   -0.19383993610304057   -0.04001367244935965
0.7251978431758125   -0.19383993610304057   -0.04001367244935965
0.7251978431758125   -0.19383993610304057   -0.04001367244935965
0.7251978431758125   -0.19383993610304057   -0.04001367244935965
0.8088531546634635   -0.03395701552999672   0.059933120699128775
0.8088531546634635   -0.03395701552999672   0.059933120699128775
0.8088531546634635   -0.03395701552999672   0.059933120699128775
0.8088531546634635   -0.03395701552999672   0.059933120699128775
1.6617033424102983   -0.003344715636145801   -0.06276301481890924
1.6617033424102983   -0.003344715636145801   -0.06276301481890924
1.6617033424102983   -0.003344715636145801   -0.06276301481890924
1.6617033424102983   -0.003344715636145801   -0.06276301481890924
1.1389236846321635   -0.03464958462934653   -0.08919002220073127
1.1389236846321635   -0.03464958462934653   -0.08919002220073127
1.1389236846321635   -0.03464958462934653   -0.08919002220073127
1.1389236846321635   -0.03464958462934653   -0.08919002220073127
1.7196830220552606   0.1508170561354042   0.07297361163433633
1.7196830220552606   0.1508170561354042   0.07297361163433633
1.7196830220552606   0.1508170561354042   0.07297361163433633
1.7196830220552606   0.1508170561354042   0.07297361163433633
0.7564385943791664   -0.18255366794088274   -0.05354302831146214
0.7564385943791664   -0.18255366794088274   -0.05354302831146214
0.7564385943791664   -0.18255366794088274   -0.05354302831146214
0.7564385943791664   -0.18255366794088274   -0.05354302831146214
0.8416194954068801   -0.0162672095143159   0.048466206236604616
0.8416194954068801   -0.0162672095143159   0.048466206236604616
0.8416194954068801   -0.0162672095143159   0.048466206236604616
0.8416194954068801   -0.0162672095143159   0.048466206236604616
1.7188854554213469   0.01616618016380028   -0.07845355632884772
1.7188854554213469   0.01616618016380028   -0.07845355632884772
1.7188854554213469   0.01616618016380028   -0.07845355632884772
1.7188854554213469   0.01616618016380028   -0.07845355632884772
1.2106786069004931   -0.01378624896581826   -0.06064915576516565
1.2106786069004931   -0.01378624896581826   -0.06064915576516565
1.2106786069004931   -0.01378624896581826   -0.06064915576516565
1.2106786069004931   -0.01378624896581826   -0.06064915576516565
1.7765303000965327   0.17184089968205854   0.05409594752882416
1.7765303000965327   0.17184089968205854   0.05409594752882416
1.7765303000965327   0.17184089968205854   0.05409594752882416
1.7765303000965327   0.17184089968205854   0.05409594752882416
0.788848384593616   -0.16706819517065225   -0.06458836217337967
0.788848384593616   -0.16706819517065225   -0.06458836217337967
0.788848384593616   -0.16706819517065225   -0.06458836217337967
0.788848384593616   -0.16706819517065225   -0.06458836217337967
0.8712951767655767   0.030964445884873903   0.042491749235968976
0.8712951767655767   0.030964445884873903   0.042491749235968976
0.8712951767655767   0.030964445884873903   0.042491749235968976
0.8712951767655767   0.030964445884873903   0.042491749235968976
1.789211514536798   0.07324334180082498   -0.08216844171798383
1.789211514536798   0.07324334180082498   -0.08216844171798383
1.789211514536798   0.07324334180082498   -0.08216844171798383
1.789211514536798   0.07324334180082498   -0.08216844171798383
1.237613472065871   0.014282309031723561   -0.040875750181122286
1.237613472065871   0.014282309031723561   -0.040875750181122286
1.237613472065871   0.014282309031723561   -0.040875750181122286
1.237613472065871   0.014282309031723561   -0.040875750181122286
0.802258610228393   0.07170384316031622   0.07974638355017725
0.802258610228393   0.07170384316031622   0.07974638355017725
0.802258610228393   0.07170384316031622   0.07974638355017725
0.802258610228393   0.07170384316031622   0.07974638355017725
-0.0986692145205742   -0.23895524858889725   -0.02276815793616061
-0.0986692145205742   -0.23895524858889725   -0.02276815793616061
-0.0986692145205742   -0.23895524858889725   -0.02276815793616061
-0.0986692145205742   -0.23895524858889725   -0.02276815793616061
-0.026565906502461812   -0.0842361444148631   0.020341104917287467
-0.026565906502461812   -0.0842361444148631   0.020341104917287467
-0.026565906502461812   -0.0842361444148631   0.020341104917287467
-0.026565906502461812   -0.0842361444148631   0.020341104917287467
0.7955337279756389   -0.044535433334335905   0.003914405064345795
0.7955337279756389   -0.044535433334335905   0.003914405064345795
0.7955337279756389   -0.044535433334335905   0.003914405064345795
0.7955337279756389   -0.044535433334335905   0.003914405064345795
0.35816652832592566   -0.06674154439286964   -0.04256472799489814
0.35816652832592566   -0.06674154439286964   -0.04256472799489814
0.35816652832592566   -0.06674154439286964   -0.04256472799489814
0.35816652832592566   -0.06674154439286964   -0.04256472799489814
0.8375100831885579   0.09863581841567085   0.07062492937893755
0.8375100831885579   0.09863581841567085   0.07062492937893755
0.8375100831885579   0.09863581841567085   0.07062492937893755
0.8375100831885579   0.09863581841567085   0.07062492937893755
-0.06561505895893636   -0.22448019340842484   -0.034660608371523544
-0.06561505895893636   -0.22448019340842484   -0.034660608371523544
-0.06561505895893636   -0.22448019340842484   -0.034660608371523544
-0.06561505895893636   -0.22448019340842484   -0.034660608371523544
0.006849693897504318   -0.052599704774588654   0.01243151123176657
0.006849693897504318   -0.052599704774588654   0.01243151123176657
0.006849693897504318   -0.052599704774588654   0.01243151123176657
0.006849693897504318   -0.052599704774588654   0.01243151123176657
0.8297412752413955   -0.020683621295244897   -0.006508482809888749
0.8297412752413955   -0.020683621295244897   -0.006508482809888749
0.8297412752413955   -0.020683621295244897   -0.006508482809888749
0.8297412752413955   -0.020683621295244897   -0.006508482809888749
0.3872128038683415   -0.04732222361397291   -0.027602643769034207
0.3872128038683415   -0.04732222361397291   -0.027602643769034207
0.3872128038683415   -0.04732222361397291   -0.027602643769034207
0.3872128038683415   -0.04732222361397291   -0.027602643769034207
0.8739729619875314   0.13094326043513355   0.06302306919041187
0.8739729619875314   0.13094326043513355   0.06302306919041187
0.8739729619875314   0.13094326043513355   0.06302306919041187
0.8739729619875314   0.13094326043513355   0.06302306919041187
-0.035645691323627035   -0.20249028497998245   -0.05015483466849259
-0.035645691323627035   -0.20249028497998245   -0.05015483466849259
-0.035645691323627035   -0.20249028497998245   -0.05015483466849259
-0.035645691323627035   -0.20249028497998245   -0.05015483466849259
0.03307668572116455   -0.015572447479426713   0.004434351334853922
0.03307668572116455   -0.015572447479426713   0.004434351334853922
0.03307668572116455   -0.015572447479426713   0.004434351334853922
0.03307668572116455   -0.015572447479426713   0.004434351334853922
0.8553630295440154   0.009722710968495613   -0.0159272519554702
0.8553630295440154   0.009722710968495613   -0.0159272519554702
0.8553630295440154   0.009722710968495613   -0.0159272519554702
0.8553630295440154   0.009722710968495613   -0.0159272519554702
0.4227346228665368   -0.018285036418745085   -0.011565499785327359
0.4227346228665368   -0.018285036418745085   -0.011565499785327359
0.4227346228665368   -0.018285036418745085   -0.011565499785327359
0.4227346228665368   -0.018285036418745085   -0.011565499785327359
-0.034424386980227976   0.019903411226638665   0.03959731995003459
-0.034424386980227976   0.019903411226638665   0.03959731995003459
-0.034424386980227976   0.019903411226638665   0.03959731995003459
-0.034424386980227976   0.019903411226638665   0.03959731995003459
-0.9162003219489578   -0.3000155910468116   -0.018344170311716278
-0.9162003219489578   -0.3000155910468116   -0.018344170311716278
-0.9162003219489578   -0.3000155910468116   -0.018344170311716278
-0.9162003219489578   -0.3000155910468116   -0.018344170311716278
-0.8431967889833051   -0.1292517427826564   -0.019269203132457877
-0.8431967889833051   -0.1292517427826564   -0.019269203132457877
-0.8431967889833051   -0.1292517427826564   -0.019269203132457877
-0.8431967889833051   -0.1292517427826564   -0.019269203132457877
-0.030955514087120016   -0.10367392440764694   0.017830846986780283
-0.030955514087120016   -0.10367392440764694   0.017830846986780283
-0.030955514087120016   -0.10367392440764694   0.017830846986780283
-0.030955514087120016   -0.10367392440764694   0.017830846986780283
-0.45828043864509266   -0.12138642352790352   -0.038039136300210746
-0.45828043864509266   -0.12138642352790352   -0.038039136300210746
-0.45828043864509266   -0.12138642352790352   -0.038039136300210746
-0.45828043864509266   -0.12138642352790352   -0.038039136300210746
0.00268760406552559   0.050211232601727995   0.03216128074063339
0.00268760406552559   0.050211232601727995   0.03216128074063339
0.00268760406552559   0.050211232601727995   0.03216128074063339
0.00268760406552559   0.050211232601727995   0.03216128074063339
-0.8747280935829587   -0.28102508623904954   -0.02515238267433286
-0.8747280935829587   -0.28102508623904954   -0.02515238267433286
-0.8747280935829587   -0.28102508623904954   -0.02515238267433286
-0.8747280935829587   -0.28102508623904954   -0.02515238267433286
-0.8017553653316365   -0.09412722463492913   -0.02625521156280743
-0.8017553653316365   -0.09412722463492913   -0.02625521156280743
-0.8017553653316365   -0.09412722463492913   -0.02625521156280743
-0.8017553653316365   -0.09412722463492913   -0.02625521156280743
0.00018057069471822534   -0.08075697149803424   0.007243161941285499
0.00018057069471822534   -0.08075697149803424   0.007243161941285499
0.00018057069471822534   -0.08075697149803424   0.007243161941285499
0.00018057069471822534   -0.08075697149803424   0.007243161941285499
-0.41805101490605834   -0.0961427369024101   -0.02114324983191274
-0.41805101490605834   -0.0961427369024101   -0.02114324983191274
-0.41805101490605834   -0.0961427369024101   -0.02114324983191274
-0.41805101490605834   -0.0961427369024101   -0.02114324983191274
0.03665047912631629   0.08381011090789268   0.025025621693348918
0.03665047912631629   0.08381011090789268   0.025025621693348918
0.03665047912631629   0.08381011090789268   0.025025621693348918
0.03665047912631629   0.08381011090789268   0.025025621693348918
-0.8382504563887189   -0.2587194896663291   -0.04413840181681328
-0.8382504563887189   -0.2587194896663291   -0.04413840181681328
-0.8382504563887189   -0.2587194896663291   -0.04413840181681328
-0.8382504563887189   -0.2587194896663291   -0.04413840181681328
-0.7724729787709608   -0.06065362174637265   -0.03407011807977235
-0.7724729787709608   -0.06065362174637265   -0.03407011807977235
-0.7724729787709608   -0.06065362174637265   -0.03407011807977235
-0.7724729787709608   -0.06065362174637265   -0.03407011807977235
0.02063263957684917   -0.06246434614479071   -0.010893980721359003
0.02063263957684917   -0.06246434614479071   -0.010893980721359003
0.02063263957684917   -0.06246434614479071   -0.010893980721359003
0.02063263957684917   -0.06246434614479071   -0.010893980721359003
-0.3885409650793163   -0.07260920264910051   -0.010579861741778282
-0.3885409650793163   -0.07260920264910051   -0.010579861741778282
-0.3885409650793163   -0.07260920264910051   -0.010579861741778282
-0.3885409650793163   -0.07260920264910051   -0.010579861741778282
-0.8577890354545546   -0.02497168751361717   -0.0013316413728999485
-0.8577890354545546   -0.02497168751361717   -0.0013316413728999485
-0.8577890354545546   -0.02497168751361717   -0.0013316413728999485
-0.8577890354545546   -0.02497168751361717   -0.0013316413728999485
-1.737389589660941   -0.3225527143113412   -0.014784383374511677
-1.737389589660941   -0.3225527143113412   -0.014784383374511677
-1.737389589660941   -0.3225527143113412   -0.014784383374511677
-1.737389589660941   -0.3225527143113412   -0.014784383374511677
-1.6589240493011777   -0.16544967429124954   -0.05739837337997083
-1.6589240493011777   -0.16544967429124954   -0.05739837337997083
-1.6589240493011777   -0.16544967429124954   -0.05739837337997083
-1.6589240493011777   -0.16544967429124954   -0.05739837337997083
-0.8274559821720742   -0.107687273093325   0.037870361234357
-0.8274559821720742   -0.107687273093325   0.037870361234357
-0.8274559821720742   -0.107687273093325   0.037870361234357
-0.8274559821720742   -0.107687273093325   0.037870361234357
-1.2592451087503032   -0.1458618024597031   -0.026820200604649267
-1.2592451087503032   -0.1458618024597031   -0.026820200604649267
-1.2592451087503032   -0.1458618024597031   -0.026820200604649267
-1.2592451087503032   -0.1458618024597031   -0.026820200604649267
-0.8120095229237881   0.014079985447262494   -0.006664601064800178
-0.8120095229237881   0.014079985447262494   -0.006664601064800178
-0.8120095229237881   0.014079985447262494   -0.006664601064800178
-0.8120095229237881   0.014079985447262494   -0.006664601064800178
-1.6750588049722859   -0.2879052292546572   -0.015616596772092203
-1.6750588049722859   -0.2879052292546572   -0.015616596772092203
-1.6750588049722859   -0.2879052292546572   -0.015616596772092203
-1.6750588049722859   -0.2879052292546572   -0.015616596772092203
-1.599703187001324   -0.12875651145596972   -0.06648616205031062
-1.599703187001324   -0.12875651145596972   -0.06648616205031062
-1.599703187001324   -0.12875651145596972   -0.06648616205031062
-1.599703187001324   -0.12875651145596972   -0.06648616205031062
-0.7871970626698384   -0.08012480303736759   0.0325338801486276
-0.7871970626698384   -0.08012480303736759   0.0325338801486276
-0.7871970626698384   -0.08012480303736759   0.0325338801486276
-0.7871970626698384   -0.08012480303736759   0.0325338801486276
-1.1984150733747612   -0.11065904163725637   -0.00885257492612615
-1.1984150733747612   -0.11065904163725637   -0.00885257492612615
-1.1984150733747612   -0.11065904163725637   -0.00885257492612615
-1.1984150733747612   -0.11065904163725637   -0.00885257492612615
-0.7704663755528615   0.048000488152509846   -0.011937975456375247
-0.7704663755528615   0.048000488152509846   -0.011937975456375247
-0.7704663755528615   0.048000488152509846   -0.011937975456375247
-0.7704663755528615   0.048000488152509846   -0.011937975456375247
-1.6193038377012536   -0.25975176622879903   -0.03349416077711437
-1.6193038377012536   -0.25975176622879903   -0.03349416077711437
-1.6193038377012536   -0.25975176622879903   -0.03349416077711437
-1.6193038377012536   -0.25975176622879903   -0.03349416077711437
-1.5516246232120199   -0.09005297420852987   -0.06859723397049372
-1.5516246232120199   -0.09005297420852987   -0.06859723397049372
-1.5516246232120199   -0.09005297420852987   -0.06859723397049372
-1.5516246232120199   -0.09005297420852987   -0.06859723397049372
-0.764064173071397   -0.06260205342353044   0.009922342095210836
-0.764064173071397   -0.06260205342353044   0.009922342095210836
-0.764064173071397   -0.06260205342353044   0.009922342095210836
-0.764064173071397   -0.06260205342353044   0.009922342095210836
-1.1647755615808297   -0.0891924099740698   -0.002997280684015731
-1.1647755615808297   -0.0891924099740698   -0.002997280684015731
-1.1647755615808297   -0.0891924099740698   -0.002997280684015731
-1.1647755615808297   -0.0891924099740698   -0.002997280684015731
-1.6898448173630776   -0.0576005367187023   -0.042012699477832136
-1.6898448173630776   -0.0576005367187023   -0.042012699477832136
-1.6898448173630776   -0.0576005367187023   -0.042012699477832136
-1.6898448173630776   -0.0576005367187023   -0.042012699477832136
-2.5480109130705526   -0.21781137358392894   0.09664169814264213
-2.5480109130705526   -0.21781137358392894   0.09664169814264213
-2.5480109130705526   -0.21781137358392894   0.09664169814264213
-2.5480109130705526   -0.21781137358392894   0.09664169814264213
-2.4601941445375552   -0.17336018080739213   -0.05614787859003395
-2.4601941445375552   -0.17336018080739213   -0.05614787859003395
-2.4601941445375552   -0.17336018080739213   -0.05614787859003395
-2.4601941445375552   -0.17336018080739213   -0.05614787859003395
-1.587522258980449   0.04538439859046345   0.08877650534194614
-1.587522258980449   0.04538439859046345   0.08877650534194614
-1.587522258980449   0.04538439859046345   0.08877650534194614
-1.587522258980449   0.04538439859046345   0.08877650534194614
-1.9787527489020615   -0.06843420683161772   0.009306354120189403
-1.9787527489020615   -0.06843420683161772   0.009306354120189403
-1.9787527489020615   -0.06843420683161772   0.009306354120189403
-1.9787527489020615   -0.06843420683161772   0.009306354120189403
-1.6245288215579052   -0.0043099352370212785   -0.04656197371782955
-1.6245288215579052   -0.0043099352370212785   -0.04656197371782955
-1.6245288215579052   -0.0043099352370212785   -0.04656197371782955
-1.6245288215579052   -0.0043099352370212785   -0.04656197371782955
-2.4172178985935906   -0.11769616361339574   0.10306933393579204
-2.4172178985935906   -0.11769616361339574   0.10306933393579204
-2.4172178985935906   -0.11769616361339574   0.10306933393579204
-2.4172178985935906   -0.11769616361339574   0.10306933393579204
-2.366009775586523   -0.14585183087435055   -0.06686601505088922
-2.366009775586523   -0.14585183087435055   -0.06686601505088922
-2.366009775586523   -0.14585183087435055   -0.06686601505088922
-2.366009775586523   -0.14585183087435055   -0.06686601505088922
-1.5289407040439729   0.07281806001331043   0.08575168126716391
-1.5289407040439729   0.07281806001331043   0.08575168126716391
-1.5289407040439729   0.07281806001331043   0.08575168126716391
-1.5289407040439729   0.07281806001331043   0.08575168126716391
-1.9230075197719612   -0.02760733561239309   0.03936620424977294
-1.9230075197719612   -0.02760733561239309   0.03936620424977294
-1.9230075197719612   -0.02760733561239309   0.03936620424977294
-1.9230075197719612   -0.02760733561239309   0.03936620424977294
-1.5672658323426434   0.01721581728503585   -0.050271717497898355
-1.5672658323426434   0.01721581728503585   -0.050271717497898355
-1.5672658323426434   0.01721581728503585   -0.050271717497898355
-1.5672658323426434   0.01721581728503585   -0.050271717497898355
-2.3264870576764984   -0.08905199853470203   0.0739477421595659
-2.3264870576764984   -0.08905199853470203   0.0739477421595659
-2.3264870576764984   -0.08905199853470203   0.0739477421595659
-2.3264870576764984   -0.08905199853470203   0.0739477421595659
-2.2686196526690243   -0.11981572215049302   -0.08079857623002117
-2.2686196526690243   -0.11981572215049302   -0.08079857623002117
-2.2686196526690243   -0.11981572215049302   -0.08079857623002117
-2.2686196526690243   -0.11981572215049302   -0.08079857623002117
-1.4854745765767936   0.10573165025297682   0.06636837474413207
-1.4854745765767936   0.10573165025297682   0.06636837474413207
-1.4854745765767936   0.10573165025297682   0.06636837474413207
-1.4854745765767936   0.10573165025297682   0.06636837474413207
-1.8183745720820548   0.0073122105140728255   0.0694323643134687
-1.8183745720820548   0.0073122105140728255   0.0694323643134687
-1.8183745720820548   0.0073122105140728255   0.0694323643134687
-1.8183745720820548   0.0073122105140728255   0.0694323643134687
2.2454670858012453   0.1345295649054245   0.0815645899675942
2.2454670858012453   0.1345295649054245   0.0815645899675942
2.2454670858012453   0.1345295649054245   0.0815645899675942
2.2454670858012453   0.1345295649054245   0.0815645899675942
1.0707508006809658   -0.20072586457138292   0.018415684155376963
1.0707508006809658   -0.20072586457138292   0.018415684155376963
1.0707508006809658   -0.20072586457138292   0.018415684155376963
1.0707508006809658   -0.20072586457138292   0.018415684155376963
1.1299864227126746   -0.08457613591267149   0.06279680349608581
1.1299864227126746   -0.08457613591267149   0.06279680349608581
1.1299864227126746   -0.08457613591267149   0.06279680349608581
1.1299864227126746   -0.08457613591267149   0.06279680349608581
2.257392964728047   0.018847496540026654   -0.018010067228392282
2.257392964728047   0.018847496540026654   -0.018010067228392282
2.257392964728047   0.018847496540026654   -0.018010067228392282
2.257392964728047   0.018847496540026654   -0.018010067228392282
1.57889175125517   -0.043213626542209504   -0.10502837376041532
1.57889175125517   -0.043213626542209504   -0.10502837376041532
1.57889175125517   -0.043213626542209504   -0.10502837376041532
1.57889175125517   -0.043213626542209504   -0.10502837376041532
2.300084791906272   0.1497862418894857   0.06451032331327443
2.300084791906272   0.1497862418894857   0.06451032331327443
2.300084791906272   0.1497862418894857   0.06451032331327443
2.300084791906272   0.1497862418894857   0.06451032331327443
1.0975494406772182   -0.2052600361193619   0.02129579352549381
1.0975494406772182   -0.2052600361193619   0.02129579352549381
1.0975494406772182   -0.2052600361193619   0.02129579352549381
1.0975494406772182   -0.2052600361193619   0.02129579352549381
1.1524612460928496   -0.071868232616916   0.04779858909606784
1.1524612460928496   -0.071868232616916   0.04779858909606784
1.1524612460928496   -0.071868232616916   0.04779858909606784
1.1524612460928496   -0.071868232616916   0.04779858909606784
2.2970584919755384   0.03318097178715562   -0.005366883730304001
2.2970584919755384   0.03318097178715562   -0.005366883730304001
2.2970584919755384   0.03318097178715562   -0.005366883730304001
2.2970584919755384   0.03318097178715562   -0.005366883730304001
1.6441324273584887   -0.034197486594621795   -0.07171828929325037
1.6441324273584887   -0.034197486594621795   -0.07171828929325037
1.6441324273584887   -0.034197486594621795   -0.07171828929325037
1.6441324273584887   -0.034197486594621795   -0.07171828929325037
2.3331675235601295   0.16365429521107294   0.04470495076873281
2.3331675235601295   0.16365429521107294   0.04470495076873281
2.3331675235601295   0.16365429521107294   0.04470495076873281
2.3331675235601295   0.16365429521107294   0.04470495076873281
1.1234860811923992   -0.19520768935669286   0.026262221333592878
1.1234860811923992   -0.19520768935669286   0.026262221333592878
1.1234860811923992   -0.19520768935669286   0.026262221333592878
1.1234860811923992   -0.19520768935669286   0.026262221333592878
1.1855207347158803   -0.022322058794488342   0.04369533512630598
1.1855207347158803   -0.022322058794488342   0.04369533512630598
1.1855207347158803   -0.022322058794488342   0.04369533512630598
1.1855207347158803   -0.022322058794488342   0.04369533512630598
2.3382866147756016   0.06596309818758489   -0.0007255208863334445
2.3382866147756016   0.06596309818758489   -0.0007255208863334445
2.3382866147756016   0.06596309818758489   -0.0007255208863334445
2.3382866147756016   0.06596309818758489   -0.0007255208863334445
1.6523345141758665   -0.015837186747995557   -0.05356485192899675
1.6523345141758665   -0.015837186747995557   -0.05356485192899675
1.6523345141758665   -0.015837186747995557   -0.05356485192899675
1.6523345141758665   -0.015837186747995557   -0.05356485192899675
1.129971755304223   0.028404579586125273   0.08539001311415481
1.129971755304223   0.028404579586125273   0.08539001311415481
1.129971755304223   0.028404579586125273   0.08539001311415481
1.129971755304223   0.028404579586125273   0.08539001311415481
0.0601997505966079   -0.40023481467493605   0.041238334660452014
0.0601997505966079   -0.40023481467493605   0.041238334660452014
0.0601997505966079   -0.40023481467493605   0.041238334660452014
0.0601997505966079   -0.40023481467493605   0.041238334660452014
0.1374540638831324   -0.16925493507627304   0.03839656044710554
0.1374540638831324   -0.16925493507627304   0.03839656044710554
0.1374540638831324   -0.16925493507627304   0.03839656044710554
0.1374540638831324   -0.16925493507627304   0.03839656044710554
1.1009414497111962   -0.19300265358307162   0.025998456159085304
1.1009414497111962   -0.19300265358307162   0.025998456159085304
1.1009414497111962   -0.19300265358307162   0.025998456159085304
1.1009414497111962   -0.19300265358307162   0.025998456159085304
0.587400039742633   -0.17964154817818073   -0.06726010502369614
0.587400039742633   -0.17964154817818073   -0.06726010502369614
0.587400039742633   -0.17964154817818073   -0.06726010502369614
0.587400039742633   -0.17964154817818073   -0.06726010502369614
1.1568400231229237   0.04120056550766388   0.07128810412699862
1.1568400231229237   0.04120056550766388   0.07128810412699862
1.1568400231229237   0.04120056550766388   0.07128810412699862
1.1568400231229237   0.04120056550766388   0.07128810412699862
0.0963115617790371   -0.38870208285937435   0.05213119770973054
0.0963115617790371   -0.38870208285937435   0.05213119770973054
0.0963115617790371   -0.38870208285937435   0.05213119770973054
0.0963115617790371   -0.38870208285937435   0.05213119770973054
0.16853560183999863   -0.1460520280412178   0.027855156861704873
0.16853560183999863   -0.1460520280412178   0.027855156861704873
0.16853560183999863   -0.1460520280412178   0.027855156861704873
0.16853560183999863   -0.1460520280412178   0.027855156861704873
1.1275360384781092   -0.18086733492007911   0.03217165332552936
1.1275360384781092   -0.18086733492007911   0.03217165332552936
1.1275360384781092   -0.18086733492007911   0.03217165332552936
1.1275360384781092   -0.18086733492007911   0.03217165332552936
0.6138795918082903   -0.17077261716093556   -0.03362948005337314
0.6138795918082903   -0.17077261716093556   -0.03362948005337314
0.6138795918082903   -0.17077261716093556   -0.03362948005337314
0.6138795918082903   -0.17077261716093556   -0.03362948005337314
1.181896144263485   0.0630583487813369   0.060046498550991985
1.181896144263485   0.0630583487813369   0.060046498550991985
1.181896144263485   0.0630583487813369   0.060046498550991985
1.181896144263485   0.0630583487813369   0.060046498550991985
0.1283737060333589   -0.37577950176389724   0.056773151551189324
0.1283737060333589   -0.37577950176389724   0.056773151551189324
0.1283737060333589   -0.37577950176389724   0.056773151551189324
0.1283737060333589   -0.37577950176389724   0.056773151551189324
0.21622744416051048   -0.11122436024192191   0.018472977375947018
0.21622744416051048   -0.11122436024192191   0.018472977375947018
0.21622744416051048   -0.11122436024192191   0.018472977375947018
0.21622744416051048   -0.11122436024192191   0.018472977375947018
1.1566543699644771   -0.16241330365378692   0.039454756228588864
1.1566543699644771   -0.16241330365378692   0.039454756228588864
1.1566543699644771   -0.16241330365378692   0.039454756228588864
1.1566543699644771   -0.16241330365378692   0.039454756228588864
0.6602343365424581   -0.1492656675582998   0.005499636775714231
0.6602343365424581   -0.1492656675582998   0.005499636775714231
0.6602343365424581   -0.1492656675582998   0.005499636775714231
0.6602343365424581   -0.1492656675582998   0.005499636775714231
0.12767950791363214   -0.07657527474818573   0.05497758131882296
0.12767950791363214   -0.07657527474818573   0.05497758131882296
0.12767950791363214   -0.07657527474818573   0.05497758131882296
0.12767950791363214   -0.07657527474818573   0.05497758131882296
-0.958785547448424   -0.6877806961215944   0.05963965833431775
-0.958785547448424   -0.6877806961215944   0.05963965833431775
-0.958785547448424   -0.6877806961215944   0.05963965833431775
-0.958785547448424   -0.6877806961215944   0.05963965833431775
-0.8365966717496023   -0.26755457265625865   0.00406876340626542
-0.8365966717496023   -0.26755457265625865   0.00406876340626542
-0.8365966717496023   -0.26755457265625865   0.00406876340626542
-0.8365966717496023   -0.26755457265625865   0.00406876340626542
0.06792269469717316   -0.5011209224787632   0.02260570191979963
0.06792269469717316   -0.5011209224787632   0.02260570191979963
0.06792269469717316   -0.5011209224787632   0.02260570191979963
0.06792269469717316   -0.5011209224787632   0.02260570191979963
-0.4125329784912868   -0.3860117387384688   -0.08071353277086352
-0.4125329784912868   -0.3860117387384688   -0.08071353277086352
-0.4125329784912868   -0.3860117387384688   -0.08071353277086352
-0.4125329784912868   -0.3860117387384688   -0.08071353277086352
0.16022566843061692   -0.06033660639984737   0.04333625450810261
0.16022566843061692   -0.06033660639984737   0.04333625450810261
0.16022566843061692   -0.06033660639984737   0.04333625450810261
0.16022566843061692   -0.06033660639984737   0.04333625450810261
-0.9075611485485664   -0.687000391800704   0.06869219855589612
-0.9075611485485664   -0.687000391800704   0.06869219855589612
-0.9075611485485664   -0.687000391800704   0.06869219855589612
-0.9075611485485664   -0.687000391800704   0.06869219855589612
-0.7894684357408195   -0.2401192624427143   8.071365336126055e-05
-0.7894684357408195   -0.2401192624427143   8.071365336126055e-05
-0.7894684357408195   -0.2401192624427143   8.071365336126055e-05
-0.7894684357408195   -0.2401192624427143   8.071365336126055e-05
0.10068374362285704   -0.49016851076298873   0.03271234849777166
0.10068374362285704   -0.49016851076298873   0.03271234849777166
0.10068374362285704   -0.49016851076298873   0.03271234849777166
0.10068374362285704   -0.49016851076298873   0.03271234849777166
-0.36481461038030405   -0.37290120603101673   -0.03013845812510549
-0.36481461038030405   -0.37290120603101673   -0.03013845812510549
-0.36481461038030405   -0.37290120603101673   -0.03013845812510549
-0.36481461038030405   -0.37290120603101673   -0.03013845812510549
0.1899807074640579   -0.038699870953544734   0.02772852789433194
0.1899807074640579   -0.038699870953544734   0.02772852789433194
0.1899807074640579   -0.038699870953544734   0.02772852789433194
0.1899807074640579   -0.038699870953544734   0.02772852789433194
-0.859490177883504   -0.6723126805536499   0.08216542105088792
-0.859490177883504   -0.6723126805536499   0.08216542105088792
-0.859490177883504   -0.6723126805536499   0.08216542105088792
-0.859490177883504   -0.6723126805536499   0.08216542105088792
-0.7117025008734055   -0.20850995900695735   -0.008786904581876271
-0.7117025008734055   -0.20850995900695735   -0.008786904581876271
-0.7117025008734055   -0.20850995900695735   -0.008786904581876271
-0.7117025008734055   -0.20850995900695735   -0.008786904581876271
0.15182836730240218   -0.4594722927619115   0.04472552560539511
0.15182836730240218   -0.4594722927619115   0.04472552560539511
0.15182836730240218   -0.4594722927619115   0.04472552560539511
0.15182836730240218   -0.4594722927619115   0.04472552560539511
-0.3028716279046632   -0.343445174839046   0.022836743665757067
-0.3028716279046632   -0.343445174839046   0.022836743665757067
-0.3028716279046632   -0.343445174839046   0.022836743665757067
-0.3028716279046632   -0.343445174839046   0.022836743665757067
-0.8555134074946343   -0.1379805573390368   0.026200219320703384
-0.8555134074946343   -0.1379805573390368   0.026200219320703384
-0.8555134074946343   -0.1379805573390368   0.026200219320703384
-0.8555134074946343   -0.1379805573390368   0.026200219320703384
-2.134575906731643   -1.0710391416096843   -0.05073246221952668
-2.134575906731643   -1.0710391416096843   -0.05073246221952668
-2.134575906731643   -1.0710391416096843   -0.05073246221952668
-2.134575906731643   -1.0710391416096843   -0.05073246221952668
-1.9328740264538358   -0.34814489559450573   -0.05899970698972353
-1.9328740264538358   -0.34814489559450573   -0.05899970698972353
-1.9328740264538358   -0.34814489559450573   -0.05899970698972353
-1.9328740264538358   -0.34814489559450573   -0.05899970698972353
-0.95952326344023   -0.8959725183861711   0.017853750683039682
-0.95952326344023   -0.8959725183861711   0.017853750683039682
-0.95952326344023   -0.8959725183861711   0.017853750683039682
-0.95952326344023   -0.8959725183861711   0.017853750683039682
-1.4689499255855063   -0.6334815118546572   -0.08475538562594549
-1.4689499255855063   -0.6334815118546572   -0.08475538562594549
-1.4689499255855063   -0.6334815118546572   -0.08475538562594549
-1.4689499255855063   -0.6334815118546572   -0.08475538562594549
-0.7998249820039243   -0.10471718117573918   0.025089820654136095
-0.7998249820039243   -0.10471718117573918   0.025089820654136095
-0.7998249820039243   -0.10471718117573918   0.025089820654136095
-0.7998249820039243   -0.10471718117573918   0.025089820654136095
-2.0877842792192003   -1.1346122041339761   -0.04708366227707572
-2.0877842792192003   -1.1346122041339761   -0.04708366227707572
-2.0877842792192003   -1.1346122041339761   -0.04708366227707572
-2.0877842792192003   -1.1346122041339761   -0.04708366227707572
-1.8701676923926238   -0.31524705280489157   -0.06010673896620666
-1.8701676923926238   -0.31524705280489157   -0.06010673896620666
-1.8701676923926238   -0.31524705280489157   -0.06010673896620666
-1.8701676923926238   -0.31524705280489157   -0.06010673896620666
-0.913854473301345   -0.889001957131211   0.027033220539237512
-0.913854473301345   -0.889001957131211   0.027033220539237512
-0.913854473301345   -0.889001957131211   0.027033220539237512
-0.913854473301345   -0.889001957131211   0.027033220539237512
-1.403196738637516   -0.6164351111849664   -0.05957701649472705
-1.403196738637516   -0.6164351111849664   -0.05957701649472705
-1.403196738637516   -0.6164351111849664   -0.05957701649472705
-1.403196738637516   -0.6164351111849664   -0.05957701649472705
-0.7554943008529799   -0.07860383464479308   0.008435960294641717
-0.7554943008529799   -0.07860383464479308   0.008435960294641717
-0.7554943008529799   -0.07860383464479308   0.008435960294641717
-0.7554943008529799   -0.07860383464479308   0.008435960294641717
-2.0284774068314007   -1.1255947172817091   -0.04130764668325912
-2.0284774068314007   -1.1255947172817091   -0.04130764668325912
-2.0284774068314007   -1.1255947172817091   -0.04130764668325912
-2.0284774068314007   -1.1255947172817091   -0.04130764668325912
-1.7723768951599865   -0.27987578131761554   -0.068133575286625
-1.7723768951599865   -0.27987578131761554   -0.068133575286625
-1.7723768951599865   -0.27987578131761554   -0.068133575286625
-1.7723768951599865   -0.27987578131761554   -0.068133575286625
-0.8150550730061111   -0.7996455853245392   0.06558586107218861
-0.8150550730061111   -0.7996455853245392   0.06558586107218861
-0.8150550730061111   -0.7996455853245392   0.06558586107218861
-0.8150550730061111   -0.7996455853245392   0.06558586107218861
-1.329804527366   -0.5589013543392063   -0.033300998454014796
-1.329804527366   -0.5589013543392063   -0.033300998454014796
-1.329804527366   -0.5589013543392063   -0.033300998454014796
-1.329804527366   -0.5589013543392063   -0.033300998454014796
-1.936449943622668   -0.11754656414978987   -0.013595224134546821
-1.936449943622668   -0.11754656414978987   -0.013595224134546821
-1.936449943622668   -0.11754656414978987   -0.013595224134546821
-1.936449943622668   -0.11754656414978987   -0.013595224134546821
-3.4185795099602725   -0.6767439169183559   0.03485992536849303
-3.4185795099602725   -0.6767439169183559   0.03485992536849303
-3.4185795099602725   -0.6767439169183559   0.03485992536849303
-3.4185795099602725   -0.6767439169183559   0.03485992536849303
-3.2838045561913694   -0.3260607427844213   -0.07216690432161885
-3.2838045561913694   -0.3260607427844213   -0.07216690432161885
-3.2838045561913694   -0.3260607427844213   -0.07216690432161885
-3.2838045561913694   -0.3260607427844213   -0.07216690432161885
-1.8931638545275578   -0.35029293291340236   0.14169918996054598
-1.8931638545275578   -0.35029293291340236   0.14169918996054598
-1.8931638545275578   -0.35029293291340236   0.14169918996054598
-1.8931638545275578   -0.35029293291340236   0.14169918996054598
-2.5263116559966163   -0.3926313482430889   0.03633194752570098
-2.5263116559966163   -0.3926313482430889   0.03633194752570098
-2.5263116559966163   -0.3926313482430889   0.03633194752570098
-2.5263116559966163   -0.3926313482430889   0.03633194752570098
-1.8565751845434664   -0.026092971830829592   0.00044257879843720427
-1.8565751845434664   -0.026092971830829592   0.00044257879843720427
-1.8565751845434664   -0.026092971830829592   0.00044257879843720427
-1.8565751845434664   -0.026092971830829592   0.00044257879843720427
-3.333261004968623   -0.6631284826601598   0.01761859166782409
-3.333261004968623   -0.6631284826601598   0.01761859166782409
-3.333261004968623   -0.6631284826601598   0.01761859166782409
-3.333261004968623   -0.6631284826601598   0.01761859166782409
-3.2094669570108967   -0.29875601649842987   -0.09159244832467528
-3.2094669570108967   -0.29875601649842987   -0.09159244832467528
-3.2094669570108967   -0.29875601649842987   -0.09159244832467528
-3.2094669570108967   -0.29875601649842987   -0.09159244832467528
-1.8286089171555744   -0.332694805456902   0.16513488987106428
-1.8286089171555744   -0.332694805456902   0.16513488987106428
-1.8286089171555744   -0.332694805456902   0.16513488987106428
-1.8286089171555744   -0.332694805456902   0.16513488987106428
-2.4869908866159856   -0.32331697686891114   0.03489697384896271
-2.4869908866159856   -0.32331697686891114   0.03489697384896271
-2.4869908866159856   -0.32331697686891114   0.03489697384896271
-2.4869908866159856   -0.32331697686891114   0.03489697384896271
-1.799059697660013   -0.00193236548743686   -0.01788145262059382
-1.799059697660013   -0.00193236548743686   -0.01788145262059382
-1.799059697660013   -0.00193236548743686   -0.01788145262059382
-1.799059697660013   -0.00193236548743686   -0.01788145262059382
-3.243768978717895   -0.6342712586793366   0.07241268532121203
-3.243768978717895   -0.6342712586793366   0.07241268532121203
-3.243768978717895   -0.6342712586793366   0.07241268532121203
-3.243768978717895   -0.6342712586793366   0.07241268532121203
-3.0551089893532084   -0.24193974598427026   -0.10235419366568818
-3.0551089893532084   -0.24193974598427026   -0.10235419366568818
-3.0551089893532084   -0.24193974598427026   -0.10235419366568818
-3.0551089893532084   -0.24193974598427026   -0.10235419366568818
-1.728220365893667   -0.30924117936104933   0.18201446908842034
-1.728220365893667   -0.30924117936104933   0.18201446908842034
-1.728220365893667   -0.30924117936104933   0.18201446908842034
-1.728220365893667   -0.30924117936104933   0.18201446908842034
-2.337863822383358   -0.24713878838151734   0.07140298041236953
-2.337863822383358   -0.24713878838151734   0.07140298041236953
-2.337863822383358   -0.24713878838151734   0.07140298041236953
-2.337863822383358   -0.24713878838151734   0.07140298041236953
2.4594424279576845   0.08026603049457443   0.03468353220844479
2.4594424279576845   0.08026603049457443   0.03468353220844479
2.4594424279576845   0.08026603049457443   0.03468353220844479
2.4594424279576845   0.08026603049457443   0.03468353220844479
1.2562909119801131   -0.06596271250049213   0.02565850946661649
1.2562909119801131   -0.06596271250049213   0.02565850946661649
1.2562909119801131   -0.06596271250049213   0.02565850946661649
1.2562909119801131   -0.06596271250049213   0.02565850946661649
1.2070453252993638   -0.17755840156392177   0.0503080816805488
1.2070453252993638   -0.17755840156392177   0.0503080816805488
1.2070453252993638   -0.17755840156392177   0.0503080816805488
1.2070453252993638   -0.17755840156392177   0.0503080816805488
2.4415684518859124   0.13758893473354283   0.018618952569504243
2.4415684518859124   0.13758893473354283   0.018618952569504243
2.4415684518859124   0.13758893473354283   0.018618952569504243
2.4415684518859124   0.13758893473354283   0.018618952569504243
1.7429608394905352   -0.024838650370475945   -0.06433188141340088
1.7429608394905352   -0.024838650370475945   -0.06433188141340088
1.7429608394905352   -0.024838650370475945   -0.06433188141340088
1.7429608394905352   -0.024838650370475945   -0.06433188141340088
2.428017677294018   0.06188771280634525   0.026566301537229817
2.428017677294018   0.06188771280634525   0.026566301537229817
2.428017677294018   0.06188771280634525   0.026566301537229817
2.428017677294018   0.06188771280634525   0.026566301537229817
1.2165574934172454   -0.10589578611073691   0.026206306816772412
1.2165574934172454   -0.10589578611073691   0.026206306816772412
1.2165574934172454   -0.10589578611073691   0.026206306816772412
1.2165574934172454   -0.10589578611073691   0.026206306816772412
1.1756688422343402   -0.18169713041965113   0.04163225497686038
1.1756688422343402   -0.18169713041965113   0.04163225497686038
1.1756688422343402   -0.18169713041965113   0.04163225497686038
1.1756688422343402   -0.18169713041965113   0.04163225497686038
2.412872994465308   0.13158645937466046   0.032133654739812015
2.412872994465308   0.13158645937466046   0.032133654739812015
2.412872994465308   0.13158645937466046   0.032133654739812015
2.412872994465308   0.13158645937466046   0.032133654739812015
1.7376362194938475   -0.034270890574429225   -0.07455274510675199
1.7376362194938475   -0.034270890574429225   -0.07455274510675199
1.7376362194938475   -0.034270890574429225   -0.07455274510675199
1.7376362194938475   -0.034270890574429225   -0.07455274510675199
2.3927175203413396   0.05497891908775876   0.00796382440684884
2.3927175203413396   0.05497891908775876   0.00796382440684884
2.3927175203413396   0.05497891908775876   0.00796382440684884
2.3927175203413396   0.05497891908775876   0.00796382440684884
1.1885824145189428   -0.11233149197210895   0.03683447795233015
1.1885824145189428   -0.11233149197210895   0.03683447795233015
1.1885824145189428   -0.11233149197210895   0.03683447795233015
1.1885824145189428   -0.11233149197210895   0.03683447795233015
1.1425502775301892   -0.1658497347809721   0.03594665151629424
1.1425502775301892   -0.1658497347809721   0.03594665151629424
1.1425502775301892   -0.1658497347809721   0.03594665151629424
1.1425502775301892   -0.1658497347809721   0.03594665151629424
2.3686348641890347   0.13295407540053028   0.04614141809099842
2.3686348641890347   0.13295407540053028   0.04614141809099842
2.3686348641890347   0.13295407540053028   0.04614141809099842
2.3686348641890347   0.13295407540053028   0.04614141809099842
1.6722252311875492   -0.03458020411458196   -0.10073222878691562
1.6722252311875492   -0.03458020411458196   -0.10073222878691562
1.6722252311875492   -0.03458020411458196   -0.10073222878691562
1.6722252311875492   -0.03458020411458196   -0.10073222878691562
1.2448042432096293   -0.15925757705140092   0.06152003016510607
1.2448042432096293   -0.15925757705140092   0.06152003016510607
1.2448042432096293   -0.15925757705140092   0.06152003016510607
1.2448042432096293   -0.15925757705140092   0.06152003016510607
0.24299235667834393   -0.14826076052133919   0.013324360094124112
0.24299235667834393   -0.14826076052133919   0.013324360094124112
0.24299235667834393   -0.14826076052133919   0.013324360094124112
0.24299235667834393   -0.14826076052133919   0.013324360094124112
0.1580835783727447   -0.37354323588796423   0.06615341597307375
0.1580835783727447   -0.37354323588796423   0.06615341597307375
0.1580835783727447   -0.37354323588796423   0.06615341597307375
0.1580835783727447   -0.37354323588796423   0.06615341597307375
1.2516491037048156   0.04820490152685847   0.047563670617027085
1.2516491037048156   0.04820490152685847   0.047563670617027085
1.2516491037048156   0.04820490152685847   0.047563670617027085
1.2516491037048156   0.04820490152685847   0.047563670617027085
0.7132543457014151   -0.15884564979819016   -0.0027143714775627187
0.7132543457014151   -0.15884564979819016   -0.0027143714775627187
0.7132543457014151   -0.15884564979819016   -0.0027143714775627187
0.7132543457014151   -0.15884564979819016   -0.0027143714775627187
1.209563565266931   -0.16617478809404163   0.05151566804850041
1.209563565266931   -0.16617478809404163   0.05151566804850041
1.209563565266931   -0.16617478809404163   0.05151566804850041
1.209563565266931   -0.16617478809404163   0.05151566804850041
0.1895429059272225   -0.16978975715047157   0.019696575007969883
0.1895429059272225   -0.16978975715047157   0.019696575007969883
0.1895429059272225   -0.16978975715047157   0.019696575007969883
0.1895429059272225   -0.16978975715047157   0.019696575007969883
0.12007246631379297   -0.37694752185451763   0.059234290817653065
0.12007246631379297   -0.37694752185451763   0.059234290817653065
0.12007246631379297   -0.37694752185451763   0.059234290817653065
0.12007246631379297   -0.37694752185451763   0.059234290817653065
1.2227112214110445   0.038775675669209086   0.05637134477152142
1.2227112214110445   0.038775675669209086   0.05637134477152142
1.2227112214110445   0.038775675669209086   0.05637134477152142
1.2227112214110445   0.038775675669209086   0.05637134477152142
0.6616487659817628   -0.16932221647749973   -0.03425798034748853
0.6616487659817628   -0.16932221647749973   -0.03425798034748853
0.6616487659817628   -0.16932221647749973   -0.03425798034748853
0.6616487659817628   -0.16932221647749973   -0.03425798034748853
1.178479149715902   -0.16859642578718775   0.042583087752193674
1.178479149715902   -0.16859642578718775   0.042583087752193674
1.178479149715902   -0.16859642578718775   0.042583087752193674
1.178479149715902   -0.16859642578718775   0.042583087752193674
0.1527588226833256   -0.18112113572373276   0.026839686534531268
0.1527588226833256   -0.18112113572373276   0.026839686534531268
0.1527588226833256   -0.18112113572373276   0.026839686534531268
0.1527588226833256   -0.18112113572373276   0.026839686534531268
0.07753330532088136   -0.3768502848707594   0.04639091478732214
0.07753330532088136   -0.3768502848707594   0.04639091478732214
0.07753330532088136   -0.3768502848707594   0.04639091478732214
0.07753330532088136   -0.3768502848707594   0.04639091478732214
1.1898698041582736   0.03928024633427868   0.06741430354147387
1.1898698041582736   0.03928024633427868   0.06741430354147387
1.1898698041582736   0.03928024633427868   0.06741430354147387
1.1898698041582736   0.03928024633427868   0.06741430354147387
0.630090817200538   -0.16809255494623435   -0.06110592538358342
0.630090817200538   -0.16809255494623435   -0.06110592538358342
0.630090817200538   -0.16809255494623435   -0.06110592538358342
0.630090817200538   -0.16809255494623435   -0.06110592538358342
0.18922566006458116   -0.45905030248755224   0.055280418991523445
0.18922566006458116   -0.45905030248755224   0.055280418991523445
0.18922566006458116   -0.45905030248755224   0.055280418991523445
0.18922566006458116   -0.45905030248755224   0.055280418991523445
-0.7310497919272739   -0.23023815532116088   0.000951837019728629
-0.7310497919272739   -0.23023815532116088   0.000951837019728629
-0.7310497919272739   -0.23023815532116088   0.000951837019728629
-0.7310497919272739   -0.23023815532116088   0.000951837019728629
-0.8846640351521518   -0.680995196696898   0.07582106067851149
-0.8846640351521518   -0.680995196696898   0.07582106067851149
-0.8846640351521518   -0.680995196696898   0.07582106067851149
-0.8846640351521518   -0.680995196696898   0.07582106067851149
0.2176899697832114   -0.03939491473493873   0.03003705187237769
0.2176899697832114   -0.03939491473493873   0.03003705187237769
0.2176899697832114   -0.03939491473493873   0.03003705187237769
0.2176899697832114   -0.03939491473493873   0.03003705187237769
-0.2981318958229308   -0.34746129979637985   0.0130363668855379
-0.2981318958229308   -0.34746129979637985   0.0130363668855379
-0.2981318958229308   -0.34746129979637985   0.0130363668855379
-0.2981318958229308   -0.34746129979637985   0.0130363668855379
0.1304524637629254   -0.4852043230353084   0.039658930071321374
0.1304524637629254   -0.4852043230353084   0.039658930071321374
0.1304524637629254   -0.4852043230353084   0.039658930071321374
0.1304524637629254   -0.4852043230353084   0.039658930071321374
-0.8122848025589838   -0.25004406182363687   0.006766088771082163
-0.8122848025589838   -0.25004406182363687   0.006766088771082163
-0.8122848025589838   -0.25004406182363687   0.006766088771082163
-0.8122848025589838   -0.25004406182363687   0.006766088771082163
-0.9376323518493705   -0.6920402003185684   0.0616699961921624
-0.9376323518493705   -0.6920402003185684   0.0616699961921624
-0.9376323518493705   -0.6920402003185684   0.0616699961921624
-0.9376323518493705   -0.6920402003185684   0.0616699961921624
0.18207980746687746   -0.04986536001453113   0.04218883474308896
0.18207980746687746   -0.04986536001453113   0.04218883474308896
0.18207980746687746   -0.04986536001453113   0.04218883474308896
0.18207980746687746   -0.04986536001453113   0.04218883474308896
-0.3643086170748888   -0.36864791745249414   -0.031181193064895946
-0.3643086170748888   -0.36864791745249414   -0.031181193064895946
-0.3643086170748888   -0.36864791745249414   -0.031181193064895946
-0.3643086170748888   -0.36864791745249414   -0.031181193064895946
0.08996306433189827   -0.4937559704250123   0.02549572947867418
0.08996306433189827   -0.4937559704250123   0.02549572947867418
0.08996306433189827   -0.4937559704250123   0.02549572947867418
0.08996306433189827   -0.4937559704250123   0.02549572947867418
-0.8631706648552495   -0.26580464604894644   0.007742876893139548
-0.8631706648552495   -0.26580464604894644   0.007742876893139548
-0.8631706648552495   -0.26580464604894644   0.007742876893139548
-0.8631706648552495   -0.26580464604894644   0.007742876893139548
-0.9950089430723638   -0.6873750199303902   0.0520492001377679
-0.9950089430723638   -0.6873750199303902   0.0520492001377679
-0.9950089430723638   -0.6873750199303902   0.0520492001377679
-0.9950089430723638   -0.6873750199303902   0.0520492001377679
0.14245230422798705   -0.055722487946769025   0.04985811239885629
0.14245230422798705   -0.055722487946769025   0.04985811239885629
0.14245230422798705   -0.055722487946769025   0.04985811239885629
0.14245230422798705   -0.055722487946769025   0.04985811239885629
-0.41797993802479066   -0.37672571133119603   -0.07531011708416263
-0.41797993802479066   -0.37672571133119603   -0.07531011708416263
-0.41797993802479066   -0.37672571133119603   -0.07531011708416263
-0.41797993802479066   -0.37672571133119603   -0.07531011708416263
-0.8293874093997463   -0.7867081923601307   0.0657337866963445
-0.8293874093997463   -0.7867081923601307   0.0657337866963445
-0.8293874093997463   -0.7867081923601307   0.0657337866963445
-0.8293874093997463   -0.7867081923601307   0.0657337866963445
-1.8391111581853945   -0.286703388446155   -0.042690798058758875
-1.8391111581853945   -0.286703388446155   -0.042690798058758875
-1.8391111581853945   -0.286703388446155   -0.042690798058758875
-1.8391111581853945   -0.286703388446155   -0.042690798058758875
-2.107507362471259   -1.1410023680604948   -0.059311398657611925
-2.107507362471259   -1.1410023680604948   -0.059311398657611925
-2.107507362471259   -1.1410023680604948   -0.059311398657611925
-2.107507362471259   -1.1410023680604948   -0.059311398657611925
-0.7714127816711284   -0.06487061562372326   0.025952747010445254
-0.7714127816711284   -0.06487061562372326   0.025952747010445254
-0.7714127816711284   -0.06487061562372326   0.025952747010445254
-0.7714127816711284   -0.06487061562372326   0.025952747010445254
-1.3736026344101266   -0.5478002030263857   -0.04741013475425754
-1.3736026344101266   -0.5478002030263857   -0.04741013475425754
-1.3736026344101266   -0.5478002030263857   -0.04741013475425754
-1.3736026344101266   -0.5478002030263857   -0.04741013475425754
-0.9373752613896856   -0.8907164346282243   0.021986167422168218
-0.9373752613896856   -0.8907164346282243   0.021986167422168218
-0.9373752613896856   -0.8907164346282243   0.021986167422168218
-0.9373752613896856   -0.8907164346282243   0.021986167422168218
-1.9372570687618325   -0.3108687350651338   -0.03819356310584193
-1.9372570687618325   -0.3108687350651338   -0.03819356310584193
-1.9372570687618325   -0.3108687350651338   -0.03819356310584193
-1.9372570687618325   -0.3108687350651338   -0.03819356310584193
-2.1704858747742497   -1.159453322547797   -0.06859220507084982
-2.1704858747742497   -1.159453322547797   -0.06859220507084982
-2.1704858747742497   -1.159453322547797   -0.06859220507084982
-2.1704858747742497   -1.159453322547797   -0.06859220507084982
-0.8202062133824614   -0.0820251089691497   0.03878559717728408
-0.8202062133824614   -0.0820251089691497   0.03878559717728408
-0.8202062133824614   -0.0820251089691497   0.03878559717728408
-0.8202062133824614   -0.0820251089691497   0.03878559717728408
-1.4505374380908829   -0.6068302267061143   -0.06688503504278168
-1.4505374380908829   -0.6068302267061143   -0.06688503504278168
-1.4505374380908829   -0.6068302267061143   -0.06688503504278168
-1.4505374380908829   -0.6068302267061143   -0.06688503504278168
-0.991484710538006   -0.9082175401669244   0.00858554259733188
-0.991484710538006   -0.9082175401669244   0.00858554259733188
-0.991484710538006   -0.9082175401669244   0.00858554259733188
-0.991484710538006   -0.9082175401669244   0.00858554259733188
-1.999413977538708   -0.3334674912700396   -0.03921855017091869
-1.999413977538708   -0.3334674912700396   -0.03921855017091869
-1.999413977538708   -0.3334674912700396   -0.03921855017091869
-1.999413977538708   -0.3334674912700396   -0.03921855017091869
-2.2242316518036045   -1.1100687330653618   -0.07735329883443046
-2.2242316518036045   -1.1100687330653618   -0.07735329883443046
-2.2242316518036045   -1.1100687330653618   -0.07735329883443046
-2.2242316518036045   -1.1100687330653618   -0.07735329883443046
-0.8820139808914411   -0.10623845981976035   0.035887450931737695
-0.8820139808914411   -0.10623845981976035   0.035887450931737695
-0.8820139808914411   -0.10623845981976035   0.035887450931737695
-0.8820139808914411   -0.10623845981976035   0.035887450931737695
-1.521336846746914   -0.626999552312337   -0.08545066175124058
-1.521336846746914   -0.626999552312337   -0.08545066175124058
-1.521336846746914   -0.626999552312337   -0.08545066175124058
-1.521336846746914   -0.626999552312337   -0.08545066175124058
-1.8062607600246907   -0.32856715928768576   0.16342496358626202
-1.8062607600246907   -0.32856715928768576   0.16342496358626202
-1.8062607600246907   -0.32856715928768576   0.16342496358626202
-1.8062607600246907   -0.32856715928768576   0.16342496358626202
-3.1831592711878494   -0.23848138704302346   -0.05680467684883869
-3.1831592711878494   -0.23848138704302346   -0.05680467684883869
-3.1831592711878494   -0.23848138704302346   -0.05680467684883869
-3.1831592711878494   -0.23848138704302346   -0.05680467684883869
-3.37848079392229   -0.6667192379088602   0.04488460437798869
-3.37848079392229   -0.6667192379088602   0.04488460437798869
-3.37848079392229   -0.6667192379088602   0.04488460437798869
-3.37848079392229   -0.6667192379088602   0.04488460437798869
-1.8589333269762494   0.02655913740385263   0.015997273353071703
-1.8589333269762494   0.02655913740385263   0.015997273353071703
-1.8589333269762494   0.02655913740385263   0.015997273353071703
-1.8589333269762494   0.02655913740385263   0.015997273353071703
-2.4349457030224815   -0.23422295927538528   0.04899924971176606
-2.4349457030224815   -0.23422295927538528   0.04899924971176606
-2.4349457030224815   -0.23422295927538528   0.04899924971176606
-2.4349457030224815   -0.23422295927538528   0.04899924971176606
-1.9089952228102691   -0.3527913818705757   0.1450383134573906
-1.9089952228102691   -0.3527913818705757   0.1450383134573906
-1.9089952228102691   -0.3527913818705757   0.1450383134573906
-1.9089952228102691   -0.3527913818705757   0.1450383134573906
-3.319823979829566   -0.2787738003757248   -0.04977676269149851
-3.319823979829566   -0.2787738003757248   -0.04977676269149851
-3.319823979829566   -0.2787738003757248   -0.04977676269149851
-3.319823979829566   -0.2787738003757248   -0.04977676269149851
-3.4615311968734304   -0.6951960306363616   -0.014448956308377725
-3.4615311968734304   -0.6951960306363616   -0.014448956308377725
-3.4615311968734304   -0.6951960306363616   -0.014448956308377725
-3.4615311968734304   -0.6951960306363616   -0.014448956308377725
-1.9175274693956303   0.007350329578338033   0.0293961696960921
-1.9175274693956303   0.007350329578338033   0.0293961696960921
-1.9175274693956303   0.007350329578338033   0.0293961696960921
-1.9175274693956303   0.007350329578338033   0.0293961696960921
-2.581015190084208   -0.30930433156028936   0.020239930708114397
-2.581015190084208   -0.30930433156028936   0.020239930708114397
-2.581015190084208   -0.30930433156028936   0.020239930708114397
-2.581015190084208   -0.30930433156028936   0.020239930708114397
-1.9750000830174175   -0.3709361086419871   0.12031953980748189
-1.9750000830174175   -0.3709361086419871   0.12031953980748189
-1.9750000830174175   -0.3709361086419871   0.12031953980748189
-1.9750000830174175   -0.3709361086419871   0.12031953980748189
-3.386849970068984   -0.2997009792333576   -0.036537873689093864
-3.386849970068984   -0.2997009792333576   -0.036537873689093864
-3.386849970068984   -0.2997009792333576   -0.036537873689093864
-3.386849970068984   -0.2997009792333576   -0.036537873689093864
-3.5339572252496803   -0.7068183203122829   -0.00013437631173429665
-3.5339572252496803   -0.7068183203122829   -0.00013437631173429665
-3.5339572252496803   -0.7068183203122829   -0.00013437631173429665
-3.5339572252496803   -0.7068183203122829   -0.00013437631173429665
-1.9997735413994915   -0.07711209599179975   0.011980616112574186
-1.9997735413994915   -0.07711209599179975   0.011980616112574186
-1.9997735413994915   -0.07711209599179975   0.011980616112574186
-1.9997735413994915   -0.07711209599179975   0.011980616112574186
-2.6127228001997906   -0.37382296462683984   0.03197018580049083
-2.6127228001997906   -0.37382296462683984   0.03197018580049083
-2.6127228001997906   -0.37382296462683984   0.03197018580049083
-2.6127228001997906   -0.37382296462683984   0.03197018580049083
2.1525681485208956   0.09877213948364538   -0.04694446715347894
2.1525681485208956   0.09877213948364538   -0.04694446715347894
2.1525681485208956   0.09877213948364538   -0.04694446715347894
2.1525681485208956   0.09877213948364538   -0.04694446715347894
1.083928149598506   -0.021549709032486014   0.02317879686060527
1.083928149598506   -0.021549709032486014   0.02317879686060527
1.083928149598506   -0.021549709032486014   0.02317879686060527
1.083928149598506   -0.021549709032486014   0.02317879686060527
1.0147181859798278   -0.15978917459192005   -0.04142132815172539
1.0147181859798278   -0.15978917459192005   -0.04142132815172539
1.0147181859798278   -0.15978917459192005   -0.04142132815172539
1.0147181859798278   -0.15978917459192005   -0.04142132815172539
2.127573755861573   0.15551925980664194   0.027118968631440116
2.127573755861573   0.15551925980664194   0.027118968631440116
2.127573755861573   0.15551925980664194   0.027118968631440116
2.127573755861573   0.15551925980664194   0.027118968631440116
1.5111017004777834   0.003701331135101016   -0.058378241910812076
1.5111017004777834   0.003701331135101016   -0.058378241910812076
1.5111017004777834   0.003701331135101016   -0.058378241910812076
1.5111017004777834   0.003701331135101016   -0.058378241910812076
2.09249379403058   0.054581580421002474   -0.04734316113786513
2.09249379403058   0.054581580421002474   -0.04734316113786513
2.09249379403058   0.054581580421002474   -0.04734316113786513
2.09249379403058   0.054581580421002474   -0.04734316113786513
1.0478428482245636   -0.060806794792535646   0.025219603272561703
1.0478428482245636   -0.060806794792535646   0.025219603272561703
1.0478428482245636   -0.060806794792535646   0.025219603272561703
1.0478428482245636   -0.060806794792535646   0.025219603272561703
0.9774634995370814   -0.16875920573581477   -0.03418517588427672
0.9774634995370814   -0.16875920573581477   -0.03418517588427672
0.9774634995370814   -0.16875920573581477   -0.03418517588427672
0.9774634995370814   -0.16875920573581477   -0.03418517588427672
2.0758003831141054   0.14282559383037247   0.03958867845091213
2.0758003831141054   0.14282559383037247   0.03958867845091213
2.0758003831141054   0.14282559383037247   0.03958867845091213
2.0758003831141054   0.14282559383037247   0.03958867845091213
1.4906432300211472   -0.015203461959804765   -0.06977043387637794
1.4906432300211472   -0.015203461959804765   -0.06977043387637794
1.4906432300211472   -0.015203461959804765   -0.06977043387637794
1.4906432300211472   -0.015203461959804765   -0.06977043387637794
2.04046635398281   0.043189354712633354   -0.037445228087825896
2.04046635398281   0.043189354712633354   -0.037445228087825896
2.04046635398281   0.043189354712633354   -0.037445228087825896
2.04046635398281   0.043189354712633354   -0.037445228087825896
1.010093087939669   -0.07182740734677331   0.032030967739619554
1.010093087939669   -0.07182740734677331   0.032030967739619554
1.010093087939669   -0.07182740734677331   0.032030967739619554
1.010093087939669   -0.07182740734677331   0.032030967739619554
0.941365210332664   -0.16641319988233771   -0.02342530446697058
0.941365210332664   -0.16641319988233771   -0.02342530446697058
0.941365210332664   -0.16641319988233771   -0.02342530446697058
0.941365210332664   -0.16641319988233771   -0.02342530446697058
2.0116800692026073   0.13410461274201646   0.051459202394961545
2.0116800692026073   0.13410461274201646   0.051459202394961545
2.0116800692026073   0.13410461274201646   0.051459202394961545
2.0116800692026073   0.13410461274201646   0.051459202394961545
1.4167151556639879   -0.026551336223880118   -0.09169361691230597
1.4167151556639879   -0.026551336223880118   -0.09169361691230597
1.4167151556639879   -0.026551336223880118   -0.09169361691230597
1.4167151556639879   -0.026551336223880118   -0.09169361691230597
1.08957724828511   0.020305218361179267   0.009569362899950147
1.08957724828511   0.020305218361179267   0.009569362899950147
1.08957724828511   0.020305218361179267   0.009569362899950147
1.08957724828511   0.020305218361179267   0.009569362899950147
0.10569915481142413   -0.06511829339546495   -0.0023800222443434334
0.10569915481142413   -0.06511829339546495   -0.0023800222443434334
0.10569915481142413   -0.06511829339546495   -0.0023800222443434334
0.10569915481142413   -0.06511829339546495   -0.0023800222443434334
0.040484426885237186   -0.2115060236588502   -0.03982627849199945
0.040484426885237186   -0.2115060236588502   -0.03982627849199945
0.040484426885237186   -0.2115060236588502   -0.03982627849199945
0.040484426885237186   -0.2115060236588502   -0.03982627849199945
1.090921164115194   0.12576420530228058   0.05404018263089615
1.090921164115194   0.12576420530228058   0.05404018263089615
1.090921164115194   0.12576420530228058   0.05404018263089615
1.090921164115194   0.12576420530228058   0.05404018263089615
0.5709942832563756   -0.029851607501583555   -0.02270420927052348
0.5709942832563756   -0.029851607501583555   -0.02270420927052348
0.5709942832563756   -0.029851607501583555   -0.02270420927052348
0.5709942832563756   -0.029851607501583555   -0.02270420927052348
1.0589659605922788   0.0034676773705659136   0.01656069294803964
1.0589659605922788   0.0034676773705659136   0.01656069294803964
1.0589659605922788   0.0034676773705659136   0.01656069294803964
1.0589659605922788   0.0034676773705659136   0.01656069294803964
0.07364535525857405   -0.08800377087671307   0.002476110592547681
0.07364535525857405   -0.08800377087671307   0.002476110592547681
0.07364535525857405   -0.08800377087671307   0.002476110592547681
0.07364535525857405   -0.08800377087671307   0.002476110592547681
0.004563859066762696   -0.22166283577162202   -0.027673850088352173
0.004563859066762696   -0.22166283577162202   -0.027673850088352173
0.004563859066762696   -0.22166283577162202   -0.027673850088352173
0.004563859066762696   -0.22166283577162202   -0.027673850088352173
1.0514836882998224   0.10753952662291033   0.05961703557070265
1.0514836882998224   0.10753952662291033   0.05961703557070265
1.0514836882998224   0.10753952662291033   0.05961703557070265
1.0514836882998224   0.10753952662291033   0.05961703557070265
0.5296869301999355   -0.046612191504273565   -0.032147491951589564
0.5296869301999355   -0.046612191504273565   -0.032147491951589564
0.5296869301999355   -0.046612191504273565   -0.032147491951589564
0.5296869301999355   -0.046612191504273565   -0.032147491951589564
1.021320266477788   -0.00792407804589007   0.024263531129343763
1.021320266477788   -0.00792407804589007   0.024263531129343763
1.021320266477788   -0.00792407804589007   0.024263531129343763
1.021320266477788   -0.00792407804589007   0.024263531129343763
0.03455277411960722   -0.10637373787201962   0.006981627276268054
0.03455277411960722   -0.10637373787201962   0.006981627276268054
0.03455277411960722   -0.10637373787201962   0.006981627276268054
0.03455277411960722   -0.10637373787201962   0.006981627276268054
-0.03400818434956223   -0.2227459475219072   -0.018838677231681186
-0.03400818434956223   -0.2227459475219072   -0.018838677231681186
-0.03400818434956223   -0.2227459475219072   -0.018838677231681186
-0.03400818434956223   -0.2227459475219072   -0.018838677231681186
1.011695610674562   0.09591378633686226   0.06589971102332452
1.011695610674562   0.09591378633686226   0.06589971102332452
1.011695610674562   0.09591378633686226   0.06589971102332452
1.011695610674562   0.09591378633686226   0.06589971102332452
0.4973121440879175   -0.05334624769180091   -0.04028337259602955
0.4973121440879175   -0.05334624769180091   -0.04028337259602955
0.4973121440879175   -0.05334624769180091   -0.04028337259602955
0.4973121440879175   -0.05334624769180091   -0.04028337259602955
0.10748743007794932   -0.062027055154582685   0.003470115847396482
0.10748743007794932   -0.062027055154582685   0.003470115847396482
0.10748743007794932   -0.062027055154582685   0.003470115847396482
0.10748743007794932   -0.062027055154582685   0.003470115847396482
-0.8397695894643277   -0.09711340770875042   -0.026439524859366067
-0.8397695894643277   -0.09711340770875042   -0.026439524859366067
-0.8397695894643277   -0.09711340770875042   -0.026439524859366067
-0.8397695894643277   -0.09711340770875042   -0.026439524859366067
-0.9122695846292872   -0.2804615980033358   -0.045336810057109
-0.9122695846292872   -0.2804615980033358   -0.045336810057109
-0.9122695846292872   -0.2804615980033358   -0.045336810057109
-0.9122695846292872   -0.2804615980033358   -0.045336810057109
0.11535226537727147   0.09202719313450222   0.030979697174819465
0.11535226537727147   0.09202719313450222   0.030979697174819465
0.11535226537727147   0.09202719313450222   0.030979697174819465
0.11535226537727147   0.09202719313450222   0.030979697174819465
-0.3834440746152853   -0.08272879020635897   -0.022556788749889953
-0.3834440746152853   -0.08272879020635897   -0.022556788749889953
-0.3834440746152853   -0.08272879020635897   -0.022556788749889953
-0.3834440746152853   -0.08272879020635897   -0.022556788749889953
0.08050254873560879   -0.06924012324894427   0.017998430349952594
0.08050254873560879   -0.06924012324894427   0.017998430349952594
0.08050254873560879   -0.06924012324894427   0.017998430349952594
0.08050254873560879   -0.06924012324894427   0.017998430349952594
-0.8747582965874862   -0.11653271021975098   -0.0217092576316889
-0.8747582965874862   -0.11653271021975098   -0.0217092576316889
-0.8747582965874862   -0.11653271021975098   -0.0217092576316889
-0.8747582965874862   -0.11653271021975098   -0.0217092576316889
-0.9544017830381002   -0.29159285839182003   -0.02996706663837775
-0.9544017830381002   -0.29159285839182003   -0.02996706663837775
-0.9544017830381002   -0.29159285839182003   -0.02996706663837775
-0.9544017830381002   -0.29159285839182003   -0.02996706663837775
0.07594153884143776   0.07251300960744836   0.035038703405952706
0.07594153884143776   0.07251300960744836   0.035038703405952706
0.07594153884143776   0.07251300960744836   0.035038703405952706
0.07594153884143776   0.07251300960744836   0.035038703405952706
-0.41829152917514145   -0.09436828307912663   -0.02706334971616615
-0.41829152917514145   -0.09436828307912663   -0.02706334971616615
-0.41829152917514145   -0.09436828307912663   -0.02706334971616615
-0.41829152917514145   -0.09436828307912663   -0.02706334971616615
0.04319940156697734   -0.08109250234575761   0.024933528986856645
0.04319940156697734   -0.08109250234575761   0.024933528986856645
0.04319940156697734   -0.08109250234575761   0.024933528986856645
0.04319940156697734   -0.08109250234575761   0.024933528986856645
-0.9211052433566729   -0.13743294403164907   -0.01764428259142374
-0.9211052433566729   -0.13743294403164907   -0.01764428259142374
-0.9211052433566729   -0.13743294403164907   -0.01764428259142374
-0.9211052433566729   -0.13743294403164907   -0.01764428259142374
-1.0011596760919745   -0.2997451101244041   -0.026643018169296224
-1.0011596760919745   -0.2997451101244041   -0.026643018169296224
-1.0011596760919745   -0.2997451101244041   -0.026643018169296224
-1.0011596760919745   -0.2997451101244041   -0.026643018169296224
0.03331412566284349   0.05584856679093415   0.03917835851750606
0.03331412566284349   0.05584856679093415   0.03917835851750606
0.03331412566284349   0.05584856679093415   0.03917835851750606
0.03331412566284349   0.05584856679093415   0.03917835851750606
-0.4635744199661488   -0.10830465410520913   -0.03790927774704831
-0.4635744199661488   -0.10830465410520913   -0.03790927774704831
-0.4635744199661488   -0.10830465410520913   -0.03790927774704831
-0.4635744199661488   -0.10830465410520913   -0.03790927774704831
-0.8270471062585316   -0.0731171014640508   0.01317658492489911
-0.8270471062585316   -0.0731171014640508   0.01317658492489911
-0.8270471062585316   -0.0731171014640508   0.01317658492489911
-0.8270471062585316   -0.0731171014640508   0.01317658492489911
-1.7622598785146446   -0.1136387871724936   -0.04665835598685113
-1.7622598785146446   -0.1136387871724936   -0.04665835598685113
-1.7622598785146446   -0.1136387871724936   -0.04665835598685113
-1.7622598785146446   -0.1136387871724936   -0.04665835598685113
-1.844699526421823   -0.2937625758117854   -0.045220309179170665
-1.844699526421823   -0.2937625758117854   -0.045220309179170665
-1.844699526421823   -0.2937625758117854   -0.045220309179170665
-1.844699526421823   -0.2937625758117854   -0.045220309179170665
-0.8313242042105379   0.07021355025012035   0.008714943783166049
-0.8313242042105379   0.07021355025012035   0.008714943783166049
-0.8313242042105379   0.07021355025012035   0.008714943783166049
-0.8313242042105379   0.07021355025012035   0.008714943783166049
-1.3054737338426354   -0.09782013749632998   -0.018994638593241568
-1.3054737338426354   -0.09782013749632998   -0.018994638593241568
-1.3054737338426354   -0.09782013749632998   -0.018994638593241568
-1.3054737338426354   -0.09782013749632998   -0.018994638593241568
-0.8569406553091053   -0.08083124337110724   0.031677481911563776
-0.8569406553091053   -0.08083124337110724   0.031677481911563776
-0.8569406553091053   -0.08083124337110724   0.031677481911563776
-0.8569406553091053   -0.08083124337110724   0.031677481911563776
-1.813855819479961   -0.13749052634727488   -0.04727382393438688
-1.813855819479961   -0.13749052634727488   -0.04727382393438688
-1.813855819479961   -0.13749052634727488   -0.04727382393438688
-1.813855819479961   -0.13749052634727488   -0.04727382393438688
-1.903007437792423   -0.3126838034024849   -0.031706650579430284
-1.903007437792423   -0.3126838034024849   -0.031706650579430284
-1.903007437792423   -0.3126838034024849   -0.031706650579430284
-1.903007437792423   -0.3126838034024849   -0.031706650579430284
-0.8781858298667394   0.048840052558486474   0.010679788268107941
-0.8781858298667394   0.048840052558486474   0.010679788268107941
-0.8781858298667394   0.048840052558486474   0.010679788268107941
-0.8781858298667394   0.048840052558486474   0.010679788268107941
-1.34239273438508   -0.10832963990129993   -0.019071278664791157
-1.34239273438508   -0.10832963990129993   -0.019071278664791157
-1.34239273438508   -0.10832963990129993   -0.019071278664791157
-1.34239273438508   -0.10832963990129993   -0.019071278664791157
-0.9034895107728803   -0.09986550051959349   0.032866936815484
-0.9034895107728803   -0.09986550051959349   0.032866936815484
-0.9034895107728803   -0.09986550051959349   0.032866936815484
-0.9034895107728803   -0.09986550051959349   0.032866936815484
-1.874202267507407   -0.16047676094552962   -0.03988784161130499
-1.874202267507407   -0.16047676094552962   -0.03988784161130499
-1.874202267507407   -0.16047676094552962   -0.03988784161130499
-1.874202267507407   -0.16047676094552962   -0.03988784161130499
-1.9690024488181423   -0.33760645086041147   -0.03396403634487834
-1.9690024488181423   -0.33760645086041147   -0.03396403634487834
-1.9690024488181423   -0.33760645086041147   -0.03396403634487834
-1.9690024488181423   -0.33760645086041147   -0.03396403634487834
-0.9288268022218904   0.02248187217903258   0.012794368877668327
-0.9288268022218904   0.02248187217903258   0.012794368877668327
-0.9288268022218904   0.02248187217903258   0.012794368877668327
-0.9288268022218904   0.02248187217903258   0.012794368877668327
-1.4077852676937543   -0.13384761643459755   -0.03095069975121032
-1.4077852676937543   -0.13384761643459755   -0.03095069975121032
-1.4077852676937543   -0.13384761643459755   -0.03095069975121032
-1.4077852676937543   -0.13384761643459755   -0.03095069975121032
-1.7024495238053405   0.08064368656724452   0.058110943819931093
-1.7024495238053405   0.08064368656724452   0.058110943819931093
-1.7024495238053405   0.08064368656724452   0.058110943819931093
-1.7024495238053405   0.08064368656724452   0.058110943819931093
-2.6399274751484834   -0.13155305364315806   -0.03565594448138598
-2.6399274751484834   -0.13155305364315806   -0.03565594448138598
-2.6399274751484834   -0.13155305364315806   -0.03565594448138598
-2.6399274751484834   -0.13155305364315806   -0.03565594448138598
-2.7051573021673114   -0.13394449315854112   0.0597030957321653
-2.7051573021673114   -0.13394449315854112   0.0597030957321653
-2.7051573021673114   -0.13394449315854112   0.0597030957321653
-2.7051573021673114   -0.13394449315854112   0.0597030957321653
-1.7688398441577344   0.054635098342034116   -0.014319572012562815
-1.7688398441577344   0.054635098342034116   -0.014319572012562815
-1.7688398441577344   0.054635098342034116   -0.014319572012562815
-1.7688398441577344   0.054635098342034116   -0.014319572012562815
-2.101390269794982   0.0016613695104810144   0.053299099632657165
-2.101390269794982   0.0016613695104810144   0.053299099632657165
-2.101390269794982   0.0016613695104810144   0.053299099632657165
-2.101390269794982   0.0016613695104810144   0.053299099632657165
-1.7502871810851277   0.05975390020831234   0.07332494148418746
-1.7502871810851277   0.05975390020831234   0.07332494148418746
-1.7502871810851277   0.05975390020831234   0.07332494148418746
-1.7502871810851277   0.05975390020831234   0.07332494148418746
-2.722498232278082   -0.13785156206297378   -0.023094485917254742
-2.722498232278082   -0.13785156206297378   -0.023094485917254742
-2.722498232278082   -0.13785156206297378   -0.023094485917254742
-2.722498232278082   -0.13785156206297378   -0.023094485917254742
-2.787534954006721   -0.1562950424723496   0.08117679405374473
-2.787534954006721   -0.1562950424723496   0.08117679405374473
-2.787534954006721   -0.1562950424723496   0.08117679405374473
-2.787534954006721   -0.1562950424723496   0.08117679405374473
-1.8292306693765221   0.03945339728485109   -0.014960009187273096
-1.8292306693765221   0.03945339728485109   -0.014960009187273096
-1.8292306693765221   0.03945339728485109   -0.014960009187273096
-1.8292306693765221   0.03945339728485109   -0.014960009187273096
-2.207512661173955   -0.02451348323915531   0.029020770138231913
-2.207512661173955   -0.02451348323915531   0.029020770138231913
-2.207512661173955   -0.02451348323915531   0.029020770138231913
-2.207512661173955   -0.02451348323915531   0.029020770138231913
-1.8122730707986314   0.036981876296604876   0.07229950469042712
-1.8122730707986314   0.036981876296604876   0.07229950469042712
-1.8122730707986314   0.036981876296604876   0.07229950469042712
-1.8122730707986314   0.036981876296604876   0.07229950469042712
-2.807685759448458   -0.15701672834793912   -0.018855547279349738
-2.807685759448458   -0.15701672834793912   -0.018855547279349738
-2.807685759448458   -0.15701672834793912   -0.018855547279349738
-2.807685759448458   -0.15701672834793912   -0.018855547279349738
-2.904606280848644   -0.2463589115664882   0.07057927768834647
-2.904606280848644   -0.2463589115664882   0.07057927768834647
-2.904606280848644   -0.2463589115664882   0.07057927768834647
-2.904606280848644   -0.2463589115664882   0.07057927768834647
-1.8988565347853559   -0.006764645136328518   -0.014076271905055338
-1.8988565347853559   -0.006764645136328518   -0.014076271905055338
-1.8988565347853559   -0.006764645136328518   -0.014076271905055338
-1.8988565347853559   -0.006764645136328518   -0.014076271905055338
-2.2529323575013427   -0.057430566747872114   0.007605641816081657
-2.2529323575013427   -0.057430566747872114   0.007605641816081657
-2.2529323575013427   -0.057430566747872114   0.007605641816081657
-2.2529323575013427   -0.057430566747872114   0.007605641816081657
1.7426501377493686   0.09308854982822873   -0.062351896986683794
1.7426501377493686   0.09308854982822873   -0.062351896986683794
1.7426501377493686   0.09308854982822873   -0.062351896986683794
1.7426501377493686   0.09308854982822873   -0.062351896986683794
0.8642703953470642   -0.0006381045899568061   0.022656201568945107
0.8642703953470642   -0.0006381045899568061   0.022656201568945107
0.8642703953470642   -0.0006381045899568061   0.022656201568945107
0.8642703953470642   -0.0006381045899568061   0.022656201568945107
0.7896633444942909   -0.1289161048581904   -0.05714744332537823
0.7896633444942909   -0.1289161048581904   -0.05714744332537823
0.7896633444942909   -0.1289161048581904   -0.05714744332537823
0.7896633444942909   -0.1289161048581904   -0.05714744332537823
1.7097097504516594   0.14102989150091988   0.02840571821299584
1.7097097504516594   0.14102989150091988   0.02840571821299584
1.7097097504516594   0.14102989150091988   0.02840571821299584
1.7097097504516594   0.14102989150091988   0.02840571821299584
1.2105762803685607   0.010704180478280256   -0.039834239563164925
1.2105762803685607   0.010704180478280256   -0.039834239563164925
1.2105762803685607   0.010704180478280256   -0.039834239563164925
1.2105762803685607   0.010704180478280256   -0.039834239563164925
1.6732596422237604   0.0472247142230553   -0.060039645648619175
1.6732596422237604   0.0472247142230553   -0.060039645648619175
1.6732596422237604   0.0472247142230553   -0.060039645648619175
1.6732596422237604   0.0472247142230553   -0.060039645648619175
0.8245464581556161   -0.03667792214689958   0.025029942269941652
0.8245464581556161   -0.03667792214689958   0.025029942269941652
0.8245464581556161   -0.03667792214689958   0.025029942269941652
0.8245464581556161   -0.03667792214689958   0.025029942269941652
0.7523458124142841   -0.13971535936038715   -0.04966151680306452
0.7523458124142841   -0.13971535936038715   -0.04966151680306452
0.7523458124142841   -0.13971535936038715   -0.04966151680306452
0.7523458124142841   -0.13971535936038715   -0.04966151680306452
1.6538840664063221   0.12619808179872302   0.03880516246485915
1.6538840664063221   0.12619808179872302   0.03880516246485915
1.6538840664063221   0.12619808179872302   0.03880516246485915
1.6538840664063221   0.12619808179872302   0.03880516246485915
1.181294442891574   -0.008734000444676648   -0.05239883346298592
1.181294442891574   -0.008734000444676648   -0.05239883346298592
1.181294442891574   -0.008734000444676648   -0.05239883346298592
1.181294442891574   -0.008734000444676648   -0.05239883346298592
1.6182176993716129   0.03393800267475339   -0.047266593584690764
1.6182176993716129   0.03393800267475339   -0.047266593584690764
1.6182176993716129   0.03393800267475339   -0.047266593584690764
1.6182176993716129   0.03393800267475339   -0.047266593584690764
0.7866104682709185   -0.04885699141448918   0.03080339453420191
0.7866104682709185   -0.04885699141448918   0.03080339453420191
0.7866104682709185   -0.04885699141448918   0.03080339453420191
0.7866104682709185   -0.04885699141448918   0.03080339453420191
0.7182600318827848   -0.14298465375148028   -0.04056709275269946
0.7182600318827848   -0.14298465375148028   -0.04056709275269946
0.7182600318827848   -0.14298465375148028   -0.04056709275269946
0.7182600318827848   -0.14298465375148028   -0.04056709275269946
1.5909492285898315   0.11314365864261153   0.04826097395213163
1.5909492285898315   0.11314365864261153   0.04826097395213163
1.5909492285898315   0.11314365864261153   0.04826097395213163
1.5909492285898315   0.11314365864261153   0.04826097395213163
1.1133128639012349   -0.022141895341315193   -0.07119980836090949
1.1133128639012349   -0.022141895341315193   -0.07119980836090949
1.1133128639012349   -0.022141895341315193   -0.07119980836090949
1.1133128639012349   -0.022141895341315193   -0.07119980836090949
0.8789966924009928   0.09095594585085953   0.004693636397771726
0.8789966924009928   0.09095594585085953   0.004693636397771726
0.8789966924009928   0.09095594585085953   0.004693636397771726
0.8789966924009928   0.09095594585085953   0.004693636397771726
0.03058965375195149   -0.028622339447534447   -0.003520182487148799
0.03058965375195149   -0.028622339447534447   -0.003520182487148799
0.03058965375195149   -0.028622339447534447   -0.003520182487148799
0.03058965375195149   -0.028622339447534447   -0.003520182487148799
-0.02564298674840799   -0.11612668726255236   -0.03885012932972811
-0.02564298674840799   -0.11612668726255236   -0.03885012932972811
-0.02564298674840799   -0.11612668726255236   -0.03885012932972811
-0.02564298674840799   -0.11612668726255236   -0.03885012932972811
0.8619806246430564   0.12766415351175683   0.047858699048486275
0.8619806246430564   0.12766415351175683   0.047858699048486275
0.8619806246430564   0.12766415351175683   0.047858699048486275
0.8619806246430564   0.12766415351175683   0.047858699048486275
0.4296828534955084   0.018181804032633336   -0.004944889742502227
0.4296828534955084   0.018181804032633336   -0.004944889742502227
0.4296828534955084   0.018181804032633336   -0.004944889742502227
0.4296828534955084   0.018181804032633336   -0.004944889742502227
0.8422468180731275   0.0671600529248507   0.009693766785751713
0.8422468180731275   0.0671600529248507   0.009693766785751713
0.8422468180731275   0.0671600529248507   0.009693766785751713
0.8422468180731275   0.0671600529248507   0.009693766785751713
-0.005560743662506112   -0.0552741501596726   0.0007085489969015299
-0.005560743662506112   -0.0552741501596726   0.0007085489969015299
-0.005560743662506112   -0.0552741501596726   0.0007085489969015299
-0.005560743662506112   -0.0552741501596726   0.0007085489969015299
-0.060994524376948855   -0.13359348464419496   -0.0335698080880525
-0.060994524376948855   -0.13359348464419496   -0.0335698080880525
-0.060994524376948855   -0.13359348464419496   -0.0335698080880525
-0.060994524376948855   -0.13359348464419496   -0.0335698080880525
0.8219362155652118   0.1056097178416153   0.052965421749563764
0.8219362155652118   0.1056097178416153   0.052965421749563764
0.8219362155652118   0.1056097178416153   0.052965421749563764
0.8219362155652118   0.1056097178416153   0.052965421749563764
0.3865269259682908   -0.0035431392486369173   -0.01729387817544729
0.3865269259682908   -0.0035431392486369173   -0.01729387817544729
0.3865269259682908   -0.0035431392486369173   -0.01729387817544729
0.3865269259682908   -0.0035431392486369173   -0.01729387817544729
0.8029394344604841   0.04885459629534317   0.014736637772205088
0.8029394344604841   0.04885459629534317   0.014736637772205088
0.8029394344604841   0.04885459629534317   0.014736637772205088
0.8029394344604841   0.04885459629534317   0.014736637772205088
-0.0419629816797401   -0.07680360150544047   0.004798022259236773
-0.0419629816797401   -0.07680360150544047   0.004798022259236773
-0.0419629816797401   -0.07680360150544047   0.004798022259236773
-0.0419629816797401   -0.07680360150544047   0.004798022259236773
-0.09599182112733154   -0.14413974069574195   -0.026680492337864164
-0.09599182112733154   -0.14413974069574195   -0.026680492337864164
-0.09599182112733154   -0.14413974069574195   -0.026680492337864164
-0.09599182112733154   -0.14413974069574195   -0.026680492337864164
0.783851260735874   0.08698453870930486   0.057419859051951794
0.783851260735874   0.08698453870930486   0.057419859051951794
0.783851260735874   0.08698453870930486   0.057419859051951794
0.783851260735874   0.08698453870930486   0.057419859051951794
0.35457629553516085   -0.017474434765359995   -0.02640769249894874
0.35457629553516085   -0.017474434765359995   -0.02640769249894874
0.35457629553516085   -0.017474434765359995   -0.02640769249894874
0.35457629553516085   -0.017474434765359995   -0.02640769249894874
0.05936245921777848   0.09195434006536261   0.01976716532909295
0.05936245921777848   0.09195434006536261   0.01976716532909295
0.05936245921777848   0.09195434006536261   0.01976716532909295
0.05936245921777848   0.09195434006536261   0.01976716532909295
-0.7771550847997465   -0.05018937812334878   -0.02675390867751104
-0.7771550847997465   -0.05018937812334878   -0.02675390867751104
-0.7771550847997465   -0.05018937812334878   -0.02675390867751104
-0.7771550847997465   -0.05018937812334878   -0.02675390867751104
-0.8210280566162339   -0.10635262296746062   -0.02453906134148936
-0.8210280566162339   -0.10635262296746062   -0.02453906134148936
-0.8210280566162339   -0.10635262296746062   -0.02453906134148936
-0.8210280566162339   -0.10635262296746062   -0.02453906134148936
0.030891749644831636   0.10452680066081929   0.023170064713098362
0.030891749644831636   0.10452680066081929   0.023170064713098362
0.030891749644831636   0.10452680066081929   0.023170064713098362
0.030891749644831636   0.10452680066081929   0.023170064713098362
-0.37651167544188757   0.011768714926888427   0.0014163169345034442
-0.37651167544188757   0.011768714926888427   0.0014163169345034442
-0.37651167544188757   0.011768714926888427   0.0014163169345034442
-0.37651167544188757   0.011768714926888427   0.0014163169345034442
0.02486613906123665   0.07270649243959992   0.024862320016342802
0.02486613906123665   0.07270649243959992   0.024862320016342802
0.02486613906123665   0.07270649243959992   0.024862320016342802
0.02486613906123665   0.07270649243959992   0.024862320016342802
-0.81403945432523   -0.07356932303883221   -0.02237934981509765
-0.81403945432523   -0.07356932303883221   -0.02237934981509765
-0.81403945432523   -0.07356932303883221   -0.02237934981509765
-0.81403945432523   -0.07356932303883221   -0.02237934981509765
-0.8589685462543035   -0.12554760541365717   -0.020354286603833607
-0.8589685462543035   -0.12554760541365717   -0.020354286603833607
-0.8589685462543035   -0.12554760541365717   -0.020354286603833607
-0.8589685462543035   -0.12554760541365717   -0.020354286603833607
-0.00556849699090646   0.08183751319567698   0.028129331002291376
-0.00556849699090646   0.08183751319567698   0.028129331002291376
-0.00556849699090646   0.08183751319567698   0.028129331002291376
-0.00556849699090646   0.08183751319567698   0.028129331002291376
-0.41285866554658845   -0.007000970331878881   -0.007873633064853731
-0.41285866554658845   -0.007000970331878881   -0.007873633064853731
-0.41285866554658845   -0.007000970331878881   -0.007873633064853731
-0.41285866554658845   -0.007000970331878881   -0.007873633064853731
-0.010717967260354623   0.05418105523003673   0.030038437620686954
-0.010717967260354623   0.05418105523003673   0.030038437620686954
-0.010717967260354623   0.05418105523003673   0.030038437620686954
-0.010717967260354623   0.05418105523003673   0.030038437620686954
-0.8529899972634523   -0.09706206872661327   -0.018947078336613923
-0.8529899972634523   -0.09706206872661327   -0.018947078336613923
-0.8529899972634523   -0.09706206872661327   -0.018947078336613923
-0.8529899972634523   -0.09706206872661327   -0.018947078336613923
-0.8966558497227559   -0.14066110729308484   -0.013400036516928242
-0.8966558497227559   -0.14066110729308484   -0.013400036516928242
-0.8966558497227559   -0.14066110729308484   -0.013400036516928242
-0.8966558497227559   -0.14066110729308484   -0.013400036516928242
-0.04333985357837335   0.06046353044215552   0.03197607426902932
-0.04333985357837335   0.06046353044215552   0.03197607426902932
-0.04333985357837335   0.06046353044215552   0.03197607426902932
-0.04333985357837335   0.06046353044215552   0.03197607426902932
-0.45196620697880585   -0.02609098994022674   -0.01802080357443943
-0.45196620697880585   -0.02609098994022674   -0.01802080357443943
-0.45196620697880585   -0.02609098994022674   -0.01802080357443943
-0.45196620697880585   -0.02609098994022674   -0.01802080357443943
-0.7327732709597923   0.1088194683463597   0.036146314052563036
-0.7327732709597923   0.1088194683463597   0.036146314052563036
-0.7327732709597923   0.1088194683463597   0.036146314052563036
-0.7327732709597923   0.1088194683463597   0.036146314052563036
-1.5578472688438803   -0.06906130359250173   -0.043871649347708166
-1.5578472688438803   -0.06906130359250173   -0.043871649347708166
-1.5578472688438803   -0.06906130359250173   -0.043871649347708166
-1.5578472688438803   -0.06906130359250173   -0.043871649347708166
-1.5920618230157435   -0.08505745808132109   -0.006902479068835662
-1.5920618230157435   -0.08505745808132109   -0.006902479068835662
-1.5920618230157435   -0.08505745808132109   -0.006902479068835662
-1.5920618230157435   -0.08505745808132109   -0.006902479068835662
-0.779313997528173   0.07902202227490374   -0.0013434111435450674
-0.779313997528173   0.07902202227490374   -0.0013434111435450674
-0.779313997528173   0.07902202227490374   -0.0013434111435450674
-0.779313997528173   0.07902202227490374   -0.0013434111435450674
-1.1570842228085494   0.012027520179924256   0.008420034214209865
-1.1570842228085494   0.012027520179924256   0.008420034214209865
-1.1570842228085494   0.012027520179924256   0.008420034214209865
-1.1570842228085494   0.012027520179924256   0.008420034214209865
-0.7689207035978962   0.08906689814380331   0.040578182638939184
-0.7689207035978962   0.08906689814380331   0.040578182638939184
-0.7689207035978962   0.08906689814380331   0.040578182638939184
-0.7689207035978962   0.08906689814380331   0.040578182638939184
-1.6011413433076067   -0.09378856031180904   -0.043568978297675295
-1.6011413433076067   -0.09378856031180904   -0.043568978297675295
-1.6011413433076067   -0.09378856031180904   -0.043568978297675295
-1.6011413433076067   -0.09378856031180904   -0.043568978297675295
-1.6387905123656414   -0.10663476358680099   -0.006089609959427374
-1.6387905123656414   -0.10663476358680099   -0.006089609959427374
-1.6387905123656414   -0.10663476358680099   -0.006089609959427374
-1.6387905123656414   -0.10663476358680099   -0.006089609959427374
-0.8176988138934755   0.057370105756363976   0.003076664030293247
-0.8176988138934755   0.057370105756363976   0.003076664030293247
-0.8176988138934755   0.057370105756363976   0.003076664030293247
-0.8176988138934755   0.057370105756363976   0.003076664030293247
-1.18983736009988   -0.005163514601100927   0.0007959923488792681
-1.18983736009988   -0.005163514601100927   0.0007959923488792681
-1.18983736009988   -0.005163514601100927   0.0007959923488792681
-1.18983736009988   -0.005163514601100927   0.0007959923488792681
-0.806318904344103   0.07045561959674601   0.04689069793676925
-0.806318904344103   0.07045561959674601   0.04689069793676925
-0.806318904344103   0.07045561959674601   0.04689069793676925
-0.806318904344103   0.07045561959674601   0.04689069793676925
-1.647509986711139   -0.1170598422233115   -0.03926190305042063
-1.647509986711139   -0.1170598422233115   -0.03926190305042063
-1.647509986711139   -0.1170598422233115   -0.03926190305042063
-1.647509986711139   -0.1170598422233115   -0.03926190305042063
-1.6818243601695044   -0.12972905705932042   0.00473728063351736
-1.6818243601695044   -0.12972905705932042   0.00473728063351736
-1.6818243601695044   -0.12972905705932042   0.00473728063351736
-1.6818243601695044   -0.12972905705932042   0.00473728063351736
-0.8583760198486001   0.03162489555758172   0.005713110003195521
-0.8583760198486001   0.03162489555758172   0.005713110003195521
-0.8583760198486001   0.03162489555758172   0.005713110003195521
-0.8583760198486001   0.03162489555758172   0.005713110003195521
-1.2408624846064866   -0.02924159684960459   -0.009435865635175997
-1.2408624846064866   -0.02924159684960459   -0.009435865635175997
-1.2408624846064866   -0.02924159684960459   -0.009435865635175997
-1.2408624846064866   -0.02924159684960459   -0.009435865635175997
-1.5024882515527644   0.11319867222944557   0.05066346128591276
-1.5024882515527644   0.11319867222944557   0.05066346128591276
-1.5024882515527644   0.11319867222944557   0.05066346128591276
-1.5024882515527644   0.11319867222944557   0.05066346128591276
-2.299379125535035   -0.10632254495663174   -0.0405682352239754
-2.299379125535035   -0.10632254495663174   -0.0405682352239754
-2.299379125535035   -0.10632254495663174   -0.0405682352239754
-2.299379125535035   -0.10632254495663174   -0.0405682352239754
-2.3311190041116476   -0.0463266116201182   0.04315103813058915
-2.3311190041116476   -0.0463266116201182   0.04315103813058915
-2.3311190041116476   -0.0463266116201182   0.04315103813058915
-2.3311190041116476   -0.0463266116201182   0.04315103813058915
-1.5688070453060428   0.04713774609998944   -0.022823794701642405
-1.5688070453060428   0.04713774609998944   -0.022823794701642405
-1.5688070453060428   0.04713774609998944   -0.022823794701642405
-1.5688070453060428   0.04713774609998944   -0.022823794701642405
-1.8403919043690473   0.023629365535169422   0.04221278754357373
-1.8403919043690473   0.023629365535169422   0.04221278754357373
-1.8403919043690473   0.023629365535169422   0.04221278754357373
-1.8403919043690473   0.023629365535169422   0.04221278754357373
-1.5390046987599066   0.11510931554160447   0.05821636858739987
-1.5390046987599066   0.11510931554160447   0.05821636858739987
-1.5390046987599066   0.11510931554160447   0.05821636858739987
-1.5390046987599066   0.11510931554160447   0.05821636858739987
-2.3591614907029106   -0.1125383211068463   -0.030849685338952756
-2.3591614907029106   -0.1125383211068463   -0.030849685338952756
-2.3591614907029106   -0.1125383211068463   -0.030849685338952756
-2.3591614907029106   -0.1125383211068463   -0.030849685338952756
-2.38914998109396   -0.05761392486951766   0.05962269175826013
-2.38914998109396   -0.05761392486951766   0.05962269175826013
-2.38914998109396   -0.05761392486951766   0.05962269175826013
-2.38914998109396   -0.05761392486951766   0.05962269175826013
-1.6133708220090912   0.03469270017677645   -0.0203186219402543
-1.6133708220090912   0.03469270017677645   -0.0203186219402543
-1.6133708220090912   0.03469270017677645   -0.0203186219402543
-1.6133708220090912   0.03469270017677645   -0.0203186219402543
-1.9200676861021955   0.011642214331287926   0.027047948874941247
-1.9200676861021955   0.011642214331287926   0.027047948874941247
-1.9200676861021955   0.011642214331287926   0.027047948874941247
-1.9200676861021955   0.011642214331287926   0.027047948874941247
-1.5804564037635216   0.1066579051148267   0.07228826434954333
-1.5804564037635216   0.1066579051148267   0.07228826434954333
-1.5804564037635216   0.1066579051148267   0.07228826434954333
-1.5804564037635216   0.1066579051148267   0.07228826434954333
-2.42036765522497   -0.1278823856930016   -0.026197218073266026
-2.42036765522497   -0.1278823856930016   -0.026197218073266026
-2.42036765522497   -0.1278823856930016   -0.026197218073266026
-2.42036765522497   -0.1278823856930016   -0.026197218073266026
-2.4678539946342783   -0.10588130464009082   0.059337890425055884
-2.4678539946342783   -0.10588130464009082   0.059337890425055884
-2.4678539946342783   -0.10588130464009082   0.059337890425055884
-2.4678539946342783   -0.10588130464009082   0.059337890425055884
-1.6611439971650104   -0.002511020589001045   -0.019078940814331674
-1.6611439971650104   -0.002511020589001045   -0.019078940814331674
-1.6611439971650104   -0.002511020589001045   -0.019078940814331674
-1.6611439971650104   -0.002511020589001045   -0.019078940814331674
-1.9434793663908967   -0.005560870306477339   0.02197913529587031
-1.9434793663908967   -0.005560870306477339   0.02197913529587031
-1.9434793663908967   -0.005560870306477339   0.02197913529587031
-1.9434793663908967   -0.005560870306477339   0.02197913529587031
1.3193299416282787   0.0731951249813794   -0.0632371968555884
1.3193299416282787   0.0731951249813794   -0.0632371968555884
1.3193299416282787   0.0731951249813794   -0.0632371968555884
1.3193299416282787   0.0731951249813794   -0.0632371968555884
0.6276516621911199   0.012825366047968245   0.024166873531105394
0.6276516621911199   0.012825366047968245   0.024166873531105394
0.6276516621911199   0.012825366047968245   0.024166873531105394
0.6276516621911199   0.012825366047968245   0.024166873531105394
0.5573668894636417   -0.10712416674711711   -0.06002171203917145
0.5573668894636417   -0.10712416674711711   -0.06002171203917145
0.5573668894636417   -0.10712416674711711   -0.06002171203917145
0.5573668894636417   -0.10712416674711711   -0.06002171203917145
1.2906056288665864   0.12139376808344843   0.029875533277103475
1.2906056288665864   0.12139376808344843   0.029875533277103475
1.2906056288665864   0.12139376808344843   0.029875533277103475
1.2906056288665864   0.12139376808344843   0.029875533277103475
0.8997404123076543   0.012177443243842734   -0.026599384542965898
0.8997404123076543   0.012177443243842734   -0.026599384542965898
0.8997404123076543   0.012177443243842734   -0.026599384542965898
0.8997404123076543   0.012177443243842734   -0.026599384542965898
1.2548896124915956   0.032435470136189415   -0.0597462506505925
1.2548896124915956   0.032435470136189415   -0.0597462506505925
1.2548896124915956   0.032435470136189415   -0.0597462506505925
1.2548896124915956   0.032435470136189415   -0.0597462506505925
0.5923772764323454   -0.018871498206146115   0.026777554263372083
0.5923772764323454   -0.018871498206146115   0.026777554263372083
0.5923772764323454   -0.018871498206146115   0.026777554263372083
0.5923772764323454   -0.018871498206146115   0.026777554263372083
0.5245207626249746   -0.11767034784570791   -0.05117368197594791
0.5245207626249746   -0.11767034784570791   -0.05117368197594791
0.5245207626249746   -0.11767034784570791   -0.05117368197594791
0.5245207626249746   -0.11767034784570791   -0.05117368197594791
1.2395363067876857   0.10632844755840115   0.0392633026780316
1.2395363067876857   0.10632844755840115   0.0392633026780316
1.2395363067876857   0.10632844755840115   0.0392633026780316
1.2395363067876857   0.10632844755840115   0.0392633026780316
0.8702605076216332   -0.006088489120862239   -0.03741868488442923
0.8702605076216332   -0.006088489120862239   -0.03741868488442923
0.8702605076216332   -0.006088489120862239   -0.03741868488442923
0.8702605076216332   -0.006088489120862239   -0.03741868488442923
1.2046595720810291   0.019028138151094   -0.04782006144793152
1.2046595720810291   0.019028138151094   -0.04782006144793152
1.2046595720810291   0.019028138151094   -0.04782006144793152
1.2046595720810291   0.019028138151094   -0.04782006144793152
0.558511169758041   -0.03125636601199988   0.032364371855671065
0.558511169758041   -0.03125636601199988   0.032364371855671065
0.558511169758041   -0.03125636601199988   0.032364371855671065
0.558511169758041   -0.03125636601199988   0.032364371855671065
0.49490747844250493   -0.12423963250728823   -0.04261373165004063
0.49490747844250493   -0.12423963250728823   -0.04261373165004063
0.49490747844250493   -0.12423963250728823   -0.04261373165004063
0.49490747844250493   -0.12423963250728823   -0.04261373165004063
1.1819566822705008   0.08996487433282518   0.04661770205072606
1.1819566822705008   0.08996487433282518   0.04661770205072606
1.1819566822705008   0.08996487433282518   0.04661770205072606
1.1819566822705008   0.08996487433282518   0.04661770205072606
0.8122237323406698   -0.019916812914525406   -0.05338709433180751
0.8122237323406698   -0.019916812914525406   -0.05338709433180751
0.8122237323406698   -0.019916812914525406   -0.05338709433180751
0.8122237323406698   -0.019916812914525406   -0.05338709433180751
0.6380295463384038   0.0927883396919156   -0.003906679376412118
0.6380295463384038   0.0927883396919156   -0.003906679376412118
0.6380295463384038   0.0927883396919156   -0.003906679376412118
0.6380295463384038   0.0927883396919156   -0.003906679376412118
-0.041425613273074674   -0.008878986786690473   -0.0002586019188808587
-0.041425613273074674   -0.008878986786690473   -0.0002586019188808587
-0.041425613273074674   -0.008878986786690473   -0.0002586019188808587
-0.041425613273074674   -0.008878986786690473   -0.0002586019188808587
-0.09093592840371668   -0.08011569074276048   -0.03812396917732726
-0.09093592840371668   -0.08011569074276048   -0.03812396917732726
-0.09093592840371668   -0.08011569074276048   -0.03812396917732726
-0.09093592840371668   -0.08011569074276048   -0.03812396917732726
0.6213371424872252   0.11030540829241012   0.04239997803921481
0.6213371424872252   0.11030540829241012   0.04239997803921481
0.6213371424872252   0.11030540829241012   0.04239997803921481
0.6213371424872252   0.11030540829241012   0.04239997803921481
0.2774131325945131   0.027250558567950514   0.001960237252926395
0.2774131325945131   0.027250558567950514   0.001960237252926395
0.2774131325945131   0.027250558567950514   0.001960237252926395
0.2774131325945131   0.027250558567950514   0.001960237252926395
0.6045379957570118   0.06695484871746976   0.001754803963095436
0.6045379957570118   0.06695484871746976   0.001754803963095436
0.6045379957570118   0.06695484871746976   0.001754803963095436
0.6045379957570118   0.06695484871746976   0.001754803963095436
-0.07384786870702435   -0.03647621820133997   0.0036768567647138452
-0.07384786870702435   -0.03647621820133997   0.0036768567647138452
-0.07384786870702435   -0.03647621820133997   0.0036768567647138452
-0.07384786870702435   -0.03647621820133997   0.0036768567647138452
-0.12187688161034063   -0.1000478704745356   -0.03150942265563836
-0.12187688161034063   -0.1000478704745356   -0.03150942265563836
-0.12187688161034063   -0.1000478704745356   -0.03150942265563836
-0.12187688161034063   -0.1000478704745356   -0.03150942265563836
0.5848662961945665   0.08652831680771042   0.04635532121858762
0.5848662961945665   0.08652831680771042   0.04635532121858762
0.5848662961945665   0.08652831680771042   0.04635532121858762
0.5848662961945665   0.08652831680771042   0.04635532121858762
0.23930372715362375   0.0037466713856916176   -0.0098423779320387
0.23930372715362375   0.0037466713856916176   -0.0098423779320387
0.23930372715362375   0.0037466713856916176   -0.0098423779320387
0.23930372715362375   0.0037466713856916176   -0.0098423779320387
0.5686223233052256   0.04557217479636437   0.0060915987832340125
0.5686223233052256   0.04557217479636437   0.0060915987832340125
0.5686223233052256   0.04557217479636437   0.0060915987832340125
0.5686223233052256   0.04557217479636437   0.0060915987832340125
-0.10586647357934968   -0.059325293321528465   0.007820040346309327
-0.10586647357934968   -0.059325293321528465   0.007820040346309327
-0.10586647357934968   -0.059325293321528465   0.007820040346309327
-0.10586647357934968   -0.059325293321528465   0.007820040346309327
-0.1524165117827905   -0.11681185447591189   -0.025294334355467595
-0.1524165117827905   -0.11681185447591189   -0.025294334355467595
-0.1524165117827905   -0.11681185447591189   -0.025294334355467595
-0.1524165117827905   -0.11681185447591189   -0.025294334355467595
0.5511937870650703   0.06452167536334846   0.050056503592146584
0.5511937870650703   0.06452167536334846   0.050056503592146584
0.5511937870650703   0.06452167536334846   0.050056503592146584
0.5511937870650703   0.06452167536334846   0.050056503592146584
0.21003912760993115   -0.014097805063900959   -0.01968460987572962
0.21003912760993115   -0.014097805063900959   -0.01968460987572962
0.21003912760993115   -0.014097805063900959   -0.01968460987572962
0.21003912760993115   -0.014097805063900959   -0.01968460987572962
-0.014364890806603942   0.11079387261344932   0.015372151013336869
-0.014364890806603942   0.11079387261344932   0.015372151013336869
-0.014364890806603942   0.11079387261344932   0.015372151013336869
-0.014364890806603942   0.11079387261344932   0.015372151013336869
-0.6962379998126492   -0.030059498077067065   -0.02309516639305141
-0.6962379998126492   -0.030059498077067065   -0.02309516639305141
-0.6962379998126492   -0.030059498077067065   -0.02309516639305141
-0.6962379998126492   -0.030059498077067065   -0.02309516639305141
-0.728149734219465   -0.05551927254376726   -0.018018817445537683
-0.728149734219465   -0.05551927254376726   -0.018018817445537683
-0.728149734219465   -0.05551927254376726   -0.018018817445537683
-0.728149734219465   -0.05551927254376726   -0.018018817445537683
-0.045777349211541724   0.08908865649168633   0.018464579549100708
-0.045777349211541724   0.08908865649168633   0.018464579549100708
-0.045777349211541724   0.08908865649168633   0.018464579549100708
-0.045777349211541724   0.08908865649168633   0.018464579549100708
-0.3702540243678935   0.02877296716561574   0.007265722275838233
-0.3702540243678935   0.02877296716561574   0.007265722275838233
-0.3702540243678935   0.02877296716561574   0.007265722275838233
-0.3702540243678935   0.02877296716561574   0.007265722275838233
-0.045156116702285004   0.08901257847182537   0.021646820115245345
-0.045156116702285004   0.08901257847182537   0.021646820115245345
-0.045156116702285004   0.08901257847182537   0.021646820115245345
-0.045156116702285004   0.08901257847182537   0.021646820115245345
-0.7281724107529328   -0.05484463854811729   -0.018806834108526366
-0.7281724107529328   -0.05484463854811729   -0.018806834108526366
-0.7281724107529328   -0.05484463854811729   -0.018806834108526366
-0.7281724107529328   -0.05484463854811729   -0.018806834108526366
-0.7598416102688151   -0.0770918322287214   -0.012244282841791757
-0.7598416102688151   -0.0770918322287214   -0.012244282841791757
-0.7598416102688151   -0.0770918322287214   -0.012244282841791757
-0.7598416102688151   -0.0770918322287214   -0.012244282841791757
-0.07803325517351835   0.06460484661854854   0.02305599243539275
-0.07803325517351835   0.06460484661854854   0.02305599243539275
-0.07803325517351835   0.06460484661854854   0.02305599243539275
-0.07803325517351835   0.06460484661854854   0.02305599243539275
-0.40227198845527873   0.007500700418190467   -0.0023149231347035053
-0.40227198845527873   0.007500700418190467   -0.0023149231347035053
-0.40227198845527873   0.007500700418190467   -0.0023149231347035053
-0.40227198845527873   0.007500700418190467   -0.0023149231347035053
-0.07677361295765717   0.06730202819042144   0.02665702194282574
-0.07677361295765717   0.06730202819042144   0.02665702194282574
-0.07677361295765717   0.06730202819042144   0.02665702194282574
-0.07677361295765717   0.06730202819042144   0.02665702194282574
-0.7609237106428529   -0.07961147195878106   -0.015135144981920739
-0.7609237106428529   -0.07961147195878106   -0.015135144981920739
-0.7609237106428529   -0.07961147195878106   -0.015135144981920739
-0.7609237106428529   -0.07961147195878106   -0.015135144981920739
-0.7911637140261483   -0.0968024355103869   -0.006529895045907837
-0.7911637140261483   -0.0968024355103869   -0.006529895045907837
-0.7911637140261483   -0.0968024355103869   -0.006529895045907837
-0.7911637140261483   -0.0968024355103869   -0.006529895045907837
-0.11041839739222342   0.04092472406118269   0.026959659060277197
-0.11041839739222342   0.04092472406118269   0.026959659060277197
-0.11041839739222342   0.04092472406118269   0.026959659060277197
-0.11041839739222342   0.04092472406118269   0.026959659060277197
-0.4357541372110335   -0.013952254751790225   -0.012982368604562072
-0.4357541372110335   -0.013952254751790225   -0.012982368604562072
-0.4357541372110335   -0.013952254751790225   -0.012982368604562072
-0.4357541372110335   -0.013952254751790225   -0.012982368604562072
-0.65345300103377   0.12728828810326331   0.03348204132100667
-0.65345300103377   0.12728828810326331   0.03348204132100667
-0.65345300103377   0.12728828810326331   0.03348204132100667
-0.65345300103377   0.12728828810326331   0.03348204132100667
-1.3359067173363375   -0.05168430980878824   -0.041667783438991315
-1.3359067173363375   -0.05168430980878824   -0.041667783438991315
-1.3359067173363375   -0.05168430980878824   -0.041667783438991315
-1.3359067173363375   -0.05168430980878824   -0.041667783438991315
-1.3533535235830374   -0.034738883982049995   0.003891583626550746
-1.3533535235830374   -0.034738883982049995   0.003891583626550746
-1.3533535235830374   -0.034738883982049995   0.003891583626550746
-1.3533535235830374   -0.034738883982049995   0.003891583626550746
-0.7017295296988216   0.0639537544739939   -0.005390821860073711
-0.7017295296988216   0.0639537544739939   -0.005390821860073711
-0.7017295296988216   0.0639537544739939   -0.005390821860073711
-0.7017295296988216   0.0639537544739939   -0.005390821860073711
-1.0045522899170396   0.02749278793353066   0.012316261968852354
-1.0045522899170396   0.02749278793353066   0.012316261968852354
-1.0045522899170396   0.02749278793353066   0.012316261968852354
-1.0045522899170396   0.02749278793353066   0.012316261968852354
-0.6842979320054072   0.10619841818695885   0.039522502894025896
-0.6842979320054072   0.10619841818695885   0.039522502894025896
-0.6842979320054072   0.10619841818695885   0.039522502894025896
-0.6842979320054072   0.10619841818695885   0.039522502894025896
-1.370619632974367   -0.07681805939294156   -0.040359787919205484
-1.370619632974367   -0.07681805939294156   -0.040359787919205484
-1.370619632974367   -0.07681805939294156   -0.040359787919205484
-1.370619632974367   -0.07681805939294156   -0.040359787919205484
-1.3902550460477747   -0.05654507795544145   0.006056977625565424
-1.3902550460477747   -0.05654507795544145   0.006056977625565424
-1.3902550460477747   -0.05654507795544145   0.006056977625565424
-1.3902550460477747   -0.05654507795544145   0.006056977625565424
-0.733862702355225   0.04127865768066863   -0.0007202331832272535
-0.733862702355225   0.04127865768066863   -0.0007202331832272535
-0.733862702355225   0.04127865768066863   -0.0007202331832272535
-0.733862702355225   0.04127865768066863   -0.0007202331832272535
-1.031655077804441   0.008502258661463646   0.003395477480714469
-1.031655077804441   0.008502258661463646   0.003395477480714469
-1.031655077804441   0.008502258661463646   0.003395477480714469
-1.031655077804441   0.008502258661463646   0.003395477480714469
-0.7157054662301251   0.08618530292296897   0.04515930219996797
-0.7157054662301251   0.08618530292296897   0.04515930219996797
-0.7157054662301251   0.08618530292296897   0.04515930219996797
-0.7157054662301251   0.08618530292296897   0.04515930219996797
-1.407476218744673   -0.1005156597695408   -0.03607830404482648
-1.407476218744673   -0.1005156597695408   -0.03607830404482648
-1.407476218744673   -0.1005156597695408   -0.03607830404482648
-1.407476218744673   -0.1005156597695408   -0.03607830404482648
-1.4237344366341889   -0.0800087236648423   0.012903430676663996
-1.4237344366341889   -0.0800087236648423   0.012903430676663996
-1.4237344366341889   -0.0800087236648423   0.012903430676663996
-1.4237344366341889   -0.0800087236648423   0.012903430676663996
-0.7668947648629978   0.015349563911382286   0.002662851348083313
-0.7668947648629978   0.015349563911382286   0.002662851348083313
-0.7668947648629978   0.015349563911382286   0.002662851348083313
-0.7668947648629978   0.015349563911382286   0.002662851348083313
-1.0728672309606544   -0.015285364048573086   -0.007919563521774302
-1.0728672309606544   -0.015285364048573086   -0.007919563521774302
-1.0728672309606544   -0.015285364048573086   -0.007919563521774302
-1.0728672309606544   -0.015285364048573086   -0.007919563521774302
-1.284935611781219   0.11415040978707436   0.047353024740739325
-1.284935611781219   0.11415040978707436   0.047353024740739325
-1.284935611781219   0.11415040978707436   0.047353024740739325
-1.284935611781219   0.11415040978707436   0.047353024740739325
-1.9439027634369417   -0.0896508671657622   -0.0460007814687801
-1.9439027634369417   -0.0896508671657622   -0.0460007814687801
-1.9439027634369417   -0.0896508671657622   -0.0460007814687801
-1.9439027634369417   -0.0896508671657622   -0.0460007814687801
-1.9656353035632288   -0.018931394769559406   0.04365875920779945
-1.9656353035632288   -0.018931394769559406   0.04365875920779945
-1.9656353035632288   -0.018931394769559406   0.04365875920779945
-1.9656353035632288   -0.018931394769559406   0.04365875920779945
-1.346150178449191   0.03212419917794768   -0.02695477386421405
-1.346150178449191   0.03212419917794768   -0.02695477386421405
-1.346150178449191   0.03212419917794768   -0.02695477386421405
-1.346150178449191   0.03212419917794768   -0.02695477386421405
-1.562841815332646   0.025731080312881294   0.03822719308046582
-1.562841815332646   0.025731080312881294   0.03822719308046582
-1.562841815332646   0.025731080312881294   0.03822719308046582
-1.562841815332646   0.025731080312881294   0.03822719308046582
-1.3132931493111155   0.1139134987001047   0.055541072304006525
-1.3132931493111155   0.1139134987001047   0.055541072304006525
-1.3132931493111155   0.1139134987001047   0.055541072304006525
-1.3132931493111155   0.1139134987001047   0.055541072304006525
-1.9979338073230306   -0.10016216891343993   -0.03660298544731247
-1.9979338073230306   -0.10016216891343993   -0.03660298544731247
-1.9979338073230306   -0.10016216891343993   -0.03660298544731247
-1.9979338073230306   -0.10016216891343993   -0.03660298544731247
-2.0139337075440062   -0.030432755665941724   0.05461698438100834
-2.0139337075440062   -0.030432755665941724   0.05461698438100834
-2.0139337075440062   -0.030432755665941724   0.05461698438100834
-2.0139337075440062   -0.030432755665941724   0.05461698438100834
-1.3808394254764027   0.019691780890007005   -0.023101778363022907
-1.3808394254764027   0.019691780890007005   -0.023101778363022907
-1.3808394254764027   0.019691780890007005   -0.023101778363022907
-1.3808394254764027   0.019691780890007005   -0.023101778363022907
-1.6302023339771026   0.012887857653200052   0.023191790500536727
-1.6302023339771026   0.012887857653200052   0.023191790500536727
-1.6302023339771026   0.012887857653200052   0.023191790500536727
-1.6302023339771026   0.012887857653200052   0.023191790500536727
-1.345985292284464   0.10533805350591724   0.06552261498076087
-1.345985292284464   0.10533805350591724   0.06552261498076087
-1.345985292284464   0.10533805350591724   0.06552261498076087
-1.345985292284464   0.10533805350591724   0.06552261498076087
-2.047870107247457   -0.11516129479336168   -0.030336475008812258
-2.047870107247457   -0.11516129479336168   -0.030336475008812258
-2.047870107247457   -0.11516129479336168   -0.030336475008812258
-2.047870107247457   -0.11516129479336168   -0.030336475008812258
-2.0776758517555143   -0.07126883270041973   0.05366385321914002
-2.0776758517555143   -0.07126883270041973   0.05366385321914002
-2.0776758517555143   -0.07126883270041973   0.05366385321914002
-2.0776758517555143   -0.07126883270041973   0.05366385321914002
-1.4174599678854194   -0.014800856104386584   -0.020932093139944916
-1.4174599678854194   -0.014800856104386584   -0.020932093139944916
-1.4174599678854194   -0.014800856104386584   -0.020932093139944916
-1.4174599678854194   -0.014800856104386584   -0.020932093139944916
-1.6477124584045673   -0.003062461025112706   0.018151622158665046
-1.6477124584045673   -0.003062461025112706   0.018151622158665046
-1.6477124584045673   -0.003062461025112706   0.018151622158665046
-1.6477124584045673   -0.003062461025112706   0.018151622158665046
0.9046791497091214   0.05112477667827503   -0.06136356083542345
0.9046791497091214   0.05112477667827503   -0.06136356083542345
0.9046791497091214   0.05112477667827503   -0.06136356083542345
0.9046791497091214   0.05112477667827503   -0.06136356083542345
0.38643886602593025   0.02491150541460692   0.02637748180915882
0.38643886602593025   0.02491150541460692   0.02637748180915882
0.38643886602593025   0.02491150541460692   0.02637748180915882
0.38643886602593025   0.02491150541460692   0.02637748180915882
0.32315882700654835   -0.08951047113235461   -0.05719886094187347
0.32315882700654835   -0.08951047113235461   -0.05719886094187347
0.32315882700654835   -0.08951047113235461   -0.05719886094187347
0.32315882700654835   -0.08951047113235461   -0.05719886094187347
0.8833305197984124   0.10293036029944883   0.03204326280132423
0.8833305197984124   0.10293036029944883   0.03204326280132423
0.8833305197984124   0.10293036029944883   0.03204326280132423
0.8833305197984124   0.10293036029944883   0.03204326280132423
0.5913289473404604   0.013124729772194144   -0.01616053863769886
0.5913289473404604   0.013124729772194144   -0.01616053863769886
0.5913289473404604   0.013124729772194144   -0.01616053863769886
0.5913289473404604   0.013124729772194144   -0.01616053863769886
0.8479808522712641   0.015448969334962898   -0.057223683869940374
0.8479808522712641   0.015448969334962898   -0.057223683869940374
0.8479808522712641   0.015448969334962898   -0.057223683869940374
0.8479808522712641   0.015448969334962898   -0.057223683869940374
0.35784471739879903   -0.0026928573027771435   0.029412977189807864
0.35784471739879903   -0.0026928573027771435   0.029412977189807864
0.35784471739879903   -0.0026928573027771435   0.029412977189807864
0.35784471739879903   -0.0026928573027771435   0.029412977189807864
0.2961927357671361   -0.09992701877812833   -0.04867045798406619
0.2961927357671361   -0.09992701877812833   -0.04867045798406619
0.2961927357671361   -0.09992701877812833   -0.04867045798406619
0.2961927357671361   -0.09992701877812833   -0.04867045798406619
0.8389718774158604   0.08815264682633825   0.0412730972909061
0.8389718774158604   0.08815264682633825   0.0412730972909061
0.8389718774158604   0.08815264682633825   0.0412730972909061
0.8389718774158604   0.08815264682633825   0.0412730972909061
0.5633953768399517   -0.0040423676833288985   -0.02637547107171612
0.5633953768399517   -0.0040423676833288985   -0.02637547107171612
0.5633953768399517   -0.0040423676833288985   -0.02637547107171612
0.5633953768399517   -0.0040423676833288985   -0.02637547107171612
0.8042080085458252   0.0021095061065291576   -0.04650310633946789
0.8042080085458252   0.0021095061065291576   -0.04650310633946789
0.8042080085458252   0.0021095061065291576   -0.04650310633946789
0.8042080085458252   0.0021095061065291576   -0.04650310633946789
0.32997971957389   -0.014860763121601214   0.035198205393179124
0.32997971957389   -0.014860763121601214   0.035198205393179124
0.32997971957389   -0.014860763121601214   0.035198205393179124
0.32997971957389   -0.014860763121601214   0.035198205393179124
0.27208076026358774   -0.109445768590486   -0.04055959055891682
0.27208076026358774   -0.109445768590486   -0.04055959055891682
0.27208076026358774   -0.109445768590486   -0.04055959055891682
0.27208076026358774   -0.109445768590486   -0.04055959055891682
0.7872018840088246   0.06868557507733135   0.04708787799088547
0.7872018840088246   0.06868557507733135   0.04708787799088547
0.7872018840088246   0.06868557507733135   0.04708787799088547
0.7872018840088246   0.06868557507733135   0.04708787799088547
0.5162989772201658   -0.018150062527419963   -0.04037468307839971
0.5162989772201658   -0.018150062527419963   -0.04037468307839971
0.5162989772201658   -0.018150062527419963   -0.04037468307839971
0.5162989772201658   -0.018150062527419963   -0.04037468307839971
0.3889593329054694   0.07502332263089435   -0.011132001009439474
0.3889593329054694   0.07502332263089435   -0.011132001009439474
0.3889593329054694   0.07502332263089435   -0.011132001009439474
0.3889593329054694   0.07502332263089435   -0.011132001009439474
-0.11970303545031671   0.006620336198880753   0.0036218085762893364
-0.11970303545031671   0.006620336198880753   0.0036218085762893364
-0.11970303545031671   0.006620336198880753   0.0036218085762893364
-0.11970303545031671   0.006620336198880753   0.0036218085762893364
-0.1629631498495529   -0.062075737664745965   -0.0352054594097876
-0.1629631498495529   -0.062075737664745965   -0.0352054594097876
-0.1629631498495529   -0.062075737664745965   -0.0352054594097876
-0.1629631498495529   -0.062075737664745965   -0.0352054594097876
0.3781001029586765   0.09022468297802627   0.037772364708391945
0.3781001029586765   0.09022468297802627   0.037772364708391945
0.3781001029586765   0.09022468297802627   0.037772364708391945
0.3781001029586765   0.09022468297802627   0.037772364708391945
0.11843951607611276   0.026117113967374928   0.004535128117518484
0.11843951607611276   0.026117113967374928   0.004535128117518484
0.11843951607611276   0.026117113967374928   0.004535128117518484
0.11843951607611276   0.026117113967374928   0.004535128117518484
0.36101032124745586   0.04855806355223985   -0.0060099244219286125
0.36101032124745586   0.04855806355223985   -0.0060099244219286125
0.36101032124745586   0.04855806355223985   -0.0060099244219286125
0.36101032124745586   0.04855806355223985   -0.0060099244219286125
-0.14612397283297743   -0.020659722933604713   0.00757441094195232
-0.14612397283297743   -0.020659722933604713   0.00757441094195232
-0.14612397283297743   -0.020659722933604713   0.00757441094195232
-0.14612397283297743   -0.020659722933604713   0.00757441094195232
-0.18804667633526895   -0.08301966058969541   -0.02847159323860616
-0.18804667633526895   -0.08301966058969541   -0.02847159323860616
-0.18804667633526895   -0.08301966058969541   -0.02847159323860616
-0.18804667633526895   -0.08301966058969541   -0.02847159323860616
0.3473402504911578   0.06607453465756805   0.04106556220034866
0.3473402504911578   0.06607453465756805   0.04106556220034866
0.3473402504911578   0.06607453465756805   0.04106556220034866
0.3473402504911578   0.06607453465756805   0.04106556220034866
0.08752301207451317   0.0024555523160754034   -0.0068315734634225266
0.08752301207451317   0.0024555523160754034   -0.0068315734634225266
0.08752301207451317   0.0024555523160754034   -0.0068315734634225266
0.08752301207451317   0.0024555523160754034   -0.0068315734634225266
0.33079064691940147   0.02610044875732146   -0.0017083697581921995
0.33079064691940147   0.02610044875732146   -0.0017083697581921995
0.33079064691940147   0.02610044875732146   -0.0017083697581921995
0.33079064691940147   0.02610044875732146   -0.0017083697581921995
-0.17213353711966772   -0.04368203904560554   0.011756481295306246
-0.17213353711966772   -0.04368203904560554   0.011756481295306246
-0.17213353711966772   -0.04368203904560554   0.011756481295306246
-0.17213353711966772   -0.04368203904560554   0.011756481295306246
-0.2127990759852065   -0.10273800235338269   -0.022249021941232495
-0.2127990759852065   -0.10273800235338269   -0.022249021941232495
-0.2127990759852065   -0.10273800235338269   -0.022249021941232495
-0.2127990759852065   -0.10273800235338269   -0.022249021941232495
0.31958198128036264   0.042841612979736265   0.04465913295474114
0.31958198128036264   0.042841612979736265   0.04465913295474114
0.31958198128036264   0.042841612979736265   0.04465913295474114
0.31958198128036264   0.042841612979736265   0.04465913295474114
0.06267559147566494   -0.01721405915211381   -0.01688061571791325
0.06267559147566494   -0.01721405915211381   -0.01688061571791325
0.06267559147566494   -0.01721405915211381   -0.01688061571791325
0.06267559147566494   -0.01721405915211381   -0.01688061571791325
-0.100943445656734   0.09535538731779541   0.008684706425284457
-0.100943445656734   0.09535538731779541   0.008684706425284457
-0.100943445656734   0.09535538731779541   0.008684706425284457
-0.100943445656734   0.09535538731779541   0.008684706425284457
-0.6183621069796041   -0.015472799431897555   -0.01878681398972152
-0.6183621069796041   -0.015472799431897555   -0.01878681398972152
-0.6183621069796041   -0.015472799431897555   -0.01878681398972152
-0.6183621069796041   -0.015472799431897555   -0.01878681398972152
-0.6431008545660111   -0.036833466702801895   -0.013822531068871147
-0.6431008545660111   -0.036833466702801895   -0.013822531068871147
-0.6431008545660111   -0.036833466702801895   -0.013822531068871147
-0.6431008545660111   -0.036833466702801895   -0.013822531068871147
-0.1268197147235195   0.06880131089480035   0.014634667660833083
-0.1268197147235195   0.06880131089480035   0.014634667660833083
-0.1268197147235195   0.06880131089480035   0.014634667660833083
-0.1268197147235195   0.06880131089480035   0.014634667660833083
-0.37140159845810133   0.027533751774803106   0.007332207412367692
-0.37140159845810133   0.027533751774803106   0.007332207412367692
-0.37140159845810133   0.027533751774803106   0.007332207412367692
-0.37140159845810133   0.027533751774803106   0.007332207412367692
-0.1260374325466732   0.07234433483567741   0.015003054604187556
-0.1260374325466732   0.07234433483567741   0.015003054604187556
-0.1260374325466732   0.07234433483567741   0.015003054604187556
-0.1260374325466732   0.07234433483567741   0.015003054604187556
-0.6439514602323557   -0.04044481413316711   -0.014464211970229464
-0.6439514602323557   -0.04044481413316711   -0.014464211970229464
-0.6439514602323557   -0.04044481413316711   -0.014464211970229464
-0.6439514602323557   -0.04044481413316711   -0.014464211970229464
-0.6684419206272139   -0.059652548577105044   -0.007822318089179752
-0.6684419206272139   -0.059652548577105044   -0.007822318089179752
-0.6684419206272139   -0.059652548577105044   -0.007822318089179752
-0.6684419206272139   -0.059652548577105044   -0.007822318089179752
-0.15314045497855458   0.043947328213090504   0.019092524742175935
-0.15314045497855458   0.043947328213090504   0.019092524742175935
-0.15314045497855458   0.043947328213090504   0.019092524742175935
-0.15314045497855458   0.043947328213090504   0.019092524742175935
-0.3974561618539104   0.0053242870832646005   -0.0024435804862050943
-0.3974561618539104   0.0053242870832646005   -0.0024435804862050943
-0.3974561618539104   0.0053242870832646005   -0.0024435804862050943
-0.3974561618539104   0.0053242870832646005   -0.0024435804862050943
-0.1518152803849368   0.04930865689488115   0.02035706902847421
-0.1518152803849368   0.04930865689488115   0.02035706902847421
-0.1518152803849368   0.04930865689488115   0.02035706902847421
-0.1518152803849368   0.04930865689488115   0.02035706902847421
-0.6701686736986834   -0.06541545573675775   -0.010693176286875015
-0.6701686736986834   -0.06541545573675775   -0.010693176286875015
-0.6701686736986834   -0.06541545573675775   -0.010693176286875015
-0.6701686736986834   -0.06541545573675775   -0.010693176286875015
-0.6933588939383203   -0.08145342136452458   -0.001990571522162178
-0.6933588939383203   -0.08145342136452458   -0.001990571522162178
-0.6933588939383203   -0.08145342136452458   -0.001990571522162178
-0.6933588939383203   -0.08145342136452458   -0.001990571522162178
-0.1792361447176275   0.019796053715367412   0.023031578327908496
-0.1792361447176275   0.019796053715367412   0.023031578327908496
-0.1792361447176275   0.019796053715367412   0.023031578327908496
-0.1792361447176275   0.019796053715367412   0.023031578327908496
-0.4245815367137436   -0.016910931322125677   -0.013038540399377293
-0.4245815367137436   -0.016910931322125677   -0.013038540399377293
-0.4245815367137436   -0.016910931322125677   -0.013038540399377293
-0.4245815367137436   -0.016910931322125677   -0.013038540399377293
-0.5833460593472091   0.11277125285408923   0.02804937188626748
-0.5833460593472091   0.11277125285408923   0.02804937188626748
-0.5833460593472091   0.11277125285408923   0.02804937188626748
-0.5833460593472091   0.11277125285408923   0.02804937188626748
-1.1080907352511127   -0.03743621785898987   -0.038274521016753035
-1.1080907352511127   -0.03743621785898987   -0.038274521016753035
-1.1080907352511127   -0.03743621785898987   -0.038274521016753035
-1.1080907352511127   -0.03743621785898987   -0.038274521016753035
-1.1173950848512773   -0.016278032479715265   0.00911579852383608
-1.1173950848512773   -0.016278032479715265   0.00911579852383608
-1.1173950848512773   -0.016278032479715265   0.00911579852383608
-1.1173950848512773   -0.016278032479715265   0.00911579852383608
-0.6256419150505279   0.04482242960271182   -0.008183729796984764
-0.6256419150505279   0.04482242960271182   -0.008183729796984764
-0.6256419150505279   0.04482242960271182   -0.008183729796984764
-0.6256419150505279   0.04482242960271182   -0.008183729796984764
-0.8535351537396617   0.026226438319614437   0.010654311087140968
-0.8535351537396617   0.026226438319614437   0.010654311087140968
-0.8535351537396617   0.026226438319614437   0.010654311087140968
-0.8535351537396617   0.026226438319614437   0.010654311087140968
-0.6079733943081246   0.09064950552308321   0.03433179799467574
-0.6079733943081246   0.09064950552308321   0.03433179799467574
-0.6079733943081246   0.09064950552308321   0.03433179799467574
-0.6079733943081246   0.09064950552308321   0.03433179799467574
-1.1358320399749788   -0.06287354278139498   -0.036473466793006455
-1.1358320399749788   -0.06287354278139498   -0.036473466793006455
-1.1358320399749788   -0.06287354278139498   -0.036473466793006455
-1.1358320399749788   -0.06287354278139498   -0.036473466793006455
-1.1472636332156962   -0.03887758028391333   0.011899507854334301
-1.1472636332156962   -0.03887758028391333   0.011899507854334301
-1.1472636332156962   -0.03887758028391333   0.011899507854334301
-1.1472636332156962   -0.03887758028391333   0.011899507854334301
-0.6512532152071138   0.021920217143963472   -0.0034515567097553462
-0.6512532152071138   0.021920217143963472   -0.0034515567097553462
-0.6512532152071138   0.021920217143963472   -0.0034515567097553462
-0.6512532152071138   0.021920217143963472   -0.0034515567097553462
-0.8754887916181197   0.006076758791337539   0.000850465719463421
-0.8754887916181197   0.006076758791337539   0.000850465719463421
-0.8754887916181197   0.006076758791337539   0.000850465719463421
-0.8754887916181197   0.006076758791337539   0.000850465719463421
-0.6329501813469617   0.06966831205496829   0.04031551768000774
-0.6329501813469617   0.06966831205496829   0.04031551768000774
-0.6329501813469617   0.06966831205496829   0.04031551768000774
-0.6329501813469617   0.06966831205496829   0.04031551768000774
-1.165631836054169   -0.08669084417323897   -0.032128242448712305
-1.165631836054169   -0.08669084417323897   -0.032128242448712305
-1.165631836054169   -0.08669084417323897   -0.032128242448712305
-1.165631836054169   -0.08669084417323897   -0.032128242448712305
-1.173865337133369   -0.06294554163129179   0.018157895905084133
-1.173865337133369   -0.06294554163129179   0.018157895905084133
-1.173865337133369   -0.06294554163129179   0.018157895905084133
-1.173865337133369   -0.06294554163129179   0.018157895905084133
-0.6773108793651048   -0.0034711614565104965   0.00026724143588975624
-0.6773108793651048   -0.0034711614565104965   0.00026724143588975624
-0.6773108793651048   -0.0034711614565104965   0.00026724143588975624
-0.6773108793651048   -0.0034711614565104965   0.00026724143588975624
-0.9083879944077569   -0.01728875882055242   -0.010519782521819773
-0.9083879944077569   -0.01728875882055242   -0.010519782521819773
-0.9083879944077569   -0.01728875882055242   -0.010519782521819773
-0.9083879944077569   -0.01728875882055242   -0.010519782521819773
-1.063226135027348   0.10450588938209704   0.044106372860983664
-1.063226135027348   0.10450588938209704   0.044106372860983664
-1.063226135027348   0.10450588938209704   0.044106372860983664
-1.063226135027348   0.10450588938209704   0.044106372860983664
-1.5684834647389665   -0.07217194327530063   -0.0497836324668543
-1.5684834647389665   -0.07217194327530063   -0.0497836324668543
-1.5684834647389665   -0.07217194327530063   -0.0497836324668543
-1.5684834647389665   -0.07217194327530063   -0.0497836324668543
-1.5836971567612241   -0.0012501448455343178   0.043720484330409065
-1.5836971567612241   -0.0012501448455343178   0.043720484330409065
-1.5836971567612241   -0.0012501448455343178   0.043720484330409065
-1.5836971567612241   -0.0012501448455343178   0.043720484330409065
-1.118905899531109   0.015195002454911788   -0.029911309809971948
-1.118905899531109   0.015195002454911788   -0.029911309809971948
-1.118905899531109   0.015195002454911788   -0.029911309809971948
-1.118905899531109   0.015195002454911788   -0.029911309809971948
-1.274916841349907   0.024303615563928793   0.032237815023604136
-1.274916841349907   0.024303615563928793   0.032237815023604136
-1.274916841349907   0.024303615563928793   0.032237815023604136
-1.274916841349907   0.024303615563928793   0.032237815023604136
-1.085549336679313   0.1000405197379505   0.05202598716598372
-1.085549336679313   0.1000405197379505   0.05202598716598372
-1.085549336679313   0.1000405197379505   0.05202598716598372
-1.085549336679313   0.1000405197379505   0.05202598716598372
-1.6177086584673925   -0.08675060098295101   -0.040836568063001955
-1.6177086584673925   -0.08675060098295101   -0.040836568063001955
-1.6177086584673925   -0.08675060098295101   -0.040836568063001955
-1.6177086584673925   -0.08675060098295101   -0.040836568063001955
-1.625884586539669   -0.013676080366283483   0.055104076418790726
-1.625884586539669   -0.013676080366283483   0.055104076418790726
-1.625884586539669   -0.013676080366283483   0.055104076418790726
-1.625884586539669   -0.013676080366283483   0.055104076418790726
-1.1464395593495005   0.002635465844181062   -0.02549316894279595
-1.1464395593495005   0.002635465844181062   -0.02549316894279595
-1.1464395593495005   0.002635465844181062   -0.02549316894279595
-1.1464395593495005   0.002635465844181062   -0.02549316894279595
-1.3317455844670032   0.010014579832226367   0.016835369315991083
-1.3317455844670032   0.010014579832226367   0.016835369315991083
-1.3317455844670032   0.010014579832226367   0.016835369315991083
-1.3317455844670032   0.010014579832226367   0.016835369315991083
-1.1115199948897816   0.090436705433279   0.061303413766715775
-1.1115199948897816   0.090436705433279   0.061303413766715775
-1.1115199948897816   0.090436705433279   0.061303413766715775
-1.1115199948897816   0.090436705433279   0.061303413766715775
-1.6612777419080835   -0.10195091086407465   -0.033586869925491133
-1.6612777419080835   -0.10195091086407465   -0.033586869925491133
-1.6612777419080835   -0.10195091086407465   -0.033586869925491133
-1.6612777419080835   -0.10195091086407465   -0.033586869925491133
-1.6823229568790596   -0.052527075490018615   0.05529979892553545
-1.6823229568790596   -0.052527075490018615   0.05529979892553545
-1.6823229568790596   -0.052527075490018615   0.05529979892553545
-1.6823229568790596   -0.052527075490018615   0.05529979892553545
-1.1752435859043173   -0.029138721664065503   -0.02254016791690726
-1.1752435859043173   -0.029138721664065503   -0.02254016791690726
-1.1752435859043173   -0.029138721664065503   -0.02254016791690726
-1.1752435859043173   -0.029138721664065503   -0.02254016791690726
-1.347917214163611   -0.0062719241711033935   0.009491278940356784
-1.347917214163611   -0.0062719241711033935   0.009491278940356784
-1.347917214163611   -0.0062719241711033935   0.009491278940356784
-1.347917214163611   -0.0062719241711033935   0.009491278940356784
0.4964499106009699   0.029640033071012803   -0.059990924483851474
0.4964499106009699   0.029640033071012803   -0.059990924483851474
0.4964499106009699   0.029640033071012803   -0.059990924483851474
0.4964499106009699   0.029640033071012803   -0.059990924483851474
0.1439682118332504   0.036110477080580114   0.028726895023739516
0.1439682118332504   0.036110477080580114   0.028726895023739516
0.1439682118332504   0.036110477080580114   0.028726895023739516
0.1439682118332504   0.036110477080580114   0.028726895023739516
0.08810616627223744   -0.07310149459474094   -0.052891658143449496
0.08810616627223744   -0.07310149459474094   -0.052891658143449496
0.08810616627223744   -0.07310149459474094   -0.052891658143449496
0.08810616627223744   -0.07310149459474094   -0.052891658143449496
0.48267919449859353   0.08487532255339272   0.034565393676810406
0.48267919449859353   0.08487532255339272   0.034565393676810406
0.48267919449859353   0.08487532255339272   0.034565393676810406
0.48267919449859353   0.08487532255339272   0.034565393676810406
0.28509794463117927   0.01414660432304813   -0.006607481594900657
0.28509794463117927   0.01414660432304813   -0.006607481594900657
0.28509794463117927   0.01414660432304813   -0.006607481594900657
0.28509794463117927   0.01414660432304813   -0.006607481594900657
0.4474633336756024   -0.001649539218617685   -0.05498904866613689
0.4474633336756024   -0.001649539218617685   -0.05498904866613689
0.4474633336756024   -0.001649539218617685   -0.05498904866613689
0.4474633336756024   -0.001649539218617685   -0.05498904866613689
0.12222280056646315   0.012324140648493648   0.03226587808444546
0.12222280056646315   0.012324140648493648   0.03226587808444546
0.12222280056646315   0.012324140648493648   0.03226587808444546
0.12222280056646315   0.012324140648493648   0.03226587808444546
0.06701325224665541   -0.08347567348092165   -0.044909879076249756
0.06701325224665541   -0.08347567348092165   -0.044909879076249756
0.06701325224665541   -0.08347567348092165   -0.044909879076249756
0.06701325224665541   -0.08347567348092165   -0.044909879076249756
0.44476545890411484   0.07055825023901545   0.044387374132310746
0.44476545890411484   0.07055825023901545   0.044387374132310746
0.44476545890411484   0.07055825023901545   0.044387374132310746
0.44476545890411484   0.07055825023901545   0.044387374132310746
0.25859032143478317   -0.0020509674353484525   -0.017127128337630658
0.25859032143478317   -0.0020509674353484525   -0.017127128337630658
0.25859032143478317   -0.0020509674353484525   -0.017127128337630658
0.25859032143478317   -0.0020509674353484525   -0.017127128337630658
0.40975538171612574   -0.014971853404585234   -0.04513290816403801
0.40975538171612574   -0.014971853404585234   -0.04513290816403801
0.40975538171612574   -0.014971853404585234   -0.04513290816403801
0.40975538171612574   -0.014971853404585234   -0.04513290816403801
0.100552632068618   0.0005837327966521783   0.0387276137559912
0.100552632068618   0.0005837327966521783   0.0387276137559912
0.100552632068618   0.0005837327966521783   0.0387276137559912
0.100552632068618   0.0005837327966521783   0.0387276137559912
0.04814977603099128   -0.09602244609855864   -0.03740011991079249
0.04814977603099128   -0.09602244609855864   -0.03740011991079249
0.04814977603099128   -0.09602244609855864   -0.03740011991079249
0.04814977603099128   -0.09602244609855864   -0.03740011991079249
0.3978266239976529   0.04763225574212433   0.049267248267439834
0.3978266239976529   0.04763225574212433   0.049267248267439834
0.3978266239976529   0.04763225574212433   0.049267248267439834
0.3978266239976529   0.04763225574212433   0.049267248267439834
0.22203689520961808   -0.016490230978335206   -0.02997292155010907
0.22203689520961808   -0.016490230978335206   -0.02997292155010907
0.22203689520961808   -0.016490230978335206   -0.02997292155010907
0.22203689520961808   -0.016490230978335206   -0.02997292155010907
0.13831859409563116   0.054015130896703914   -0.0174258474804814
0.13831859409563116   0.054015130896703914   -0.0174258474804814
0.13831859409563116   0.054015130896703914   -0.0174258474804814
0.13831859409563116   0.054015130896703914   -0.0174258474804814
-0.20263708275697345   0.017499012859443323   0.007001011109874854
-0.20263708275697345   0.017499012859443323   0.007001011109874854
-0.20263708275697345   0.017499012859443323   0.007001011109874854
-0.20263708275697345   0.017499012859443323   0.007001011109874854
-0.2386172111757955   -0.046844032866953364   -0.030853900381972867
-0.2386172111757955   -0.046844032866953364   -0.030853900381972867
-0.2386172111757955   -0.046844032866953364   -0.030853900381972867
-0.2386172111757955   -0.046844032866953364   -0.030853900381972867
0.13327090696984795   0.06705434342909915   0.032776207320763986
0.13327090696984795   0.06705434342909915   0.032776207320763986
0.13327090696984795   0.06705434342909915   0.032776207320763986
0.13327090696984795   0.06705434342909915   0.032776207320763986
-0.043601104613051916   0.02196533159483659   0.005549097368401118
-0.043601104613051916   0.02196533159483659   0.005549097368401118
-0.043601104613051916   0.02196533159483659   0.005549097368401118
-0.043601104613051916   0.02196533159483659   0.005549097368401118
0.11629221719297717   0.02774671104692479   -0.012809609181416114
0.11629221719297717   0.02774671104692479   -0.012809609181416114
0.11629221719297717   0.02774671104692479   -0.012809609181416114
0.11629221719297717   0.02774671104692479   -0.012809609181416114
-0.22257452677405004   -0.008472405859894172   0.0109878946196954
-0.22257452677405004   -0.008472405859894172   0.0109878946196954
-0.22257452677405004   -0.008472405859894172   0.0109878946196954
-0.22257452677405004   -0.008472405859894172   0.0109878946196954
-0.2574875188485526   -0.06793479415138762   -0.02415331250471929
-0.2574875188485526   -0.06793479415138762   -0.02415331250471929
-0.2574875188485526   -0.06793479415138762   -0.02415331250471929
-0.2574875188485526   -0.06793479415138762   -0.02415331250471929
0.10851195957599702   0.04337425194407003   0.035733732145468475
0.10851195957599702   0.04337425194407003   0.035733732145468475
0.10851195957599702   0.04337425194407003   0.035733732145468475
0.10851195957599702   0.04337425194407003   0.035733732145468475
-0.06691042171840691   -0.000772078840931157   -0.005345057815055018
-0.06691042171840691   -0.000772078840931157   -0.005345057815055018
-0.06691042171840691   -0.000772078840931157   -0.005345057815055018
-0.06691042171840691   -0.000772078840931157   -0.005345057815055018
0.09203589923731847   0.0051217403716326965   -0.008394057975488785
0.09203589923731847   0.0051217403716326965   -0.008394057975488785
0.09203589923731847   0.0051217403716326965   -0.008394057975488785
0.09203589923731847   0.0051217403716326965   -0.008394057975488785
-0.24222279243602288   -0.030893616505098753   0.015129141911644417
-0.24222279243602288   -0.030893616505098753   0.015129141911644417
-0.24222279243602288   -0.030893616505098753   0.015129141911644417
-0.24222279243602288   -0.030893616505098753   0.015129141911644417
-0.27621441344100645   -0.08886890602859779   -0.018097067365559955
-0.27621441344100645   -0.08886890602859779   -0.018097067365559955
-0.27621441344100645   -0.08886890602859779   -0.018097067365559955
-0.27621441344100645   -0.08886890602859779   -0.018097067365559955
0.08683437453314766   0.02011100900988668   0.039889417491544996
0.08683437453314766   0.02011100900988668   0.039889417491544996
0.08683437453314766   0.02011100900988668   0.039889417491544996
0.08683437453314766   0.02011100900988668   0.039889417491544996
-0.08709451264726316   -0.021147231554247203   -0.01563730761055662
-0.08709451264726316   -0.021147231554247203   -0.01563730761055662
-0.08709451264726316   -0.021147231554247203   -0.01563730761055662
-0.08709451264726316   -0.021147231554247203   -0.01563730761055662
-0.19220917139300114   0.07403588886766937   0.0026036919215101754
-0.19220917139300114   0.07403588886766937   0.0026036919215101754
-0.19220917139300114   0.07403588886766937   0.0026036919215101754
-0.19220917139300114   0.07403588886766937   0.0026036919215101754
-0.5446641713832341   -0.0064249956625643395   -0.014952608458496889
-0.5446641713832341   -0.0064249956625643395   -0.014952608458496889
-0.5446641713832341   -0.0064249956625643395   -0.014952608458496889
-0.5446641713832341   -0.0064249956625643395   -0.014952608458496889
-0.5616561893007276   -0.022878262152405085   -0.00892672299804733
-0.5616561893007276   -0.022878262152405085   -0.00892672299804733
-0.5616561893007276   -0.022878262152405085   -0.00892672299804733
-0.5616561893007276   -0.022878262152405085   -0.00892672299804733
-0.21216645617630142   0.0441337565786831   0.010422085169857206
-0.21216645617630142   0.0441337565786831   0.010422085169857206
-0.21216645617630142   0.0441337565786831   0.010422085169857206
-0.21216645617630142   0.0441337565786831   0.010422085169857206
-0.37678027015405136   0.021752825962043115   0.005757737474242828
-0.37678027015405136   0.021752825962043115   0.005757737474242828
-0.37678027015405136   0.021752825962043115   0.005757737474242828
-0.37678027015405136   0.021752825962043115   0.005757737474242828
-0.21115028547261733   0.050779668555182816   0.008857026711781846
-0.21115028547261733   0.050779668555182816   0.008857026711781846
-0.21115028547261733   0.050779668555182816   0.008857026711781846
-0.21115028547261733   0.050779668555182816   0.008857026711781846
-0.563491639074264   -0.03034345319875774   -0.010638780819384398
-0.563491639074264   -0.03034345319875774   -0.010638780819384398
-0.563491639074264   -0.03034345319875774   -0.010638780819384398
-0.563491639074264   -0.03034345319875774   -0.010638780819384398
-0.5804435676181647   -0.04590263894524017   -0.002854198409805879
-0.5804435676181647   -0.04590263894524017   -0.002854198409805879
-0.5804435676181647   -0.04590263894524017   -0.002854198409805879
-0.5804435676181647   -0.04590263894524017   -0.002854198409805879
-0.23208560634638853   0.020117746647922374   0.01480370920679101
-0.23208560634638853   0.020117746647922374   0.01480370920679101
-0.23208560634638853   0.020117746647922374   0.01480370920679101
-0.23208560634638853   0.020117746647922374   0.01480370920679101
-0.3963828008271959   -0.00011257655094777663   -0.004010551488719861
-0.3963828008271959   -0.00011257655094777663   -0.004010551488719861
-0.3963828008271959   -0.00011257655094777663   -0.004010551488719861
-0.3963828008271959   -0.00011257655094777663   -0.004010551488719861
-0.23072307757794808   0.027465932236790204   0.014268167460129322
-0.23072307757794808   0.027465932236790204   0.014268167460129322
-0.23072307757794808   0.027465932236790204   0.014268167460129322
-0.23072307757794808   0.027465932236790204   0.014268167460129322
-0.5829709452205949   -0.054415673368093234   -0.006978051999111296
-0.5829709452205949   -0.054415673368093234   -0.006978051999111296
-0.5829709452205949   -0.054415673368093234   -0.006978051999111296
-0.5829709452205949   -0.054415673368093234   -0.006978051999111296
-0.5988719478167446   -0.06813288600277588   0.003022682836309125
-0.5988719478167446   -0.06813288600277588   0.003022682836309125
-0.5988719478167446   -0.06813288600277588   0.003022682836309125
-0.5988719478167446   -0.06813288600277588   0.003022682836309125
-0.25166174091714416   -0.003018905242741003   0.01881629446789134
-0.25166174091714416   -0.003018905242741003   0.01881629446789134
-0.25166174091714416   -0.003018905242741003   0.01881629446789134
-0.25166174091714416   -0.003018905242741003   0.01881629446789134
-0.41700658782453726   -0.02203103341243963   -0.014615728161672361
-0.41700658782453726   -0.02203103341243963   -0.014615728161672361
-0.41700658782453726   -0.02203103341243963   -0.014615728161672361
-0.41700658782453726   -0.02203103341243963   -0.014615728161672361
-0.5171493337635903   0.09303856953108058   0.02315801444607689
-0.5171493337635903   0.09303856953108058   0.02315801444607689
-0.5171493337635903   0.09303856953108058   0.02315801444607689
-0.5171493337635903   0.09303856953108058   0.02315801444607689
-0.8791502189402179   -0.026041483291970535   -0.03414693323863293
-0.8791502189402179   -0.026041483291970535   -0.03414693323863293
-0.8791502189402179   -0.026041483291970535   -0.03414693323863293
-0.8791502189402179   -0.026041483291970535   -0.03414693323863293
-0.8808341131429026   -0.0017150569385715464   0.01432103558897304
-0.8808341131429026   -0.0017150569385715464   0.01432103558897304
-0.8808341131429026   -0.0017150569385715464   0.01432103558897304
-0.8808341131429026   -0.0017150569385715464   0.01432103558897304
-0.5529160870314809   0.02267793220951228   -0.010782406013730941
-0.5529160870314809   0.02267793220951228   -0.010782406013730941
-0.5529160870314809   0.02267793220951228   -0.010782406013730941
-0.5529160870314809   0.02267793220951228   -0.010782406013730941
-0.703916171728366   0.021950816930969286   0.0075891348931727415
-0.703916171728366   0.021950816930969286   0.0075891348931727415
-0.703916171728366   0.021950816930969286   0.0075891348931727415
-0.703916171728366   0.021950816930969286   0.0075891348931727415
-0.5353272687798498   0.07040835692252649   0.02943126053141045
-0.5353272687798498   0.07040835692252649   0.02943126053141045
-0.5353272687798498   0.07040835692252649   0.02943126053141045
-0.5353272687798498   0.07040835692252649   0.02943126053141045
-0.8999967496492809   -0.05101929990633419   -0.03218790397516344
-0.8999967496492809   -0.05101929990633419   -0.03218790397516344
-0.8999967496492809   -0.05101929990633419   -0.03218790397516344
-0.8999967496492809   -0.05101929990633419   -0.03218790397516344
-0.9039613454797726   -0.02441252232931468   0.01759287619645121
-0.9039613454797726   -0.02441252232931468   0.01759287619645121
-0.9039613454797726   -0.02441252232931468   0.01759287619645121
-0.9039613454797726   -0.02441252232931468   0.01759287619645121
-0.5718022158513687   0.000568439178309843   -0.006118517699391465
-0.5718022158513687   0.000568439178309843   -0.006118517699391465
-0.5718022158513687   0.000568439178309843   -0.006118517699391465
-0.5718022158513687   0.000568439178309843   -0.006118517699391465
-0.7205825738344926   0.0015692109384831676   -0.0026533395850981967
-0.7205825738344926   0.0015692109384831676   -0.0026533395850981967
-0.7205825738344926   0.0015692109384831676   -0.0026533395850981967
-0.7205825738344926   0.0015692109384831676   -0.0026533395850981967
-0.5537455498502926   0.049215593211793765   0.03551765827251345
-0.5537455498502926   0.049215593211793765   0.03551765827251345
-0.5537455498502926   0.049215593211793765   0.03551765827251345
-0.5537455498502926   0.049215593211793765   0.03551765827251345
-0.9229989547416426   -0.07404061962359354   -0.02796707281863456
-0.9229989547416426   -0.07404061962359354   -0.02796707281863456
-0.9229989547416426   -0.07404061962359354   -0.02796707281863456
-0.9229989547416426   -0.07404061962359354   -0.02796707281863456
-0.9239430534499761   -0.048064070811778964   0.023934868744418705
-0.9239430534499761   -0.048064070811778964   0.023934868744418705
-0.9239430534499761   -0.048064070811778964   0.023934868744418705
-0.9239430534499761   -0.048064070811778964   0.023934868744418705
-0.5909237318158356   -0.023069707097823633   -0.0022994160641056846
-0.5909237318158356   -0.023069707097823633   -0.0022994160641056846
-0.5909237318158356   -0.023069707097823633   -0.0022994160641056846
-0.5909237318158356   -0.023069707097823633   -0.0022994160641056846
-0.745349493712576   -0.020626272096986475   -0.013811518037239894
-0.745349493712576   -0.020626272096986475   -0.013811518037239894
-0.745349493712576   -0.020626272096986475   -0.013811518037239894
-0.745349493712576   -0.020626272096986475   -0.013811518037239894
-0.8405938324347972   0.0915678440651728   0.04102567193134335
-0.8405938324347972   0.0915678440651728   0.04102567193134335
-0.8405938324347972   0.0915678440651728   0.04102567193134335
-0.8405938324347972   0.0915678440651728   0.04102567193134335
-1.1827135778394313   -0.054390499141002385   -0.05188854201202114
-1.1827135778394313   -0.054390499141002385   -0.05188854201202114
-1.1827135778394313   -0.054390499141002385   -0.05188854201202114
-1.1827135778394313   -0.054390499141002385   -0.05188854201202114
-1.1913972416885645   0.015304787651116925   0.0431289583285096
-1.1913972416885645   0.015304787651116925   0.0431289583285096
-1.1913972416885645   0.015304787651116925   0.0431289583285096
-1.1913972416885645   0.015304787651116925   0.0431289583285096
-0.890245550666509   -0.0027445883684580064   -0.031706620599188634
-0.890245550666509   -0.0027445883684580064   -0.031706620599188634
-0.890245550666509   -0.0027445883684580064   -0.031706620599188634
-0.890245550666509   -0.0027445883684580064   -0.031706620599188634
-0.9821451780585702   0.021999013080328395   0.023754581133768188
-0.9821451780585702   0.021999013080328395   0.023754581133768188
-0.9821451780585702   0.021999013080328395   0.023754581133768188
-0.9821451780585702   0.021999013080328395   0.023754581133768188
-0.8569986503918119   0.08326281060494453   0.04852048180089483
-0.8569986503918119   0.08326281060494453   0.04852048180089483
-0.8569986503918119   0.08326281060494453   0.04852048180089483
-0.8569986503918119   0.08326281060494453   0.04852048180089483
-1.226318523348728   -0.07237699270775166   -0.043795669613437976
-1.226318523348728   -0.07237699270775166   -0.043795669613437976
-1.226318523348728   -0.07237699270775166   -0.043795669613437976
-1.226318523348728   -0.07237699270775166   -0.043795669613437976
-1.2274086538277973   0.002557282655619275   0.05508500959263078
-1.2274086538277973   0.002557282655619275   0.05508500959263078
-1.2274086538277973   0.002557282655619275   0.05508500959263078
-1.2274086538277973   0.002557282655619275   0.05508500959263078
-0.9110562182402716   -0.015081726852732263   -0.027212283082641613
-0.9110562182402716   -0.015081726852732263   -0.027212283082641613
-0.9110562182402716   -0.015081726852732263   -0.027212283082641613
-0.9110562182402716   -0.015081726852732263   -0.027212283082641613
-1.0281434788219335   0.0069184915904124955   0.008524930189273312
-1.0281434788219335   0.0069184915904124955   0.008524930189273312
-1.0281434788219335   0.0069184915904124955   0.008524930189273312
-1.0281434788219335   0.0069184915904124955   0.008524930189273312
-0.87639759997594   0.073285256487259   0.0577138248990335
-0.87639759997594   0.073285256487259   0.0577138248990335
-0.87639759997594   0.073285256487259   0.0577138248990335
-0.87639759997594   0.073285256487259   0.0577138248990335
-1.2636530623397941   -0.08739549093204582   -0.036184259379687216
-1.2636530623397941   -0.08739549093204582   -0.036184259379687216
-1.2636530623397941   -0.08739549093204582   -0.036184259379687216
-1.2636530623397941   -0.08739549093204582   -0.036184259379687216
-1.2772148447372662   -0.03364766824060045   0.056886358033367154
-1.2772148447372662   -0.03364766824060045   0.056886358033367154
-1.2772148447372662   -0.03364766824060045   0.056886358033367154
-1.2772148447372662   -0.03364766824060045   0.056886358033367154
-0.9325287358990628   -0.04332725765617462   -0.023730356656634838
-0.9325287358990628   -0.04332725765617462   -0.023730356656634838
-0.9325287358990628   -0.04332725765617462   -0.023730356656634838
-0.9325287358990628   -0.04332725765617462   -0.023730356656634838
-1.0431829736885043   -0.009111116900404892   -0.0005433129279920901
-1.0431829736885043   -0.009111116900404892   -0.0005433129279920901
-1.0431829736885043   -0.009111116900404892   -0.0005433129279920901
-1.0431829736885043   -0.009111116900404892   -0.0005433129279920901
0.08831697122220881   0.007269194641459363   -0.0598282765608533
0.08831697122220881   0.007269194641459363   -0.0598282765608533
0.08831697122220881   0.007269194641459363   -0.0598282765608533
0.08831697122220881   0.007269194641459363   -0.0598282765608533
-0.0981015816395512   0.044886913687743495   0.030613145263535695
-0.0981015816395512   0.044886913687743495   0.030613145263535695
-0.0981015816395512   0.044886913687743495   0.030613145263535695
-0.0981015816395512   0.044886913687743495   0.030613145263535695
-0.14685694797439727   -0.05758024077848807   -0.04817628050960269
-0.14685694797439727   -0.05758024077848807   -0.04817628050960269
-0.14685694797439727   -0.05758024077848807   -0.04817628050960269
-0.14685694797439727   -0.05758024077848807   -0.04817628050960269
0.0809296442913561   0.06329910126356708   0.03759693646111368
0.0809296442913561   0.06329910126356708   0.03759693646111368
0.0809296442913561   0.06329910126356708   0.03759693646111368
0.0809296442913561   0.06329910126356708   0.03759693646111368
-0.020925360651091865   0.013889954491584089   0.005204253764286398
-0.020925360651091865   0.013889954491584089   0.005204253764286398
-0.020925360651091865   0.013889954491584089   0.005204253764286398
-0.020925360651091865   0.013889954491584089   0.005204253764286398
0.046041884502132334   -0.020061475354624353   -0.053481285866813714
0.046041884502132334   -0.020061475354624353   -0.053481285866813714
0.046041884502132334   -0.020061475354624353   -0.053481285866813714
0.046041884502132334   -0.020061475354624353   -0.053481285866813714
-0.11403286610256988   0.023716657922306986   0.03464723014873916
-0.11403286610256988   0.023716657922306986   0.03464723014873916
-0.11403286610256988   0.023716657922306986   0.03464723014873916
-0.11403286610256988   0.023716657922306986   0.03464723014873916
-0.16291808186636136   -0.06802224796656167   -0.040831576125129346
-0.16291808186636136   -0.06802224796656167   -0.040831576125129346
-0.16291808186636136   -0.06802224796656167   -0.040831576125129346
-0.16291808186636136   -0.06802224796656167   -0.040831576125129346
0.047855044256171306   0.04911387894840094   0.051557511293664995
0.047855044256171306   0.04911387894840094   0.051557511293664995
0.047855044256171306   0.04911387894840094   0.051557511293664995
0.047855044256171306   0.04911387894840094   0.051557511293664995
-0.0470360065468308   -0.0017535176985294908   -0.006861190104197602
-0.0470360065468308   -0.0017535176985294908   -0.006861190104197602
-0.0470360065468308   -0.0017535176985294908   -0.006861190104197602
-0.0470360065468308   -0.0017535176985294908   -0.006861190104197602
0.012162839106179726   -0.03366472970717676   -0.04412490580071521
0.012162839106179726   -0.03366472970717676   -0.04412490580071521
0.012162839106179726   -0.03366472970717676   -0.04412490580071521
0.012162839106179726   -0.03366472970717676   -0.04412490580071521
-0.13008892569073113   0.011893311714649309   0.043398645071809294
-0.13008892569073113   0.011893311714649309   0.043398645071809294
-0.13008892569073113   0.011893311714649309   0.043398645071809294
-0.13008892569073113   0.011893311714649309   0.043398645071809294
-0.17762914716491898   -0.08408067278530551   -0.03384162320710677
-0.17762914716491898   -0.08408067278530551   -0.03384162320710677
-0.17762914716491898   -0.08408067278530551   -0.03384162320710677
-0.17762914716491898   -0.08408067278530551   -0.03384162320710677
0.0019223859309079301   0.01937415557325857   0.058773627472579755
0.0019223859309079301   0.01937415557325857   0.058773627472579755
0.0019223859309079301   0.01937415557325857   0.058773627472579755
0.0019223859309079301   0.01937415557325857   0.058773627472579755
-0.07505640113516021   -0.017507551112548717   -0.020769563858515243
-0.07505640113516021   -0.017507551112548717   -0.020769563858515243
-0.07505640113516021   -0.017507551112548717   -0.020769563858515243
-0.07505640113516021   -0.017507551112548717   -0.020769563858515243
-0.11207471924705299   0.029448464601838746   -0.02381409368806847
-0.11207471924705299   0.029448464601838746   -0.02381409368806847
-0.11207471924705299   0.029448464601838746   -0.02381409368806847
-0.11207471924705299   0.029448464601838746   -0.02381409368806847
-0.28670014392312554   0.012058545432584056   0.007994995084584313
-0.28670014392312554   0.012058545432584056   0.007994995084584313
-0.28670014392312554   0.012058545432584056   0.007994995084584313
-0.28670014392312554   0.012058545432584056   0.007994995084584313
-0.31184700428455614   -0.03353399524941719   -0.02504757481741361
-0.31184700428455614   -0.03353399524941719   -0.02504757481741361
-0.31184700428455614   -0.03353399524941719   -0.02504757481741361
-0.31184700428455614   -0.03353399524941719   -0.02504757481741361
-0.11521154670708228   0.028547262946669483   0.023923222101814676
-0.11521154670708228   0.028547262946669483   0.023923222101814676
-0.11521154670708228   0.028547262946669483   0.023923222101814676
-0.11521154670708228   0.028547262946669483   0.023923222101814676
-0.20603442220115745   0.00854744225494991   0.004550381192846925
-0.20603442220115745   0.00854744225494991   0.004550381192846925
-0.20603442220115745   0.00854744225494991   0.004550381192846925
-0.20603442220115745   0.00854744225494991   0.004550381192846925
-0.12878365679296802   0.004175146780161967   -0.019565212161105953
-0.12878365679296802   0.004175146780161967   -0.019565212161105953
-0.12878365679296802   0.004175146780161967   -0.019565212161105953
-0.12878365679296802   0.004175146780161967   -0.019565212161105953
-0.2999682141120497   -0.010855198996289457   0.011667579791987357
-0.2999682141120497   -0.010855198996289457   0.011667579791987357
-0.2999682141120497   -0.010855198996289457   0.011667579791987357
-0.2999682141120497   -0.010855198996289457   0.011667579791987357
-0.32434962765028524   -0.054040980007286125   -0.01848084038503004
-0.32434962765028524   -0.054040980007286125   -0.01848084038503004
-0.32434962765028524   -0.054040980007286125   -0.01848084038503004
-0.32434962765028524   -0.054040980007286125   -0.01848084038503004
-0.13457533956588516   0.005887069615894847   0.026972817794793675
-0.13457533956588516   0.005887069615894847   0.026972817794793675
-0.13457533956588516   0.005887069615894847   0.026972817794793675
-0.13457533956588516   0.005887069615894847   0.026972817794793675
-0.2218288979784373   -0.012028688247296498   -0.005771715907142254
-0.2218288979784373   -0.012028688247296498   -0.005771715907142254
-0.2218288979784373   -0.012028688247296498   -0.005771715907142254
-0.2218288979784373   -0.012028688247296498   -0.005771715907142254
-0.14765661494704932   -0.01792958940721591   -0.014616900087914919
-0.14765661494704932   -0.01792958940721591   -0.014616900087914919
-0.14765661494704932   -0.01792958940721591   -0.014616900087914919
-0.14765661494704932   -0.01792958940721591   -0.014616900087914919
-0.3130858506667415   -0.03204181938179551   0.01583888390719825
-0.3130858506667415   -0.03204181938179551   0.01583888390719825
-0.3130858506667415   -0.03204181938179551   0.01583888390719825
-0.3130858506667415   -0.03204181938179551   0.01583888390719825
-0.33693468270416377   -0.07515373802508063   -0.012665260445980132
-0.33693468270416377   -0.07515373802508063   -0.012665260445980132
-0.33693468270416377   -0.07515373802508063   -0.012665260445980132
-0.33693468270416377   -0.07515373802508063   -0.012665260445980132
-0.15076849888024285   -0.017085935550008105   0.03346688098097547
-0.15076849888024285   -0.017085935550008105   0.03346688098097547
-0.15076849888024285   -0.017085935550008105   0.03346688098097547
-0.15076849888024285   -0.017085935550008105   0.03346688098097547
-0.23761175845686267   -0.03239186775829647   -0.016272421020743326
-0.23761175845686267   -0.03239186775829647   -0.016272421020743326
-0.23761175845686267   -0.03239186775829647   -0.016272421020743326
-0.23761175845686267   -0.03239186775829647   -0.016272421020743326
-0.2814767840864112   0.048697559523867895   -0.002527219823127789
-0.2814767840864112   0.048697559523867895   -0.002527219823127789
-0.2814767840864112   0.048697559523867895   -0.002527219823127789
-0.2814767840864112   0.048697559523867895   -0.002527219823127789
-0.473625375928937   -0.016209429299093775   -0.013374084995937327
-0.473625375928937   -0.016209429299093775   -0.013374084995937327
-0.473625375928937   -0.016209429299093775   -0.013374084995937327
-0.473625375928937   -0.016209429299093775   -0.013374084995937327
-0.4785971670712468   -0.011799629507292547   -0.0028141343650450734
-0.4785971670712468   -0.011799629507292547   -0.0028141343650450734
-0.4785971670712468   -0.011799629507292547   -0.0028141343650450734
-0.4785971670712468   -0.011799629507292547   -0.0028141343650450734
-0.29885511710277884   0.0026879787332625693   0.0036898871087893553
-0.29885511710277884   0.0026879787332625693   0.0036898871087893553
-0.29885511710277884   0.0026879787332625693   0.0036898871087893553
-0.29885511710277884   0.0026879787332625693   0.0036898871087893553
-0.3823389436213752   0.005472367670591782   0.0015423065248409522
-0.3823389436213752   0.005472367670591782   0.0015423065248409522
-0.3823389436213752   0.005472367670591782   0.0015423065248409522
-0.3823389436213752   0.005472367670591782   0.0015423065248409522
-0.29412301365508525   0.026388087220877293   0.0036502958596426466
-0.29412301365508525   0.026388087220877293   0.0036502958596426466
-0.29412301365508525   0.026388087220877293   0.0036502958596426466
-0.29412301365508525   0.026388087220877293   0.0036502958596426466
-0.4849578124403327   -0.03712827991629966   -0.00928871080146794
-0.4849578124403327   -0.03712827991629966   -0.00928871080146794
-0.4849578124403327   -0.03712827991629966   -0.00928871080146794
-0.4849578124403327   -0.03712827991629966   -0.00928871080146794
-0.49031916353606364   -0.033830026714343056   0.003298399585138983
-0.49031916353606364   -0.033830026714343056   0.003298399585138983
-0.49031916353606364   -0.033830026714343056   0.003298399585138983
-0.49031916353606364   -0.033830026714343056   0.003298399585138983
-0.3121158098500821   -0.018968193195782537   0.007615461804482252
-0.3121158098500821   -0.018968193195782537   0.007615461804482252
-0.3121158098500821   -0.018968193195782537   0.007615461804482252
-0.3121158098500821   -0.018968193195782537   0.007615461804482252
-0.39504768455964656   -0.01456346630239154   -0.007937983915916387
-0.39504768455964656   -0.01456346630239154   -0.007937983915916387
-0.39504768455964656   -0.01456346630239154   -0.007937983915916387
-0.39504768455964656   -0.01456346630239154   -0.007937983915916387
-0.3072373623643255   0.003945462342066275   0.009094043695416717
-0.3072373623643255   0.003945462342066275   0.009094043695416717
-0.3072373623643255   0.003945462342066275   0.009094043695416717
-0.3072373623643255   0.003945462342066275   0.009094043695416717
-0.49716076702457074   -0.05870683825493843   -0.00603280631680855
-0.49716076702457074   -0.05870683825493843   -0.00603280631680855
-0.49716076702457074   -0.05870683825493843   -0.00603280631680855
-0.49716076702457074   -0.05870683825493843   -0.00603280631680855
-0.5017360406499   -0.05496522017202197   0.009159019554242328
-0.5017360406499   -0.05496522017202197   0.009159019554242328
-0.5017360406499   -0.05496522017202197   0.009159019554242328
-0.5017360406499   -0.05496522017202197   0.009159019554242328
-0.32484838920968995   -0.0394018925613861   0.012014361562690437
-0.32484838920968995   -0.0394018925613861   0.012014361562690437
-0.32484838920968995   -0.0394018925613861   0.012014361562690437
-0.32484838920968995   -0.0394018925613861   0.012014361562690437
-0.40872335877593546   -0.03472491421280158   -0.018239089146212743
-0.40872335877593546   -0.03472491421280158   -0.018239089146212743
-0.40872335877593546   -0.03472491421280158   -0.018239089146212743
-0.40872335877593546   -0.03472491421280158   -0.018239089146212743
-0.44970875560701856   0.07056342790442477   0.01943615941014403
-0.44970875560701856   0.07056342790442477   0.01943615941014403
-0.44970875560701856   0.07056342790442477   0.01943615941014403
-0.44970875560701856   0.07056342790442477   0.01943615941014403
-0.6531373444662029   -0.026942208703764042   -0.03001013653427411
-0.6531373444662029   -0.026942208703764042   -0.03001013653427411
-0.6531373444662029   -0.026942208703764042   -0.03001013653427411
-0.6531373444662029   -0.026942208703764042   -0.03001013653427411
-0.6443554457799423   0.010573547159301588   0.020135027483677015
-0.6443554457799423   0.010573547159301588   0.020135027483677015
-0.6443554457799423   0.010573547159301588   0.020135027483677015
-0.6443554457799423   0.010573547159301588   0.020135027483677015
-0.48025073842630117   -0.009520290843348808   -0.013361329804261173
-0.48025073842630117   -0.009520290843348808   -0.013361329804261173
-0.48025073842630117   -0.009520290843348808   -0.013361329804261173
-0.48025073842630117   -0.009520290843348808   -0.013361329804261173
-0.554941291046187   0.011249040837409213   0.0026605790819639527
-0.554941291046187   0.011249040837409213   0.0026605790819639527
-0.554941291046187   0.011249040837409213   0.0026605790819639527
-0.554941291046187   0.011249040837409213   0.0026605790819639527
-0.46087549687037105   0.04836787405907897   0.02562671307296191
-0.46087549687037105   0.04836787405907897   0.02562671307296191
-0.46087549687037105   0.04836787405907897   0.02562671307296191
-0.46087549687037105   0.04836787405907897   0.02562671307296191
-0.6661086872146949   -0.04969261762194985   -0.02836501490884196
-0.6661086872146949   -0.04969261762194985   -0.02836501490884196
-0.6661086872146949   -0.04969261762194985   -0.02836501490884196
-0.6661086872146949   -0.04969261762194985   -0.02836501490884196
-0.6600679089149998   -0.011104844858283613   0.02378075518130289
-0.6600679089149998   -0.011104844858283613   0.02378075518130289
-0.6600679089149998   -0.011104844858283613   0.02378075518130289
-0.6600679089149998   -0.011104844858283613   0.02378075518130289
-0.4918715585409632   -0.029206498429473246   -0.009087103724228756
-0.4918715585409632   -0.029206498429473246   -0.009087103724228756
-0.4918715585409632   -0.029206498429473246   -0.009087103724228756
-0.4918715585409632   -0.029206498429473246   -0.009087103724228756
-0.5656157864393085   -0.00805889423670518   -0.007616306793366379
-0.5656157864393085   -0.00805889423670518   -0.007616306793366379
-0.5656157864393085   -0.00805889423670518   -0.007616306793366379
-0.5656157864393085   -0.00805889423670518   -0.007616306793366379
-0.4722776374538359   0.02802688254506297   0.03164912073687194
-0.4722776374538359   0.02802688254506297   0.03164912073687194
-0.4722776374538359   0.02802688254506297   0.03164912073687194
-0.4722776374538359   0.02802688254506297   0.03164912073687194
-0.681539639584668   -0.07021603541536202   -0.02446670760996791
-0.681539639584668   -0.07021603541536202   -0.02446670760996791
-0.681539639584668   -0.07021603541536202   -0.02446670760996791
-0.681539639584668   -0.07021603541536202   -0.02446670760996791
-0.6728414008098573   -0.03293629719304009   0.03028530245383377
-0.6728414008098573   -0.03293629719304009   0.03028530245383377
-0.6728414008098573   -0.03293629719304009   0.03028530245383377
-0.6728414008098573   -0.03293629719304009   0.03028530245383377
-0.5035341596691763   -0.04935889876618906   -0.0054378969479795865
-0.5035341596691763   -0.04935889876618906   -0.0054378969479795865
-0.5035341596691763   -0.04935889876618906   -0.0054378969479795865
-0.5035341596691763   -0.04935889876618906   -0.0054378969479795865
-0.5816783359323873   -0.027744262334246594   -0.018145947560067183
-0.5816783359323873   -0.027744262334246594   -0.018145947560067183
-0.5816783359323873   -0.027744262334246594   -0.018145947560067183
-0.5816783359323873   -0.027744262334246594   -0.018145947560067183
-0.6187683804548022   0.07646228641843394   0.03843018840053151
-0.6187683804548022   0.07646228641843394   0.03843018840053151
-0.6187683804548022   0.07646228641843394   0.03843018840053151
-0.6187683804548022   0.07646228641843394   0.03843018840053151
-0.7960216573544903   -0.03978762790022414   -0.050232952113771046
-0.7960216573544903   -0.03978762790022414   -0.050232952113771046
-0.7960216573544903   -0.03978762790022414   -0.050232952113771046
-0.7960216573544903   -0.03978762790022414   -0.050232952113771046
-0.7966360433268996   0.03079130225316526   0.04236332516931832
-0.7966360433268996   0.03079130225316526   0.04236332516931832
-0.7966360433268996   0.03079130225316526   0.04236332516931832
-0.7966360433268996   0.03079130225316526   0.04236332516931832
-0.661153591927799   -0.022547676508725994   -0.030734479587585885
-0.661153591927799   -0.022547676508725994   -0.030734479587585885
-0.661153591927799   -0.022547676508725994   -0.030734479587585885
-0.661153591927799   -0.022547676508725994   -0.030734479587585885
-0.6891015702805429   0.01817254235288243   0.013301005121818664
-0.6891015702805429   0.01817254235288243   0.013301005121818664
-0.6891015702805429   0.01817254235288243   0.013301005121818664
-0.6891015702805429   0.01817254235288243   0.013301005121818664
-0.6284243030593086   0.06502820243504093   0.045336085811105625
-0.6284243030593086   0.06502820243504093   0.045336085811105625
-0.6284243030593086   0.06502820243504093   0.045336085811105625
-0.6284243030593086   0.06502820243504093   0.045336085811105625
-0.8318343026712808   -0.05925354716648357   -0.043583122132922696
-0.8318343026712808   -0.05925354716648357   -0.043583122132922696
-0.8318343026712808   -0.05925354716648357   -0.043583122132922696
-0.8318343026712808   -0.05925354716648357   -0.043583122132922696
-0.8252159341163696   0.01844670410780541   0.05458958759614469
-0.8252159341163696   0.01844670410780541   0.05458958759614469
-0.8252159341163696   0.01844670410780541   0.05458958759614469
-0.8252159341163696   0.01844670410780541   0.05458958759614469
-0.6747617582448823   -0.03386352561326006   -0.02692981071314149
-0.6747617582448823   -0.03386352561326006   -0.02692981071314149
-0.6747617582448823   -0.03386352561326006   -0.02692981071314149
-0.6747617582448823   -0.03386352561326006   -0.02692981071314149
-0.7231092760613905   0.003159160011621004   -0.0009473593592009485
-0.7231092760613905   0.003159160011621004   -0.0009473593592009485
-0.7231092760613905   0.003159160011621004   -0.0009473593592009485
-0.7231092760613905   0.003159160011621004   -0.0009473593592009485
-0.6406665412367069   0.055312679089503464   0.05437006962497216
-0.6406665412367069   0.055312679089503464   0.05437006962497216
-0.6406665412367069   0.055312679089503464   0.05437006962497216
-0.6406665412367069   0.055312679089503464   0.05437006962497216
-0.8618287228055761   -0.07324707227598654   -0.03678057946608007
-0.8618287228055761   -0.07324707227598654   -0.03678057946608007
-0.8618287228055761   -0.07324707227598654   -0.03678057946608007
-0.8618287228055761   -0.07324707227598654   -0.03678057946608007
-0.8674664668710983   -0.014023230144960874   0.05772751187146927
-0.8674664668710983   -0.014023230144960874   0.05772751187146927
-0.8674664668710983   -0.014023230144960874   0.05772751187146927
-0.8674664668710983   -0.014023230144960874   0.05772751187146927
-0.6884247147250625   -0.05730587396688787   -0.023261690348351977
-0.6884247147250625   -0.05730587396688787   -0.023261690348351977
-0.6884247147250625   -0.05730587396688787   -0.023261690348351977
-0.6884247147250625   -0.05730587396688787   -0.023261690348351977
-0.7361853576353599   -0.011708408879476495   -0.011067718478063995
-0.7361853576353599   -0.011708408879476495   -0.011067718478063995
-0.7361853576353599   -0.011708408879476495   -0.011067718478063995
-0.7361853576353599   -0.011708408879476495   -0.011067718478063995
-0.33916608569555534   -0.02215106472287591   -0.06351224273355721
-0.33916608569555534   -0.02215106472287591   -0.06351224273355721
-0.33916608569555534   -0.02215106472287591   -0.06351224273355721
-0.33916608569555534   -0.02215106472287591   -0.06351224273355721
-0.3351807204834593   0.048675043615821714   0.028580316222024303
-0.3351807204834593   0.048675043615821714   0.028580316222024303
-0.3351807204834593   0.048675043615821714   0.028580316222024303
-0.3351807204834593   0.048675043615821714   0.028580316222024303
-0.3770660683676786   -0.04442797450457321   -0.04304272972055313
-0.3770660683676786   -0.04442797450457321   -0.04304272972055313
-0.3770660683676786   -0.04442797450457321   -0.04304272972055313
-0.3770660683676786   -0.04442797450457321   -0.04304272972055313
-0.34614470671525405   0.025356212249535576   0.04296820037680805
-0.34614470671525405   0.025356212249535576   0.04296820037680805
-0.34614470671525405   0.025356212249535576   0.04296820037680805
-0.34614470671525405   0.025356212249535576   0.04296820037680805
-0.3318534658425566   0.008181667447497792   0.029157502459886415
-0.3318534658425566   0.008181667447497792   0.029157502459886415
-0.3318534658425566   0.008181667447497792   0.029157502459886415
-0.3318534658425566   0.008181667447497792   0.029157502459886415
-0.37985579033229727   -0.04701964503763344   -0.05321136042123553
-0.37985579033229727   -0.04701964503763344   -0.05321136042123553
-0.37985579033229727   -0.04701964503763344   -0.05321136042123553
-0.37985579033229727   -0.04701964503763344   -0.05321136042123553
-0.34754808966180467   0.023754777871427116   0.0363644114328164
-0.34754808966180467   0.023754777871427116   0.0363644114328164
-0.34754808966180467   0.023754777871427116   0.0363644114328164
-0.34754808966180467   0.023754777871427116   0.0363644114328164
-0.3896587249957725   -0.05598399146207644   -0.03641807150677806
-0.3896587249957725   -0.05598399146207644   -0.03641807150677806
-0.3896587249957725   -0.05598399146207644   -0.03641807150677806
-0.3896587249957725   -0.05598399146207644   -0.03641807150677806
-0.37863823911078315   0.009618735451406166   0.07985268595429497
-0.37863823911078315   0.009618735451406166   0.07985268595429497
-0.37863823911078315   0.009618735451406166   0.07985268595429497
-0.37863823911078315   0.009618735451406166   0.07985268595429497
-0.36182029378086217   -0.011673998484787493   0.01164541484566508
-0.36182029378086217   -0.011673998484787493   0.01164541484566508
-0.36182029378086217   -0.011673998484787493   0.01164541484566508
-0.36182029378086217   -0.011673998484787493   0.01164541484566508
-0.4173290018215322   -0.06252575912956745   -0.041456633018473396
-0.4173290018215322   -0.06252575912956745   -0.041456633018473396
-0.4173290018215322   -0.06252575912956745   -0.041456633018473396
-0.4173290018215322   -0.06252575912956745   -0.041456633018473396
-0.3608843870450278   0.006244078358893415   0.0452255484259759
-0.3608843870450278   0.006244078358893415   0.0452255484259759
-0.3608843870450278   0.006244078358893415   0.0452255484259759
-0.3608843870450278   0.006244078358893415   0.0452255484259759
-0.3999656465206972   -0.07848880072812622   -0.028653121582739027
-0.3999656465206972   -0.07848880072812622   -0.028653121582739027
-0.3999656465206972   -0.07848880072812622   -0.028653121582739027
-0.3999656465206972   -0.07848880072812622   -0.028653121582739027
-0.42915173468504153   -0.04238761023909039   0.07473411526867585
-0.42915173468504153   -0.04238761023909039   0.07473411526867585
-0.42915173468504153   -0.04238761023909039   0.07473411526867585
-0.42915173468504153   -0.04238761023909039   0.07473411526867585
-0.38775585371058124   -0.035149726272024194   -0.01608640726573262
-0.38775585371058124   -0.035149726272024194   -0.01608640726573262
-0.38775585371058124   -0.035149726272024194   -0.01608640726573262
-0.38775585371058124   -0.035149726272024194   -0.01608640726573262
-0.359297643263869   -0.010604836887773889   -0.03272441717643134
-0.359297643263869   -0.010604836887773889   -0.03272441717643134
-0.359297643263869   -0.010604836887773889   -0.03272441717643134
-0.359297643263869   -0.010604836887773889   -0.03272441717643134
-0.36378733158871024   -0.04468085589144062   -0.0019013013399263416
-0.36378733158871024   -0.04468085589144062   -0.0019013013399263416
-0.36378733158871024   -0.04468085589144062   -0.0019013013399263416
-0.36378733158871024   -0.04468085589144062   -0.0019013013399263416
-0.3664008203582398   -0.029736047980954146   -0.016304058885145974
-0.3664008203582398   -0.029736047980954146   -0.016304058885145974
-0.3664008203582398   -0.029736047980954146   -0.016304058885145974
-0.3664008203582398   -0.029736047980954146   -0.016304058885145974
-0.3718682604048394   -0.060824553271261836   -0.0006571111396684185
-0.3718682604048394   -0.060824553271261836   -0.0006571111396684185
-0.3718682604048394   -0.060824553271261836   -0.0006571111396684185
-0.3718682604048394   -0.060824553271261836   -0.0006571111396684185
-0.3622311539750955   -0.03804408048386048   -0.0013215157062569007
-0.3622311539750955   -0.03804408048386048   -0.0013215157062569007
-0.3622311539750955   -0.03804408048386048   -0.0013215157062569007
-0.3622311539750955   -0.03804408048386048   -0.0013215157062569007
-0.3718811973439141   -0.03323381785192904   -0.0283125312543768
-0.3718811973439141   -0.03323381785192904   -0.0283125312543768
-0.3718811973439141   -0.03323381785192904   -0.0283125312543768
-0.3718811973439141   -0.03323381785192904   -0.0283125312543768
-0.3687233948391673   -0.05966229482028437   0.0020093155495468076
-0.3687233948391673   -0.05966229482028437   0.0020093155495468076
-0.3687233948391673   -0.05966229482028437   0.0020093155495468076
-0.3687233948391673   -0.05966229482028437   0.0020093155495468076
-0.37251500763363515   -0.04919747435335637   -0.01051023398374312
-0.37251500763363515   -0.04919747435335637   -0.01051023398374312
-0.37251500763363515   -0.04919747435335637   -0.01051023398374312
-0.37251500763363515   -0.04919747435335637   -0.01051023398374312
-0.38529910359826175   -0.07888934087711665   0.008285384895816233
-0.38529910359826175   -0.07888934087711665   0.008285384895816233
-0.38529910359826175   -0.07888934087711665   0.008285384895816233
-0.38529910359826175   -0.07888934087711665   0.008285384895816233
-0.3705199245305608   -0.053760581011942726   -0.010326490478974385
-0.3705199245305608   -0.053760581011942726   -0.010326490478974385
-0.3705199245305608   -0.053760581011942726   -0.010326490478974385
-0.3705199245305608   -0.053760581011942726   -0.010326490478974385
-0.38618552993635213   -0.054030624626256504   -0.021005463045496064
-0.38618552993635213   -0.054030624626256504   -0.021005463045496064
-0.38618552993635213   -0.054030624626256504   -0.021005463045496064
-0.38618552993635213   -0.054030624626256504   -0.021005463045496064
-0.3746158769426654   -0.0770434862513462   0.006831431369087531
-0.3746158769426654   -0.0770434862513462   0.006831431369087531
-0.3746158769426654   -0.0770434862513462   0.006831431369087531
-0.3746158769426654   -0.0770434862513462   0.006831431369087531
-0.3779994128588229   -0.07017977861759477   -0.004771420378377779
-0.3779994128588229   -0.07017977861759477   -0.004771420378377779
-0.3779994128588229   -0.07017977861759477   -0.004771420378377779
-0.3779994128588229   -0.07017977861759477   -0.004771420378377779
-0.39557258514007304   -0.10184642378577782   0.016669808378032593
-0.39557258514007304   -0.10184642378577782   0.016669808378032593
-0.39557258514007304   -0.10184642378577782   0.016669808378032593
-0.39557258514007304   -0.10184642378577782   0.016669808378032593
-0.38193722582840844   -0.07276068677280562   -0.021787104055532018
-0.38193722582840844   -0.07276068677280562   -0.021787104055532018
-0.38193722582840844   -0.07276068677280562   -0.021787104055532018
-0.38193722582840844   -0.07276068677280562   -0.021787104055532018
-0.3538249508058832   0.009226185051049662   -0.005996438368273904
-0.3538249508058832   0.009226185051049662   -0.005996438368273904
-0.3538249508058832   0.009226185051049662   -0.005996438368273904
-0.3538249508058832   0.009226185051049662   -0.005996438368273904
-0.3999948723983088   -0.07593454140873154   -0.019163149762962663
-0.3999948723983088   -0.07593454140873154   -0.019163149762962663
-0.3999948723983088   -0.07593454140873154   -0.019163149762962663
-0.3999948723983088   -0.07593454140873154   -0.019163149762962663
-0.3836312873515304   -0.01399157189830523   0.0050683041997019035
-0.3836312873515304   -0.01399157189830523   0.0050683041997019035
-0.3836312873515304   -0.01399157189830523   0.0050683041997019035
-0.3836312873515304   -0.01399157189830523   0.0050683041997019035
-0.37599550853626484   -0.08217231850423003   -0.011841229251995173
-0.37599550853626484   -0.08217231850423003   -0.011841229251995173
-0.37599550853626484   -0.08217231850423003   -0.011841229251995173
-0.37599550853626484   -0.08217231850423003   -0.011841229251995173
-0.3780974778971276   -0.04200642464039064   -0.008576146010124212
-0.3780974778971276   -0.04200642464039064   -0.008576146010124212
-0.3780974778971276   -0.04200642464039064   -0.008576146010124212
-0.3780974778971276   -0.04200642464039064   -0.008576146010124212
-0.35922719688732313   -0.010132343789756248   -3.964572176048953e-05
-0.35922719688732313   -0.010132343789756248   -3.964572176048953e-05
-0.35922719688732313   -0.010132343789756248   -3.964572176048953e-05
-0.35922719688732313   -0.010132343789756248   -3.964572176048953e-05
-0.40251937704501334   -0.08815132465732022   -0.015212391508697621
-0.40251937704501334   -0.08815132465732022   -0.015212391508697621
-0.40251937704501334   -0.08815132465732022   -0.015212391508697621
-0.40251937704501334   -0.08815132465732022   -0.015212391508697621
-0.3880169484739865   -0.03350676009004956   0.010823765957051524
-0.3880169484739865   -0.03350676009004956   0.010823765957051524
-0.3880169484739865   -0.03350676009004956   0.010823765957051524
-0.3880169484739865   -0.03350676009004956   0.010823765957051524
-0.38171797637372396   -0.09755450853686964   -0.008168043500681685
-0.38171797637372396   -0.09755450853686964   -0.008168043500681685
-0.38171797637372396   -0.09755450853686964   -0.008168043500681685
-0.38171797637372396   -0.09755450853686964   -0.008168043500681685
-0.3827586030564487   -0.05687473266560389   -0.016297633127205325
-0.3827586030564487   -0.05687473266560389   -0.016297633127205325
-0.3827586030564487   -0.05687473266560389   -0.016297633127205325
-0.3827586030564487   -0.05687473266560389   -0.016297633127205325
-0.3654159915373938   -0.029994872887766574   0.005782245031873776
-0.3654159915373938   -0.029994872887766574   0.005782245031873776
-0.3654159915373938   -0.029994872887766574   0.005782245031873776
-0.3654159915373938   -0.029994872887766574   0.005782245031873776
-0.4066868376450264   -0.10343430007386109   -0.012598139914336554
-0.4066868376450264   -0.10343430007386109   -0.012598139914336554
-0.4066868376450264   -0.10343430007386109   -0.012598139914336554
-0.4066868376450264   -0.10343430007386109   -0.012598139914336554
-0.39158269347449814   -0.05186124012295923   0.0164519280196022
-0.39158269347449814   -0.05186124012295923   0.0164519280196022
-0.39158269347449814   -0.05186124012295923   0.0164519280196022
-0.39158269347449814   -0.05186124012295923   0.0164519280196022
-0.385971670812266   -0.11231788217385417   -0.002494606589334085
-0.385971670812266   -0.11231788217385417   -0.002494606589334085
-0.385971670812266   -0.11231788217385417   -0.002494606589334085
-0.385971670812266   -0.11231788217385417   -0.002494606589334085
-0.3883174081622982   -0.07242594593619328   -0.02478186460496759
-0.3883174081622982   -0.07242594593619328   -0.02478186460496759
-0.3883174081622982   -0.07242594593619328   -0.02478186460496759
-0.3883174081622982   -0.07242594593619328   -0.02478186460496759
-0.36933921475274434   0.039546303297506774   0.01863429375862132
-0.36933921475274434   0.039546303297506774   0.01863429375862132
-0.36933921475274434   0.039546303297506774   0.01863429375862132
-0.36933921475274434   0.039546303297506774   0.01863429375862132
-0.43626360776501744   -0.05660712356368995   -0.026692307221066334
-0.43626360776501744   -0.05660712356368995   -0.026692307221066334
-0.43626360776501744   -0.05660712356368995   -0.026692307221066334
-0.43626360776501744   -0.05660712356368995   -0.026692307221066334
-0.41269588567766985   0.011829442770896481   0.025832485518364597
-0.41269588567766985   0.011829442770896481   0.025832485518364597
-0.41269588567766985   0.011829442770896481   0.025832485518364597
-0.41269588567766985   0.011829442770896481   0.025832485518364597
-0.39773441876595317   -0.06326231167997642   -0.016176613090740706
-0.39773441876595317   -0.06326231167997642   -0.016176613090740706
-0.39773441876595317   -0.06326231167997642   -0.016176613090740706
-0.39773441876595317   -0.06326231167997642   -0.016176613090740706
-0.4039782933199492   -0.016697276420590337   -0.005122325568554357
-0.4039782933199492   -0.016697276420590337   -0.005122325568554357
-0.4039782933199492   -0.016697276420590337   -0.005122325568554357
-0.4039782933199492   -0.016697276420590337   -0.005122325568554357
-0.3730710846596158   0.019469545852528747   0.024408199908441137
-0.3730710846596158   0.019469545852528747   0.024408199908441137
-0.3730710846596158   0.019469545852528747   0.024408199908441137
-0.3730710846596158   0.019469545852528747   0.024408199908441137
-0.44017319495030705   -0.07371638992790336   -0.026008228146021446
-0.44017319495030705   -0.07371638992790336   -0.026008228146021446
-0.44017319495030705   -0.07371638992790336   -0.026008228146021446
-0.44017319495030705   -0.07371638992790336   -0.026008228146021446
-0.4203194083115258   -0.007221223707816263   0.029287119654618766
-0.4203194083115258   -0.007221223707816263   0.029287119654618766
-0.4203194083115258   -0.007221223707816263   0.029287119654618766
-0.4203194083115258   -0.007221223707816263   0.029287119654618766
-0.4015482230025626   -0.07745955917261914   -0.012879807603267259
-0.4015482230025626   -0.07745955917261914   -0.012879807603267259
-0.4015482230025626   -0.07745955917261914   -0.012879807603267259
-0.4015482230025626   -0.07745955917261914   -0.012879807603267259
-0.4078129583687306   -0.03281087154067779   -0.014177132901670794
-0.4078129583687306   -0.03281087154067779   -0.014177132901670794
-0.4078129583687306   -0.03281087154067779   -0.014177132901670794
-0.4078129583687306   -0.03281087154067779   -0.014177132901670794
-0.37716540272969135   0.0015559169961020108   0.030018817592375614
-0.37716540272969135   0.0015559169961020108   0.030018817592375614
-0.37716540272969135   0.0015559169961020108   0.030018817592375614
-0.37716540272969135   0.0015559169961020108   0.030018817592375614
-0.44714085414357724   -0.08867532543571628   -0.023366007777738337
-0.44714085414357724   -0.08867532543571628   -0.023366007777738337
-0.44714085414357724   -0.08867532543571628   -0.023366007777738337
-0.44714085414357724   -0.08867532543571628   -0.023366007777738337
-0.4253558121398809   -0.02549270508158504   0.035714723945745104
-0.4253558121398809   -0.02549270508158504   0.035714723945745104
-0.4253558121398809   -0.02549270508158504   0.035714723945745104
-0.4253558121398809   -0.02549270508158504   0.035714723945745104
-0.40482111188372516   -0.09171939116849014   -0.00988201298100211
-0.40482111188372516   -0.09171939116849014   -0.00988201298100211
-0.40482111188372516   -0.09171939116849014   -0.00988201298100211
-0.40482111188372516   -0.09171939116849014   -0.00988201298100211
-0.41454029958901356   -0.04799449183162994   -0.022948851210438735
-0.41454029958901356   -0.04799449183162994   -0.022948851210438735
-0.41454029958901356   -0.04799449183162994   -0.022948851210438735
-0.41454029958901356   -0.04799449183162994   -0.022948851210438735
-0.4008182828719753   0.056737563462601975   0.037189630217844605
-0.4008182828719753   0.056737563462601975   0.037189630217844605
-0.4008182828719753   0.056737563462601975   0.037189630217844605
-0.4008182828719753   0.056737563462601975   0.037189630217844605
-0.4280769664743337   -0.03415139831195878   -0.038691110609387215
-0.4280769664743337   -0.03415139831195878   -0.038691110609387215
-0.4280769664743337   -0.03415139831195878   -0.038691110609387215
-0.4280769664743337   -0.03415139831195878   -0.038691110609387215
-0.4184197402622904   0.040411438665460195   0.041327244617805785
-0.4184197402622904   0.040411438665460195   0.041327244617805785
-0.4184197402622904   0.040411438665460195   0.041327244617805785
-0.4184197402622904   0.040411438665460195   0.041327244617805785
-0.43374090533813237   -0.04391402332508342   -0.02364914668796802
-0.43374090533813237   -0.04391402332508342   -0.02364914668796802
-0.43374090533813237   -0.04391402332508342   -0.02364914668796802
-0.43374090533813237   -0.04391402332508342   -0.02364914668796802
-0.40598273306258714   0.010157204257935232   0.0015517704735027033
-0.40598273306258714   0.010157204257935232   0.0015517704735027033
-0.40598273306258714   0.010157204257935232   0.0015517704735027033
-0.40598273306258714   0.010157204257935232   0.0015517704735027033
-0.40285775041367894   0.04385742386121398   0.04299518074799399
-0.40285775041367894   0.04385742386121398   0.04299518074799399
-0.40285775041367894   0.04385742386121398   0.04299518074799399
-0.40285775041367894   0.04385742386121398   0.04299518074799399
-0.4515937516764331   -0.049650865010530336   -0.03448050877690185
-0.4515937516764331   -0.049650865010530336   -0.03448050877690185
-0.4515937516764331   -0.049650865010530336   -0.03448050877690185
-0.4515937516764331   -0.049650865010530336   -0.03448050877690185
-0.4368492425668385   0.029747770342940946   0.053214153389850485
-0.4368492425668385   0.029747770342940946   0.053214153389850485
-0.4368492425668385   0.029747770342940946   0.053214153389850485
-0.4368492425668385   0.029747770342940946   0.053214153389850485
-0.43950278106405405   -0.052266750360540286   -0.021584217455298434
-0.43950278106405405   -0.052266750360540286   -0.021584217455298434
-0.43950278106405405   -0.052266750360540286   -0.021584217455298434
-0.43950278106405405   -0.052266750360540286   -0.021584217455298434
-0.4258300033348791   -0.0027663103802031547   -0.00912592819001794
-0.4258300033348791   -0.0027663103802031547   -0.00912592819001794
-0.4258300033348791   -0.0027663103802031547   -0.00912592819001794
-0.4258300033348791   -0.0027663103802031547   -0.00912592819001794
-0.4073808706764323   0.03529194238959224   0.05146664173267007
-0.4073808706764323   0.03529194238959224   0.05146664173267007
-0.4073808706764323   0.03529194238959224   0.05146664173267007
-0.4073808706764323   0.03529194238959224   0.05146664173267007
-0.4719582669041273   -0.06079803635684965   -0.03178516159678736
-0.4719582669041273   -0.06079803635684965   -0.03178516159678736
-0.4719582669041273   -0.06079803635684965   -0.03178516159678736
-0.4719582669041273   -0.06079803635684965   -0.03178516159678736
-0.4693843752533473   0.0025271592677479915   0.0568631363531122
-0.4693843752533473   0.0025271592677479915   0.0568631363531122
-0.4693843752533473   0.0025271592677479915   0.0568631363531122
-0.4693843752533473   0.0025271592677479915   0.0568631363531122
-0.44475732556822184   -0.06802609275169036   -0.01875945552586216
-0.44475732556822184   -0.06802609275169036   -0.01875945552586216
-0.44475732556822184   -0.06802609275169036   -0.01875945552586216
-0.44475732556822184   -0.06802609275169036   -0.01875945552586216
-0.43524351942559925   -0.014652660807621717   -0.01876270660304804
-0.43524351942559925   -0.014652660807621717   -0.01876270660304804
-0.43524351942559925   -0.014652660807621717   -0.01876270660304804
-0.43524351942559925   -0.014652660807621717   -0.01876270660304804
-0.8628257945447689   -0.07881029830067238   -0.08120131929913657
-0.8628257945447689   -0.07881029830067238   -0.08120131929913657
-0.8628257945447689   -0.07881029830067238   -0.08120131929913657
-0.8628257945447689   -0.07881029830067238   -0.08120131929913657
-0.5468777664719817   0.04686500351819964   0.019157346581380214
-0.5468777664719817   0.04686500351819964   0.019157346581380214
-0.5468777664719817   0.04686500351819964   0.019157346581380214
-0.5468777664719817   0.04686500351819964   0.019157346581380214
-0.5742091653944873   -0.03608582901910609   -0.03617754728716684
-0.5742091653944873   -0.03608582901910609   -0.03617754728716684
-0.5742091653944873   -0.03608582901910609   -0.03617754728716684
-0.5742091653944873   -0.03608582901910609   -0.03617754728716684
-0.9170722999838545   -0.10302395473013397   0.09111306059167049
-0.9170722999838545   -0.10302395473013397   0.09111306059167049
-0.9170722999838545   -0.10302395473013397   0.09111306059167049
-0.9170722999838545   -0.10302395473013397   0.09111306059167049
-0.6667861747181091   -0.025282226858426696   0.08830430105427615
-0.6667861747181091   -0.025282226858426696   0.08830430105427615
-0.6667861747181091   -0.025282226858426696   0.08830430105427615
-0.6667861747181091   -0.025282226858426696   0.08830430105427615
-0.949753440117017   -0.11585207788919616   -0.05946451691507214
-0.949753440117017   -0.11585207788919616   -0.05946451691507214
-0.949753440117017   -0.11585207788919616   -0.05946451691507214
-0.949753440117017   -0.11585207788919616   -0.05946451691507214
-0.5645050596636357   -0.04623474026235608   0.022491892610341267
-0.5645050596636357   -0.04623474026235608   0.022491892610341267
-0.5645050596636357   -0.04623474026235608   0.022491892610341267
-0.5645050596636357   -0.04623474026235608   0.022491892610341267
-0.5829113233800567   -0.05239401746909521   -0.025937994378938293
-0.5829113233800567   -0.05239401746909521   -0.025937994378938293
-0.5829113233800567   -0.05239401746909521   -0.025937994378938293
-0.5829113233800567   -0.05239401746909521   -0.025937994378938293
-0.9461082203476832   -0.14399377553157078   0.0023312407481395625
-0.9461082203476832   -0.14399377553157078   0.0023312407481395625
-0.9461082203476832   -0.14399377553157078   0.0023312407481395625
-0.9461082203476832   -0.14399377553157078   0.0023312407481395625
-0.7380327106388533   -0.08688913926387293   0.020374949464882844
-0.7380327106388533   -0.08688913926387293   0.020374949464882844
-0.7380327106388533   -0.08688913926387293   0.020374949464882844
-0.7380327106388533   -0.08688913926387293   0.020374949464882844
-0.9535236175632748   -0.13089731800185594   -0.0478422028595238
-0.9535236175632748   -0.13089731800185594   -0.0478422028595238
-0.9535236175632748   -0.13089731800185594   -0.0478422028595238
-0.9535236175632748   -0.13089731800185594   -0.0478422028595238
-0.5824671940255215   -0.07246174285986526   -0.003649622215494752
-0.5824671940255215   -0.07246174285986526   -0.003649622215494752
-0.5824671940255215   -0.07246174285986526   -0.003649622215494752
-0.5824671940255215   -0.07246174285986526   -0.003649622215494752
-0.5832023853360807   -0.09191868417066253   -0.018870603738145666
-0.5832023853360807   -0.09191868417066253   -0.018870603738145666
-0.5832023853360807   -0.09191868417066253   -0.018870603738145666
-0.5832023853360807   -0.09191868417066253   -0.018870603738145666
-0.9685615450236127   -0.2199726733047785   0.014554985660774292
-0.9685615450236127   -0.2199726733047785   0.014554985660774292
-0.9685615450236127   -0.2199726733047785   0.014554985660774292
-0.9685615450236127   -0.2199726733047785   0.014554985660774292
-0.7371134182421313   -0.11946673100976288   0.001495007445150306
-0.7371134182421313   -0.11946673100976288   0.001495007445150306
-0.7371134182421313   -0.11946673100976288   0.001495007445150306
-0.7371134182421313   -0.11946673100976288   0.001495007445150306
-0.5905529510215993   -0.10010369503311119   -0.05224987761539013
-0.5905529510215993   -0.10010369503311119   -0.05224987761539013
-0.5905529510215993   -0.10010369503311119   -0.05224987761539013
-0.5905529510215993   -0.10010369503311119   -0.05224987761539013
-0.405406732232993   -0.26162835809685725   -0.04906910765821437
-0.405406732232993   -0.26162835809685725   -0.04906910765821437
-0.405406732232993   -0.26162835809685725   -0.04906910765821437
-0.405406732232993   -0.26162835809685725   -0.04906910765821437
-0.3561135435241441   -0.05815443976763648   -0.003061260502252314
-0.3561135435241441   -0.05815443976763648   -0.003061260502252314
-0.3561135435241441   -0.05815443976763648   -0.003061260502252314
-0.3561135435241441   -0.05815443976763648   -0.003061260502252314
-0.627656379513061   -0.27760672514055473   -0.061892721758586525
-0.627656379513061   -0.27760672514055473   -0.061892721758586525
-0.627656379513061   -0.27760672514055473   -0.061892721758586525
-0.627656379513061   -0.27760672514055473   -0.061892721758586525
-0.4891812570844436   -0.18509228112014714   -0.014249299874275964
-0.4891812570844436   -0.18509228112014714   -0.014249299874275964
-0.4891812570844436   -0.18509228112014714   -0.014249299874275964
-0.4891812570844436   -0.18509228112014714   -0.014249299874275964
-0.5900617682512224   -0.11219759227549181   -0.039328798314450734
-0.5900617682512224   -0.11219759227549181   -0.039328798314450734
-0.5900617682512224   -0.11219759227549181   -0.039328798314450734
-0.5900617682512224   -0.11219759227549181   -0.039328798314450734
-0.3961022541870231   -0.22595767203373884   -0.03520158155054515
-0.3961022541870231   -0.22595767203373884   -0.03520158155054515
-0.3961022541870231   -0.22595767203373884   -0.03520158155054515
-0.3961022541870231   -0.22595767203373884   -0.03520158155054515
-0.36004492759341944   -0.07537509277370918   0.0006024494080113095
-0.36004492759341944   -0.07537509277370918   0.0006024494080113095
-0.36004492759341944   -0.07537509277370918   0.0006024494080113095
-0.36004492759341944   -0.07537509277370918   0.0006024494080113095
-0.6297887509713235   -0.276167710171371   -0.036551439632999255
-0.6297887509713235   -0.276167710171371   -0.036551439632999255
-0.6297887509713235   -0.276167710171371   -0.036551439632999255
-0.6297887509713235   -0.276167710171371   -0.036551439632999255
-0.4836679443246486   -0.17350013856247348   -0.01513758773265286
-0.4836679443246486   -0.17350013856247348   -0.01513758773265286
-0.4836679443246486   -0.17350013856247348   -0.01513758773265286
-0.4836679443246486   -0.17350013856247348   -0.01513758773265286
-0.5989757419486734   -0.1291771387204881   -0.029476965970629335
-0.5989757419486734   -0.1291771387204881   -0.029476965970629335
-0.5989757419486734   -0.1291771387204881   -0.029476965970629335
-0.5989757419486734   -0.1291771387204881   -0.029476965970629335
-0.39580648449546885   -0.2273142121039916   -0.02626621577195698
-0.39580648449546885   -0.2273142121039916   -0.02626621577195698
-0.39580648449546885   -0.2273142121039916   -0.02626621577195698
-0.39580648449546885   -0.2273142121039916   -0.02626621577195698
-0.35976745586760206   -0.09685145525001691   0.005839521784366163
-0.35976745586760206   -0.09685145525001691   0.005839521784366163
-0.35976745586760206   -0.09685145525001691   0.005839521784366163
-0.35976745586760206   -0.09685145525001691   0.005839521784366163
-0.6280933672060917   -0.28080140748269633   -0.05444278977617502
-0.6280933672060917   -0.28080140748269633   -0.05444278977617502
-0.6280933672060917   -0.28080140748269633   -0.05444278977617502
-0.6280933672060917   -0.28080140748269633   -0.05444278977617502
-0.4908285429965378   -0.18664929610922937   -0.028106925159301247
-0.4908285429965378   -0.18664929610922937   -0.028106925159301247
-0.4908285429965378   -0.18664929610922937   -0.028106925159301247
-0.4908285429965378   -0.18664929610922937   -0.028106925159301247
-0.3570498769856364   -0.06441295856438778   -0.004500230953900853
-0.3570498769856364   -0.06441295856438778   -0.004500230953900853
-0.3570498769856364   -0.06441295856438778   -0.004500230953900853
-0.3570498769856364   -0.06441295856438778   -0.004500230953900853
-0.29908959100652105   -0.20009096778857174   -0.03454230469696479
-0.29908959100652105   -0.20009096778857174   -0.03454230469696479
-0.29908959100652105   -0.20009096778857174   -0.03454230469696479
-0.29908959100652105   -0.20009096778857174   -0.03454230469696479
-0.2577314186564146   -0.053391630025446335   0.013798123262073036
-0.2577314186564146   -0.053391630025446335   0.013798123262073036
-0.2577314186564146   -0.053391630025446335   0.013798123262073036
-0.2577314186564146   -0.053391630025446335   0.013798123262073036
-0.39503411480217604   -0.21762470342280765   -0.03819385323724129
-0.39503411480217604   -0.21762470342280765   -0.03819385323724129
-0.39503411480217604   -0.21762470342280765   -0.03819385323724129
-0.39503411480217604   -0.21762470342280765   -0.03819385323724129
-0.3257788871642875   -0.13576553982947714   -0.015944519065010963
-0.3257788871642875   -0.13576553982947714   -0.015944519065010963
-0.3257788871642875   -0.13576553982947714   -0.015944519065010963
-0.3257788871642875   -0.13576553982947714   -0.015944519065010963
-0.35900003648494616   -0.07627884271528927   0.0006306776413899486
-0.35900003648494616   -0.07627884271528927   0.0006306776413899486
-0.35900003648494616   -0.07627884271528927   0.0006306776413899486
-0.35900003648494616   -0.07627884271528927   0.0006306776413899486
-0.29588399853584685   -0.19685599229516584   -0.03350041386536142
-0.29588399853584685   -0.19685599229516584   -0.03350041386536142
-0.29588399853584685   -0.19685599229516584   -0.03350041386536142
-0.29588399853584685   -0.19685599229516584   -0.03350041386536142
-0.2576976446397364   -0.0675420724053869   0.01787380542274452
-0.2576976446397364   -0.0675420724053869   0.01787380542274452
-0.2576976446397364   -0.0675420724053869   0.01787380542274452
-0.2576976446397364   -0.0675420724053869   0.01787380542274452
-0.3961526705575657   -0.2210760231404393   -0.034235335045993846
-0.3961526705575657   -0.2210760231404393   -0.034235335045993846
-0.3961526705575657   -0.2210760231404393   -0.034235335045993846
-0.3961526705575657   -0.2210760231404393   -0.034235335045993846
-0.32508972876755887   -0.14110447898187645   -0.020687778028106476
-0.32508972876755887   -0.14110447898187645   -0.020687778028106476
-0.32508972876755887   -0.14110447898187645   -0.020687778028106476
-0.32508972876755887   -0.14110447898187645   -0.020687778028106476
-0.3618821100653375   -0.09062119810009531   0.006662642374803426
-0.3618821100653375   -0.09062119810009531   0.006662642374803426
-0.3618821100653375   -0.09062119810009531   0.006662642374803426
-0.3618821100653375   -0.09062119810009531   0.006662642374803426
-0.29313144332590807   -0.1991601356396743   -0.02767712477382645
-0.29313144332590807   -0.1991601356396743   -0.02767712477382645
-0.29313144332590807   -0.1991601356396743   -0.02767712477382645
-0.29313144332590807   -0.1991601356396743   -0.02767712477382645
-0.2545212350668841   -0.08106719331635223   0.022308401952793676
-0.2545212350668841   -0.08106719331635223   0.022308401952793676
-0.2545212350668841   -0.08106719331635223   0.022308401952793676
-0.2545212350668841   -0.08106719331635223   0.022308401952793676
-0.39128537270287245   -0.22391863887447266   -0.024682878767534007
-0.39128537270287245   -0.22391863887447266   -0.024682878767534007
-0.39128537270287245   -0.22391863887447266   -0.024682878767534007
-0.39128537270287245   -0.22391863887447266   -0.024682878767534007
-0.32397706507382606   -0.14811836194843409   -0.02396185063176971
-0.32397706507382606   -0.14811836194843409   -0.02396185063176971
-0.32397706507382606   -0.14811836194843409   -0.02396185063176971
-0.32397706507382606   -0.14811836194843409   -0.02396185063176971
-0.24906804266824517   -0.008945546049128068   0.024420015254970753
-0.24906804266824517   -0.008945546049128068   0.024420015254970753
-0.24906804266824517   -0.008945546049128068   0.024420015254970753
-0.24906804266824517   -0.008945546049128068   0.024420015254970753
-0.23509036386289967   -0.10583200610863192   -0.02063996253666242
-0.23509036386289967   -0.10583200610863192   -0.02063996253666242
-0.23509036386289967   -0.10583200610863192   -0.02063996253666242
-0.23509036386289967   -0.10583200610863192   -0.02063996253666242
-0.20258606309856636   -0.015337909003498483   0.028297044624262177
-0.20258606309856636   -0.015337909003498483   0.028297044624262177
-0.20258606309856636   -0.015337909003498483   0.028297044624262177
-0.20258606309856636   -0.015337909003498483   0.028297044624262177
-0.27722438783224645   -0.12242273511511428   -0.014635617527418675
-0.27722438783224645   -0.12242273511511428   -0.014635617527418675
-0.27722438783224645   -0.12242273511511428   -0.014635617527418675
-0.27722438783224645   -0.12242273511511428   -0.014635617527418675
-0.24179994732348234   -0.06255812025095767   -0.008643573475206555
-0.24179994732348234   -0.06255812025095767   -0.008643573475206555
-0.24179994732348234   -0.06255812025095767   -0.008643573475206555
-0.24179994732348234   -0.06255812025095767   -0.008643573475206555
-0.24911367380328558   -0.02466983047403372   0.028165047976305223
-0.24911367380328558   -0.02466983047403372   0.028165047976305223
-0.24911367380328558   -0.02466983047403372   0.028165047976305223
-0.24911367380328558   -0.02466983047403372   0.028165047976305223
-0.23294595566351   -0.11533999218056179   -0.023500335023392722
-0.23294595566351   -0.11533999218056179   -0.023500335023392722
-0.23294595566351   -0.11533999218056179   -0.023500335023392722
-0.23294595566351   -0.11533999218056179   -0.023500335023392722
-0.20276007246460245   -0.029044200705243356   0.030408834195651473
-0.20276007246460245   -0.029044200705243356   0.030408834195651473
-0.20276007246460245   -0.029044200705243356   0.030408834195651473
-0.20276007246460245   -0.029044200705243356   0.030408834195651473
-0.27700514149366945   -0.12987692271202506   -0.016328828540297928
-0.27700514149366945   -0.12987692271202506   -0.016328828540297928
-0.27700514149366945   -0.12987692271202506   -0.016328828540297928
-0.27700514149366945   -0.12987692271202506   -0.016328828540297928
-0.24063110823733025   -0.07357442675332848   -0.014661588323219345
-0.24063110823733025   -0.07357442675332848   -0.014661588323219345
-0.24063110823733025   -0.07357442675332848   -0.014661588323219345
-0.24063110823733025   -0.07357442675332848   -0.014661588323219345
-0.24894550844300878   -0.03795380994988238   0.032046223950862714
-0.24894550844300878   -0.03795380994988238   0.032046223950862714
-0.24894550844300878   -0.03795380994988238   0.032046223950862714
-0.24894550844300878   -0.03795380994988238   0.032046223950862714
-0.2321812330991896   -0.1223288410513125   -0.02341232863120735
-0.2321812330991896   -0.1223288410513125   -0.02341232863120735
-0.2321812330991896   -0.1223288410513125   -0.02341232863120735
-0.2321812330991896   -0.1223288410513125   -0.02341232863120735
-0.20089603561120903   -0.04191080116105292   0.03523586078366779
-0.20089603561120903   -0.04191080116105292   0.03523586078366779
-0.20089603561120903   -0.04191080116105292   0.03523586078366779
-0.20089603561120903   -0.04191080116105292   0.03523586078366779
-0.27247373150822163   -0.1373397652399097   -0.011181508330336487
-0.27247373150822163   -0.1373397652399097   -0.011181508330336487
-0.27247373150822163   -0.1373397652399097   -0.011181508330336487
-0.27247373150822163   -0.1373397652399097   -0.011181508330336487
-0.2397698291554199   -0.08303061958858104   -0.018831320724951753
-0.2397698291554199   -0.08303061958858104   -0.018831320724951753
-0.2397698291554199   -0.08303061958858104   -0.018831320724951753
-0.2397698291554199   -0.08303061958858104   -0.018831320724951753
-0.1966943956627516   0.027470760369434355   0.0380371119860117
-0.1966943956627516   0.027470760369434355   0.0380371119860117
-0.1966943956627516   0.027470760369434355   0.0380371119860117
-0.1966943956627516   0.027470760369434355   0.0380371119860117
-0.1301280500268063   -0.03474112299025331   -0.012666736507443072
-0.1301280500268063   -0.03474112299025331   -0.012666736507443072
-0.1301280500268063   -0.03474112299025331   -0.012666736507443072
-0.1301280500268063   -0.03474112299025331   -0.012666736507443072
-0.11342401019156897   0.032388684483056616   0.037547497206168796
-0.11342401019156897   0.032388684483056616   0.037547497206168796
-0.11342401019156897   0.032388684483056616   0.037547497206168796
-0.11342401019156897   0.032388684483056616   0.037547497206168796
-0.21715562894692794   -0.05333506607441869   -0.006553627546625531
-0.21715562894692794   -0.05333506607441869   -0.006553627546625531
-0.21715562894692794   -0.05333506607441869   -0.006553627546625531
-0.21715562894692794   -0.05333506607441869   -0.006553627546625531
-0.16211766389776472   -0.0033861001730094847   -0.006903377677269593
-0.16211766389776472   -0.0033861001730094847   -0.006903377677269593
-0.16211766389776472   -0.0033861001730094847   -0.006903377677269593
-0.16211766389776472   -0.0033861001730094847   -0.006903377677269593
-0.19343830138364418   0.017179929702068934   0.04151801449330558
-0.19343830138364418   0.017179929702068934   0.04151801449330558
-0.19343830138364418   0.017179929702068934   0.04151801449330558
-0.19343830138364418   0.017179929702068934   0.04151801449330558
-0.13736315876657107   -0.03834813230515191   -0.01141142888064853
-0.13736315876657107   -0.03834813230515191   -0.01141142888064853
-0.13736315876657107   -0.03834813230515191   -0.01141142888064853
-0.13736315876657107   -0.03834813230515191   -0.01141142888064853
-0.11835493780162512   0.025728278315664953   0.047243082663298804
-0.11835493780162512   0.025728278315664953   0.047243082663298804
-0.11835493780162512   0.025728278315664953   0.047243082663298804
-0.11835493780162512   0.025728278315664953   0.047243082663298804
-0.21606694615068284   -0.05676100021273218   -0.00840873472726155
-0.21606694615068284   -0.05676100021273218   -0.00840873472726155
-0.21606694615068284   -0.05676100021273218   -0.00840873472726155
-0.21606694615068284   -0.05676100021273218   -0.00840873472726155
-0.16683796642793547   -0.010662473804118264   -0.009701990730624823
-0.16683796642793547   -0.010662473804118264   -0.009701990730624823
-0.16683796642793547   -0.010662473804118264   -0.009701990730624823
-0.16683796642793547   -0.010662473804118264   -0.009701990730624823
-0.1912178108803572   0.011268562874654713   0.04780737853697968
-0.1912178108803572   0.011268562874654713   0.04780737853697968
-0.1912178108803572   0.011268562874654713   0.04780737853697968
-0.1912178108803572   0.011268562874654713   0.04780737853697968
-0.14490520816889557   -0.044002419868669304   -0.015777570988734443
-0.14490520816889557   -0.044002419868669304   -0.015777570988734443
-0.14490520816889557   -0.044002419868669304   -0.015777570988734443
-0.14490520816889557   -0.044002419868669304   -0.015777570988734443
-0.13545304660936255   0.007418491762459411   0.0491591880860274
-0.13545304660936255   0.007418491762459411   0.0491591880860274
-0.13545304660936255   0.007418491762459411   0.0491591880860274
-0.13545304660936255   0.007418491762459411   0.0491591880860274
-0.21293391456735303   -0.05980603203627275   -0.0070583031218322805
-0.21293391456735303   -0.05980603203627275   -0.0070583031218322805
-0.21293391456735303   -0.05980603203627275   -0.0070583031218322805
-0.21293391456735303   -0.05980603203627275   -0.0070583031218322805
-0.1690748940009808   -0.01591164111630621   -0.014261252882178176
-0.1690748940009808   -0.01591164111630621   -0.014261252882178176
-0.1690748940009808   -0.01591164111630621   -0.014261252882178176
-0.1690748940009808   -0.01591164111630621   -0.014261252882178176
-2.0329447681185417   -0.2879908276512877   -0.16905480761949662
-2.0329447681185417   -0.2879908276512877   -0.16905480761949662
-2.0329447681185417   -0.2879908276512877   -0.16905480761949662
-2.0329447681185417   -0.2879908276512877   -0.16905480761949662
-0.7054155377513445   -1.1092771455558885   -0.13233723607413767
-0.7054155377513445   -1.1092771455558885   -0.13233723607413767
-0.7054155377513445   -1.1092771455558885   -0.13233723607413767
-0.7054155377513445   -1.1092771455558885   -0.13233723607413767
-0.5452529742092913   -0.046730042528645585   0.0007632958245493184
-0.5452529742092913   -0.046730042528645585   0.0007632958245493184
-0.5452529742092913   -0.046730042528645585   0.0007632958245493184
-0.5452529742092913   -0.046730042528645585   0.0007632958245493184
-2.170507126965669   -1.303978298250887   -0.6948970850433112
-2.170507126965669   -1.303978298250887   -0.6948970850433112
-2.170507126965669   -1.303978298250887   -0.6948970850433112
-2.170507126965669   -1.303978298250887   -0.6948970850433112
-1.3294512405213221   -0.6487195909906109   -0.09452639311762723
-1.3294512405213221   -0.6487195909906109   -0.09452639311762723
-1.3294512405213221   -0.6487195909906109   -0.09452639311762723
-1.3294512405213221   -0.6487195909906109   -0.09452639311762723
-1.8890024078208365   -0.3615857882748956   -0.22976599929515568
-1.8890024078208365   -0.3615857882748956   -0.22976599929515568
-1.8890024078208365   -0.3615857882748956   -0.22976599929515568
-1.8890024078208365   -0.3615857882748956   -0.22976599929515568
-0.7617540994933085   -0.9241189586438234   -0.20435341448035318
-0.7617540994933085   -0.9241189586438234   -0.20435341448035318
-0.7617540994933085   -0.9241189586438234   -0.20435341448035318
-0.7617540994933085   -0.9241189586438234   -0.20435341448035318
-0.5562283029556743   -0.062297085210329034   0.020934774962339142
-0.5562283029556743   -0.062297085210329034   0.020934774962339142
-0.5562283029556743   -0.062297085210329034   0.020934774962339142
-0.5562283029556743   -0.062297085210329034   0.020934774962339142
-2.0310853888530476   -1.1631536987833049   -0.6388478175272705
-2.0310853888530476   -1.1631536987833049   -0.6388478175272705
-2.0310853888530476   -1.1631536987833049   -0.6388478175272705
-2.0310853888530476   -1.1631536987833049   -0.6388478175272705
-1.2521625160377052   -0.5849631137485488   0.05068911617697208
-1.2521625160377052   -0.5849631137485488   0.05068911617697208
-1.2521625160377052   -0.5849631137485488   0.05068911617697208
-1.2521625160377052   -0.5849631137485488   0.05068911617697208
-1.7738102479580353   -0.34427132630864576   -0.17135448552688343
-1.7738102479580353   -0.34427132630864576   -0.17135448552688343
-1.7738102479580353   -0.34427132630864576   -0.17135448552688343
-1.7738102479580353   -0.34427132630864576   -0.17135448552688343
-0.7412750591774808   -0.8089510730117844   -0.15764501834523498
-0.7412750591774808   -0.8089510730117844   -0.15764501834523498
-0.7412750591774808   -0.8089510730117844   -0.15764501834523498
-0.7412750591774808   -0.8089510730117844   -0.15764501834523498
-0.6391378078560264   -0.16364291904722983   -0.03321998021906861
-0.6391378078560264   -0.16364291904722983   -0.03321998021906861
-0.6391378078560264   -0.16364291904722983   -0.03321998021906861
-0.6391378078560264   -0.16364291904722983   -0.03321998021906861
-1.851173804979575   -0.9775438149728624   -0.5657435239904874
-1.851173804979575   -0.9775438149728624   -0.5657435239904874
-1.851173804979575   -0.9775438149728624   -0.5657435239904874
-1.851173804979575   -0.9775438149728624   -0.5657435239904874
-1.1598654821528271   -0.5071381820936942   0.2147246016966842
-1.1598654821528271   -0.5071381820936942   0.2147246016966842
-1.1598654821528271   -0.5071381820936942   0.2147246016966842
-1.1598654821528271   -0.5071381820936942   0.2147246016966842
-0.5222066490688424   -0.2835737563132402   -0.041996181904279825
-0.5222066490688424   -0.2835737563132402   -0.041996181904279825
-0.5222066490688424   -0.2835737563132402   -0.041996181904279825
-0.5222066490688424   -0.2835737563132402   -0.041996181904279825
-0.2413849813315328   -0.35020157124375517   -0.05963903811559312
-0.2413849813315328   -0.35020157124375517   -0.05963903811559312
-0.2413849813315328   -0.35020157124375517   -0.05963903811559312
-0.2413849813315328   -0.35020157124375517   -0.05963903811559312
-0.21295547422164646   -0.18118607981028048   0.005509599601370131
-0.21295547422164646   -0.18118607981028048   0.005509599601370131
-0.21295547422164646   -0.18118607981028048   0.005509599601370131
-0.21295547422164646   -0.18118607981028048   0.005509599601370131
-0.6385923209863217   -0.512955264149406   0.0002917835601633362
-0.6385923209863217   -0.512955264149406   0.0002917835601633362
-0.6385923209863217   -0.512955264149406   0.0002917835601633362
-0.6385923209863217   -0.512955264149406   0.0002917835601633362
-0.34303752865748544   -0.24878868928450026   0.10988852639984284
-0.34303752865748544   -0.24878868928450026   0.10988852639984284
-0.34303752865748544   -0.24878868928450026   0.10988852639984284
-0.34303752865748544   -0.24878868928450026   0.10988852639984284
-0.5942487643790478   -0.26394649772717577   -0.026999199825704936
-0.5942487643790478   -0.26394649772717577   -0.026999199825704936
-0.5942487643790478   -0.26394649772717577   -0.026999199825704936
-0.5942487643790478   -0.26394649772717577   -0.026999199825704936
-0.2753160992814917   -0.44821191468508387   -0.03926769082305642
-0.2753160992814917   -0.44821191468508387   -0.03926769082305642
-0.2753160992814917   -0.44821191468508387   -0.03926769082305642
-0.2753160992814917   -0.44821191468508387   -0.03926769082305642
-0.22998802411708172   -0.18776533031237982   0.005659732807714923
-0.22998802411708172   -0.18776533031237982   0.005659732807714923
-0.22998802411708172   -0.18776533031237982   0.005659732807714923
-0.22998802411708172   -0.18776533031237982   0.005659732807714923
-0.66970386777219   -0.5063504649360009   -0.10238966939456487
-0.66970386777219   -0.5063504649360009   -0.10238966939456487
-0.66970386777219   -0.5063504649360009   -0.10238966939456487
-0.66970386777219   -0.5063504649360009   -0.10238966939456487
-0.4089932796492658   -0.3191756510432974   0.05018926063509467
-0.4089932796492658   -0.3191756510432974   0.05018926063509467
-0.4089932796492658   -0.3191756510432974   0.05018926063509467
-0.4089932796492658   -0.3191756510432974   0.05018926063509467
-0.613163019587008   -0.2756162122073665   -0.05041968119729226
-0.613163019587008   -0.2756162122073665   -0.05041968119729226
-0.613163019587008   -0.2756162122073665   -0.05041968119729226
-0.613163019587008   -0.2756162122073665   -0.05041968119729226
-0.28484695173725194   -0.4168176624760035   -0.03958257312951602
-0.28484695173725194   -0.4168176624760035   -0.03958257312951602
-0.28484695173725194   -0.4168176624760035   -0.03958257312951602
-0.28484695173725194   -0.4168176624760035   -0.03958257312951602
-0.25624601665180735   -0.19387670351363673   0.008333379514846438
-0.25624601665180735   -0.19387670351363673   0.008333379514846438
-0.25624601665180735   -0.19387670351363673   0.008333379514846438
-0.25624601665180735   -0.19387670351363673   0.008333379514846438
-0.7159990798811353   -0.4919747095901922   -0.08919454980164715
-0.7159990798811353   -0.4919747095901922   -0.08919454980164715
-0.7159990798811353   -0.4919747095901922   -0.08919454980164715
-0.7159990798811353   -0.4919747095901922   -0.08919454980164715
-0.42789829103682403   -0.30081678487033814   0.05310748860919359
-0.42789829103682403   -0.30081678487033814   0.05310748860919359
-0.42789829103682403   -0.30081678487033814   0.05310748860919359
-0.42789829103682403   -0.30081678487033814   0.05310748860919359
-0.19074836557743657   -0.16903813990094607   0.012380609312079162
-0.19074836557743657   -0.16903813990094607   0.012380609312079162
-0.19074836557743657   -0.16903813990094607   0.012380609312079162
-0.19074836557743657   -0.16903813990094607   0.012380609312079162
-0.11645178533186289   -0.1090361026597074   -0.029105288560961548
-0.11645178533186289   -0.1090361026597074   -0.029105288560961548
-0.11645178533186289   -0.1090361026597074   -0.029105288560961548
-0.11645178533186289   -0.1090361026597074   -0.029105288560961548
-0.1129580539707764   -0.1510732097453139   0.012487554318835602
-0.1129580539707764   -0.1510732097453139   0.012487554318835602
-0.1129580539707764   -0.1510732097453139   0.012487554318835602
-0.1129580539707764   -0.1510732097453139   0.012487554318835602
-0.21043894828900442   -0.1497369444061397   -0.013356906139564244
-0.21043894828900442   -0.1497369444061397   -0.013356906139564244
-0.21043894828900442   -0.1497369444061397   -0.013356906139564244
-0.21043894828900442   -0.1497369444061397   -0.013356906139564244
-0.13314843573652704   -0.12209355009375515   0.055096854251979174
-0.13314843573652704   -0.12209355009375515   0.055096854251979174
-0.13314843573652704   -0.12209355009375515   0.055096854251979174
-0.13314843573652704   -0.12209355009375515   0.055096854251979174
-0.20918039412243616   -0.17014617048498534   0.013345090772122786
-0.20918039412243616   -0.17014617048498534   0.013345090772122786
-0.20918039412243616   -0.17014617048498534   0.013345090772122786
-0.20918039412243616   -0.17014617048498534   0.013345090772122786
-0.11603490142216269   -0.1324822769512837   -0.02148761573212603
-0.11603490142216269   -0.1324822769512837   -0.02148761573212603
-0.11603490142216269   -0.1324822769512837   -0.02148761573212603
-0.11603490142216269   -0.1324822769512837   -0.02148761573212603
-0.11416197170539498   -0.15561226913422446   0.011092736132917322
-0.11416197170539498   -0.15561226913422446   0.011092736132917322
-0.11416197170539498   -0.15561226913422446   0.011092736132917322
-0.11416197170539498   -0.15561226913422446   0.011092736132917322
-0.22335606518207773   -0.17476041813624332   0.025814615306594665
-0.22335606518207773   -0.17476041813624332   0.025814615306594665
-0.22335606518207773   -0.17476041813624332   0.025814615306594665
-0.22335606518207773   -0.17476041813624332   0.025814615306594665
-0.14467669220833226   -0.1360218680209228   0.04673261145951086
-0.14467669220833226   -0.1360218680209228   0.04673261145951086
-0.14467669220833226   -0.1360218680209228   0.04673261145951086
-0.14467669220833226   -0.1360218680209228   0.04673261145951086
-0.225252254704552   -0.1764451858742009   0.01801843543218449
-0.225252254704552   -0.1764451858742009   0.01801843543218449
-0.225252254704552   -0.1764451858742009   0.01801843543218449
-0.225252254704552   -0.1764451858742009   0.01801843543218449
-0.12193135958931763   -0.1635930788026619   -0.019773393618258406
-0.12193135958931763   -0.1635930788026619   -0.019773393618258406
-0.12193135958931763   -0.1635930788026619   -0.019773393618258406
-0.12193135958931763   -0.1635930788026619   -0.019773393618258406
-0.11534635078098898   -0.16067903600413777   0.015576113662264579
-0.11534635078098898   -0.16067903600413777   0.015576113662264579
-0.11534635078098898   -0.16067903600413777   0.015576113662264579
-0.11534635078098898   -0.16067903600413777   0.015576113662264579
-0.26106724053640545   -0.21515528752302918   0.005505844101248297
-0.26106724053640545   -0.21515528752302918   0.005505844101248297
-0.26106724053640545   -0.21515528752302918   0.005505844101248297
-0.26106724053640545   -0.21515528752302918   0.005505844101248297
-0.16143427772158045   -0.15512056514233014   0.0221633156010662
-0.16143427772158045   -0.15512056514233014   0.0221633156010662
-0.16143427772158045   -0.15512056514233014   0.0221633156010662
-0.16143427772158045   -0.15512056514233014   0.0221633156010662
-0.09574615614377328   -0.06729818426126656   0.032684938981045596
-0.09574615614377328   -0.06729818426126656   0.032684938981045596
-0.09574615614377328   -0.06729818426126656   0.032684938981045596
-0.09574615614377328   -0.06729818426126656   0.032684938981045596
-0.06696028083825435   0.00030681363404635315   -0.006523350224736713
-0.06696028083825435   0.00030681363404635315   -0.006523350224736713
-0.06696028083825435   0.00030681363404635315   -0.006523350224736713
-0.06696028083825435   0.00030681363404635315   -0.006523350224736713
-0.06355883103166013   -0.07270411583255303   0.020291922084801267
-0.06355883103166013   -0.07270411583255303   0.020291922084801267
-0.06355883103166013   -0.07270411583255303   0.020291922084801267
-0.06355883103166013   -0.07270411583255303   0.020291922084801267
-0.08856986132681592   -0.012435840815554312   -0.004208851391121537
-0.08856986132681592   -0.012435840815554312   -0.004208851391121537
-0.08856986132681592   -0.012435840815554312   -0.004208851391121537
-0.08856986132681592   -0.012435840815554312   -0.004208851391121537
-0.07278835311680712   -0.03662930307912177   0.016213610216975188
-0.07278835311680712   -0.03662930307912177   0.016213610216975188
-0.07278835311680712   -0.03662930307912177   0.016213610216975188
-0.07278835311680712   -0.03662930307912177   0.016213610216975188
-0.09443523369007309   -0.07677674298815684   0.030805188965195136
-0.09443523369007309   -0.07677674298815684   0.030805188965195136
-0.09443523369007309   -0.07677674298815684   0.030805188965195136
-0.09443523369007309   -0.07677674298815684   0.030805188965195136
-0.05601968567597047   -0.006689440667518019   -0.008027026301785506
-0.05601968567597047   -0.006689440667518019   -0.008027026301785506
-0.05601968567597047   -0.006689440667518019   -0.008027026301785506
-0.05601968567597047   -0.006689440667518019   -0.008027026301785506
-0.05817987197799876   -0.0791061740321531   0.01869964534339117
-0.05817987197799876   -0.0791061740321531   0.01869964534339117
-0.05817987197799876   -0.0791061740321531   0.01869964534339117
-0.05817987197799876   -0.0791061740321531   0.01869964534339117
-0.08913443563774094   -0.02480898789837669   0.0054271352353397456
-0.08913443563774094   -0.02480898789837669   0.0054271352353397456
-0.08913443563774094   -0.02480898789837669   0.0054271352353397456
-0.08913443563774094   -0.02480898789837669   0.0054271352353397456
-0.06670138566576682   -0.04196919898218362   0.01937581591294936
-0.06670138566576682   -0.04196919898218362   0.01937581591294936
-0.06670138566576682   -0.04196919898218362   0.01937581591294936
-0.06670138566576682   -0.04196919898218362   0.01937581591294936
-0.09485033280735272   -0.08314371914076903   0.035182380629665534
-0.09485033280735272   -0.08314371914076903   0.035182380629665534
-0.09485033280735272   -0.08314371914076903   0.035182380629665534
-0.09485033280735272   -0.08314371914076903   0.035182380629665534
-0.052954213250112216   -0.021261681231487275   -0.013016553817841925
-0.052954213250112216   -0.021261681231487275   -0.013016553817841925
-0.052954213250112216   -0.021261681231487275   -0.013016553817841925
-0.052954213250112216   -0.021261681231487275   -0.013016553817841925
-0.048521300337760385   -0.0862040542848771   0.02054461527436538
-0.048521300337760385   -0.0862040542848771   0.02054461527436538
-0.048521300337760385   -0.0862040542848771   0.02054461527436538
-0.048521300337760385   -0.0862040542848771   0.02054461527436538
-0.09591923055135801   -0.055095807619653624   0.007128486425935219
-0.09591923055135801   -0.055095807619653624   0.007128486425935219
-0.09591923055135801   -0.055095807619653624   0.007128486425935219
-0.09591923055135801   -0.055095807619653624   0.007128486425935219
-0.06405665894129031   -0.05299979741018983   0.016816212377134942
-0.06405665894129031   -0.05299979741018983   0.016816212377134942
-0.06405665894129031   -0.05299979741018983   0.016816212377134942
-0.06405665894129031   -0.05299979741018983   0.016816212377134942
-0.06152931897395128   -0.011916979110023918   0.03285525184084885
-0.06152931897395128   -0.011916979110023918   0.03285525184084885
-0.06152931897395128   -0.011916979110023918   0.03285525184084885
-0.06152931897395128   -0.011916979110023918   0.03285525184084885
-0.01064943814903021   0.007250716626740407   -0.0006633103800711333
-0.01064943814903021   0.007250716626740407   -0.0006633103800711333
-0.01064943814903021   0.007250716626740407   -0.0006633103800711333
-0.01064943814903021   0.007250716626740407   -0.0006633103800711333
0.0037597411862100847   -0.0037806846581513887   0.020302909401580593
0.0037597411862100847   -0.0037806846581513887   0.020302909401580593
0.0037597411862100847   -0.0037806846581513887   0.020302909401580593
0.0037597411862100847   -0.0037806846581513887   0.020302909401580593
-0.0524997480070701   0.005479856467089466   -0.0025966350918911456
-0.0524997480070701   0.005479856467089466   -0.0025966350918911456
-0.0524997480070701   0.005479856467089466   -0.0025966350918911456
-0.0524997480070701   0.005479856467089466   -0.0025966350918911456
-0.030750001302430618   -0.00229487705671025   -0.0025630154853797556
-0.030750001302430618   -0.00229487705671025   -0.0025630154853797556
-0.030750001302430618   -0.00229487705671025   -0.0025630154853797556
-0.030750001302430618   -0.00229487705671025   -0.0025630154853797556
-0.04853942482186646   -0.011470110233199597   0.034154947534408425
-0.04853942482186646   -0.011470110233199597   0.034154947534408425
-0.04853942482186646   -0.011470110233199597   0.034154947534408425
-0.04853942482186646   -0.011470110233199597   0.034154947534408425
0.00164094722064874   0.015010811261779966   -0.009082556346157485
0.00164094722064874   0.015010811261779966   -0.009082556346157485
0.00164094722064874   0.015010811261779966   -0.009082556346157485
0.00164094722064874   0.015010811261779966   -0.009082556346157485
0.011079948118805267   -0.0046463652311363145   0.02501754591122967
0.011079948118805267   -0.0046463652311363145   0.02501754591122967
0.011079948118805267   -0.0046463652311363145   0.02501754591122967
0.011079948118805267   -0.0046463652311363145   0.02501754591122967
-0.04601272217654875   0.004264138155738062   -0.003834917837249944
-0.04601272217654875   0.004264138155738062   -0.003834917837249944
-0.04601272217654875   0.004264138155738062   -0.003834917837249944
-0.04601272217654875   0.004264138155738062   -0.003834917837249944
-0.020025332324505513   -0.0004923781803617866   0.003257170680827151
-0.020025332324505513   -0.0004923781803617866   0.003257170680827151
-0.020025332324505513   -0.0004923781803617866   0.003257170680827151
-0.020025332324505513   -0.0004923781803617866   0.003257170680827151
-0.04132512299978776   -0.01279787116386853   0.036665087366161614
-0.04132512299978776   -0.01279787116386853   0.036665087366161614
-0.04132512299978776   -0.01279787116386853   0.036665087366161614
-0.04132512299978776   -0.01279787116386853   0.036665087366161614
0.008057009178354264   0.014080304324780269   -0.008823818346941924
0.008057009178354264   0.014080304324780269   -0.008823818346941924
0.008057009178354264   0.014080304324780269   -0.008823818346941924
0.008057009178354264   0.014080304324780269   -0.008823818346941924
0.018593983255921355   -0.007233584992976376   0.024276034271367528
0.018593983255921355   -0.007233584992976376   0.024276034271367528
0.018593983255921355   -0.007233584992976376   0.024276034271367528
0.018593983255921355   -0.007233584992976376   0.024276034271367528
-0.03536684705355796   0.004466309785611798   -0.004353482375111352
-0.03536684705355796   0.004466309785611798   -0.004353482375111352
-0.03536684705355796   0.004466309785611798   -0.004353482375111352
-0.03536684705355796   0.004466309785611798   -0.004353482375111352
-0.010430866651913702   0.000652794281000923   0.008401486732976042
-0.010430866651913702   0.000652794281000923   0.008401486732976042
-0.010430866651913702   0.000652794281000923   0.008401486732976042
-0.010430866651913702   0.000652794281000923   0.008401486732976042
              </DataArray>   
             <DataArray type="Float64" NumberOfComponents="3" Name="Displacements" format="ascii">   
0.0   0.0   0.0
-0.005657454371326418   -0.003710417997012849   -0.0018951020828680953
0.0   0.0   0.0
0.0   0.0   0.0
-0.005657454371326418   -0.003710417997012849   -0.0018951020828680953
-0.0036002029751277032   -0.0033341701742072107   -0.0013923256780783615
0.0   0.0   0.0
-0.003529189452493342   -0.003501562893390284   -0.0011664219379384836
0.0   0.0   0.0
0.0   0.0   0.0
-0.003529189452493342   -0.003501562893390284   -0.0011664219379384836
0.0   0.0   0.0
0.0   0.0   0.0
-0.003529189452493342   -0.003501562893390284   -0.0011664219379384836
-0.005921024795561818   -0.003952981468764199   -0.001521428381745242
-0.005657454371326418   -0.003710417997012849   -0.0018951020828680953
0.0   0.0   0.0
-0.003529189452493342   -0.003501562893390284   -0.0011664219379384836
-0.005657454371326418   -0.003710417997012849   -0.0018951020828680953
0.0   0.0   0.0
0.0   0.0   0.0
-0.005921024795561818   -0.003952981468764199   -0.001521428381745242
0.0   0.0   0.0
0.0   0.0   0.0
-0.005921024795561818   -0.003952981468764199   -0.001521428381745242
-0.003529189452493342   -0.003501562893390284   -0.0011664219379384836
0.0   0.0   0.0
-0.003539344428136909   -0.003587323230307036   -0.0009408205744762189
0.0   0.0   0.0
0.0   0.0   0.0
-0.003539344428136909   -0.003587323230307036   -0.0009408205744762189
0.0   0.0   0.0
0.0   0.0   0.0
-0.003539344428136909   -0.003587323230307036   -0.0009408205744762189
-0.006106220473083624   -0.004070923492190271   -0.0011633471616724204
-0.005921024795561818   -0.003952981468764199   -0.001521428381745242
0.0   0.0   0.0
-0.003539344428136909   -0.003587323230307036   -0.0009408205744762189
-0.005921024795561818   -0.003952981468764199   -0.001521428381745242
0.0   0.0   0.0
0.0   0.0   0.0
-0.006106220473083624   -0.004070923492190271   -0.0011633471616724204
0.0   0.0   0.0
0.0   0.0   0.0
-0.006106220473083624   -0.004070923492190271   -0.0011633471616724204
-0.003539344428136909   -0.003587323230307036   -0.0009408205744762189
0.0   0.0   0.0
-0.0035377118225245175   -0.0036093283574442315   -0.0007075170578145823
0.0   0.0   0.0
0.0   0.0   0.0
-0.0035377118225245175   -0.0036093283574442315   -0.0007075170578145823
0.0   0.0   0.0
0.0   0.0   0.0
-0.0035377118225245175   -0.0036093283574442315   -0.0007075170578145823
-0.006504982482989225   -0.004160164779726889   -0.0007478935637195037
-0.006106220473083624   -0.004070923492190271   -0.0011633471616724204
0.0   0.0   0.0
-0.0035377118225245175   -0.0036093283574442315   -0.0007075170578145823
-0.006106220473083624   -0.004070923492190271   -0.0011633471616724204
0.0   0.0   0.0
0.0   0.0   0.0
-0.0036002029751277032   -0.0033341701742072107   -0.0013923256780783615
0.0   0.0   0.0
0.0   0.0   0.0
-0.0036002029751277032   -0.0033341701742072107   -0.0013923256780783615
-0.0016393182623534329   -0.0031961376465194317   -0.001058944947146475
0.0   0.0   0.0
-0.0015768700257758207   -0.003305114979491548   -0.0009523223334710952
0.0   0.0   0.0
0.0   0.0   0.0
-0.0015768700257758207   -0.003305114979491548   -0.0009523223334710952
0.0   0.0   0.0
0.0   0.0   0.0
-0.0015768700257758207   -0.003305114979491548   -0.0009523223334710952
-0.003529189452493342   -0.003501562893390284   -0.0011664219379384836
-0.0036002029751277032   -0.0033341701742072107   -0.0013923256780783615
0.0   0.0   0.0
-0.0015768700257758207   -0.003305114979491548   -0.0009523223334710952
-0.0036002029751277032   -0.0033341701742072107   -0.0013923256780783615
0.0   0.0   0.0
0.0   0.0   0.0
-0.003529189452493342   -0.003501562893390284   -0.0011664219379384836
0.0   0.0   0.0
0.0   0.0   0.0
-0.003529189452493342   -0.003501562893390284   -0.0011664219379384836
-0.0015768700257758207   -0.003305114979491548   -0.0009523223334710952
0.0   0.0   0.0
-0.0015418797609498276   -0.0033466448707420546   -0.0008484614230398038
0.0   0.0   0.0
0.0   0.0   0.0
-0.0015418797609498276   -0.0033466448707420546   -0.0008484614230398038
0.0   0.0   0.0
0.0   0.0   0.0
-0.0015418797609498276   -0.0033466448707420546   -0.0008484614230398038
-0.003539344428136909   -0.003587323230307036   -0.0009408205744762189
-0.003529189452493342   -0.003501562893390284   -0.0011664219379384836
0.0   0.0   0.0
-0.0015418797609498276   -0.0033466448707420546   -0.0008484614230398038
-0.003529189452493342   -0.003501562893390284   -0.0011664219379384836
0.0   0.0   0.0
0.0   0.0   0.0
-0.003539344428136909   -0.003587323230307036   -0.0009408205744762189
0.0   0.0   0.0
0.0   0.0   0.0
-0.003539344428136909   -0.003587323230307036   -0.0009408205744762189
-0.0015418797609498276   -0.0033466448707420546   -0.0008484614230398038
0.0   0.0   0.0
-0.0015100517594576035   -0.003329299750159128   -0.0007410644240466351
0.0   0.0   0.0
0.0   0.0   0.0
-0.0015100517594576035   -0.003329299750159128   -0.0007410644240466351
0.0   0.0   0.0
0.0   0.0   0.0
-0.0015100517594576035   -0.003329299750159128   -0.0007410644240466351
-0.0035377118225245175   -0.0036093283574442315   -0.0007075170578145823
-0.003539344428136909   -0.003587323230307036   -0.0009408205744762189
0.0   0.0   0.0
-0.0015100517594576035   -0.003329299750159128   -0.0007410644240466351
-0.003539344428136909   -0.003587323230307036   -0.0009408205744762189
0.0   0.0   0.0
0.0   0.0   0.0
-0.0016393182623534329   -0.0031961376465194317   -0.001058944947146475
0.0   0.0   0.0
0.0   0.0   0.0
-0.0016393182623534329   -0.0031961376465194317   -0.001058944947146475
0.0002135220953388177   -0.0032137918208269612   -0.0008464591433450074
0.0   0.0   0.0
0.0002532890463706906   -0.003270300655254507   -0.0008612707147211808
0.0   0.0   0.0
0.0   0.0   0.0
0.0002532890463706906   -0.003270300655254507   -0.0008612707147211808
0.0   0.0   0.0
0.0   0.0   0.0
0.0002532890463706906   -0.003270300655254507   -0.0008612707147211808
-0.0015768700257758207   -0.003305114979491548   -0.0009523223334710952
-0.0016393182623534329   -0.0031961376465194317   -0.001058944947146475
0.0   0.0   0.0
0.0002532890463706906   -0.003270300655254507   -0.0008612707147211808
-0.0016393182623534329   -0.0031961376465194317   -0.001058944947146475
0.0   0.0   0.0
0.0   0.0   0.0
-0.0015768700257758207   -0.003305114979491548   -0.0009523223334710952
0.0   0.0   0.0
0.0   0.0   0.0
-0.0015768700257758207   -0.003305114979491548   -0.0009523223334710952
0.0002532890463706906   -0.003270300655254507   -0.0008612707147211808
0.0   0.0   0.0
0.0002846489407772098   -0.003265637511985459   -0.0008746303399265556
0.0   0.0   0.0
0.0   0.0   0.0
0.0002846489407772098   -0.003265637511985459   -0.0008746303399265556
0.0   0.0   0.0
0.0   0.0   0.0
0.0002846489407772098   -0.003265637511985459   -0.0008746303399265556
-0.0015418797609498276   -0.0033466448707420546   -0.0008484614230398038
-0.0015768700257758207   -0.003305114979491548   -0.0009523223334710952
0.0   0.0   0.0
0.0002846489407772098   -0.003265637511985459   -0.0008746303399265556
-0.0015768700257758207   -0.003305114979491548   -0.0009523223334710952
0.0   0.0   0.0
0.0   0.0   0.0
-0.0015418797609498276   -0.0033466448707420546   -0.0008484614230398038
0.0   0.0   0.0
0.0   0.0   0.0
-0.0015418797609498276   -0.0033466448707420546   -0.0008484614230398038
0.0002846489407772098   -0.003265637511985459   -0.0008746303399265556
0.0   0.0   0.0
0.00032691089590658164   -0.003194781877201145   -0.0008883373704116307
0.0   0.0   0.0
0.0   0.0   0.0
0.00032691089590658164   -0.003194781877201145   -0.0008883373704116307
0.0   0.0   0.0
0.0   0.0   0.0
0.00032691089590658164   -0.003194781877201145   -0.0008883373704116307
-0.0015100517594576035   -0.003329299750159128   -0.0007410644240466351
-0.0015418797609498276   -0.0033466448707420546   -0.0008484614230398038
0.0   0.0   0.0
0.00032691089590658164   -0.003194781877201145   -0.0008883373704116307
-0.0015418797609498276   -0.0033466448707420546   -0.0008484614230398038
0.0   0.0   0.0
0.0   0.0   0.0
0.0002135220953388177   -0.0032137918208269612   -0.0008464591433450074
0.0   0.0   0.0
0.0   0.0   0.0
0.0002135220953388177   -0.0032137918208269612   -0.0008464591433450074
0.0022245803807178963   -0.003370343516075997   -0.0007413193687467755
0.0   0.0   0.0
0.0022282482649457697   -0.003388354085636808   -0.0008839050566956923
0.0   0.0   0.0
0.0   0.0   0.0
0.0022282482649457697   -0.003388354085636808   -0.0008839050566956923
0.0   0.0   0.0
0.0   0.0   0.0
0.0022282482649457697   -0.003388354085636808   -0.0008839050566956923
0.0002532890463706906   -0.003270300655254507   -0.0008612707147211808
0.0002135220953388177   -0.0032137918208269612   -0.0008464591433450074
0.0   0.0   0.0
0.0022282482649457697   -0.003388354085636808   -0.0008839050566956923
0.0002135220953388177   -0.0032137918208269612   -0.0008464591433450074
0.0   0.0   0.0
0.0   0.0   0.0
0.0002532890463706906   -0.003270300655254507   -0.0008612707147211808
0.0   0.0   0.0
0.0   0.0   0.0
0.0002532890463706906   -0.003270300655254507   -0.0008612707147211808
0.0022282482649457697   -0.003388354085636808   -0.0008839050566956923
0.0   0.0   0.0
0.002218456985415759   -0.0033399676068279057   -0.0010206677527340134
0.0   0.0   0.0
0.0   0.0   0.0
0.002218456985415759   -0.0033399676068279057   -0.0010206677527340134
0.0   0.0   0.0
0.0   0.0   0.0
0.002218456985415759   -0.0033399676068279057   -0.0010206677527340134
0.0002846489407772098   -0.003265637511985459   -0.0008746303399265556
0.0002532890463706906   -0.003270300655254507   -0.0008612707147211808
0.0   0.0   0.0
0.002218456985415759   -0.0033399676068279057   -0.0010206677527340134
0.0002532890463706906   -0.003270300655254507   -0.0008612707147211808
0.0   0.0   0.0
0.0   0.0   0.0
0.0002846489407772098   -0.003265637511985459   -0.0008746303399265556
0.0   0.0   0.0
0.0   0.0   0.0
0.0002846489407772098   -0.003265637511985459   -0.0008746303399265556
0.002218456985415759   -0.0033399676068279057   -0.0010206677527340134
0.0   0.0   0.0
0.0022611835119618097   -0.0032103485034799327   -0.0011548083876950308
0.0   0.0   0.0
0.0   0.0   0.0
0.0022611835119618097   -0.0032103485034799327   -0.0011548083876950308
0.0   0.0   0.0
0.0   0.0   0.0
0.0022611835119618097   -0.0032103485034799327   -0.0011548083876950308
0.00032691089590658164   -0.003194781877201145   -0.0008883373704116307
0.0002846489407772098   -0.003265637511985459   -0.0008746303399265556
0.0   0.0   0.0
0.0022611835119618097   -0.0032103485034799327   -0.0011548083876950308
0.0002846489407772098   -0.003265637511985459   -0.0008746303399265556
0.0   0.0   0.0
0.0   0.0   0.0
0.0022245803807178963   -0.003370343516075997   -0.0007413193687467755
0.0   0.0   0.0
0.0   0.0   0.0
0.0022245803807178963   -0.003370343516075997   -0.0007413193687467755
0.005020786195869538   -0.0037670851748750223   -0.0006993413488721779
0.0   0.0   0.0
0.004714954661692368   -0.003726009308174456   -0.0010225445359796266
0.0   0.0   0.0
0.0   0.0   0.0
0.004714954661692368   -0.003726009308174456   -0.0010225445359796266
0.0   0.0   0.0
0.0   0.0   0.0
0.004714954661692368   -0.003726009308174456   -0.0010225445359796266
0.0022282482649457697   -0.003388354085636808   -0.0008839050566956923
0.0022245803807178963   -0.003370343516075997   -0.0007413193687467755
0.0   0.0   0.0
0.004714954661692368   -0.003726009308174456   -0.0010225445359796266
0.0022245803807178963   -0.003370343516075997   -0.0007413193687467755
0.0   0.0   0.0
0.0   0.0   0.0
0.0022282482649457697   -0.003388354085636808   -0.0008839050566956923
0.0   0.0   0.0
0.0   0.0   0.0
0.0022282482649457697   -0.003388354085636808   -0.0008839050566956923
0.004714954661692368   -0.003726009308174456   -0.0010225445359796266
0.0   0.0   0.0
0.004573811486716763   -0.0036485408168152288   -0.0012958365766789996
0.0   0.0   0.0
0.0   0.0   0.0
0.004573811486716763   -0.0036485408168152288   -0.0012958365766789996
0.0   0.0   0.0
0.0   0.0   0.0
0.004573811486716763   -0.0036485408168152288   -0.0012958365766789996
0.002218456985415759   -0.0033399676068279057   -0.0010206677527340134
0.0022282482649457697   -0.003388354085636808   -0.0008839050566956923
0.0   0.0   0.0
0.004573811486716763   -0.0036485408168152288   -0.0012958365766789996
0.0022282482649457697   -0.003388354085636808   -0.0008839050566956923
0.0   0.0   0.0
0.0   0.0   0.0
0.002218456985415759   -0.0033399676068279057   -0.0010206677527340134
0.0   0.0   0.0
0.0   0.0   0.0
0.002218456985415759   -0.0033399676068279057   -0.0010206677527340134
0.004573811486716763   -0.0036485408168152288   -0.0012958365766789996
0.0   0.0   0.0
0.0043638623487087915   -0.0034502862387871544   -0.001585000018597593
0.0   0.0   0.0
0.0   0.0   0.0
0.0043638623487087915   -0.0034502862387871544   -0.001585000018597593
0.0   0.0   0.0
0.0   0.0   0.0
0.0043638623487087915   -0.0034502862387871544   -0.001585000018597593
0.0022611835119618097   -0.0032103485034799327   -0.0011548083876950308
0.002218456985415759   -0.0033399676068279057   -0.0010206677527340134
0.0   0.0   0.0
0.0043638623487087915   -0.0034502862387871544   -0.001585000018597593
0.002218456985415759   -0.0033399676068279057   -0.0010206677527340134
0.0   0.0   0.0
-0.005657454371326418   -0.003710417997012849   -0.0018951020828680953
-0.010568009568651138   -0.010359413525258213   -0.0025531477520087742
-0.0036002029751277032   -0.0033341701742072107   -0.0013923256780783615
-0.005921024795561818   -0.003952981468764199   -0.001521428381745242
-0.010568009568651138   -0.010359413525258213   -0.0025531477520087742
-0.006745201808141839   -0.010020990946668275   -0.002101428344441008
-0.0036002029751277032   -0.0033341701742072107   -0.0013923256780783615
-0.0067534384711996735   -0.010192279392970417   -0.0018924617884194333
-0.005921024795561818   -0.003952981468764199   -0.001521428381745242
-0.003529189452493342   -0.003501562893390284   -0.0011664219379384836
-0.0067534384711996735   -0.010192279392970417   -0.0018924617884194333
-0.0036002029751277032   -0.0033341701742072107   -0.0013923256780783615
-0.005921024795561818   -0.003952981468764199   -0.001521428381745242
-0.0067534384711996735   -0.010192279392970417   -0.0018924617884194333
-0.010884990016690653   -0.010598400298485227   -0.002213779437634566
-0.010568009568651138   -0.010359413525258213   -0.0025531477520087742
-0.005921024795561818   -0.003952981468764199   -0.001521428381745242
-0.0067534384711996735   -0.010192279392970417   -0.0018924617884194333
-0.010568009568651138   -0.010359413525258213   -0.0025531477520087742
-0.0036002029751277032   -0.0033341701742072107   -0.0013923256780783615
-0.005921024795561818   -0.003952981468764199   -0.001521428381745242
-0.010884990016690653   -0.010598400298485227   -0.002213779437634566
-0.003529189452493342   -0.003501562893390284   -0.0011664219379384836
-0.006106220473083624   -0.004070923492190271   -0.0011633471616724204
-0.010884990016690653   -0.010598400298485227   -0.002213779437634566
-0.0067534384711996735   -0.010192279392970417   -0.0018924617884194333
-0.003529189452493342   -0.003501562893390284   -0.0011664219379384836
-0.006780323929068612   -0.010296674137223554   -0.0016916362217064495
-0.006106220473083624   -0.004070923492190271   -0.0011633471616724204
-0.003539344428136909   -0.003587323230307036   -0.0009408205744762189
-0.006780323929068612   -0.010296674137223554   -0.0016916362217064495
-0.003529189452493342   -0.003501562893390284   -0.0011664219379384836
-0.006106220473083624   -0.004070923492190271   -0.0011633471616724204
-0.006780323929068612   -0.010296674137223554   -0.0016916362217064495
-0.011105338535717409   -0.010733346713570466   -0.0018814560430908
-0.010884990016690653   -0.010598400298485227   -0.002213779437634566
-0.006106220473083624   -0.004070923492190271   -0.0011633471616724204
-0.006780323929068612   -0.010296674137223554   -0.0016916362217064495
-0.010884990016690653   -0.010598400298485227   -0.002213779437634566
-0.003529189452493342   -0.003501562893390284   -0.0011664219379384836
-0.006106220473083624   -0.004070923492190271   -0.0011633471616724204
-0.011105338535717409   -0.010733346713570466   -0.0018814560430908
-0.003539344428136909   -0.003587323230307036   -0.0009408205744762189
-0.006504982482989225   -0.004160164779726889   -0.0007478935637195037
-0.011105338535717409   -0.010733346713570466   -0.0018814560430908
-0.006780323929068612   -0.010296674137223554   -0.0016916362217064495
-0.003539344428136909   -0.003587323230307036   -0.0009408205744762189
-0.006760421927994196   -0.010350808094831253   -0.0015036394064422143
-0.006504982482989225   -0.004160164779726889   -0.0007478935637195037
-0.0035377118225245175   -0.0036093283574442315   -0.0007075170578145823
-0.006760421927994196   -0.010350808094831253   -0.0015036394064422143
-0.003539344428136909   -0.003587323230307036   -0.0009408205744762189
-0.006504982482989225   -0.004160164779726889   -0.0007478935637195037
-0.006760421927994196   -0.010350808094831253   -0.0015036394064422143
-0.011365793978022965   -0.010811740604480891   -0.0015790652849819804
-0.011105338535717409   -0.010733346713570466   -0.0018814560430908
-0.006504982482989225   -0.004160164779726889   -0.0007478935637195037
-0.006760421927994196   -0.010350808094831253   -0.0015036394064422143
-0.011105338535717409   -0.010733346713570466   -0.0018814560430908
-0.003539344428136909   -0.003587323230307036   -0.0009408205744762189
-0.0036002029751277032   -0.0033341701742072107   -0.0013923256780783615
-0.006745201808141839   -0.010020990946668275   -0.002101428344441008
-0.0016393182623534329   -0.0031961376465194317   -0.001058944947146475
-0.003529189452493342   -0.003501562893390284   -0.0011664219379384836
-0.006745201808141839   -0.010020990946668275   -0.002101428344441008
-0.0031292906040224643   -0.009863519885152978   -0.0017930466300589577
-0.0016393182623534329   -0.0031961376465194317   -0.001058944947146475
-0.00310256920443896   -0.009972553838398507   -0.0016859873624331869
-0.003529189452493342   -0.003501562893390284   -0.0011664219379384836
-0.0015768700257758207   -0.003305114979491548   -0.0009523223334710952
-0.00310256920443896   -0.009972553838398507   -0.0016859873624331869
-0.0016393182623534329   -0.0031961376465194317   -0.001058944947146475
-0.003529189452493342   -0.003501562893390284   -0.0011664219379384836
-0.00310256920443896   -0.009972553838398507   -0.0016859873624331869
-0.0067534384711996735   -0.010192279392970417   -0.0018924617884194333
-0.006745201808141839   -0.010020990946668275   -0.002101428344441008
-0.003529189452493342   -0.003501562893390284   -0.0011664219379384836
-0.00310256920443896   -0.009972553838398507   -0.0016859873624331869
-0.006745201808141839   -0.010020990946668275   -0.002101428344441008
-0.0016393182623534329   -0.0031961376465194317   -0.001058944947146475
-0.003529189452493342   -0.003501562893390284   -0.0011664219379384836
-0.0067534384711996735   -0.010192279392970417   -0.0018924617884194333
-0.0015768700257758207   -0.003305114979491548   -0.0009523223334710952
-0.003539344428136909   -0.003587323230307036   -0.0009408205744762189
-0.0067534384711996735   -0.010192279392970417   -0.0018924617884194333
-0.00310256920443896   -0.009972553838398507   -0.0016859873624331869
-0.0015768700257758207   -0.003305114979491548   -0.0009523223334710952
-0.0030789208234701074   -0.010025426566395407   -0.0015889246561549874
-0.003539344428136909   -0.003587323230307036   -0.0009408205744762189
-0.0015418797609498276   -0.0033466448707420546   -0.0008484614230398038
-0.0030789208234701074   -0.010025426566395407   -0.0015889246561549874
-0.0015768700257758207   -0.003305114979491548   -0.0009523223334710952
-0.003539344428136909   -0.003587323230307036   -0.0009408205744762189
-0.0030789208234701074   -0.010025426566395407   -0.0015889246561549874
-0.006780323929068612   -0.010296674137223554   -0.0016916362217064495
-0.0067534384711996735   -0.010192279392970417   -0.0018924617884194333
-0.003539344428136909   -0.003587323230307036   -0.0009408205744762189
-0.0030789208234701074   -0.010025426566395407   -0.0015889246561549874
-0.0067534384711996735   -0.010192279392970417   -0.0018924617884194333
-0.0015768700257758207   -0.003305114979491548   -0.0009523223334710952
-0.003539344428136909   -0.003587323230307036   -0.0009408205744762189
-0.006780323929068612   -0.010296674137223554   -0.0016916362217064495
-0.0015418797609498276   -0.0033466448707420546   -0.0008484614230398038
-0.0035377118225245175   -0.0036093283574442315   -0.0007075170578145823
-0.006780323929068612   -0.010296674137223554   -0.0016916362217064495
-0.0030789208234701074   -0.010025426566395407   -0.0015889246561549874
-0.0015418797609498276   -0.0033466448707420546   -0.0008484614230398038
-0.003043501590585922   -0.010024131774992534   -0.0015044066487415937
-0.0035377118225245175   -0.0036093283574442315   -0.0007075170578145823
-0.0015100517594576035   -0.003329299750159128   -0.0007410644240466351
-0.003043501590585922   -0.010024131774992534   -0.0015044066487415937
-0.0015418797609498276   -0.0033466448707420546   -0.0008484614230398038
-0.0035377118225245175   -0.0036093283574442315   -0.0007075170578145823
-0.003043501590585922   -0.010024131774992534   -0.0015044066487415937
-0.006760421927994196   -0.010350808094831253   -0.0015036394064422143
-0.006780323929068612   -0.010296674137223554   -0.0016916362217064495
-0.0035377118225245175   -0.0036093283574442315   -0.0007075170578145823
-0.003043501590585922   -0.010024131774992534   -0.0015044066487415937
-0.006780323929068612   -0.010296674137223554   -0.0016916362217064495
-0.0015418797609498276   -0.0033466448707420546   -0.0008484614230398038
-0.0016393182623534329   -0.0031961376465194317   -0.001058944947146475
-0.0031292906040224643   -0.009863519885152978   -0.0017930466300589577
0.0002135220953388177   -0.0032137918208269612   -0.0008464591433450074
-0.0015768700257758207   -0.003305114979491548   -0.0009523223334710952
-0.0031292906040224643   -0.009863519885152978   -0.0017930466300589577
0.00035772127296327966   -0.009868191840172551   -0.0015980380530033367
0.0002135220953388177   -0.0032137918208269612   -0.0008464591433450074
0.00039061363142409   -0.009919870872546118   -0.0015910002207121963
-0.0015768700257758207   -0.003305114979491548   -0.0009523223334710952
0.0002532890463706906   -0.003270300655254507   -0.0008612707147211808
0.00039061363142409   -0.009919870872546118   -0.0015910002207121963
0.0002135220953388177   -0.0032137918208269612   -0.0008464591433450074
-0.0015768700257758207   -0.003305114979491548   -0.0009523223334710952
0.00039061363142409   -0.009919870872546118   -0.0015910002207121963
-0.00310256920443896   -0.009972553838398507   -0.0016859873624331869
-0.0031292906040224643   -0.009863519885152978   -0.0017930466300589577
-0.0015768700257758207   -0.003305114979491548   -0.0009523223334710952
0.00039061363142409   -0.009919870872546118   -0.0015910002207121963
-0.0031292906040224643   -0.009863519885152978   -0.0017930466300589577
0.0002135220953388177   -0.0032137918208269612   -0.0008464591433450074
-0.0015768700257758207   -0.003305114979491548   -0.0009523223334710952
-0.00310256920443896   -0.009972553838398507   -0.0016859873624331869
0.0002532890463706906   -0.003270300655254507   -0.0008612707147211808
-0.0015418797609498276   -0.0033466448707420546   -0.0008484614230398038
-0.00310256920443896   -0.009972553838398507   -0.0016859873624331869
0.00039061363142409   -0.009919870872546118   -0.0015910002207121963
0.0002532890463706906   -0.003270300655254507   -0.0008612707147211808
0.00041265771688892054   -0.0099167061525903   -0.0015953093764247957
-0.0015418797609498276   -0.0033466448707420546   -0.0008484614230398038
0.0002846489407772098   -0.003265637511985459   -0.0008746303399265556
0.00041265771688892054   -0.0099167061525903   -0.0015953093764247957
0.0002532890463706906   -0.003270300655254507   -0.0008612707147211808
-0.0015418797609498276   -0.0033466448707420546   -0.0008484614230398038
0.00041265771688892054   -0.0099167061525903   -0.0015953093764247957
-0.0030789208234701074   -0.010025426566395407   -0.0015889246561549874
-0.00310256920443896   -0.009972553838398507   -0.0016859873624331869
-0.0015418797609498276   -0.0033466448707420546   -0.0008484614230398038
0.00041265771688892054   -0.0099167061525903   -0.0015953093764247957
-0.00310256920443896   -0.009972553838398507   -0.0016859873624331869
0.0002532890463706906   -0.003270300655254507   -0.0008612707147211808
-0.0015418797609498276   -0.0033466448707420546   -0.0008484614230398038
-0.0030789208234701074   -0.010025426566395407   -0.0015889246561549874
0.0002846489407772098   -0.003265637511985459   -0.0008746303399265556
-0.0015100517594576035   -0.003329299750159128   -0.0007410644240466351
-0.0030789208234701074   -0.010025426566395407   -0.0015889246561549874
0.00041265771688892054   -0.0099167061525903   -0.0015953093764247957
0.0002846489407772098   -0.003265637511985459   -0.0008746303399265556
0.00043632830859096386   -0.009857022759294393   -0.0016111452887884068
-0.0015100517594576035   -0.003329299750159128   -0.0007410644240466351
0.00032691089590658164   -0.003194781877201145   -0.0008883373704116307
0.00043632830859096386   -0.009857022759294393   -0.0016111452887884068
0.0002846489407772098   -0.003265637511985459   -0.0008746303399265556
-0.0015100517594576035   -0.003329299750159128   -0.0007410644240466351
0.00043632830859096386   -0.009857022759294393   -0.0016111452887884068
-0.003043501590585922   -0.010024131774992534   -0.0015044066487415937
-0.0030789208234701074   -0.010025426566395407   -0.0015889246561549874
-0.0015100517594576035   -0.003329299750159128   -0.0007410644240466351
0.00043632830859096386   -0.009857022759294393   -0.0016111452887884068
-0.0030789208234701074   -0.010025426566395407   -0.0015889246561549874
0.0002846489407772098   -0.003265637511985459   -0.0008746303399265556
0.0002135220953388177   -0.0032137918208269612   -0.0008464591433450074
0.00035772127296327966   -0.009868191840172551   -0.0015980380530033367
0.0022245803807178963   -0.003370343516075997   -0.0007413193687467755
0.0002532890463706906   -0.003270300655254507   -0.0008612707147211808
0.00035772127296327966   -0.009868191840172551   -0.0015980380530033367
0.004052824478830276   -0.010029148742326795   -0.0015070103573861576
0.0022245803807178963   -0.003370343516075997   -0.0007413193687467755
0.0040712960995474045   -0.01002872701884469   -0.0016032394075655317
0.0002532890463706906   -0.003270300655254507   -0.0008612707147211808
0.0022282482649457697   -0.003388354085636808   -0.0008839050566956923
0.0040712960995474045   -0.01002872701884469   -0.0016032394075655317
0.0022245803807178963   -0.003370343516075997   -0.0007413193687467755
0.0002532890463706906   -0.003270300655254507   -0.0008612707147211808
0.0040712960995474045   -0.01002872701884469   -0.0016032394075655317
0.00039061363142409   -0.009919870872546118   -0.0015910002207121963
0.00035772127296327966   -0.009868191840172551   -0.0015980380530033367
0.0002532890463706906   -0.003270300655254507   -0.0008612707147211808
0.0040712960995474045   -0.01002872701884469   -0.0016032394075655317
0.00035772127296327966   -0.009868191840172551   -0.0015980380530033367
0.0022245803807178963   -0.003370343516075997   -0.0007413193687467755
0.0002532890463706906   -0.003270300655254507   -0.0008612707147211808
0.00039061363142409   -0.009919870872546118   -0.0015910002207121963
0.0022282482649457697   -0.003388354085636808   -0.0008839050566956923
0.0002846489407772098   -0.003265637511985459   -0.0008746303399265556
0.00039061363142409   -0.009919870872546118   -0.0015910002207121963
0.0040712960995474045   -0.01002872701884469   -0.0016032394075655317
0.0022282482649457697   -0.003388354085636808   -0.0008839050566956923
0.004052202537654983   -0.009974519619091857   -0.0017123065514701046
0.0002846489407772098   -0.003265637511985459   -0.0008746303399265556
0.002218456985415759   -0.0033399676068279057   -0.0010206677527340134
0.004052202537654983   -0.009974519619091857   -0.0017123065514701046
0.0022282482649457697   -0.003388354085636808   -0.0008839050566956923
0.0002846489407772098   -0.003265637511985459   -0.0008746303399265556
0.004052202537654983   -0.009974519619091857   -0.0017123065514701046
0.00041265771688892054   -0.0099167061525903   -0.0015953093764247957
0.00039061363142409   -0.009919870872546118   -0.0015910002207121963
0.0002846489407772098   -0.003265637511985459   -0.0008746303399265556
0.004052202537654983   -0.009974519619091857   -0.0017123065514701046
0.00039061363142409   -0.009919870872546118   -0.0015910002207121963
0.0022282482649457697   -0.003388354085636808   -0.0008839050566956923
0.0002846489407772098   -0.003265637511985459   -0.0008746303399265556
0.00041265771688892054   -0.0099167061525903   -0.0015953093764247957
0.002218456985415759   -0.0033399676068279057   -0.0010206677527340134
0.00032691089590658164   -0.003194781877201145   -0.0008883373704116307
0.00041265771688892054   -0.0099167061525903   -0.0015953093764247957
0.004052202537654983   -0.009974519619091857   -0.0017123065514701046
0.002218456985415759   -0.0033399676068279057   -0.0010206677527340134
0.004041159120562104   -0.009851693455388649   -0.0018301774416424486
0.00032691089590658164   -0.003194781877201145   -0.0008883373704116307
0.0022611835119618097   -0.0032103485034799327   -0.0011548083876950308
0.004041159120562104   -0.009851693455388649   -0.0018301774416424486
0.002218456985415759   -0.0033399676068279057   -0.0010206677527340134
0.00032691089590658164   -0.003194781877201145   -0.0008883373704116307
0.004041159120562104   -0.009851693455388649   -0.0018301774416424486
0.00043632830859096386   -0.009857022759294393   -0.0016111452887884068
0.00041265771688892054   -0.0099167061525903   -0.0015953093764247957
0.00032691089590658164   -0.003194781877201145   -0.0008883373704116307
0.004041159120562104   -0.009851693455388649   -0.0018301774416424486
0.00041265771688892054   -0.0099167061525903   -0.0015953093764247957
0.002218456985415759   -0.0033399676068279057   -0.0010206677527340134
0.0022245803807178963   -0.003370343516075997   -0.0007413193687467755
0.004052824478830276   -0.010029148742326795   -0.0015070103573861576
0.005020786195869538   -0.0037670851748750223   -0.0006993413488721779
0.0022282482649457697   -0.003388354085636808   -0.0008839050566956923
0.004052824478830276   -0.010029148742326795   -0.0015070103573861576
0.008511397772584235   -0.01032837703651739   -0.0014824245731641925
0.005020786195869538   -0.0037670851748750223   -0.0006993413488721779
0.008337840053303212   -0.010300250439508244   -0.0016988787232919448
0.0022282482649457697   -0.003388354085636808   -0.0008839050566956923
0.004714954661692368   -0.003726009308174456   -0.0010225445359796266
0.008337840053303212   -0.010300250439508244   -0.0016988787232919448
0.005020786195869538   -0.0037670851748750223   -0.0006993413488721779
0.0022282482649457697   -0.003388354085636808   -0.0008839050566956923
0.008337840053303212   -0.010300250439508244   -0.0016988787232919448
0.0040712960995474045   -0.01002872701884469   -0.0016032394075655317
0.004052824478830276   -0.010029148742326795   -0.0015070103573861576
0.0022282482649457697   -0.003388354085636808   -0.0008839050566956923
0.008337840053303212   -0.010300250439508244   -0.0016988787232919448
0.004052824478830276   -0.010029148742326795   -0.0015070103573861576
0.005020786195869538   -0.0037670851748750223   -0.0006993413488721779
0.0022282482649457697   -0.003388354085636808   -0.0008839050566956923
0.0040712960995474045   -0.01002872701884469   -0.0016032394075655317
0.004714954661692368   -0.003726009308174456   -0.0010225445359796266
0.002218456985415759   -0.0033399676068279057   -0.0010206677527340134
0.0040712960995474045   -0.01002872701884469   -0.0016032394075655317
0.008337840053303212   -0.010300250439508244   -0.0016988787232919448
0.004714954661692368   -0.003726009308174456   -0.0010225445359796266
0.008182768377417141   -0.010216667529206868   -0.0019423482494712514
0.002218456985415759   -0.0033399676068279057   -0.0010206677527340134
0.004573811486716763   -0.0036485408168152288   -0.0012958365766789996
0.008182768377417141   -0.010216667529206868   -0.0019423482494712514
0.004714954661692368   -0.003726009308174456   -0.0010225445359796266
0.002218456985415759   -0.0033399676068279057   -0.0010206677527340134
0.008182768377417141   -0.010216667529206868   -0.0019423482494712514
0.004052202537654983   -0.009974519619091857   -0.0017123065514701046
0.0040712960995474045   -0.01002872701884469   -0.0016032394075655317
0.002218456985415759   -0.0033399676068279057   -0.0010206677527340134
0.008182768377417141   -0.010216667529206868   -0.0019423482494712514
0.0040712960995474045   -0.01002872701884469   -0.0016032394075655317
0.004714954661692368   -0.003726009308174456   -0.0010225445359796266
0.002218456985415759   -0.0033399676068279057   -0.0010206677527340134
0.004052202537654983   -0.009974519619091857   -0.0017123065514701046
0.004573811486716763   -0.0036485408168152288   -0.0012958365766789996
0.0022611835119618097   -0.0032103485034799327   -0.0011548083876950308
0.004052202537654983   -0.009974519619091857   -0.0017123065514701046
0.008182768377417141   -0.010216667529206868   -0.0019423482494712514
0.004573811486716763   -0.0036485408168152288   -0.0012958365766789996
0.00795056762605166   -0.010030620567723351   -0.0021957687000879536
0.0022611835119618097   -0.0032103485034799327   -0.0011548083876950308
0.0043638623487087915   -0.0034502862387871544   -0.001585000018597593
0.00795056762605166   -0.010030620567723351   -0.0021957687000879536
0.004573811486716763   -0.0036485408168152288   -0.0012958365766789996
0.0022611835119618097   -0.0032103485034799327   -0.0011548083876950308
0.00795056762605166   -0.010030620567723351   -0.0021957687000879536
0.004041159120562104   -0.009851693455388649   -0.0018301774416424486
0.004052202537654983   -0.009974519619091857   -0.0017123065514701046
0.0022611835119618097   -0.0032103485034799327   -0.0011548083876950308
0.00795056762605166   -0.010030620567723351   -0.0021957687000879536
0.004052202537654983   -0.009974519619091857   -0.0017123065514701046
0.004573811486716763   -0.0036485408168152288   -0.0012958365766789996
-0.010568009568651138   -0.010359413525258213   -0.0025531477520087742
-0.014481282327757026   -0.019430666269310757   -0.002907881777807166
-0.006745201808141839   -0.010020990946668275   -0.002101428344441008
-0.010884990016690653   -0.010598400298485227   -0.002213779437634566
-0.014481282327757026   -0.019430666269310757   -0.002907881777807166
-0.0093103303475017   -0.019171995940644178   -0.0025414346445882794
-0.006745201808141839   -0.010020990946668275   -0.002101428344441008
-0.009331051583939425   -0.019319867539102666   -0.0023792816926258183
-0.010884990016690653   -0.010598400298485227   -0.002213779437634566
-0.0067534384711996735   -0.010192279392970417   -0.0018924617884194333
-0.009331051583939425   -0.019319867539102666   -0.0023792816926258183
-0.006745201808141839   -0.010020990946668275   -0.002101428344441008
-0.010884990016690653   -0.010598400298485227   -0.002213779437634566
-0.009331051583939425   -0.019319867539102666   -0.0023792816926258183
-0.014739211533885507   -0.019632740461362416   -0.0026547286261187795
-0.014481282327757026   -0.019430666269310757   -0.002907881777807166
-0.010884990016690653   -0.010598400298485227   -0.002213779437634566
-0.009331051583939425   -0.019319867539102666   -0.0023792816926258183
-0.014481282327757026   -0.019430666269310757   -0.002907881777807166
-0.006745201808141839   -0.010020990946668275   -0.002101428344441008
-0.010884990016690653   -0.010598400298485227   -0.002213779437634566
-0.014739211533885507   -0.019632740461362416   -0.0026547286261187795
-0.0067534384711996735   -0.010192279392970417   -0.0018924617884194333
-0.011105338535717409   -0.010733346713570466   -0.0018814560430908
-0.014739211533885507   -0.019632740461362416   -0.0026547286261187795
-0.009331051583939425   -0.019319867539102666   -0.0023792816926258183
-0.0067534384711996735   -0.010192279392970417   -0.0018924617884194333
-0.009355414943503107   -0.019422755062198715   -0.0022288529540059605
-0.011105338535717409   -0.010733346713570466   -0.0018814560430908
-0.006780323929068612   -0.010296674137223554   -0.0016916362217064495
-0.009355414943503107   -0.019422755062198715   -0.0022288529540059605
-0.0067534384711996735   -0.010192279392970417   -0.0018924617884194333
-0.011105338535717409   -0.010733346713570466   -0.0018814560430908
-0.009355414943503107   -0.019422755062198715   -0.0022288529540059605
-0.014901954427215754   -0.019759434807184662   -0.0024187625575020286
-0.014739211533885507   -0.019632740461362416   -0.0026547286261187795
-0.011105338535717409   -0.010733346713570466   -0.0018814560430908
-0.009355414943503107   -0.019422755062198715   -0.0022288529540059605
-0.014739211533885507   -0.019632740461362416   -0.0026547286261187795
-0.0067534384711996735   -0.010192279392970417   -0.0018924617884194333
-0.011105338535717409   -0.010733346713570466   -0.0018814560430908
-0.014901954427215754   -0.019759434807184662   -0.0024187625575020286
-0.006780323929068612   -0.010296674137223554   -0.0016916362217064495
-0.011365793978022965   -0.010811740604480891   -0.0015790652849819804
-0.014901954427215754   -0.019759434807184662   -0.0024187625575020286
-0.009355414943503107   -0.019422755062198715   -0.0022288529540059605
-0.006780323929068612   -0.010296674137223554   -0.0016916362217064495
-0.009338203188104167   -0.019490417829692335   -0.002087651367977367
-0.011365793978022965   -0.010811740604480891   -0.0015790652849819804
-0.006760421927994196   -0.010350808094831253   -0.0015036394064422143
-0.009338203188104167   -0.019490417829692335   -0.002087651367977367
-0.006780323929068612   -0.010296674137223554   -0.0016916362217064495
-0.011365793978022965   -0.010811740604480891   -0.0015790652849819804
-0.009338203188104167   -0.019490417829692335   -0.002087651367977367
-0.015087123097992563   -0.019850506047146377   -0.002201590599619591
-0.014901954427215754   -0.019759434807184662   -0.0024187625575020286
-0.011365793978022965   -0.010811740604480891   -0.0015790652849819804
-0.009338203188104167   -0.019490417829692335   -0.002087651367977367
-0.014901954427215754   -0.019759434807184662   -0.0024187625575020286
-0.006780323929068612   -0.010296674137223554   -0.0016916362217064495
-0.006745201808141839   -0.010020990946668275   -0.002101428344441008
-0.0093103303475017   -0.019171995940644178   -0.0025414346445882794
-0.0031292906040224643   -0.009863519885152978   -0.0017930466300589577
-0.0067534384711996735   -0.010192279392970417   -0.0018924617884194333
-0.0093103303475017   -0.019171995940644178   -0.0025414346445882794
-0.004434436758186584   -0.0190430456029819   -0.0022868329204987106
-0.0031292906040224643   -0.009863519885152978   -0.0017930466300589577
-0.0044236397230817265   -0.01913761590878521   -0.002195218046838394
-0.0067534384711996735   -0.010192279392970417   -0.0018924617884194333
-0.00310256920443896   -0.009972553838398507   -0.0016859873624331869
-0.0044236397230817265   -0.01913761590878521   -0.002195218046838394
-0.0031292906040224643   -0.009863519885152978   -0.0017930466300589577
-0.0067534384711996735   -0.010192279392970417   -0.0018924617884194333
-0.0044236397230817265   -0.01913761590878521   -0.002195218046838394
-0.009331051583939425   -0.019319867539102666   -0.0023792816926258183
-0.0093103303475017   -0.019171995940644178   -0.0025414346445882794
-0.0067534384711996735   -0.010192279392970417   -0.0018924617884194333
-0.0044236397230817265   -0.01913761590878521   -0.002195218046838394
-0.0093103303475017   -0.019171995940644178   -0.0025414346445882794
-0.0031292906040224643   -0.009863519885152978   -0.0017930466300589577
-0.0067534384711996735   -0.010192279392970417   -0.0018924617884194333
-0.009331051583939425   -0.019319867539102666   -0.0023792816926258183
-0.00310256920443896   -0.009972553838398507   -0.0016859873624331869
-0.006780323929068612   -0.010296674137223554   -0.0016916362217064495
-0.009331051583939425   -0.019319867539102666   -0.0023792816926258183
-0.0044236397230817265   -0.01913761590878521   -0.002195218046838394
-0.00310256920443896   -0.009972553838398507   -0.0016859873624331869
-0.004410342942589522   -0.019193159100265537   -0.0021147690858998834
-0.006780323929068612   -0.010296674137223554   -0.0016916362217064495
-0.0030789208234701074   -0.010025426566395407   -0.0015889246561549874
-0.004410342942589522   -0.019193159100265537   -0.0021147690858998834
-0.00310256920443896   -0.009972553838398507   -0.0016859873624331869
-0.006780323929068612   -0.010296674137223554   -0.0016916362217064495
-0.004410342942589522   -0.019193159100265537   -0.0021147690858998834
-0.009355414943503107   -0.019422755062198715   -0.0022288529540059605
-0.009331051583939425   -0.019319867539102666   -0.0023792816926258183
-0.006780323929068612   -0.010296674137223554   -0.0016916362217064495
-0.004410342942589522   -0.019193159100265537   -0.0021147690858998834
-0.009331051583939425   -0.019319867539102666   -0.0023792816926258183
-0.00310256920443896   -0.009972553838398507   -0.0016859873624331869
-0.006780323929068612   -0.010296674137223554   -0.0016916362217064495
-0.009355414943503107   -0.019422755062198715   -0.0022288529540059605
-0.0030789208234701074   -0.010025426566395407   -0.0015889246561549874
-0.006760421927994196   -0.010350808094831253   -0.0015036394064422143
-0.009355414943503107   -0.019422755062198715   -0.0022288529540059605
-0.004410342942589522   -0.019193159100265537   -0.0021147690858998834
-0.0030789208234701074   -0.010025426566395407   -0.0015889246561549874
-0.004388291702074461   -0.019210469281682734   -0.002045451959875136
-0.006760421927994196   -0.010350808094831253   -0.0015036394064422143
-0.003043501590585922   -0.010024131774992534   -0.0015044066487415937
-0.004388291702074461   -0.019210469281682734   -0.002045451959875136
-0.0030789208234701074   -0.010025426566395407   -0.0015889246561549874
-0.006760421927994196   -0.010350808094831253   -0.0015036394064422143
-0.004388291702074461   -0.019210469281682734   -0.002045451959875136
-0.009338203188104167   -0.019490417829692335   -0.002087651367977367
-0.009355414943503107   -0.019422755062198715   -0.0022288529540059605
-0.006760421927994196   -0.010350808094831253   -0.0015036394064422143
-0.004388291702074461   -0.019210469281682734   -0.002045451959875136
-0.009355414943503107   -0.019422755062198715   -0.0022288529540059605
-0.0030789208234701074   -0.010025426566395407   -0.0015889246561549874
-0.0031292906040224643   -0.009863519885152978   -0.0017930466300589577
-0.004434436758186584   -0.0190430456029819   -0.0022868329204987106
0.00035772127296327966   -0.009868191840172551   -0.0015980380530033367
-0.00310256920443896   -0.009972553838398507   -0.0016859873624331869
-0.004434436758186584   -0.0190430456029819   -0.0022868329204987106
0.00029838475984580786   -0.019036186284795947   -0.002128937276033871
0.00035772127296327966   -0.009868191840172551   -0.0015980380530033367
0.0003184907864746043   -0.019078297788364555   -0.002107480718046546
-0.00310256920443896   -0.009972553838398507   -0.0016859873624331869
0.00039061363142409   -0.009919870872546118   -0.0015910002207121963
0.0003184907864746043   -0.019078297788364555   -0.002107480718046546
0.00035772127296327966   -0.009868191840172551   -0.0015980380530033367
-0.00310256920443896   -0.009972553838398507   -0.0016859873624331869
0.0003184907864746043   -0.019078297788364555   -0.002107480718046546
-0.0044236397230817265   -0.01913761590878521   -0.002195218046838394
-0.004434436758186584   -0.0190430456029819   -0.0022868329204987106
-0.00310256920443896   -0.009972553838398507   -0.0016859873624331869
0.0003184907864746043   -0.019078297788364555   -0.002107480718046546
-0.004434436758186584   -0.0190430456029819   -0.0022868329204987106
0.00035772127296327966   -0.009868191840172551   -0.0015980380530033367
-0.00310256920443896   -0.009972553838398507   -0.0016859873624331869
-0.0044236397230817265   -0.01913761590878521   -0.002195218046838394
0.00039061363142409   -0.009919870872546118   -0.0015910002207121963
-0.0030789208234701074   -0.010025426566395407   -0.0015889246561549874
-0.0044236397230817265   -0.01913761590878521   -0.002195218046838394
0.0003184907864746043   -0.019078297788364555   -0.002107480718046546
0.00039061363142409   -0.009919870872546118   -0.0015910002207121963
0.00033127046658841373   -0.01908153939391815   -0.0020968974261894786
-0.0030789208234701074   -0.010025426566395407   -0.0015889246561549874
0.00041265771688892054   -0.0099167061525903   -0.0015953093764247957
0.00033127046658841373   -0.01908153939391815   -0.0020968974261894786
0.00039061363142409   -0.009919870872546118   -0.0015910002207121963
-0.0030789208234701074   -0.010025426566395407   -0.0015889246561549874
0.00033127046658841373   -0.01908153939391815   -0.0020968974261894786
-0.004410342942589522   -0.019193159100265537   -0.0021147690858998834
-0.0044236397230817265   -0.01913761590878521   -0.002195218046838394
-0.0030789208234701074   -0.010025426566395407   -0.0015889246561549874
0.00033127046658841373   -0.01908153939391815   -0.0020968974261894786
-0.0044236397230817265   -0.01913761590878521   -0.002195218046838394
0.00039061363142409   -0.009919870872546118   -0.0015910002207121963
-0.0030789208234701074   -0.010025426566395407   -0.0015889246561549874
-0.004410342942589522   -0.019193159100265537   -0.0021147690858998834
0.00041265771688892054   -0.0099167061525903   -0.0015953093764247957
-0.003043501590585922   -0.010024131774992534   -0.0015044066487415937
-0.004410342942589522   -0.019193159100265537   -0.0021147690858998834
0.00033127046658841373   -0.01908153939391815   -0.0020968974261894786
0.00041265771688892054   -0.0099167061525903   -0.0015953093764247957
0.0003404260754104151   -0.019045331202248113   -0.002097849276053538
-0.003043501590585922   -0.010024131774992534   -0.0015044066487415937
0.00043632830859096386   -0.009857022759294393   -0.0016111452887884068
0.0003404260754104151   -0.019045331202248113   -0.002097849276053538
0.00041265771688892054   -0.0099167061525903   -0.0015953093764247957
-0.003043501590585922   -0.010024131774992534   -0.0015044066487415937
0.0003404260754104151   -0.019045331202248113   -0.002097849276053538
-0.004388291702074461   -0.019210469281682734   -0.002045451959875136
-0.004410342942589522   -0.019193159100265537   -0.0021147690858998834
-0.003043501590585922   -0.010024131774992534   -0.0015044066487415937
0.0003404260754104151   -0.019045331202248113   -0.002097849276053538
-0.004410342942589522   -0.019193159100265537   -0.0021147690858998834
0.00041265771688892054   -0.0099167061525903   -0.0015953093764247957
0.00035772127296327966   -0.009868191840172551   -0.0015980380530033367
0.00029838475984580786   -0.019036186284795947   -0.002128937276033871
0.004052824478830276   -0.010029148742326795   -0.0015070103573861576
0.00039061363142409   -0.009919870872546118   -0.0015910002207121963
0.00029838475984580786   -0.019036186284795947   -0.002128937276033871
0.00523312210371701   -0.019144163260805692   -0.002065041662997467
0.004052824478830276   -0.010029148742326795   -0.0015070103573861576
0.005250616069255391   -0.019138201370709543   -0.00211520272231835
0.00039061363142409   -0.009919870872546118   -0.0015910002207121963
0.0040712960995474045   -0.01002872701884469   -0.0016032394075655317
0.005250616069255391   -0.019138201370709543   -0.00211520272231835
0.004052824478830276   -0.010029148742326795   -0.0015070103573861576
0.00039061363142409   -0.009919870872546118   -0.0015910002207121963
0.005250616069255391   -0.019138201370709543   -0.00211520272231835
0.0003184907864746043   -0.019078297788364555   -0.002107480718046546
0.00029838475984580786   -0.019036186284795947   -0.002128937276033871
0.00039061363142409   -0.009919870872546118   -0.0015910002207121963
0.005250616069255391   -0.019138201370709543   -0.00211520272231835
0.00029838475984580786   -0.019036186284795947   -0.002128937276033871
0.004052824478830276   -0.010029148742326795   -0.0015070103573861576
0.00039061363142409   -0.009919870872546118   -0.0015910002207121963
0.0003184907864746043   -0.019078297788364555   -0.002107480718046546
0.0040712960995474045   -0.01002872701884469   -0.0016032394075655317
0.00041265771688892054   -0.0099167061525903   -0.0015953093764247957
0.0003184907864746043   -0.019078297788364555   -0.002107480718046546
0.005250616069255391   -0.019138201370709543   -0.00211520272231835
0.0040712960995474045   -0.01002872701884469   -0.0016032394075655317
0.005236995383624494   -0.01909419473038232   -0.0021754380817898405
0.00041265771688892054   -0.0099167061525903   -0.0015953093764247957
0.004052202537654983   -0.009974519619091857   -0.0017123065514701046
0.005236995383624494   -0.01909419473038232   -0.0021754380817898405
0.0040712960995474045   -0.01002872701884469   -0.0016032394075655317
0.00041265771688892054   -0.0099167061525903   -0.0015953093764247957
0.005236995383624494   -0.01909419473038232   -0.0021754380817898405
0.00033127046658841373   -0.01908153939391815   -0.0020968974261894786
0.0003184907864746043   -0.019078297788364555   -0.002107480718046546
0.00041265771688892054   -0.0099167061525903   -0.0015953093764247957
0.005236995383624494   -0.01909419473038232   -0.0021754380817898405
0.0003184907864746043   -0.019078297788364555   -0.002107480718046546
0.0040712960995474045   -0.01002872701884469   -0.0016032394075655317
0.00041265771688892054   -0.0099167061525903   -0.0015953093764247957
0.00033127046658841373   -0.01908153939391815   -0.0020968974261894786
0.004052202537654983   -0.009974519619091857   -0.0017123065514701046
0.00043632830859096386   -0.009857022759294393   -0.0016111452887884068
0.00033127046658841373   -0.01908153939391815   -0.0020968974261894786
0.005236995383624494   -0.01909419473038232   -0.0021754380817898405
0.004052202537654983   -0.009974519619091857   -0.0017123065514701046
0.005216773717624137   -0.01900273217227324   -0.0022469404526684537
0.00043632830859096386   -0.009857022759294393   -0.0016111452887884068
0.004041159120562104   -0.009851693455388649   -0.0018301774416424486
0.005216773717624137   -0.01900273217227324   -0.0022469404526684537
0.004052202537654983   -0.009974519619091857   -0.0017123065514701046
0.00043632830859096386   -0.009857022759294393   -0.0016111452887884068
0.005216773717624137   -0.01900273217227324   -0.0022469404526684537
0.0003404260754104151   -0.019045331202248113   -0.002097849276053538
0.00033127046658841373   -0.01908153939391815   -0.0020968974261894786
0.00043632830859096386   -0.009857022759294393   -0.0016111452887884068
0.005216773717624137   -0.01900273217227324   -0.0022469404526684537
0.00033127046658841373   -0.01908153939391815   -0.0020968974261894786
0.004052202537654983   -0.009974519619091857   -0.0017123065514701046
0.004052824478830276   -0.010029148742326795   -0.0015070103573861576
0.00523312210371701   -0.019144163260805692   -0.002065041662997467
0.008511397772584235   -0.01032837703651739   -0.0014824245731641925
0.0040712960995474045   -0.01002872701884469   -0.0016032394075655317
0.00523312210371701   -0.019144163260805692   -0.002065041662997467
0.010852882059983712   -0.019340070951890664   -0.002066142584148393
0.008511397772584235   -0.01032837703651739   -0.0014824245731641925
0.010758035957687978   -0.019306424423851345   -0.002197166442110244
0.0040712960995474045   -0.01002872701884469   -0.0016032394075655317
0.008337840053303212   -0.010300250439508244   -0.0016988787232919448
0.010758035957687978   -0.019306424423851345   -0.002197166442110244
0.008511397772584235   -0.01032837703651739   -0.0014824245731641925
0.0040712960995474045   -0.01002872701884469   -0.0016032394075655317
0.010758035957687978   -0.019306424423851345   -0.002197166442110244
0.005250616069255391   -0.019138201370709543   -0.00211520272231835
0.00523312210371701   -0.019144163260805692   -0.002065041662997467
0.0040712960995474045   -0.01002872701884469   -0.0016032394075655317
0.010758035957687978   -0.019306424423851345   -0.002197166442110244
0.00523312210371701   -0.019144163260805692   -0.002065041662997467
0.008511397772584235   -0.01032837703651739   -0.0014824245731641925
0.0040712960995474045   -0.01002872701884469   -0.0016032394075655317
0.005250616069255391   -0.019138201370709543   -0.00211520272231835
0.008337840053303212   -0.010300250439508244   -0.0016988787232919448
0.004052202537654983   -0.009974519619091857   -0.0017123065514701046
0.005250616069255391   -0.019138201370709543   -0.00211520272231835
0.010758035957687978   -0.019306424423851345   -0.002197166442110244
0.008337840053303212   -0.010300250439508244   -0.0016988787232919448
0.01066342071529578   -0.019238653953464   -0.0023463565652816947
0.004052202537654983   -0.009974519619091857   -0.0017123065514701046
0.008182768377417141   -0.010216667529206868   -0.0019423482494712514
0.01066342071529578   -0.019238653953464   -0.0023463565652816947
0.008337840053303212   -0.010300250439508244   -0.0016988787232919448
0.004052202537654983   -0.009974519619091857   -0.0017123065514701046
0.01066342071529578   -0.019238653953464   -0.0023463565652816947
0.005236995383624494   -0.01909419473038232   -0.0021754380817898405
0.005250616069255391   -0.019138201370709543   -0.00211520272231835
0.004052202537654983   -0.009974519619091857   -0.0017123065514701046
0.01066342071529578   -0.019238653953464   -0.0023463565652816947
0.005250616069255391   -0.019138201370709543   -0.00211520272231835
0.008337840053303212   -0.010300250439508244   -0.0016988787232919448
0.004052202537654983   -0.009974519619091857   -0.0017123065514701046
0.005236995383624494   -0.01909419473038232   -0.0021754380817898405
0.008182768377417141   -0.010216667529206868   -0.0019423482494712514
0.004041159120562104   -0.009851693455388649   -0.0018301774416424486
0.005236995383624494   -0.01909419473038232   -0.0021754380817898405
0.01066342071529578   -0.019238653953464   -0.0023463565652816947
0.008182768377417141   -0.010216667529206868   -0.0019423482494712514
0.010495608500339749   -0.01909641202724186   -0.0025137321766221326
0.004041159120562104   -0.009851693455388649   -0.0018301774416424486
0.00795056762605166   -0.010030620567723351   -0.0021957687000879536
0.010495608500339749   -0.01909641202724186   -0.0025137321766221326
0.008182768377417141   -0.010216667529206868   -0.0019423482494712514
0.004041159120562104   -0.009851693455388649   -0.0018301774416424486
0.010495608500339749   -0.01909641202724186   -0.0025137321766221326
0.005216773717624137   -0.01900273217227324   -0.0022469404526684537
0.005236995383624494   -0.01909419473038232   -0.0021754380817898405
0.004041159120562104   -0.009851693455388649   -0.0018301774416424486
0.010495608500339749   -0.01909641202724186   -0.0025137321766221326
0.005236995383624494   -0.01909419473038232   -0.0021754380817898405
0.008182768377417141   -0.010216667529206868   -0.0019423482494712514
-0.014481282327757026   -0.019430666269310757   -0.002907881777807166
-0.01729466943236056   -0.03018852199779733   -0.0031009929350095757
-0.0093103303475017   -0.019171995940644178   -0.0025414346445882794
-0.014739211533885507   -0.019632740461362416   -0.0026547286261187795
-0.01729466943236056   -0.03018852199779733   -0.0031009929350095757
-0.011225487213478956   -0.030023900834617357   -0.0028021550152813185
-0.0093103303475017   -0.019171995940644178   -0.0025414346445882794
-0.011239246433542276   -0.03015112500783769   -0.0026860698663809693
-0.014739211533885507   -0.019632740461362416   -0.0026547286261187795
-0.009331051583939425   -0.019319867539102666   -0.0023792816926258183
-0.011239246433542276   -0.03015112500783769   -0.0026860698663809693
-0.0093103303475017   -0.019171995940644178   -0.0025414346445882794
-0.014739211533885507   -0.019632740461362416   -0.0026547286261187795
-0.011239246433542276   -0.03015112500783769   -0.0026860698663809693
-0.017468562982985103   -0.03036062768970038   -0.002932843606726574
-0.01729466943236056   -0.03018852199779733   -0.0031009929350095757
-0.014739211533885507   -0.019632740461362416   -0.0026547286261187795
-0.011239246433542276   -0.03015112500783769   -0.0026860698663809693
-0.01729466943236056   -0.03018852199779733   -0.0031009929350095757
-0.0093103303475017   -0.019171995940644178   -0.0025414346445882794
-0.014739211533885507   -0.019632740461362416   -0.0026547286261187795
-0.017468562982985103   -0.03036062768970038   -0.002932843606726574
-0.009331051583939425   -0.019319867539102666   -0.0023792816926258183
-0.014901954427215754   -0.019759434807184662   -0.0024187625575020286
-0.017468562982985103   -0.03036062768970038   -0.002932843606726574
-0.011239246433542276   -0.03015112500783769   -0.0026860698663809693
-0.009331051583939425   -0.019319867539102666   -0.0023792816926258183
-0.011249144737888885   -0.030251969472039102   -0.002581548256267192
-0.014901954427215754   -0.019759434807184662   -0.0024187625575020286
-0.009355414943503107   -0.019422755062198715   -0.0022288529540059605
-0.011249144737888885   -0.030251969472039102   -0.002581548256267192
-0.009331051583939425   -0.019319867539102666   -0.0023792816926258183
-0.014901954427215754   -0.019759434807184662   -0.0024187625575020286
-0.011249144737888885   -0.030251969472039102   -0.002581548256267192
-0.017568467710990358   -0.03048237489032999   -0.0027808188420174983
-0.017468562982985103   -0.03036062768970038   -0.002932843606726574
-0.014901954427215754   -0.019759434807184662   -0.0024187625575020286
-0.011249144737888885   -0.030251969472039102   -0.002581548256267192
-0.017468562982985103   -0.03036062768970038   -0.002932843606726574
-0.009331051583939425   -0.019319867539102666   -0.0023792816926258183
-0.014901954427215754   -0.019759434807184662   -0.0024187625575020286
-0.017568467710990358   -0.03048237489032999   -0.0027808188420174983
-0.009355414943503107   -0.019422755062198715   -0.0022288529540059605
-0.015087123097992563   -0.019850506047146377   -0.002201590599619591
-0.017568467710990358   -0.03048237489032999   -0.0027808188420174983
-0.011249144737888885   -0.030251969472039102   -0.002581548256267192
-0.009355414943503107   -0.019422755062198715   -0.0022288529540059605
-0.011226130003014801   -0.030334795292443338   -0.0024870545965344835
-0.015087123097992563   -0.019850506047146377   -0.002201590599619591
-0.009338203188104167   -0.019490417829692335   -0.002087651367977367
-0.011226130003014801   -0.030334795292443338   -0.0024870545965344835
-0.009355414943503107   -0.019422755062198715   -0.0022288529540059605
-0.015087123097992563   -0.019850506047146377   -0.002201590599619591
-0.011226130003014801   -0.030334795292443338   -0.0024870545965344835
-0.01767139548031158   -0.030591472141572672   -0.002646833871902812
-0.017568467710990358   -0.03048237489032999   -0.0027808188420174983
-0.015087123097992563   -0.019850506047146377   -0.002201590599619591
-0.011226130003014801   -0.030334795292443338   -0.0024870545965344835
-0.017568467710990358   -0.03048237489032999   -0.0027808188420174983
-0.009355414943503107   -0.019422755062198715   -0.0022288529540059605
-0.0093103303475017   -0.019171995940644178   -0.0025414346445882794
-0.011225487213478956   -0.030023900834617357   -0.0028021550152813185
-0.004434436758186584   -0.0190430456029819   -0.0022868329204987106
-0.009331051583939425   -0.019319867539102666   -0.0023792816926258183
-0.011225487213478956   -0.030023900834617357   -0.0028021550152813185
-0.005535576838380237   -0.029938836574510134   -0.002595219933679147
-0.004434436758186584   -0.0190430456029819   -0.0022868329204987106
-0.00552531016633725   -0.03001868404426183   -0.002518604272183797
-0.009331051583939425   -0.019319867539102666   -0.0023792816926258183
-0.0044236397230817265   -0.01913761590878521   -0.002195218046838394
-0.00552531016633725   -0.03001868404426183   -0.002518604272183797
-0.004434436758186584   -0.0190430456029819   -0.0022868329204987106
-0.009331051583939425   -0.019319867539102666   -0.0023792816926258183
-0.00552531016633725   -0.03001868404426183   -0.002518604272183797
-0.011239246433542276   -0.03015112500783769   -0.0026860698663809693
-0.011225487213478956   -0.030023900834617357   -0.0028021550152813185
-0.009331051583939425   -0.019319867539102666   -0.0023792816926258183
-0.00552531016633725   -0.03001868404426183   -0.002518604272183797
-0.011225487213478956   -0.030023900834617357   -0.0028021550152813185
-0.004434436758186584   -0.0190430456029819   -0.0022868329204987106
-0.009331051583939425   -0.019319867539102666   -0.0023792816926258183
-0.011239246433542276   -0.03015112500783769   -0.0026860698663809693
-0.0044236397230817265   -0.01913761590878521   -0.002195218046838394
-0.009355414943503107   -0.019422755062198715   -0.0022288529540059605
-0.011239246433542276   -0.03015112500783769   -0.0026860698663809693
-0.00552531016633725   -0.03001868404426183   -0.002518604272183797
-0.0044236397230817265   -0.01913761590878521   -0.002195218046838394
-0.0055111909991041996   -0.030076427601808908   -0.0024533795555610398
-0.009355414943503107   -0.019422755062198715   -0.0022288529540059605
-0.004410342942589522   -0.019193159100265537   -0.0021147690858998834
-0.0055111909991041996   -0.030076427601808908   -0.0024533795555610398
-0.0044236397230817265   -0.01913761590878521   -0.002195218046838394
-0.009355414943503107   -0.019422755062198715   -0.0022288529540059605
-0.0055111909991041996   -0.030076427601808908   -0.0024533795555610398
-0.011249144737888885   -0.030251969472039102   -0.002581548256267192
-0.011239246433542276   -0.03015112500783769   -0.0026860698663809693
-0.009355414943503107   -0.019422755062198715   -0.0022288529540059605
-0.0055111909991041996   -0.030076427601808908   -0.0024533795555610398
-0.011239246433542276   -0.03015112500783769   -0.0026860698663809693
-0.0044236397230817265   -0.01913761590878521   -0.002195218046838394
-0.009355414943503107   -0.019422755062198715   -0.0022288529540059605
-0.011249144737888885   -0.030251969472039102   -0.002581548256267192
-0.004410342942589522   -0.019193159100265537   -0.0021147690858998834
-0.009338203188104167   -0.019490417829692335   -0.002087651367977367
-0.011249144737888885   -0.030251969472039102   -0.002581548256267192
-0.0055111909991041996   -0.030076427601808908   -0.0024533795555610398
-0.004410342942589522   -0.019193159100265537   -0.0021147690858998834
-0.005490008823128016   -0.03011244550615366   -0.0023997336667897413
-0.009338203188104167   -0.019490417829692335   -0.002087651367977367
-0.004388291702074461   -0.019210469281682734   -0.002045451959875136
-0.005490008823128016   -0.03011244550615366   -0.0023997336667897413
-0.004410342942589522   -0.019193159100265537   -0.0021147690858998834
-0.009338203188104167   -0.019490417829692335   -0.002087651367977367
-0.005490008823128016   -0.03011244550615366   -0.0023997336667897413
-0.011226130003014801   -0.030334795292443338   -0.0024870545965344835
-0.011249144737888885   -0.030251969472039102   -0.002581548256267192
-0.009338203188104167   -0.019490417829692335   -0.002087651367977367
-0.005490008823128016   -0.03011244550615366   -0.0023997336667897413
-0.011249144737888885   -0.030251969472039102   -0.002581548256267192
-0.004410342942589522   -0.019193159100265537   -0.0021147690858998834
-0.004434436758186584   -0.0190430456029819   -0.0022868329204987106
-0.005535576838380237   -0.029938836574510134   -0.002595219933679147
0.00029838475984580786   -0.019036186284795947   -0.002128937276033871
-0.0044236397230817265   -0.01913761590878521   -0.002195218046838394
-0.005535576838380237   -0.029938836574510134   -0.002595219933679147
-1.1885897716459771e-07   -0.029924219782187213   -0.00247466030921698
0.00029838475984580786   -0.019036186284795947   -0.002128937276033871
1.9428086685599346e-05   -0.029956442593549692   -0.0024378180149545636
-0.0044236397230817265   -0.01913761590878521   -0.002195218046838394
0.0003184907864746043   -0.019078297788364555   -0.002107480718046546
1.9428086685599346e-05   -0.029956442593549692   -0.0024378180149545636
0.00029838475984580786   -0.019036186284795947   -0.002128937276033871
-0.0044236397230817265   -0.01913761590878521   -0.002195218046838394
1.9428086685599346e-05   -0.029956442593549692   -0.0024378180149545636
-0.00552531016633725   -0.03001868404426183   -0.002518604272183797
-0.005535576838380237   -0.029938836574510134   -0.002595219933679147
-0.0044236397230817265   -0.01913761590878521   -0.002195218046838394
1.9428086685599346e-05   -0.029956442593549692   -0.0024378180149545636
-0.005535576838380237   -0.029938836574510134   -0.002595219933679147
0.00029838475984580786   -0.019036186284795947   -0.002128937276033871
-0.0044236397230817265   -0.01913761590878521   -0.002195218046838394
-0.00552531016633725   -0.03001868404426183   -0.002518604272183797
0.0003184907864746043   -0.019078297788364555   -0.002107480718046546
-0.004410342942589522   -0.019193159100265537   -0.0021147690858998834
-0.00552531016633725   -0.03001868404426183   -0.002518604272183797
1.9428086685599346e-05   -0.029956442593549692   -0.0024378180149545636
0.0003184907864746043   -0.019078297788364555   -0.002107480718046546
3.3270218592807644e-05   -0.02996640938676313   -0.002412221443106674
-0.004410342942589522   -0.019193159100265537   -0.0021147690858998834
0.00033127046658841373   -0.01908153939391815   -0.0020968974261894786
3.3270218592807644e-05   -0.02996640938676313   -0.002412221443106674
0.0003184907864746043   -0.019078297788364555   -0.002107480718046546
-0.004410342942589522   -0.019193159100265537   -0.0021147690858998834
3.3270218592807644e-05   -0.02996640938676313   -0.002412221443106674
-0.0055111909991041996   -0.030076427601808908   -0.0024533795555610398
-0.00552531016633725   -0.03001868404426183   -0.002518604272183797
-0.004410342942589522   -0.019193159100265537   -0.0021147690858998834
3.3270218592807644e-05   -0.02996640938676313   -0.002412221443106674
-0.00552531016633725   -0.03001868404426183   -0.002518604272183797
0.0003184907864746043   -0.019078297788364555   -0.002107480718046546
-0.004410342942589522   -0.019193159100265537   -0.0021147690858998834
-0.0055111909991041996   -0.030076427601808908   -0.0024533795555610398
0.00033127046658841373   -0.01908153939391815   -0.0020968974261894786
-0.004388291702074461   -0.019210469281682734   -0.002045451959875136
-0.0055111909991041996   -0.030076427601808908   -0.0024533795555610398
3.3270218592807644e-05   -0.02996640938676313   -0.002412221443106674
0.00033127046658841373   -0.01908153939391815   -0.0020968974261894786
4.196105161002019e-05   -0.02995381519237225   -0.0023983689610258263
-0.004388291702074461   -0.019210469281682734   -0.002045451959875136
0.0003404260754104151   -0.019045331202248113   -0.002097849276053538
4.196105161002019e-05   -0.02995381519237225   -0.0023983689610258263
0.00033127046658841373   -0.01908153939391815   -0.0020968974261894786
-0.004388291702074461   -0.019210469281682734   -0.002045451959875136
4.196105161002019e-05   -0.02995381519237225   -0.0023983689610258263
-0.005490008823128016   -0.03011244550615366   -0.0023997336667897413
-0.0055111909991041996   -0.030076427601808908   -0.0024533795555610398
-0.004388291702074461   -0.019210469281682734   -0.002045451959875136
4.196105161002019e-05   -0.02995381519237225   -0.0023983689610258263
-0.0055111909991041996   -0.030076427601808908   -0.0024533795555610398
0.00033127046658841373   -0.01908153939391815   -0.0020968974261894786
0.00029838475984580786   -0.019036186284795947   -0.002128937276033871
-1.1885897716459771e-07   -0.029924219782187213   -0.00247466030921698
0.00523312210371701   -0.019144163260805692   -0.002065041662997467
0.0003184907864746043   -0.019078297788364555   -0.002107480718046546
-1.1885897716459771e-07   -0.029924219782187213   -0.00247466030921698
0.005725678295580696   -0.029974038302663486   -0.0024399808227519152
0.00523312210371701   -0.019144163260805692   -0.002065041662997467
0.005749634962365791   -0.029961412731901685   -0.0024437521160473913
0.0003184907864746043   -0.019078297788364555   -0.002107480718046546
0.005250616069255391   -0.019138201370709543   -0.00211520272231835
0.005749634962365791   -0.029961412731901685   -0.0024437521160473913
0.00523312210371701   -0.019144163260805692   -0.002065041662997467
0.0003184907864746043   -0.019078297788364555   -0.002107480718046546
0.005749634962365791   -0.029961412731901685   -0.0024437521160473913
1.9428086685599346e-05   -0.029956442593549692   -0.0024378180149545636
-1.1885897716459771e-07   -0.029924219782187213   -0.00247466030921698
0.0003184907864746043   -0.019078297788364555   -0.002107480718046546
0.005749634962365791   -0.029961412731901685   -0.0024437521160473913
-1.1885897716459771e-07   -0.029924219782187213   -0.00247466030921698
0.00523312210371701   -0.019144163260805692   -0.002065041662997467
0.0003184907864746043   -0.019078297788364555   -0.002107480718046546
1.9428086685599346e-05   -0.029956442593549692   -0.0024378180149545636
0.005250616069255391   -0.019138201370709543   -0.00211520272231835
0.00033127046658841373   -0.01908153939391815   -0.0020968974261894786
1.9428086685599346e-05   -0.029956442593549692   -0.0024378180149545636
0.005749634962365791   -0.029961412731901685   -0.0024437521160473913
0.005250616069255391   -0.019138201370709543   -0.00211520272231835
0.005751220088380602   -0.029928225207182867   -0.0024581643860844033
0.00033127046658841373   -0.01908153939391815   -0.0020968974261894786
0.005236995383624494   -0.01909419473038232   -0.0021754380817898405
0.005751220088380602   -0.029928225207182867   -0.0024581643860844033
0.005250616069255391   -0.019138201370709543   -0.00211520272231835
0.00033127046658841373   -0.01908153939391815   -0.0020968974261894786
0.005751220088380602   -0.029928225207182867   -0.0024581643860844033
3.3270218592807644e-05   -0.02996640938676313   -0.002412221443106674
1.9428086685599346e-05   -0.029956442593549692   -0.0024378180149545636
0.00033127046658841373   -0.01908153939391815   -0.0020968974261894786
0.005751220088380602   -0.029928225207182867   -0.0024581643860844033
1.9428086685599346e-05   -0.029956442593549692   -0.0024378180149545636
0.005250616069255391   -0.019138201370709543   -0.00211520272231835
0.00033127046658841373   -0.01908153939391815   -0.0020968974261894786
3.3270218592807644e-05   -0.02996640938676313   -0.002412221443106674
0.005236995383624494   -0.01909419473038232   -0.0021754380817898405
0.0003404260754104151   -0.019045331202248113   -0.002097849276053538
3.3270218592807644e-05   -0.02996640938676313   -0.002412221443106674
0.005751220088380602   -0.029928225207182867   -0.0024581643860844033
0.005236995383624494   -0.01909419473038232   -0.0021754380817898405
0.0057384338772907715   -0.029866160498138946   -0.002483622031128296
0.0003404260754104151   -0.019045331202248113   -0.002097849276053538
0.005216773717624137   -0.01900273217227324   -0.0022469404526684537
0.0057384338772907715   -0.029866160498138946   -0.002483622031128296
0.005236995383624494   -0.01909419473038232   -0.0021754380817898405
0.0003404260754104151   -0.019045331202248113   -0.002097849276053538
0.0057384338772907715   -0.029866160498138946   -0.002483622031128296
4.196105161002019e-05   -0.02995381519237225   -0.0023983689610258263
3.3270218592807644e-05   -0.02996640938676313   -0.002412221443106674
0.0003404260754104151   -0.019045331202248113   -0.002097849276053538
0.0057384338772907715   -0.029866160498138946   -0.002483622031128296
3.3270218592807644e-05   -0.02996640938676313   -0.002412221443106674
0.005236995383624494   -0.01909419473038232   -0.0021754380817898405
0.00523312210371701   -0.019144163260805692   -0.002065041662997467
0.005725678295580696   -0.029974038302663486   -0.0024399808227519152
0.010852882059983712   -0.019340070951890664   -0.002066142584148393
0.005250616069255391   -0.019138201370709543   -0.00211520272231835
0.005725678295580696   -0.029974038302663486   -0.0024399808227519152
0.012048393440789737   -0.030065636348398612   -0.0024723834647183427
0.010852882059983712   -0.019340070951890664   -0.002066142584148393
0.012036905294648249   -0.030022646038264836   -0.0025200051608774694
0.005250616069255391   -0.019138201370709543   -0.00211520272231835
0.010758035957687978   -0.019306424423851345   -0.002197166442110244
0.012036905294648249   -0.030022646038264836   -0.0025200051608774694
0.010852882059983712   -0.019340070951890664   -0.002066142584148393
0.005250616069255391   -0.019138201370709543   -0.00211520272231835
0.012036905294648249   -0.030022646038264836   -0.0025200051608774694
0.005749634962365791   -0.029961412731901685   -0.0024437521160473913
0.005725678295580696   -0.029974038302663486   -0.0024399808227519152
0.005250616069255391   -0.019138201370709543   -0.00211520272231835
0.012036905294648249   -0.030022646038264836   -0.0025200051608774694
0.005725678295580696   -0.029974038302663486   -0.0024399808227519152
0.010852882059983712   -0.019340070951890664   -0.002066142584148393
0.005250616069255391   -0.019138201370709543   -0.00211520272231835
0.005749634962365791   -0.029961412731901685   -0.0024437521160473913
0.010758035957687978   -0.019306424423851345   -0.002197166442110244
0.005236995383624494   -0.01909419473038232   -0.0021754380817898405
0.005749634962365791   -0.029961412731901685   -0.0024437521160473913
0.012036905294648249   -0.030022646038264836   -0.0025200051608774694
0.010758035957687978   -0.019306424423851345   -0.002197166442110244
0.012006436841737224   -0.029968484934370505   -0.002584889385427848
0.005236995383624494   -0.01909419473038232   -0.0021754380817898405
0.01066342071529578   -0.019238653953464   -0.0023463565652816947
0.012006436841737224   -0.029968484934370505   -0.002584889385427848
0.010758035957687978   -0.019306424423851345   -0.002197166442110244
0.005236995383624494   -0.01909419473038232   -0.0021754380817898405
0.012006436841737224   -0.029968484934370505   -0.002584889385427848
0.005751220088380602   -0.029928225207182867   -0.0024581643860844033
0.005749634962365791   -0.029961412731901685   -0.0024437521160473913
0.005236995383624494   -0.01909419473038232   -0.0021754380817898405
0.012006436841737224   -0.029968484934370505   -0.002584889385427848
0.005749634962365791   -0.029961412731901685   -0.0024437521160473913
0.010758035957687978   -0.019306424423851345   -0.002197166442110244
0.005236995383624494   -0.01909419473038232   -0.0021754380817898405
0.005751220088380602   -0.029928225207182867   -0.0024581643860844033
0.01066342071529578   -0.019238653953464   -0.0023463565652816947
0.005216773717624137   -0.01900273217227324   -0.0022469404526684537
0.005751220088380602   -0.029928225207182867   -0.0024581643860844033
0.012006436841737224   -0.029968484934370505   -0.002584889385427848
0.01066342071529578   -0.019238653953464   -0.0023463565652816947
0.011923850801799382   -0.029865168962203977   -0.002666911002870082
0.005216773717624137   -0.01900273217227324   -0.0022469404526684537
0.010495608500339749   -0.01909641202724186   -0.0025137321766221326
0.011923850801799382   -0.029865168962203977   -0.002666911002870082
0.01066342071529578   -0.019238653953464   -0.0023463565652816947
0.005216773717624137   -0.01900273217227324   -0.0022469404526684537
0.011923850801799382   -0.029865168962203977   -0.002666911002870082
0.0057384338772907715   -0.029866160498138946   -0.002483622031128296
0.005751220088380602   -0.029928225207182867   -0.0024581643860844033
0.005216773717624137   -0.01900273217227324   -0.0022469404526684537
0.011923850801799382   -0.029865168962203977   -0.002666911002870082
0.005751220088380602   -0.029928225207182867   -0.0024581643860844033
0.01066342071529578   -0.019238653953464   -0.0023463565652816947
-0.01729466943236056   -0.03018852199779733   -0.0031009929350095757
-0.0189986963377676   -0.04190011448837498   -0.003157576853782943
-0.011225487213478956   -0.030023900834617357   -0.0028021550152813185
-0.017468562982985103   -0.03036062768970038   -0.002932843606726574
-0.0189986963377676   -0.04190011448837498   -0.003157576853782943
-0.012483199184964423   -0.04183299168275521   -0.0029194874004693874
-0.011225487213478956   -0.030023900834617357   -0.0028021550152813185
-0.0124784319998311   -0.04194153122396983   -0.0028482734220272084
-0.017468562982985103   -0.03036062768970038   -0.002932843606726574
-0.011239246433542276   -0.03015112500783769   -0.0026860698663809693
-0.0124784319998311   -0.04194153122396983   -0.0028482734220272084
-0.011225487213478956   -0.030023900834617357   -0.0028021550152813185
-0.017468562982985103   -0.03036062768970038   -0.002932843606726574
-0.0124784319998311   -0.04194153122396983   -0.0028482734220272084
-0.019080060366121875   -0.04204601094955572   -0.0030708244487692993
-0.0189986963377676   -0.04190011448837498   -0.003157576853782943
-0.017468562982985103   -0.03036062768970038   -0.002932843606726574
-0.0124784319998311   -0.04194153122396983   -0.0028482734220272084
-0.0189986963377676   -0.04190011448837498   -0.003157576853782943
-0.011225487213478956   -0.030023900834617357   -0.0028021550152813185
-0.017468562982985103   -0.03036062768970038   -0.002932843606726574
-0.019080060366121875   -0.04204601094955572   -0.0030708244487692993
-0.011239246433542276   -0.03015112500783769   -0.0026860698663809693
-0.017568467710990358   -0.03048237489032999   -0.0027808188420174983
-0.019080060366121875   -0.04204601094955572   -0.0030708244487692993
-0.0124784319998311   -0.04194153122396983   -0.0028482734220272084
-0.011239246433542276   -0.03015112500783769   -0.0026860698663809693
-0.012461897379903632   -0.04204164318162684   -0.002788883720561759
-0.017568467710990358   -0.03048237489032999   -0.0027808188420174983
-0.011249144737888885   -0.030251969472039102   -0.002581548256267192
-0.012461897379903632   -0.04204164318162684   -0.002788883720561759
-0.011239246433542276   -0.03015112500783769   -0.0026860698663809693
-0.017568467710990358   -0.03048237489032999   -0.0027808188420174983
-0.012461897379903632   -0.04204164318162684   -0.002788883720561759
-0.01910613263117133   -0.04216498842021586   -0.0030010915484800465
-0.019080060366121875   -0.04204601094955572   -0.0030708244487692993
-0.017568467710990358   -0.03048237489032999   -0.0027808188420174983
-0.012461897379903632   -0.04204164318162684   -0.002788883720561759
-0.019080060366121875   -0.04204601094955572   -0.0030708244487692993
-0.011239246433542276   -0.03015112500783769   -0.0026860698663809693
-0.017568467710990358   -0.03048237489032999   -0.0027808188420174983
-0.01910613263117133   -0.04216498842021586   -0.0030010915484800465
-0.011249144737888885   -0.030251969472039102   -0.002581548256267192
-0.01767139548031158   -0.030591472141572672   -0.002646833871902812
-0.01910613263117133   -0.04216498842021586   -0.0030010915484800465
-0.012461897379903632   -0.04204164318162684   -0.002788883720561759
-0.011249144737888885   -0.030251969472039102   -0.002581548256267192
-0.012420851815735599   -0.04214095719849845   -0.002740491093750846
-0.01767139548031158   -0.030591472141572672   -0.002646833871902812
-0.011226130003014801   -0.030334795292443338   -0.0024870545965344835
-0.012420851815735599   -0.04214095719849845   -0.002740491093750846
-0.011249144737888885   -0.030251969472039102   -0.002581548256267192
-0.01767139548031158   -0.030591472141572672   -0.002646833871902812
-0.012420851815735599   -0.04214095719849845   -0.002740491093750846
-0.01911503926035754   -0.04229418180200985   -0.0029498384446731947
-0.01910613263117133   -0.04216498842021586   -0.0030010915484800465
-0.01767139548031158   -0.030591472141572672   -0.002646833871902812
-0.012420851815735599   -0.04214095719849845   -0.002740491093750846
-0.01910613263117133   -0.04216498842021586   -0.0030010915484800465
-0.011249144737888885   -0.030251969472039102   -0.002581548256267192
-0.011225487213478956   -0.030023900834617357   -0.0028021550152813185
-0.012483199184964423   -0.04183299168275521   -0.0029194874004693874
-0.005535576838380237   -0.029938836574510134   -0.002595219933679147
-0.011239246433542276   -0.03015112500783769   -0.0026860698663809693
-0.012483199184964423   -0.04183299168275521   -0.0029194874004693874
-0.006430712404687837   -0.041794504330505265   -0.002757391962051547
-0.005535576838380237   -0.029938836574510134   -0.002595219933679147
-0.00640829630962689   -0.04186021331486893   -0.002695331079835644
-0.011239246433542276   -0.03015112500783769   -0.0026860698663809693
-0.00552531016633725   -0.03001868404426183   -0.002518604272183797
-0.00640829630962689   -0.04186021331486893   -0.002695331079835644
-0.005535576838380237   -0.029938836574510134   -0.002595219933679147
-0.011239246433542276   -0.03015112500783769   -0.0026860698663809693
-0.00640829630962689   -0.04186021331486893   -0.002695331079835644
-0.0124784319998311   -0.04194153122396983   -0.0028482734220272084
-0.012483199184964423   -0.04183299168275521   -0.0029194874004693874
-0.011239246433542276   -0.03015112500783769   -0.0026860698663809693
-0.00640829630962689   -0.04186021331486893   -0.002695331079835644
-0.012483199184964423   -0.04183299168275521   -0.0029194874004693874
-0.005535576838380237   -0.029938836574510134   -0.002595219933679147
-0.011239246433542276   -0.03015112500783769   -0.0026860698663809693
-0.0124784319998311   -0.04194153122396983   -0.0028482734220272084
-0.00552531016633725   -0.03001868404426183   -0.002518604272183797
-0.011249144737888885   -0.030251969472039102   -0.002581548256267192
-0.0124784319998311   -0.04194153122396983   -0.0028482734220272084
-0.00640829630962689   -0.04186021331486893   -0.002695331079835644
-0.00552531016633725   -0.03001868404426183   -0.002518604272183797
-0.006380761812352786   -0.04192050721248714   -0.002645105012915237
-0.011249144737888885   -0.030251969472039102   -0.002581548256267192
-0.0055111909991041996   -0.030076427601808908   -0.0024533795555610398
-0.006380761812352786   -0.04192050721248714   -0.002645105012915237
-0.00552531016633725   -0.03001868404426183   -0.002518604272183797
-0.011249144737888885   -0.030251969472039102   -0.002581548256267192
-0.006380761812352786   -0.04192050721248714   -0.002645105012915237
-0.012461897379903632   -0.04204164318162684   -0.002788883720561759
-0.0124784319998311   -0.04194153122396983   -0.0028482734220272084
-0.011249144737888885   -0.030251969472039102   -0.002581548256267192
-0.006380761812352786   -0.04192050721248714   -0.002645105012915237
-0.0124784319998311   -0.04194153122396983   -0.0028482734220272084
-0.00552531016633725   -0.03001868404426183   -0.002518604272183797
-0.011249144737888885   -0.030251969472039102   -0.002581548256267192
-0.012461897379903632   -0.04204164318162684   -0.002788883720561759
-0.0055111909991041996   -0.030076427601808908   -0.0024533795555610398
-0.011226130003014801   -0.030334795292443338   -0.0024870545965344835
-0.012461897379903632   -0.04204164318162684   -0.002788883720561759
-0.006380761812352786   -0.04192050721248714   -0.002645105012915237
-0.0055111909991041996   -0.030076427601808908   -0.0024533795555610398
-0.006347641749410024   -0.04197558398898123   -0.0026069974991745743
-0.011226130003014801   -0.030334795292443338   -0.0024870545965344835
-0.005490008823128016   -0.03011244550615366   -0.0023997336667897413
-0.006347641749410024   -0.04197558398898123   -0.0026069974991745743
-0.0055111909991041996   -0.030076427601808908   -0.0024533795555610398
-0.011226130003014801   -0.030334795292443338   -0.0024870545965344835
-0.006347641749410024   -0.04197558398898123   -0.0026069974991745743
-0.012420851815735599   -0.04214095719849845   -0.002740491093750846
-0.012461897379903632   -0.04204164318162684   -0.002788883720561759
-0.011226130003014801   -0.030334795292443338   -0.0024870545965344835
-0.006347641749410024   -0.04197558398898123   -0.0026069974991745743
-0.012461897379903632   -0.04204164318162684   -0.002788883720561759
-0.0055111909991041996   -0.030076427601808908   -0.0024533795555610398
-0.005535576838380237   -0.029938836574510134   -0.002595219933679147
-0.006430712404687837   -0.041794504330505265   -0.002757391962051547
-1.1885897716459771e-07   -0.029924219782187213   -0.00247466030921698
-0.00552531016633725   -0.03001868404426183   -0.002518604272183797
-0.006430712404687837   -0.041794504330505265   -0.002757391962051547
-0.0005419921149518898   -0.04177247891445035   -0.002673508559843047
-1.1885897716459771e-07   -0.029924219782187213   -0.00247466030921698
-0.0005106001680640918   -0.041794572760208135   -0.0026212191325250536
-0.00552531016633725   -0.03001868404426183   -0.002518604272183797
1.9428086685599346e-05   -0.029956442593549692   -0.0024378180149545636
-0.0005106001680640918   -0.041794572760208135   -0.0026212191325250536
-1.1885897716459771e-07   -0.029924219782187213   -0.00247466030921698
-0.00552531016633725   -0.03001868404426183   -0.002518604272183797
-0.0005106001680640918   -0.041794572760208135   -0.0026212191325250536
-0.00640829630962689   -0.04186021331486893   -0.002695331079835644
-0.006430712404687837   -0.041794504330505265   -0.002757391962051547
-0.00552531016633725   -0.03001868404426183   -0.002518604272183797
-0.0005106001680640918   -0.041794572760208135   -0.0026212191325250536
-0.006430712404687837   -0.041794504330505265   -0.002757391962051547
-1.1885897716459771e-07   -0.029924219782187213   -0.00247466030921698
-0.00552531016633725   -0.03001868404426183   -0.002518604272183797
-0.00640829630962689   -0.04186021331486893   -0.002695331079835644
1.9428086685599346e-05   -0.029956442593549692   -0.0024378180149545636
-0.0055111909991041996   -0.030076427601808908   -0.0024533795555610398
-0.00640829630962689   -0.04186021331486893   -0.002695331079835644
-0.0005106001680640918   -0.041794572760208135   -0.0026212191325250536
1.9428086685599346e-05   -0.029956442593549692   -0.0024378180149545636
-0.00048343934092432903   -0.041810869038266495   -0.002580661770081141
-0.0055111909991041996   -0.030076427601808908   -0.0024533795555610398
3.3270218592807644e-05   -0.02996640938676313   -0.002412221443106674
-0.00048343934092432903   -0.041810869038266495   -0.002580661770081141
1.9428086685599346e-05   -0.029956442593549692   -0.0024378180149545636
-0.0055111909991041996   -0.030076427601808908   -0.0024533795555610398
-0.00048343934092432903   -0.041810869038266495   -0.002580661770081141
-0.006380761812352786   -0.04192050721248714   -0.002645105012915237
-0.00640829630962689   -0.04186021331486893   -0.002695331079835644
-0.0055111909991041996   -0.030076427601808908   -0.0024533795555610398
-0.00048343934092432903   -0.041810869038266495   -0.002580661770081141
-0.00640829630962689   -0.04186021331486893   -0.002695331079835644
1.9428086685599346e-05   -0.029956442593549692   -0.0024378180149545636
-0.0055111909991041996   -0.030076427601808908   -0.0024533795555610398
-0.006380761812352786   -0.04192050721248714   -0.002645105012915237
3.3270218592807644e-05   -0.02996640938676313   -0.002412221443106674
-0.005490008823128016   -0.03011244550615366   -0.0023997336667897413
-0.006380761812352786   -0.04192050721248714   -0.002645105012915237
-0.00048343934092432903   -0.041810869038266495   -0.002580661770081141
3.3270218592807644e-05   -0.02996640938676313   -0.002412221443106674
-0.0004627804218205091   -0.041821284655891605   -0.0025522646285891697
-0.005490008823128016   -0.03011244550615366   -0.0023997336667897413
4.196105161002019e-05   -0.02995381519237225   -0.0023983689610258263
-0.0004627804218205091   -0.041821284655891605   -0.0025522646285891697
3.3270218592807644e-05   -0.02996640938676313   -0.002412221443106674
-0.005490008823128016   -0.03011244550615366   -0.0023997336667897413
-0.0004627804218205091   -0.041821284655891605   -0.0025522646285891697
-0.006347641749410024   -0.04197558398898123   -0.0026069974991745743
-0.006380761812352786   -0.04192050721248714   -0.002645105012915237
-0.005490008823128016   -0.03011244550615366   -0.0023997336667897413
-0.0004627804218205091   -0.041821284655891605   -0.0025522646285891697
-0.006380761812352786   -0.04192050721248714   -0.002645105012915237
3.3270218592807644e-05   -0.02996640938676313   -0.002412221443106674
-1.1885897716459771e-07   -0.029924219782187213   -0.00247466030921698
-0.0005419921149518898   -0.04177247891445035   -0.002673508559843047
0.005725678295580696   -0.029974038302663486   -0.0024399808227519152
1.9428086685599346e-05   -0.029956442593549692   -0.0024378180149545636
-0.0005419921149518898   -0.04177247891445035   -0.002673508559843047
0.005526497557397785   -0.04176312237453865   -0.0026685669861126887
0.005725678295580696   -0.029974038302663486   -0.0024399808227519152
0.005568133643948006   -0.041742974454739463   -0.0026265399220281264
1.9428086685599346e-05   -0.029956442593549692   -0.0024378180149545636
0.005749634962365791   -0.029961412731901685   -0.0024437521160473913
0.005568133643948006   -0.041742974454739463   -0.0026265399220281264
0.005725678295580696   -0.029974038302663486   -0.0024399808227519152
1.9428086685599346e-05   -0.029956442593549692   -0.0024378180149545636
0.005568133643948006   -0.041742974454739463   -0.0026265399220281264
-0.0005106001680640918   -0.041794572760208135   -0.0026212191325250536
-0.0005419921149518898   -0.04177247891445035   -0.002673508559843047
1.9428086685599346e-05   -0.029956442593549692   -0.0024378180149545636
0.005568133643948006   -0.041742974454739463   -0.0026265399220281264
-0.0005419921149518898   -0.04177247891445035   -0.002673508559843047
0.005725678295580696   -0.029974038302663486   -0.0024399808227519152
1.9428086685599346e-05   -0.029956442593549692   -0.0024378180149545636
-0.0005106001680640918   -0.041794572760208135   -0.0026212191325250536
0.005749634962365791   -0.029961412731901685   -0.0024437521160473913
3.3270218592807644e-05   -0.02996640938676313   -0.002412221443106674
-0.0005106001680640918   -0.041794572760208135   -0.0026212191325250536
0.005568133643948006   -0.041742974454739463   -0.0026265399220281264
0.005749634962365791   -0.029961412731901685   -0.0024437521160473913
0.005595937423207151   -0.04171945758442363   -0.0025959092024155942
3.3270218592807644e-05   -0.02996640938676313   -0.002412221443106674
0.005751220088380602   -0.029928225207182867   -0.0024581643860844033
0.005595937423207151   -0.04171945758442363   -0.0025959092024155942
0.005749634962365791   -0.029961412731901685   -0.0024437521160473913
3.3270218592807644e-05   -0.02996640938676313   -0.002412221443106674
0.005595937423207151   -0.04171945758442363   -0.0025959092024155942
-0.00048343934092432903   -0.041810869038266495   -0.002580661770081141
-0.0005106001680640918   -0.041794572760208135   -0.0026212191325250536
3.3270218592807644e-05   -0.02996640938676313   -0.002412221443106674
0.005595937423207151   -0.04171945758442363   -0.0025959092024155942
-0.0005106001680640918   -0.041794572760208135   -0.0026212191325250536
0.005749634962365791   -0.029961412731901685   -0.0024437521160473913
3.3270218592807644e-05   -0.02996640938676313   -0.002412221443106674
-0.00048343934092432903   -0.041810869038266495   -0.002580661770081141
0.005751220088380602   -0.029928225207182867   -0.0024581643860844033
4.196105161002019e-05   -0.02995381519237225   -0.0023983689610258263
-0.00048343934092432903   -0.041810869038266495   -0.002580661770081141
0.005595937423207151   -0.04171945758442363   -0.0025959092024155942
0.005751220088380602   -0.029928225207182867   -0.0024581643860844033
0.005601462168180398   -0.041684846674386884   -0.002576440720703617
4.196105161002019e-05   -0.02995381519237225   -0.0023983689610258263
0.0057384338772907715   -0.029866160498138946   -0.002483622031128296
0.005601462168180398   -0.041684846674386884   -0.002576440720703617
0.005751220088380602   -0.029928225207182867   -0.0024581643860844033
4.196105161002019e-05   -0.02995381519237225   -0.0023983689610258263
0.005601462168180398   -0.041684846674386884   -0.002576440720703617
-0.0004627804218205091   -0.041821284655891605   -0.0025522646285891697
-0.00048343934092432903   -0.041810869038266495   -0.002580661770081141
4.196105161002019e-05   -0.02995381519237225   -0.0023983689610258263
0.005601462168180398   -0.041684846674386884   -0.002576440720703617
-0.00048343934092432903   -0.041810869038266495   -0.002580661770081141
0.005751220088380602   -0.029928225207182867   -0.0024581643860844033
0.005725678295580696   -0.029974038302663486   -0.0024399808227519152
0.005526497557397785   -0.04176312237453865   -0.0026685669861126887
0.012048393440789737   -0.030065636348398612   -0.0024723834647183427
0.005749634962365791   -0.029961412731901685   -0.0024437521160473913
0.005526497557397785   -0.04176312237453865   -0.0026685669861126887
0.012103080014838945   -0.041750212701902746   -0.002734622611905018
0.012048393440789737   -0.030065636348398612   -0.0024723834647183427
0.012184681315478103   -0.04169668574280116   -0.002700247265580283
0.005749634962365791   -0.029961412731901685   -0.0024437521160473913
0.012036905294648249   -0.030022646038264836   -0.0025200051608774694
0.012184681315478103   -0.04169668574280116   -0.002700247265580283
0.012048393440789737   -0.030065636348398612   -0.0024723834647183427
0.005749634962365791   -0.029961412731901685   -0.0024437521160473913
0.012184681315478103   -0.04169668574280116   -0.002700247265580283
0.005568133643948006   -0.041742974454739463   -0.0026265399220281264
0.005526497557397785   -0.04176312237453865   -0.0026685669861126887
0.005749634962365791   -0.029961412731901685   -0.0024437521160473913
0.012184681315478103   -0.04169668574280116   -0.002700247265580283
0.005526497557397785   -0.04176312237453865   -0.0026685669861126887
0.012048393440789737   -0.030065636348398612   -0.0024723834647183427
0.005749634962365791   -0.029961412731901685   -0.0024437521160473913
0.005568133643948006   -0.041742974454739463   -0.0026265399220281264
0.012036905294648249   -0.030022646038264836   -0.0025200051608774694
0.005751220088380602   -0.029928225207182867   -0.0024581643860844033
0.005568133643948006   -0.041742974454739463   -0.0026265399220281264
0.012184681315478103   -0.04169668574280116   -0.002700247265580283
0.012036905294648249   -0.030022646038264836   -0.0025200051608774694
0.012227711436318752   -0.04165439202275109   -0.002683185932072404
0.005751220088380602   -0.029928225207182867   -0.0024581643860844033
0.012006436841737224   -0.029968484934370505   -0.002584889385427848
0.012227711436318752   -0.04165439202275109   -0.002683185932072404
0.012036905294648249   -0.030022646038264836   -0.0025200051608774694
0.005751220088380602   -0.029928225207182867   -0.0024581643860844033
0.012227711436318752   -0.04165439202275109   -0.002683185932072404
0.005595937423207151   -0.04171945758442363   -0.0025959092024155942
0.005568133643948006   -0.041742974454739463   -0.0026265399220281264
0.005751220088380602   -0.029928225207182867   -0.0024581643860844033
0.012227711436318752   -0.04165439202275109   -0.002683185932072404
0.005568133643948006   -0.041742974454739463   -0.0026265399220281264
0.012036905294648249   -0.030022646038264836   -0.0025200051608774694
0.005751220088380602   -0.029928225207182867   -0.0024581643860844033
0.005595937423207151   -0.04171945758442363   -0.0025959092024155942
0.012006436841737224   -0.029968484934370505   -0.002584889385427848
0.0057384338772907715   -0.029866160498138946   -0.002483622031128296
0.005595937423207151   -0.04171945758442363   -0.0025959092024155942
0.012227711436318752   -0.04165439202275109   -0.002683185932072404
0.012006436841737224   -0.029968484934370505   -0.002584889385427848
0.012237837792076284   -0.04158646153296523   -0.0026837335451034543
0.0057384338772907715   -0.029866160498138946   -0.002483622031128296
0.011923850801799382   -0.029865168962203977   -0.002666911002870082
0.012237837792076284   -0.04158646153296523   -0.0026837335451034543
0.012006436841737224   -0.029968484934370505   -0.002584889385427848
0.0057384338772907715   -0.029866160498138946   -0.002483622031128296
0.012237837792076284   -0.04158646153296523   -0.0026837335451034543
0.005601462168180398   -0.041684846674386884   -0.002576440720703617
0.005595937423207151   -0.04171945758442363   -0.0025959092024155942
0.0057384338772907715   -0.029866160498138946   -0.002483622031128296
0.012237837792076284   -0.04158646153296523   -0.0026837335451034543
0.005595937423207151   -0.04171945758442363   -0.0025959092024155942
0.012006436841737224   -0.029968484934370505   -0.002584889385427848
-0.0189986963377676   -0.04190011448837498   -0.003157576853782943
-0.019593311208063548   -0.05382403085255502   -0.003104055388463175
-0.012483199184964423   -0.04183299168275521   -0.0029194874004693874
-0.019080060366121875   -0.04204601094955572   -0.0030708244487692993
-0.019593311208063548   -0.05382403085255502   -0.003104055388463175
-0.013084876140136602   -0.05385516429071544   -0.002927964857105533
-0.012483199184964423   -0.04183299168275521   -0.0029194874004693874
-0.013049917797553977   -0.05394463665251584   -0.002900949532816584
-0.019080060366121875   -0.04204601094955572   -0.0030708244487692993
-0.0124784319998311   -0.04194153122396983   -0.0028482734220272084
-0.013049917797553977   -0.05394463665251584   -0.002900949532816584
-0.012483199184964423   -0.04183299168275521   -0.0029194874004693874
-0.019080060366121875   -0.04204601094955572   -0.0030708244487692993
-0.013049917797553977   -0.05394463665251584   -0.002900949532816584
-0.01957096180103578   -0.05394373447265695   -0.003098379233935948
-0.019593311208063548   -0.05382403085255502   -0.003104055388463175
-0.019080060366121875   -0.04204601094955572   -0.0030708244487692993
-0.013049917797553977   -0.05394463665251584   -0.002900949532816584
-0.019593311208063548   -0.05382403085255502   -0.003104055388463175
-0.012483199184964423   -0.04183299168275521   -0.0029194874004693874
-0.019080060366121875   -0.04204601094955572   -0.0030708244487692993
-0.01957096180103578   -0.05394373447265695   -0.003098379233935948
-0.0124784319998311   -0.04194153122396983   -0.0028482734220272084
-0.01910613263117133   -0.04216498842021586   -0.0030010915484800465
-0.01957096180103578   -0.05394373447265695   -0.003098379233935948
-0.013049917797553977   -0.05394463665251584   -0.002900949532816584
-0.0124784319998311   -0.04194153122396983   -0.0028482734220272084
-0.012995309989391076   -0.054043747778396135   -0.0028861264679122746
-0.01910613263117133   -0.04216498842021586   -0.0030010915484800465
-0.012461897379903632   -0.04204164318162684   -0.002788883720561759
-0.012995309989391076   -0.054043747778396135   -0.0028861264679122746
-0.0124784319998311   -0.04194153122396983   -0.0028482734220272084
-0.01910613263117133   -0.04216498842021586   -0.0030010915484800465
-0.012995309989391076   -0.054043747778396135   -0.0028861264679122746
-0.019511237049207122   -0.05405993654001561   -0.0031109235311816467
-0.01957096180103578   -0.05394373447265695   -0.003098379233935948
-0.01910613263117133   -0.04216498842021586   -0.0030010915484800465
-0.012995309989391076   -0.054043747778396135   -0.0028861264679122746
-0.01957096180103578   -0.05394373447265695   -0.003098379233935948
-0.0124784319998311   -0.04194153122396983   -0.0028482734220272084
-0.01910613263117133   -0.04216498842021586   -0.0030010915484800465
-0.019511237049207122   -0.05405993654001561   -0.0031109235311816467
-0.012461897379903632   -0.04204164318162684   -0.002788883720561759
-0.01911503926035754   -0.04229418180200985   -0.0029498384446731947
-0.019511237049207122   -0.05405993654001561   -0.0031109235311816467
-0.012995309989391076   -0.054043747778396135   -0.0028861264679122746
-0.012461897379903632   -0.04204164318162684   -0.002788883720561759
-0.012924542717297633   -0.054159320545988626   -0.002883299443523261
-0.01911503926035754   -0.04229418180200985   -0.0029498384446731947
-0.012420851815735599   -0.04214095719849845   -0.002740491093750846
-0.012924542717297633   -0.054159320545988626   -0.002883299443523261
-0.012461897379903632   -0.04204164318162684   -0.002788883720561759
-0.01911503926035754   -0.04229418180200985   -0.0029498384446731947
-0.012924542717297633   -0.054159320545988626   -0.002883299443523261
-0.019414211960404   -0.05420959970242202   -0.003142607529987783
-0.019511237049207122   -0.05405993654001561   -0.0031109235311816467
-0.01911503926035754   -0.04229418180200985   -0.0029498384446731947
-0.012924542717297633   -0.054159320545988626   -0.002883299443523261
-0.019511237049207122   -0.05405993654001561   -0.0031109235311816467
-0.012461897379903632   -0.04204164318162684   -0.002788883720561759
-0.012483199184964423   -0.04183299168275521   -0.0029194874004693874
-0.013084876140136602   -0.05385516429071544   -0.002927964857105533
-0.006430712404687837   -0.041794504330505265   -0.002757391962051547
-0.0124784319998311   -0.04194153122396983   -0.0028482734220272084
-0.013084876140136602   -0.05385516429071544   -0.002927964857105533
-0.007123246323103355   -0.05386194279404321   -0.002810917389714408
-0.006430712404687837   -0.041794504330505265   -0.002757391962051547
-0.007076416358861952   -0.053913277800959246   -0.0027629898323788178
-0.0124784319998311   -0.04194153122396983   -0.0028482734220272084
-0.00640829630962689   -0.04186021331486893   -0.002695331079835644
-0.007076416358861952   -0.053913277800959246   -0.0027629898323788178
-0.006430712404687837   -0.041794504330505265   -0.002757391962051547
-0.0124784319998311   -0.04194153122396983   -0.0028482734220272084
-0.007076416358861952   -0.053913277800959246   -0.0027629898323788178
-0.013049917797553977   -0.05394463665251584   -0.002900949532816584
-0.013084876140136602   -0.05385516429071544   -0.002927964857105533
-0.0124784319998311   -0.04194153122396983   -0.0028482734220272084
-0.007076416358861952   -0.053913277800959246   -0.0027629898323788178
-0.013084876140136602   -0.05385516429071544   -0.002927964857105533
-0.006430712404687837   -0.041794504330505265   -0.002757391962051547
-0.0124784319998311   -0.04194153122396983   -0.0028482734220272084
-0.013049917797553977   -0.05394463665251584   -0.002900949532816584
-0.00640829630962689   -0.04186021331486893   -0.002695331079835644
-0.012461897379903632   -0.04204164318162684   -0.002788883720561759
-0.013049917797553977   -0.05394463665251584   -0.002900949532816584
-0.007076416358861952   -0.053913277800959246   -0.0027629898323788178
-0.00640829630962689   -0.04186021331486893   -0.002695331079835644
-0.0070234920992180054   -0.053975678082891304   -0.002727301214831653
-0.012461897379903632   -0.04204164318162684   -0.002788883720561759
-0.006380761812352786   -0.04192050721248714   -0.002645105012915237
-0.0070234920992180054   -0.053975678082891304   -0.002727301214831653
-0.00640829630962689   -0.04186021331486893   -0.002695331079835644
-0.012461897379903632   -0.04204164318162684   -0.002788883720561759
-0.0070234920992180054   -0.053975678082891304   -0.002727301214831653
-0.012995309989391076   -0.054043747778396135   -0.0028861264679122746
-0.013049917797553977   -0.05394463665251584   -0.002900949532816584
-0.012461897379903632   -0.04204164318162684   -0.002788883720561759
-0.0070234920992180054   -0.053975678082891304   -0.002727301214831653
-0.013049917797553977   -0.05394463665251584   -0.002900949532816584
-0.00640829630962689   -0.04186021331486893   -0.002695331079835644
-0.012461897379903632   -0.04204164318162684   -0.002788883720561759
-0.012995309989391076   -0.054043747778396135   -0.0028861264679122746
-0.006380761812352786   -0.04192050721248714   -0.002645105012915237
-0.012420851815735599   -0.04214095719849845   -0.002740491093750846
-0.012995309989391076   -0.054043747778396135   -0.0028861264679122746
-0.0070234920992180054   -0.053975678082891304   -0.002727301214831653
-0.006380761812352786   -0.04192050721248714   -0.002645105012915237
-0.006966452478105405   -0.05404933813500452   -0.0027042476916581864
-0.012420851815735599   -0.04214095719849845   -0.002740491093750846
-0.006347641749410024   -0.04197558398898123   -0.0026069974991745743
-0.006966452478105405   -0.05404933813500452   -0.0027042476916581864
-0.006380761812352786   -0.04192050721248714   -0.002645105012915237
-0.012420851815735599   -0.04214095719849845   -0.002740491093750846
-0.006966452478105405   -0.05404933813500452   -0.0027042476916581864
-0.012924542717297633   -0.054159320545988626   -0.002883299443523261
-0.012995309989391076   -0.054043747778396135   -0.0028861264679122746
-0.012420851815735599   -0.04214095719849845   -0.002740491093750846
-0.006966452478105405   -0.05404933813500452   -0.0027042476916581864
-0.012995309989391076   -0.054043747778396135   -0.0028861264679122746
-0.006380761812352786   -0.04192050721248714   -0.002645105012915237
-0.006430712404687837   -0.041794504330505265   -0.002757391962051547
-0.007123246323103355   -0.05386194279404321   -0.002810917389714408
-0.0005419921149518898   -0.04177247891445035   -0.002673508559843047
-0.00640829630962689   -0.04186021331486893   -0.002695331079835644
-0.007123246323103355   -0.05386194279404321   -0.002810917389714408
-0.0013302970056765853   -0.05383036370683622   -0.0027630233498288853
-0.0005419921149518898   -0.04177247891445035   -0.002673508559843047
-0.0012749073413127602   -0.05384228953172186   -0.002695224143533125
-0.00640829630962689   -0.04186021331486893   -0.002695331079835644
-0.0005106001680640918   -0.041794572760208135   -0.0026212191325250536
-0.0012749073413127602   -0.05384228953172186   -0.002695224143533125
-0.0005419921149518898   -0.04177247891445035   -0.002673508559843047
-0.00640829630962689   -0.04186021331486893   -0.002695331079835644
-0.0012749073413127602   -0.05384228953172186   -0.002695224143533125
-0.007076416358861952   -0.053913277800959246   -0.0027629898323788178
-0.007123246323103355   -0.05386194279404321   -0.002810917389714408
-0.00640829630962689   -0.04186021331486893   -0.002695331079835644
-0.0012749073413127602   -0.05384228953172186   -0.002695224143533125
-0.007123246323103355   -0.05386194279404321   -0.002810917389714408
-0.0005419921149518898   -0.04177247891445035   -0.002673508559843047
-0.00640829630962689   -0.04186021331486893   -0.002695331079835644
-0.007076416358861952   -0.053913277800959246   -0.0027629898323788178
-0.0005106001680640918   -0.041794572760208135   -0.0026212191325250536
-0.006380761812352786   -0.04192050721248714   -0.002645105012915237
-0.007076416358861952   -0.053913277800959246   -0.0027629898323788178
-0.0012749073413127602   -0.05384228953172186   -0.002695224143533125
-0.0005106001680640918   -0.041794572760208135   -0.0026212191325250536
-0.0012225133173324409   -0.053864412877557104   -0.0026395767537617807
-0.006380761812352786   -0.04192050721248714   -0.002645105012915237
-0.00048343934092432903   -0.041810869038266495   -0.002580661770081141
-0.0012225133173324409   -0.053864412877557104   -0.0026395767537617807
-0.0005106001680640918   -0.041794572760208135   -0.0026212191325250536
-0.006380761812352786   -0.04192050721248714   -0.002645105012915237
-0.0012225133173324409   -0.053864412877557104   -0.0026395767537617807
-0.0070234920992180054   -0.053975678082891304   -0.002727301214831653
-0.007076416358861952   -0.053913277800959246   -0.0027629898323788178
-0.006380761812352786   -0.04192050721248714   -0.002645105012915237
-0.0012225133173324409   -0.053864412877557104   -0.0026395767537617807
-0.007076416358861952   -0.053913277800959246   -0.0027629898323788178
-0.0005106001680640918   -0.041794572760208135   -0.0026212191325250536
-0.006380761812352786   -0.04192050721248714   -0.002645105012915237
-0.0070234920992180054   -0.053975678082891304   -0.002727301214831653
-0.00048343934092432903   -0.041810869038266495   -0.002580661770081141
-0.006347641749410024   -0.04197558398898123   -0.0026069974991745743
-0.0070234920992180054   -0.053975678082891304   -0.002727301214831653
-0.0012225133173324409   -0.053864412877557104   -0.0026395767537617807
-0.00048343934092432903   -0.041810869038266495   -0.002580661770081141
-0.0011780542486522591   -0.05389723926671584   -0.002596505895984282
-0.006347641749410024   -0.04197558398898123   -0.0026069974991745743
-0.0004627804218205091   -0.041821284655891605   -0.0025522646285891697
-0.0011780542486522591   -0.05389723926671584   -0.002596505895984282
-0.00048343934092432903   -0.041810869038266495   -0.002580661770081141
-0.006347641749410024   -0.04197558398898123   -0.0026069974991745743
-0.0011780542486522591   -0.05389723926671584   -0.002596505895984282
-0.006966452478105405   -0.05404933813500452   -0.0027042476916581864
-0.0070234920992180054   -0.053975678082891304   -0.002727301214831653
-0.006347641749410024   -0.04197558398898123   -0.0026069974991745743
-0.0011780542486522591   -0.05389723926671584   -0.002596505895984282
-0.0070234920992180054   -0.053975678082891304   -0.002727301214831653
-0.00048343934092432903   -0.041810869038266495   -0.002580661770081141
-0.0005419921149518898   -0.04177247891445035   -0.002673508559843047
-0.0013302970056765853   -0.05383036370683622   -0.0027630233498288853
0.005526497557397785   -0.04176312237453865   -0.0026685669861126887
-0.0005106001680640918   -0.041794572760208135   -0.0026212191325250536
-0.0013302970056765853   -0.05383036370683622   -0.0027630233498288853
0.00463713215952584   -0.053760156241670146   -0.0027865636212349876
0.005526497557397785   -0.04176312237453865   -0.0026685669861126887
0.004707791426182647   -0.05373254456449629   -0.002699247344597695
-0.0005106001680640918   -0.041794572760208135   -0.0026212191325250536
0.005568133643948006   -0.041742974454739463   -0.0026265399220281264
0.004707791426182647   -0.05373254456449629   -0.002699247344597695
0.005526497557397785   -0.04176312237453865   -0.0026685669861126887
-0.0005106001680640918   -0.041794572760208135   -0.0026212191325250536
0.004707791426182647   -0.05373254456449629   -0.002699247344597695
-0.0012749073413127602   -0.05384228953172186   -0.002695224143533125
-0.0013302970056765853   -0.05383036370683622   -0.0027630233498288853
-0.0005106001680640918   -0.041794572760208135   -0.0026212191325250536
0.004707791426182647   -0.05373254456449629   -0.002699247344597695
-0.0013302970056765853   -0.05383036370683622   -0.0027630233498288853
0.005526497557397785   -0.04176312237453865   -0.0026685669861126887
-0.0005106001680640918   -0.041794572760208135   -0.0026212191325250536
-0.0012749073413127602   -0.05384228953172186   -0.002695224143533125
0.005568133643948006   -0.041742974454739463   -0.0026265399220281264
-0.00048343934092432903   -0.041810869038266495   -0.002580661770081141
-0.0012749073413127602   -0.05384228953172186   -0.002695224143533125
0.004707791426182647   -0.05373254456449629   -0.002699247344597695
0.005568133643948006   -0.041742974454739463   -0.0026265399220281264
0.004773071113110948   -0.053718188165160545   -0.002624046863442754
-0.00048343934092432903   -0.041810869038266495   -0.002580661770081141
0.005595937423207151   -0.04171945758442363   -0.0025959092024155942
0.004773071113110948   -0.053718188165160545   -0.002624046863442754
0.005568133643948006   -0.041742974454739463   -0.0026265399220281264
-0.00048343934092432903   -0.041810869038266495   -0.002580661770081141
0.004773071113110948   -0.053718188165160545   -0.002624046863442754
-0.0012225133173324409   -0.053864412877557104   -0.0026395767537617807
-0.0012749073413127602   -0.05384228953172186   -0.002695224143533125
-0.00048343934092432903   -0.041810869038266495   -0.002580661770081141
0.004773071113110948   -0.053718188165160545   -0.002624046863442754
-0.0012749073413127602   -0.05384228953172186   -0.002695224143533125
0.005568133643948006   -0.041742974454739463   -0.0026265399220281264
-0.00048343934092432903   -0.041810869038266495   -0.002580661770081141
-0.0012225133173324409   -0.053864412877557104   -0.0026395767537617807
0.005595937423207151   -0.04171945758442363   -0.0025959092024155942
-0.0004627804218205091   -0.041821284655891605   -0.0025522646285891697
-0.0012225133173324409   -0.053864412877557104   -0.0026395767537617807
0.004773071113110948   -0.053718188165160545   -0.002624046863442754
0.005595937423207151   -0.04171945758442363   -0.0025959092024155942
0.004808044522377238   -0.05371012286929161   -0.002560171209170878
-0.0004627804218205091   -0.041821284655891605   -0.0025522646285891697
0.005601462168180398   -0.041684846674386884   -0.002576440720703617
0.004808044522377238   -0.05371012286929161   -0.002560171209170878
0.005595937423207151   -0.04171945758442363   -0.0025959092024155942
-0.0004627804218205091   -0.041821284655891605   -0.0025522646285891697
0.004808044522377238   -0.05371012286929161   -0.002560171209170878
-0.0011780542486522591   -0.05389723926671584   -0.002596505895984282
-0.0012225133173324409   -0.053864412877557104   -0.0026395767537617807
-0.0004627804218205091   -0.041821284655891605   -0.0025522646285891697
0.004808044522377238   -0.05371012286929161   -0.002560171209170878
-0.0012225133173324409   -0.053864412877557104   -0.0026395767537617807
0.005595937423207151   -0.04171945758442363   -0.0025959092024155942
0.005526497557397785   -0.04176312237453865   -0.0026685669861126887
0.00463713215952584   -0.053760156241670146   -0.0027865636212349876
0.012103080014838945   -0.041750212701902746   -0.002734622611905018
0.005568133643948006   -0.041742974454739463   -0.0026265399220281264
0.00463713215952584   -0.053760156241670146   -0.0027865636212349876
0.011026542741692432   -0.05364221293407139   -0.0028852581331681574
0.012103080014838945   -0.041750212701902746   -0.002734622611905018
0.011211028212815015   -0.05357876474353695   -0.0027706737630489426
0.005568133643948006   -0.041742974454739463   -0.0026265399220281264
0.012184681315478103   -0.04169668574280116   -0.002700247265580283
0.011211028212815015   -0.05357876474353695   -0.0027706737630489426
0.012103080014838945   -0.041750212701902746   -0.002734622611905018
0.005568133643948006   -0.041742974454739463   -0.0026265399220281264
0.011211028212815015   -0.05357876474353695   -0.0027706737630489426
0.004707791426182647   -0.05373254456449629   -0.002699247344597695
0.00463713215952584   -0.053760156241670146   -0.0027865636212349876
0.005568133643948006   -0.041742974454739463   -0.0026265399220281264
0.011211028212815015   -0.05357876474353695   -0.0027706737630489426
0.00463713215952584   -0.053760156241670146   -0.0027865636212349876
0.012103080014838945   -0.041750212701902746   -0.002734622611905018
0.005568133643948006   -0.041742974454739463   -0.0026265399220281264
0.004707791426182647   -0.05373254456449629   -0.002699247344597695
0.012184681315478103   -0.04169668574280116   -0.002700247265580283
0.005595937423207151   -0.04171945758442363   -0.0025959092024155942
0.004707791426182647   -0.05373254456449629   -0.002699247344597695
0.011211028212815015   -0.05357876474353695   -0.0027706737630489426
0.012184681315478103   -0.04169668574280116   -0.002700247265580283
0.011337740234505594   -0.05354799911447249   -0.002673341754523491
0.005595937423207151   -0.04171945758442363   -0.0025959092024155942
0.012227711436318752   -0.04165439202275109   -0.002683185932072404
0.011337740234505594   -0.05354799911447249   -0.002673341754523491
0.012184681315478103   -0.04169668574280116   -0.002700247265580283
0.005595937423207151   -0.04171945758442363   -0.0025959092024155942
0.011337740234505594   -0.05354799911447249   -0.002673341754523491
0.004773071113110948   -0.053718188165160545   -0.002624046863442754
0.004707791426182647   -0.05373254456449629   -0.002699247344597695
0.005595937423207151   -0.04171945758442363   -0.0025959092024155942
0.011337740234505594   -0.05354799911447249   -0.002673341754523491
0.004707791426182647   -0.05373254456449629   -0.002699247344597695
0.012184681315478103   -0.04169668574280116   -0.002700247265580283
0.005595937423207151   -0.04171945758442363   -0.0025959092024155942
0.004773071113110948   -0.053718188165160545   -0.002624046863442754
0.012227711436318752   -0.04165439202275109   -0.002683185932072404
0.005601462168180398   -0.041684846674386884   -0.002576440720703617
0.004773071113110948   -0.053718188165160545   -0.002624046863442754
0.011337740234505594   -0.05354799911447249   -0.002673341754523491
0.012227711436318752   -0.04165439202275109   -0.002683185932072404
0.011450180793062929   -0.05351448518127123   -0.0025939777815914126
0.005601462168180398   -0.041684846674386884   -0.002576440720703617
0.012237837792076284   -0.04158646153296523   -0.0026837335451034543
0.011450180793062929   -0.05351448518127123   -0.0025939777815914126
0.012227711436318752   -0.04165439202275109   -0.002683185932072404
0.005601462168180398   -0.041684846674386884   -0.002576440720703617
0.011450180793062929   -0.05351448518127123   -0.0025939777815914126
0.004808044522377238   -0.05371012286929161   -0.002560171209170878
0.004773071113110948   -0.053718188165160545   -0.002624046863442754
0.005601462168180398   -0.041684846674386884   -0.002576440720703617
0.011450180793062929   -0.05351448518127123   -0.0025939777815914126
0.004773071113110948   -0.053718188165160545   -0.002624046863442754
0.012227711436318752   -0.04165439202275109   -0.002683185932072404
-0.019593311208063548   -0.05382403085255502   -0.003104055388463175
-0.019068995412258965   -0.06521139699937144   -0.0029676198097207023
-0.013084876140136602   -0.05385516429071544   -0.002927964857105533
-0.01957096180103578   -0.05394373447265695   -0.003098379233935948
-0.019068995412258965   -0.06521139699937144   -0.0029676198097207023
-0.013031250657283253   -0.06534258932980812   -0.0028615233847306743
-0.013084876140136602   -0.05385516429071544   -0.002927964857105533
-0.012954888179322232   -0.06540939778722123   -0.0028775460839765383
-0.01957096180103578   -0.05394373447265695   -0.003098379233935948
-0.013049917797553977   -0.05394463665251584   -0.002900949532816584
-0.012954888179322232   -0.06540939778722123   -0.0028775460839765383
-0.013084876140136602   -0.05385516429071544   -0.002927964857105533
-0.01957096180103578   -0.05394373447265695   -0.003098379233935948
-0.012954888179322232   -0.06540939778722123   -0.0028775460839765383
-0.01893115652168201   -0.06530159968493204   -0.003043218220435642
-0.019068995412258965   -0.06521139699937144   -0.0029676198097207023
-0.01957096180103578   -0.05394373447265695   -0.003098379233935948
-0.012954888179322232   -0.06540939778722123   -0.0028775460839765383
-0.019068995412258965   -0.06521139699937144   -0.0029676198097207023
-0.013084876140136602   -0.05385516429071544   -0.002927964857105533
-0.01957096180103578   -0.05394373447265695   -0.003098379233935948
-0.01893115652168201   -0.06530159968493204   -0.003043218220435642
-0.013049917797553977   -0.05394463665251584   -0.002900949532816584
-0.019511237049207122   -0.05405993654001561   -0.0031109235311816467
-0.01893115652168201   -0.06530159968493204   -0.003043218220435642
-0.012954888179322232   -0.06540939778722123   -0.0028775460839765383
-0.013049917797553977   -0.05394463665251584   -0.002900949532816584
-0.012851481518737051   -0.06550448274751099   -0.0029060745613200636
-0.019511237049207122   -0.05405993654001561   -0.0031109235311816467
-0.012995309989391076   -0.054043747778396135   -0.0028861264679122746
-0.012851481518737051   -0.06550448274751099   -0.0029060745613200636
-0.013049917797553977   -0.05394463665251584   -0.002900949532816584
-0.019511237049207122   -0.05405993654001561   -0.0031109235311816467
-0.012851481518737051   -0.06550448274751099   -0.0029060745613200636
-0.018773780790494937   -0.06541226868192286   -0.00313848559077032
-0.01893115652168201   -0.06530159968493204   -0.003043218220435642
-0.019511237049207122   -0.05405993654001561   -0.0031109235311816467
-0.012851481518737051   -0.06550448274751099   -0.0029060745613200636
-0.01893115652168201   -0.06530159968493204   -0.003043218220435642
-0.013049917797553977   -0.05394463665251584   -0.002900949532816584
-0.019511237049207122   -0.05405993654001561   -0.0031109235311816467
-0.018773780790494937   -0.06541226868192286   -0.00313848559077032
-0.012995309989391076   -0.054043747778396135   -0.0028861264679122746
-0.019414211960404   -0.05420959970242202   -0.003142607529987783
-0.018773780790494937   -0.06541226868192286   -0.00313848559077032
-0.012851481518737051   -0.06550448274751099   -0.0029060745613200636
-0.012995309989391076   -0.054043747778396135   -0.0028861264679122746
-0.012740518402601812   -0.0656336430955939   -0.0029474790044441736
-0.019414211960404   -0.05420959970242202   -0.003142607529987783
-0.012924542717297633   -0.054159320545988626   -0.002883299443523261
-0.012740518402601812   -0.0656336430955939   -0.0029474790044441736
-0.012995309989391076   -0.054043747778396135   -0.0028861264679122746
-0.019414211960404   -0.05420959970242202   -0.003142607529987783
-0.012740518402601812   -0.0656336430955939   -0.0029474790044441736
-0.01855945512646784   -0.06558070909510982   -0.003253782810095271
-0.018773780790494937   -0.06541226868192286   -0.00313848559077032
-0.019414211960404   -0.05420959970242202   -0.003142607529987783
-0.012740518402601812   -0.0656336430955939   -0.0029474790044441736
-0.018773780790494937   -0.06541226868192286   -0.00313848559077032
-0.012995309989391076   -0.054043747778396135   -0.0028861264679122746
-0.013084876140136602   -0.05385516429071544   -0.002927964857105533
-0.013031250657283253   -0.06534258932980812   -0.0028615233847306743
-0.007123246323103355   -0.05386194279404321   -0.002810917389714408
-0.013049917797553977   -0.05394463665251584   -0.002900949532816584
-0.013031250657283253   -0.06534258932980812   -0.0028615233847306743
-0.00761930271425865   -0.06539453375795509   -0.0027936086452891766
-0.007123246323103355   -0.05386194279404321   -0.002810917389714408
-0.007536135719707016   -0.06542928176715952   -0.002758712498061986
-0.013049917797553977   -0.05394463665251584   -0.002900949532816584
-0.007076416358861952   -0.053913277800959246   -0.0027629898323788178
-0.007536135719707016   -0.06542928176715952   -0.002758712498061986
-0.007123246323103355   -0.05386194279404321   -0.002810917389714408
-0.013049917797553977   -0.05394463665251584   -0.002900949532816584
-0.007536135719707016   -0.06542928176715952   -0.002758712498061986
-0.012954888179322232   -0.06540939778722123   -0.0028775460839765383
-0.013031250657283253   -0.06534258932980812   -0.0028615233847306743
-0.013049917797553977   -0.05394463665251584   -0.002900949532816584
-0.007536135719707016   -0.06542928176715952   -0.002758712498061986
-0.013031250657283253   -0.06534258932980812   -0.0028615233847306743
-0.007123246323103355   -0.05386194279404321   -0.002810917389714408
-0.013049917797553977   -0.05394463665251584   -0.002900949532816584
-0.012954888179322232   -0.06540939778722123   -0.0028775460839765383
-0.007076416358861952   -0.053913277800959246   -0.0027629898323788178
-0.012995309989391076   -0.054043747778396135   -0.0028861264679122746
-0.012954888179322232   -0.06540939778722123   -0.0028775460839765383
-0.007536135719707016   -0.06542928176715952   -0.002758712498061986
-0.007076416358861952   -0.053913277800959246   -0.0027629898323788178
-0.007446667953157241   -0.06549121989932995   -0.0027361700175885678
-0.012995309989391076   -0.054043747778396135   -0.0028861264679122746
-0.0070234920992180054   -0.053975678082891304   -0.002727301214831653
-0.007446667953157241   -0.06549121989932995   -0.0027361700175885678
-0.007076416358861952   -0.053913277800959246   -0.0027629898323788178
-0.012995309989391076   -0.054043747778396135   -0.0028861264679122746
-0.007446667953157241   -0.06549121989932995   -0.0027361700175885678
-0.012851481518737051   -0.06550448274751099   -0.0029060745613200636
-0.012954888179322232   -0.06540939778722123   -0.0028775460839765383
-0.012995309989391076   -0.054043747778396135   -0.0028861264679122746
-0.007446667953157241   -0.06549121989932995   -0.0027361700175885678
-0.012954888179322232   -0.06540939778722123   -0.0028775460839765383
-0.007076416358861952   -0.053913277800959246   -0.0027629898323788178
-0.012995309989391076   -0.054043747778396135   -0.0028861264679122746
-0.012851481518737051   -0.06550448274751099   -0.0029060745613200636
-0.0070234920992180054   -0.053975678082891304   -0.002727301214831653
-0.012924542717297633   -0.054159320545988626   -0.002883299443523261
-0.012851481518737051   -0.06550448274751099   -0.0029060745613200636
-0.007446667953157241   -0.06549121989932995   -0.0027361700175885678
-0.0070234920992180054   -0.053975678082891304   -0.002727301214831653
-0.0073547054878322   -0.06558113271775287   -0.0027265845629746016
-0.012924542717297633   -0.054159320545988626   -0.002883299443523261
-0.006966452478105405   -0.05404933813500452   -0.0027042476916581864
-0.0073547054878322   -0.06558113271775287   -0.0027265845629746016
-0.0070234920992180054   -0.053975678082891304   -0.002727301214831653
-0.012924542717297633   -0.054159320545988626   -0.002883299443523261
-0.0073547054878322   -0.06558113271775287   -0.0027265845629746016
-0.012740518402601812   -0.0656336430955939   -0.0029474790044441736
-0.012851481518737051   -0.06550448274751099   -0.0029060745613200636
-0.012924542717297633   -0.054159320545988626   -0.002883299443523261
-0.0073547054878322   -0.06558113271775287   -0.0027265845629746016
-0.012851481518737051   -0.06550448274751099   -0.0029060745613200636
-0.0070234920992180054   -0.053975678082891304   -0.002727301214831653
-0.007123246323103355   -0.05386194279404321   -0.002810917389714408
-0.00761930271425865   -0.06539453375795509   -0.0027936086452891766
-0.0013302970056765853   -0.05383036370683622   -0.0027630233498288853
-0.007076416358861952   -0.053913277800959246   -0.0027629898323788178
-0.00761930271425865   -0.06539453375795509   -0.0027936086452891766
-0.0023712959424179504   -0.0653547228043288   -0.0027823085671500477
-0.0013302970056765853   -0.05383036370683622   -0.0027630233498288853
-0.002279307021974231   -0.06535555894113336   -0.0026982401491174738
-0.007076416358861952   -0.053913277800959246   -0.0027629898323788178
-0.0012749073413127602   -0.05384228953172186   -0.002695224143533125
-0.002279307021974231   -0.06535555894113336   -0.0026982401491174738
-0.0013302970056765853   -0.05383036370683622   -0.0027630233498288853
-0.007076416358861952   -0.053913277800959246   -0.0027629898323788178
-0.002279307021974231   -0.06535555894113336   -0.0026982401491174738
-0.007536135719707016   -0.06542928176715952   -0.002758712498061986
-0.00761930271425865   -0.06539453375795509   -0.0027936086452891766
-0.007076416358861952   -0.053913277800959246   -0.0027629898323788178
-0.002279307021974231   -0.06535555894113336   -0.0026982401491174738
-0.00761930271425865   -0.06539453375795509   -0.0027936086452891766
-0.0013302970056765853   -0.05383036370683622   -0.0027630233498288853
-0.007076416358861952   -0.053913277800959246   -0.0027629898323788178
-0.007536135719707016   -0.06542928176715952   -0.002758712498061986
-0.0012749073413127602   -0.05384228953172186   -0.002695224143533125
-0.0070234920992180054   -0.053975678082891304   -0.002727301214831653
-0.007536135719707016   -0.06542928176715952   -0.002758712498061986
-0.002279307021974231   -0.06535555894113336   -0.0026982401491174738
-0.0012749073413127602   -0.05384228953172186   -0.002695224143533125
-0.002189731376864083   -0.06538158977107746   -0.002626555419060391
-0.0070234920992180054   -0.053975678082891304   -0.002727301214831653
-0.0012225133173324409   -0.053864412877557104   -0.0026395767537617807
-0.002189731376864083   -0.06538158977107746   -0.002626555419060391
-0.0012749073413127602   -0.05384228953172186   -0.002695224143533125
-0.0070234920992180054   -0.053975678082891304   -0.002727301214831653
-0.002189731376864083   -0.06538158977107746   -0.002626555419060391
-0.007446667953157241   -0.06549121989932995   -0.0027361700175885678
-0.007536135719707016   -0.06542928176715952   -0.002758712498061986
-0.0070234920992180054   -0.053975678082891304   -0.002727301214831653
-0.002189731376864083   -0.06538158977107746   -0.002626555419060391
-0.007536135719707016   -0.06542928176715952   -0.002758712498061986
-0.0012749073413127602   -0.05384228953172186   -0.002695224143533125
-0.0070234920992180054   -0.053975678082891304   -0.002727301214831653
-0.007446667953157241   -0.06549121989932995   -0.0027361700175885678
-0.0012225133173324409   -0.053864412877557104   -0.0026395767537617807
-0.006966452478105405   -0.05404933813500452   -0.0027042476916581864
-0.007446667953157241   -0.06549121989932995   -0.0027361700175885678
-0.002189731376864083   -0.06538158977107746   -0.002626555419060391
-0.0012225133173324409   -0.053864412877557104   -0.0026395767537617807
-0.002109816335213538   -0.0654349750923254   -0.002567685132749548
-0.006966452478105405   -0.05404933813500452   -0.0027042476916581864
-0.0011780542486522591   -0.05389723926671584   -0.002596505895984282
-0.002109816335213538   -0.0654349750923254   -0.002567685132749548
-0.0012225133173324409   -0.053864412877557104   -0.0026395767537617807
-0.006966452478105405   -0.05404933813500452   -0.0027042476916581864
-0.002109816335213538   -0.0654349750923254   -0.002567685132749548
-0.0073547054878322   -0.06558113271775287   -0.0027265845629746016
-0.007446667953157241   -0.06549121989932995   -0.0027361700175885678
-0.006966452478105405   -0.05404933813500452   -0.0027042476916581864
-0.002109816335213538   -0.0654349750923254   -0.002567685132749548
-0.007446667953157241   -0.06549121989932995   -0.0027361700175885678
-0.0012225133173324409   -0.053864412877557104   -0.0026395767537617807
-0.0013302970056765853   -0.05383036370683622   -0.0027630233498288853
-0.0023712959424179504   -0.0653547228043288   -0.0027823085671500477
0.00463713215952584   -0.053760156241670146   -0.0027865636212349876
-0.0012749073413127602   -0.05384228953172186   -0.002695224143533125
-0.0023712959424179504   -0.0653547228043288   -0.0027823085671500477
0.0030578036313158173   -0.0652258771857669   -0.0028320684791703086
0.00463713215952584   -0.053760156241670146   -0.0027865636212349876
0.00317027126578673   -0.06519051638890666   -0.0026992942865437667
-0.0012749073413127602   -0.05384228953172186   -0.002695224143533125
0.004707791426182647   -0.05373254456449629   -0.002699247344597695
0.00317027126578673   -0.06519051638890666   -0.0026992942865437667
0.00463713215952584   -0.053760156241670146   -0.0027865636212349876
-0.0012749073413127602   -0.05384228953172186   -0.002695224143533125
0.00317027126578673   -0.06519051638890666   -0.0026992942865437667
-0.002279307021974231   -0.06535555894113336   -0.0026982401491174738
-0.0023712959424179504   -0.0653547228043288   -0.0027823085671500477
-0.0012749073413127602   -0.05384228953172186   -0.002695224143533125
0.00317027126578673   -0.06519051638890666   -0.0026992942865437667
-0.0023712959424179504   -0.0653547228043288   -0.0027823085671500477
0.00463713215952584   -0.053760156241670146   -0.0027865636212349876
-0.0012749073413127602   -0.05384228953172186   -0.002695224143533125
-0.002279307021974231   -0.06535555894113336   -0.0026982401491174738
0.004707791426182647   -0.05373254456449629   -0.002699247344597695
-0.0012225133173324409   -0.053864412877557104   -0.0026395767537617807
-0.002279307021974231   -0.06535555894113336   -0.0026982401491174738
0.00317027126578673   -0.06519051638890666   -0.0026992942865437667
0.004707791426182647   -0.05373254456449629   -0.002699247344597695
0.003285580667673413   -0.06518393794770705   -0.0025796978368611864
-0.0012225133173324409   -0.053864412877557104   -0.0026395767537617807
0.004773071113110948   -0.053718188165160545   -0.002624046863442754
0.003285580667673413   -0.06518393794770705   -0.0025796978368611864
0.004707791426182647   -0.05373254456449629   -0.002699247344597695
-0.0012225133173324409   -0.053864412877557104   -0.0026395767537617807
0.003285580667673413   -0.06518393794770705   -0.0025796978368611864
-0.002189731376864083   -0.06538158977107746   -0.002626555419060391
-0.002279307021974231   -0.06535555894113336   -0.0026982401491174738
-0.0012225133173324409   -0.053864412877557104   -0.0026395767537617807
0.003285580667673413   -0.06518393794770705   -0.0025796978368611864
-0.002279307021974231   -0.06535555894113336   -0.0026982401491174738
0.004707791426182647   -0.05373254456449629   -0.002699247344597695
-0.0012225133173324409   -0.053864412877557104   -0.0026395767537617807
-0.002189731376864083   -0.06538158977107746   -0.002626555419060391
0.004773071113110948   -0.053718188165160545   -0.002624046863442754
-0.0011780542486522591   -0.05389723926671584   -0.002596505895984282
-0.002189731376864083   -0.06538158977107746   -0.002626555419060391
0.003285580667673413   -0.06518393794770705   -0.0025796978368611864
0.004773071113110948   -0.053718188165160545   -0.002624046863442754
0.0033622422940983387   -0.06520082832261999   -0.0024715416527911287
-0.0011780542486522591   -0.05389723926671584   -0.002596505895984282
0.004808044522377238   -0.05371012286929161   -0.002560171209170878
0.0033622422940983387   -0.06520082832261999   -0.0024715416527911287
0.004773071113110948   -0.053718188165160545   -0.002624046863442754
-0.0011780542486522591   -0.05389723926671584   -0.002596505895984282
0.0033622422940983387   -0.06520082832261999   -0.0024715416527911287
-0.002109816335213538   -0.0654349750923254   -0.002567685132749548
-0.002189731376864083   -0.06538158977107746   -0.002626555419060391
-0.0011780542486522591   -0.05389723926671584   -0.002596505895984282
0.0033622422940983387   -0.06520082832261999   -0.0024715416527911287
-0.002189731376864083   -0.06538158977107746   -0.002626555419060391
0.004773071113110948   -0.053718188165160545   -0.002624046863442754
0.00463713215952584   -0.053760156241670146   -0.0027865636212349876
0.0030578036313158173   -0.0652258771857669   -0.0028320684791703086
0.011026542741692432   -0.05364221293407139   -0.0028852581331681574
0.004707791426182647   -0.05373254456449629   -0.002699247344597695
0.0030578036313158173   -0.0652258771857669   -0.0028320684791703086
0.00883382016561772   -0.06500437462049811   -0.002960629922417077
0.011026542741692432   -0.05364221293407139   -0.0028852581331681574
0.009133028446316374   -0.06493144195437725   -0.002767452476447344
0.004707791426182647   -0.05373254456449629   -0.002699247344597695
0.011211028212815015   -0.05357876474353695   -0.0027706737630489426
0.009133028446316374   -0.06493144195437725   -0.002767452476447344
0.011026542741692432   -0.05364221293407139   -0.0028852581331681574
0.004707791426182647   -0.05373254456449629   -0.002699247344597695
0.009133028446316374   -0.06493144195437725   -0.002767452476447344
0.00317027126578673   -0.06519051638890666   -0.0026992942865437667
0.0030578036313158173   -0.0652258771857669   -0.0028320684791703086
0.004707791426182647   -0.05373254456449629   -0.002699247344597695
0.009133028446316374   -0.06493144195437725   -0.002767452476447344
0.0030578036313158173   -0.0652258771857669   -0.0028320684791703086
0.011026542741692432   -0.05364221293407139   -0.0028852581331681574
0.004707791426182647   -0.05373254456449629   -0.002699247344597695
0.00317027126578673   -0.06519051638890666   -0.0026992942865437667
0.011211028212815015   -0.05357876474353695   -0.0027706737630489426
0.004773071113110948   -0.053718188165160545   -0.002624046863442754
0.00317027126578673   -0.06519051638890666   -0.0026992942865437667
0.009133028446316374   -0.06493144195437725   -0.002767452476447344
0.011211028212815015   -0.05357876474353695   -0.0027706737630489426
0.009354561003815345   -0.0649114037930209   -0.002591797686140982
0.004773071113110948   -0.053718188165160545   -0.002624046863442754
0.011337740234505594   -0.05354799911447249   -0.002673341754523491
0.009354561003815345   -0.0649114037930209   -0.002591797686140982
0.011211028212815015   -0.05357876474353695   -0.0027706737630489426
0.004773071113110948   -0.053718188165160545   -0.002624046863442754
0.009354561003815345   -0.0649114037930209   -0.002591797686140982
0.003285580667673413   -0.06518393794770705   -0.0025796978368611864
0.00317027126578673   -0.06519051638890666   -0.0026992942865437667
0.004773071113110948   -0.053718188165160545   -0.002624046863442754
0.009354561003815345   -0.0649114037930209   -0.002591797686140982
0.00317027126578673   -0.06519051638890666   -0.0026992942865437667
0.011211028212815015   -0.05357876474353695   -0.0027706737630489426
0.004773071113110948   -0.053718188165160545   -0.002624046863442754
0.003285580667673413   -0.06518393794770705   -0.0025796978368611864
0.011337740234505594   -0.05354799911447249   -0.002673341754523491
0.004808044522377238   -0.05371012286929161   -0.002560171209170878
0.003285580667673413   -0.06518393794770705   -0.0025796978368611864
0.009354561003815345   -0.0649114037930209   -0.002591797686140982
0.011337740234505594   -0.05354799911447249   -0.002673341754523491
0.009579100326287284   -0.06491120057824547   -0.0024344625723424058
0.004808044522377238   -0.05371012286929161   -0.002560171209170878
0.011450180793062929   -0.05351448518127123   -0.0025939777815914126
0.009579100326287284   -0.06491120057824547   -0.0024344625723424058
0.011337740234505594   -0.05354799911447249   -0.002673341754523491
0.004808044522377238   -0.05371012286929161   -0.002560171209170878
0.009579100326287284   -0.06491120057824547   -0.0024344625723424058
0.0033622422940983387   -0.06520082832261999   -0.0024715416527911287
0.003285580667673413   -0.06518393794770705   -0.0025796978368611864
0.004808044522377238   -0.05371012286929161   -0.002560171209170878
0.009579100326287284   -0.06491120057824547   -0.0024344625723424058
0.003285580667673413   -0.06518393794770705   -0.0025796978368611864
0.011337740234505594   -0.05354799911447249   -0.002673341754523491
-0.019068995412258965   -0.06521139699937144   -0.0029676198097207023
-0.01740259373909573   -0.07528846568716638   -0.0027672993085213734
-0.013031250657283253   -0.06534258932980812   -0.0028615233847306743
-0.01893115652168201   -0.06530159968493204   -0.003043218220435642
-0.01740259373909573   -0.07528846568716638   -0.0027672993085213734
-0.012320783845112092   -0.0755252456005586   -0.0027501638590311734
-0.013031250657283253   -0.06534258932980812   -0.0028615233847306743
-0.012193911405107064   -0.07555949999350653   -0.00280613918713928
-0.01893115652168201   -0.06530159968493204   -0.003043218220435642
-0.012954888179322232   -0.06540939778722123   -0.0028775460839765383
-0.012193911405107064   -0.07555949999350653   -0.00280613918713928
-0.013031250657283253   -0.06534258932980812   -0.0028615233847306743
-0.01893115652168201   -0.06530159968493204   -0.003043218220435642
-0.012193911405107064   -0.07555949999350653   -0.00280613918713928
-0.01713841567410488   -0.07533930818721411   -0.002923967450281647
-0.01740259373909573   -0.07528846568716638   -0.0027672993085213734
-0.01893115652168201   -0.06530159968493204   -0.003043218220435642
-0.012193911405107064   -0.07555949999350653   -0.00280613918713928
-0.01740259373909573   -0.07528846568716638   -0.0027672993085213734
-0.013031250657283253   -0.06534258932980812   -0.0028615233847306743
-0.01893115652168201   -0.06530159968493204   -0.003043218220435642
-0.01713841567410488   -0.07533930818721411   -0.002923967450281647
-0.012954888179322232   -0.06540939778722123   -0.0028775460839765383
-0.018773780790494937   -0.06541226868192286   -0.00313848559077032
-0.01713841567410488   -0.07533930818721411   -0.002923967450281647
-0.012193911405107064   -0.07555949999350653   -0.00280613918713928
-0.012954888179322232   -0.06540939778722123   -0.0028775460839765383
-0.012034559679658215   -0.07564153149544112   -0.002874810713017906
-0.018773780790494937   -0.06541226868192286   -0.00313848559077032
-0.012851481518737051   -0.06550448274751099   -0.0029060745613200636
-0.012034559679658215   -0.07564153149544112   -0.002874810713017906
-0.012954888179322232   -0.06540939778722123   -0.0028775460839765383
-0.018773780790494937   -0.06541226868192286   -0.00313848559077032
-0.012034559679658215   -0.07564153149544112   -0.002874810713017906
-0.016874871000121836   -0.07543557635426477   -0.0031013092665382997
-0.01713841567410488   -0.07533930818721411   -0.002923967450281647
-0.018773780790494937   -0.06541226868192286   -0.00313848559077032
-0.012034559679658215   -0.07564153149544112   -0.002874810713017906
-0.01713841567410488   -0.07533930818721411   -0.002923967450281647
-0.012954888179322232   -0.06540939778722123   -0.0028775460839765383
-0.018773780790494937   -0.06541226868192286   -0.00313848559077032
-0.016874871000121836   -0.07543557635426477   -0.0031013092665382997
-0.012851481518737051   -0.06550448274751099   -0.0029060745613200636
-0.01855945512646784   -0.06558070909510982   -0.003253782810095271
-0.016874871000121836   -0.07543557635426477   -0.0031013092665382997
-0.012034559679658215   -0.07564153149544112   -0.002874810713017906
-0.012851481518737051   -0.06550448274751099   -0.0029060745613200636
-0.011877323110473563   -0.07577599872340887   -0.002956059343933172
-0.01855945512646784   -0.06558070909510982   -0.003253782810095271
-0.012740518402601812   -0.0656336430955939   -0.0029474790044441736
-0.011877323110473563   -0.07577599872340887   -0.002956059343933172
-0.012851481518737051   -0.06550448274751099   -0.0029060745613200636
-0.01855945512646784   -0.06558070909510982   -0.003253782810095271
-0.011877323110473563   -0.07577599872340887   -0.002956059343933172
-0.016537276572625763   -0.0756150874803183   -0.0032989407697343502
-0.016874871000121836   -0.07543557635426477   -0.0031013092665382997
-0.01855945512646784   -0.06558070909510982   -0.003253782810095271
-0.011877323110473563   -0.07577599872340887   -0.002956059343933172
-0.016874871000121836   -0.07543557635426477   -0.0031013092665382997
-0.012851481518737051   -0.06550448274751099   -0.0029060745613200636
-0.013031250657283253   -0.06534258932980812   -0.0028615233847306743
-0.012320783845112092   -0.0755252456005586   -0.0027501638590311734
-0.00761930271425865   -0.06539453375795509   -0.0027936086452891766
-0.012954888179322232   -0.06540939778722123   -0.0028775460839765383
-0.012320783845112092   -0.0755252456005586   -0.0027501638590311734
-0.00792103768741941   -0.07563623198458198   -0.0027433419914008675
-0.00761930271425865   -0.06539453375795509   -0.0027936086452891766
-0.0077908544712242565   -0.07564747651375157   -0.002718311652707845
-0.012954888179322232   -0.06540939778722123   -0.0028775460839765383
-0.007536135719707016   -0.06542928176715952   -0.002758712498061986
-0.0077908544712242565   -0.07564747651375157   -0.002718311652707845
-0.00761930271425865   -0.06539453375795509   -0.0027936086452891766
-0.012954888179322232   -0.06540939778722123   -0.0028775460839765383
-0.0077908544712242565   -0.07564747651375157   -0.002718311652707845
-0.012193911405107064   -0.07555949999350653   -0.00280613918713928
-0.012320783845112092   -0.0755252456005586   -0.0027501638590311734
-0.012954888179322232   -0.06540939778722123   -0.0028775460839765383
-0.0077908544712242565   -0.07564747651375157   -0.002718311652707845
-0.012320783845112092   -0.0755252456005586   -0.0027501638590311734
-0.00761930271425865   -0.06539453375795509   -0.0027936086452891766
-0.012954888179322232   -0.06540939778722123   -0.0028775460839765383
-0.012193911405107064   -0.07555949999350653   -0.00280613918713928
-0.007536135719707016   -0.06542928176715952   -0.002758712498061986
-0.012851481518737051   -0.06550448274751099   -0.0029060745613200636
-0.012193911405107064   -0.07555949999350653   -0.00280613918713928
-0.0077908544712242565   -0.07564747651375157   -0.002718311652707845
-0.007536135719707016   -0.06542928176715952   -0.002758712498061986
-0.007656495169001244   -0.07570137878780908   -0.0027056016919262296
-0.012851481518737051   -0.06550448274751099   -0.0029060745613200636
-0.007446667953157241   -0.06549121989932995   -0.0027361700175885678
-0.007656495169001244   -0.07570137878780908   -0.0027056016919262296
-0.007536135719707016   -0.06542928176715952   -0.002758712498061986
-0.012851481518737051   -0.06550448274751099   -0.0029060745613200636
-0.007656495169001244   -0.07570137878780908   -0.0027056016919262296
-0.012034559679658215   -0.07564153149544112   -0.002874810713017906
-0.012193911405107064   -0.07555949999350653   -0.00280613918713928
-0.012851481518737051   -0.06550448274751099   -0.0029060745613200636
-0.007656495169001244   -0.07570137878780908   -0.0027056016919262296
-0.012193911405107064   -0.07555949999350653   -0.00280613918713928
-0.007536135719707016   -0.06542928176715952   -0.002758712498061986
-0.012851481518737051   -0.06550448274751099   -0.0029060745613200636
-0.012034559679658215   -0.07564153149544112   -0.002874810713017906
-0.007446667953157241   -0.06549121989932995   -0.0027361700175885678
-0.012740518402601812   -0.0656336430955939   -0.0029474790044441736
-0.012034559679658215   -0.07564153149544112   -0.002874810713017906
-0.007656495169001244   -0.07570137878780908   -0.0027056016919262296
-0.007446667953157241   -0.06549121989932995   -0.0027361700175885678
-0.007522358495219065   -0.0758004594883106   -0.0027050519253264023
-0.012740518402601812   -0.0656336430955939   -0.0029474790044441736
-0.0073547054878322   -0.06558113271775287   -0.0027265845629746016
-0.007522358495219065   -0.0758004594883106   -0.0027050519253264023
-0.007446667953157241   -0.06549121989932995   -0.0027361700175885678
-0.012740518402601812   -0.0656336430955939   -0.0029474790044441736
-0.007522358495219065   -0.0758004594883106   -0.0027050519253264023
-0.011877323110473563   -0.07577599872340887   -0.002956059343933172
-0.012034559679658215   -0.07564153149544112   -0.002874810713017906
-0.012740518402601812   -0.0656336430955939   -0.0029474790044441736
-0.007522358495219065   -0.0758004594883106   -0.0027050519253264023
-0.012034559679658215   -0.07564153149544112   -0.002874810713017906
-0.007446667953157241   -0.06549121989932995   -0.0027361700175885678
-0.00761930271425865   -0.06539453375795509   -0.0027936086452891766
-0.00792103768741941   -0.07563623198458198   -0.0027433419914008675
-0.0023712959424179504   -0.0653547228043288   -0.0027823085671500477
-0.007536135719707016   -0.06542928176715952   -0.002758712498061986
-0.00792103768741941   -0.07563623198458198   -0.0027433419914008675
-0.003667405268319445   -0.0756162296969855   -0.002774845828409171
-0.0023712959424179504   -0.0653547228043288   -0.0027823085671500477
-0.003524807777112094   -0.07560163751483939   -0.002671653541471165
-0.007536135719707016   -0.06542928176715952   -0.002758712498061986
-0.002279307021974231   -0.06535555894113336   -0.0026982401491174738
-0.003524807777112094   -0.07560163751483939   -0.002671653541471165
-0.0023712959424179504   -0.0653547228043288   -0.0027823085671500477
-0.007536135719707016   -0.06542928176715952   -0.002758712498061986
-0.003524807777112094   -0.07560163751483939   -0.002671653541471165
-0.0077908544712242565   -0.07564747651375157   -0.002718311652707845
-0.00792103768741941   -0.07563623198458198   -0.0027433419914008675
-0.007536135719707016   -0.06542928176715952   -0.002758712498061986
-0.003524807777112094   -0.07560163751483939   -0.002671653541471165
-0.00792103768741941   -0.07563623198458198   -0.0027433419914008675
-0.0023712959424179504   -0.0653547228043288   -0.0027823085671500477
-0.007536135719707016   -0.06542928176715952   -0.002758712498061986
-0.0077908544712242565   -0.07564747651375157   -0.002718311652707845
-0.002279307021974231   -0.06535555894113336   -0.0026982401491174738
-0.007446667953157241   -0.06549121989932995   -0.0027361700175885678
-0.0077908544712242565   -0.07564747651375157   -0.002718311652707845
-0.003524807777112094   -0.07560163751483939   -0.002671653541471165
-0.002279307021974231   -0.06535555894113336   -0.0026982401491174738
-0.003386423489771327   -0.07562561035239146   -0.002581593879262387
-0.007446667953157241   -0.06549121989932995   -0.0027361700175885678
-0.002189731376864083   -0.06538158977107746   -0.002626555419060391
-0.003386423489771327   -0.07562561035239146   -0.002581593879262387
-0.002279307021974231   -0.06535555894113336   -0.0026982401491174738
-0.007446667953157241   -0.06549121989932995   -0.0027361700175885678
-0.003386423489771327   -0.07562561035239146   -0.002581593879262387
-0.007656495169001244   -0.07570137878780908   -0.0027056016919262296
-0.0077908544712242565   -0.07564747651375157   -0.002718311652707845
-0.007446667953157241   -0.06549121989932995   -0.0027361700175885678
-0.003386423489771327   -0.07562561035239146   -0.002581593879262387
-0.0077908544712242565   -0.07564747651375157   -0.002718311652707845
-0.002279307021974231   -0.06535555894113336   -0.0026982401491174738
-0.007446667953157241   -0.06549121989932995   -0.0027361700175885678
-0.007656495169001244   -0.07570137878780908   -0.0027056016919262296
-0.002189731376864083   -0.06538158977107746   -0.002626555419060391
-0.0073547054878322   -0.06558113271775287   -0.0027265845629746016
-0.007656495169001244   -0.07570137878780908   -0.0027056016919262296
-0.003386423489771327   -0.07562561035239146   -0.002581593879262387
-0.002189731376864083   -0.06538158977107746   -0.002626555419060391
-0.003261405908219922   -0.075693758077402   -0.002503528389260211
-0.0073547054878322   -0.06558113271775287   -0.0027265845629746016
-0.002109816335213538   -0.0654349750923254   -0.002567685132749548
-0.003261405908219922   -0.075693758077402   -0.002503528389260211
-0.002189731376864083   -0.06538158977107746   -0.002626555419060391
-0.0073547054878322   -0.06558113271775287   -0.0027265845629746016
-0.003261405908219922   -0.075693758077402   -0.002503528389260211
-0.007522358495219065   -0.0758004594883106   -0.0027050519253264023
-0.007656495169001244   -0.07570137878780908   -0.0027056016919262296
-0.0073547054878322   -0.06558113271775287   -0.0027265845629746016
-0.003261405908219922   -0.075693758077402   -0.002503528389260211
-0.007656495169001244   -0.07570137878780908   -0.0027056016919262296
-0.002189731376864083   -0.06538158977107746   -0.002626555419060391
-0.0023712959424179504   -0.0653547228043288   -0.0027823085671500477
-0.003667405268319445   -0.0756162296969855   -0.002774845828409171
0.0030578036313158173   -0.0652258771857669   -0.0028320684791703086
-0.002279307021974231   -0.06535555894113336   -0.0026982401491174738
-0.003667405268319445   -0.0756162296969855   -0.002774845828409171
0.0007859262813684371   -0.07546055572399765   -0.002851614522630535
0.0030578036313158173   -0.0652258771857669   -0.0028320684791703086
0.0009593813576805917   -0.07541314124956203   -0.0026705330318540243
-0.002279307021974231   -0.06535555894113336   -0.0026982401491174738
0.00317027126578673   -0.06519051638890666   -0.0026992942865437667
0.0009593813576805917   -0.07541314124956203   -0.0026705330318540243
0.0030578036313158173   -0.0652258771857669   -0.0028320684791703086
-0.002279307021974231   -0.06535555894113336   -0.0026982401491174738
0.0009593813576805917   -0.07541314124956203   -0.0026705330318540243
-0.003524807777112094   -0.07560163751483939   -0.002671653541471165
-0.003667405268319445   -0.0756162296969855   -0.002774845828409171
-0.002279307021974231   -0.06535555894113336   -0.0026982401491174738
0.0009593813576805917   -0.07541314124956203   -0.0026705330318540243
-0.003667405268319445   -0.0756162296969855   -0.002774845828409171
0.0030578036313158173   -0.0652258771857669   -0.0028320684791703086
-0.002279307021974231   -0.06535555894113336   -0.0026982401491174738
-0.003524807777112094   -0.07560163751483939   -0.002671653541471165
0.00317027126578673   -0.06519051638890666   -0.0026992942865437667
-0.002189731376864083   -0.06538158977107746   -0.002626555419060391
-0.003524807777112094   -0.07560163751483939   -0.002671653541471165
0.0009593813576805917   -0.07541314124956203   -0.0026705330318540243
0.00317027126578673   -0.06519051638890666   -0.0026992942865437667
0.0011421503658273285   -0.07540884566155645   -0.0025061008895447497
-0.002189731376864083   -0.06538158977107746   -0.002626555419060391
0.003285580667673413   -0.06518393794770705   -0.0025796978368611864
0.0011421503658273285   -0.07540884566155645   -0.0025061008895447497
0.00317027126578673   -0.06519051638890666   -0.0026992942865437667
-0.002189731376864083   -0.06538158977107746   -0.002626555419060391
0.0011421503658273285   -0.07540884566155645   -0.0025061008895447497
-0.003386423489771327   -0.07562561035239146   -0.002581593879262387
-0.003524807777112094   -0.07560163751483939   -0.002671653541471165
-0.002189731376864083   -0.06538158977107746   -0.002626555419060391
0.0011421503658273285   -0.07540884566155645   -0.0025061008895447497
-0.003524807777112094   -0.07560163751483939   -0.002671653541471165
0.00317027126578673   -0.06519051638890666   -0.0026992942865437667
-0.002189731376864083   -0.06538158977107746   -0.002626555419060391
-0.003386423489771327   -0.07562561035239146   -0.002581593879262387
0.003285580667673413   -0.06518393794770705   -0.0025796978368611864
-0.002109816335213538   -0.0654349750923254   -0.002567685132749548
-0.003386423489771327   -0.07562561035239146   -0.002581593879262387
0.0011421503658273285   -0.07540884566155645   -0.0025061008895447497
0.003285580667673413   -0.06518393794770705   -0.0025796978368611864
0.0012758220335445977   -0.07544571065984584   -0.002353133701374187
-0.002109816335213538   -0.0654349750923254   -0.002567685132749548
0.0033622422940983387   -0.06520082832261999   -0.0024715416527911287
0.0012758220335445977   -0.07544571065984584   -0.002353133701374187
0.003285580667673413   -0.06518393794770705   -0.0025796978368611864
-0.002109816335213538   -0.0654349750923254   -0.002567685132749548
0.0012758220335445977   -0.07544571065984584   -0.002353133701374187
-0.003261405908219922   -0.075693758077402   -0.002503528389260211
-0.003386423489771327   -0.07562561035239146   -0.002581593879262387
-0.002109816335213538   -0.0654349750923254   -0.002567685132749548
0.0012758220335445977   -0.07544571065984584   -0.002353133701374187
-0.003386423489771327   -0.07562561035239146   -0.002581593879262387
0.003285580667673413   -0.06518393794770705   -0.0025796978368611864
0.0030578036313158173   -0.0652258771857669   -0.0028320684791703086
0.0007859262813684371   -0.07546055572399765   -0.002851614522630535
0.00883382016561772   -0.06500437462049811   -0.002960629922417077
0.00317027126578673   -0.06519051638890666   -0.0026992942865437667
0.0007859262813684371   -0.07546055572399765   -0.002851614522630535
0.0055344044402451395   -0.07515443809150704   -0.0030158773888321415
0.00883382016561772   -0.06500437462049811   -0.002960629922417077
0.005973513838222118   -0.075063415217246   -0.002738749599386349
0.00317027126578673   -0.06519051638890666   -0.0026992942865437667
0.009133028446316374   -0.06493144195437725   -0.002767452476447344
0.005973513838222118   -0.075063415217246   -0.002738749599386349
0.00883382016561772   -0.06500437462049811   -0.002960629922417077
0.00317027126578673   -0.06519051638890666   -0.0026992942865437667
0.005973513838222118   -0.075063415217246   -0.002738749599386349
0.0009593813576805917   -0.07541314124956203   -0.0026705330318540243
0.0007859262813684371   -0.07546055572399765   -0.002851614522630535
0.00317027126578673   -0.06519051638890666   -0.0026992942865437667
0.005973513838222118   -0.075063415217246   -0.002738749599386349
0.0007859262813684371   -0.07546055572399765   -0.002851614522630535
0.00883382016561772   -0.06500437462049811   -0.002960629922417077
0.00317027126578673   -0.06519051638890666   -0.0026992942865437667
0.0009593813576805917   -0.07541314124956203   -0.0026705330318540243
0.009133028446316374   -0.06493144195437725   -0.002767452476447344
0.003285580667673413   -0.06518393794770705   -0.0025796978368611864
0.0009593813576805917   -0.07541314124956203   -0.0026705330318540243
0.005973513838222118   -0.075063415217246   -0.002738749599386349
0.009133028446316374   -0.06493144195437725   -0.002767452476447344
0.006310173410272629   -0.07504765485528105   -0.0024822676758049092
0.003285580667673413   -0.06518393794770705   -0.0025796978368611864
0.009354561003815345   -0.0649114037930209   -0.002591797686140982
0.006310173410272629   -0.07504765485528105   -0.0024822676758049092
0.009133028446316374   -0.06493144195437725   -0.002767452476447344
0.003285580667673413   -0.06518393794770705   -0.0025796978368611864
0.006310173410272629   -0.07504765485528105   -0.0024822676758049092
0.0011421503658273285   -0.07540884566155645   -0.0025061008895447497
0.0009593813576805917   -0.07541314124956203   -0.0026705330318540243
0.003285580667673413   -0.06518393794770705   -0.0025796978368611864
0.006310173410272629   -0.07504765485528105   -0.0024822676758049092
0.0009593813576805917   -0.07541314124956203   -0.0026705330318540243
0.009133028446316374   -0.06493144195437725   -0.002767452476447344
0.003285580667673413   -0.06518393794770705   -0.0025796978368611864
0.0011421503658273285   -0.07540884566155645   -0.0025061008895447497
0.009354561003815345   -0.0649114037930209   -0.002591797686140982
0.0033622422940983387   -0.06520082832261999   -0.0024715416527911287
0.0011421503658273285   -0.07540884566155645   -0.0025061008895447497
0.006310173410272629   -0.07504765485528105   -0.0024822676758049092
0.009354561003815345   -0.0649114037930209   -0.002591797686140982
0.0066588706454772965   -0.07507461392101618   -0.0022485288661854255
0.0033622422940983387   -0.06520082832261999   -0.0024715416527911287
0.009579100326287284   -0.06491120057824547   -0.0024344625723424058
0.0066588706454772965   -0.07507461392101618   -0.0022485288661854255
0.009354561003815345   -0.0649114037930209   -0.002591797686140982
0.0033622422940983387   -0.06520082832261999   -0.0024715416527911287
0.0066588706454772965   -0.07507461392101618   -0.0022485288661854255
0.0012758220335445977   -0.07544571065984584   -0.002353133701374187
0.0011421503658273285   -0.07540884566155645   -0.0025061008895447497
0.0033622422940983387   -0.06520082832261999   -0.0024715416527911287
0.0066588706454772965   -0.07507461392101618   -0.0022485288661854255
0.0011421503658273285   -0.07540884566155645   -0.0025061008895447497
0.009354561003815345   -0.0649114037930209   -0.002591797686140982
-0.01740259373909573   -0.07528846568716638   -0.0027672993085213734
-0.014573193982719935   -0.08319886206689879   -0.0025106074390119255
-0.012320783845112092   -0.0755252456005586   -0.0027501638590311734
-0.01713841567410488   -0.07533930818721411   -0.002923967450281647
-0.014573193982719935   -0.08319886206689879   -0.0025106074390119255
-0.010956881787009098   -0.08354961482687936   -0.002615840614863145
-0.012320783845112092   -0.0755252456005586   -0.0027501638590311734
-0.010774021063005231   -0.08353150341775707   -0.0027019921189054977
-0.01713841567410488   -0.07533930818721411   -0.002923967450281647
-0.012193911405107064   -0.07555949999350653   -0.00280613918713928
-0.010774021063005231   -0.08353150341775707   -0.0027019921189054977
-0.012320783845112092   -0.0755252456005586   -0.0027501638590311734
-0.01713841567410488   -0.07533930818721411   -0.002923967450281647
-0.010774021063005231   -0.08353150341775707   -0.0027019921189054977
-0.014179184422335777   -0.08318895983349443   -0.002742901161140159
-0.014573193982719935   -0.08319886206689879   -0.0025106074390119255
-0.01713841567410488   -0.07533930818721411   -0.002923967450281647
-0.010774021063005231   -0.08353150341775707   -0.0027019921189054977
-0.014573193982719935   -0.08319886206689879   -0.0025106074390119255
-0.012320783845112092   -0.0755252456005586   -0.0027501638590311734
-0.01713841567410488   -0.07533930818721411   -0.002923967450281647
-0.014179184422335777   -0.08318895983349443   -0.002742901161140159
-0.012193911405107064   -0.07555949999350653   -0.00280613918713928
-0.016874871000121836   -0.07543557635426477   -0.0031013092665382997
-0.014179184422335777   -0.08318895983349443   -0.002742901161140159
-0.010774021063005231   -0.08353150341775707   -0.0027019921189054977
-0.012193911405107064   -0.07555949999350653   -0.00280613918713928
-0.010558977177781143   -0.08358190998759446   -0.0028011205132512686
-0.016874871000121836   -0.07543557635426477   -0.0031013092665382997
-0.012034559679658215   -0.07564153149544112   -0.002874810713017906
-0.010558977177781143   -0.08358190998759446   -0.0028011205132512686
-0.012193911405107064   -0.07555949999350653   -0.00280613918713928
-0.016874871000121836   -0.07543557635426477   -0.0031013092665382997
-0.010558977177781143   -0.08358190998759446   -0.0028011205132512686
-0.013815961228647708   -0.08325125253213012   -0.0029934688192354924
-0.014179184422335777   -0.08318895983349443   -0.002742901161140159
-0.016874871000121836   -0.07543557635426477   -0.0031013092665382997
-0.010558977177781143   -0.08358190998759446   -0.0028011205132512686
-0.014179184422335777   -0.08318895983349443   -0.002742901161140159
-0.012193911405107064   -0.07555949999350653   -0.00280613918713928
-0.016874871000121836   -0.07543557635426477   -0.0031013092665382997
-0.013815961228647708   -0.08325125253213012   -0.0029934688192354924
-0.012034559679658215   -0.07564153149544112   -0.002874810713017906
-0.016537276572625763   -0.0756150874803183   -0.0032989407697343502
-0.013815961228647708   -0.08325125253213012   -0.0029934688192354924
-0.010558977177781143   -0.08358190998759446   -0.0028011205132512686
-0.012034559679658215   -0.07564153149544112   -0.002874810713017906
-0.010363888591495807   -0.08370197862727981   -0.002912395189374927
-0.016537276572625763   -0.0756150874803183   -0.0032989407697343502
-0.011877323110473563   -0.07577599872340887   -0.002956059343933172
-0.010363888591495807   -0.08370197862727981   -0.002912395189374927
-0.012034559679658215   -0.07564153149544112   -0.002874810713017906
-0.016537276572625763   -0.0756150874803183   -0.0032989407697343502
-0.010363888591495807   -0.08370197862727981   -0.002912395189374927
-0.01337297174131793   -0.08341770448654172   -0.003261230546553224
-0.013815961228647708   -0.08325125253213012   -0.0029934688192354924
-0.016537276572625763   -0.0756150874803183   -0.0032989407697343502
-0.010363888591495807   -0.08370197862727981   -0.002912395189374927
-0.013815961228647708   -0.08325125253213012   -0.0029934688192354924
-0.012034559679658215   -0.07564153149544112   -0.002874810713017906
-0.012320783845112092   -0.0755252456005586   -0.0027501638590311734
-0.010956881787009098   -0.08354961482687936   -0.002615840614863145
-0.00792103768741941   -0.07563623198458198   -0.0027433419914008675
-0.012193911405107064   -0.07555949999350653   -0.00280613918713928
-0.010956881787009098   -0.08354961482687936   -0.002615840614863145
-0.008002883152464575   -0.0837771778382902   -0.0026981884039590956
-0.00792103768741941   -0.07563623198458198   -0.0027433419914008675
-0.007815212949321335   -0.08374820842829664   -0.0026718299029663195
-0.012193911405107064   -0.07555949999350653   -0.00280613918713928
-0.0077908544712242565   -0.07564747651375157   -0.002718311652707845
-0.007815212949321335   -0.08374820842829664   -0.0026718299029663195
-0.00792103768741941   -0.07563623198458198   -0.0027433419914008675
-0.012193911405107064   -0.07555949999350653   -0.00280613918713928
-0.007815212949321335   -0.08374820842829664   -0.0026718299029663195
-0.010774021063005231   -0.08353150341775707   -0.0027019921189054977
-0.010956881787009098   -0.08354961482687936   -0.002615840614863145
-0.012193911405107064   -0.07555949999350653   -0.00280613918713928
-0.007815212949321335   -0.08374820842829664   -0.0026718299029663195
-0.010956881787009098   -0.08354961482687936   -0.002615840614863145
-0.00792103768741941   -0.07563623198458198   -0.0027433419914008675
-0.012193911405107064   -0.07555949999350653   -0.00280613918713928
-0.010774021063005231   -0.08353150341775707   -0.0027019921189054977
-0.0077908544712242565   -0.07564747651375157   -0.002718311652707845
-0.012034559679658215   -0.07564153149544112   -0.002874810713017906
-0.010774021063005231   -0.08353150341775707   -0.0027019921189054977
-0.007815212949321335   -0.08374820842829664   -0.0026718299029663195
-0.0077908544712242565   -0.07564747651375157   -0.002718311652707845
-0.00763019952835448   -0.08377837307570211   -0.0026580734588544535
-0.012034559679658215   -0.07564153149544112   -0.002874810713017906
-0.007656495169001244   -0.07570137878780908   -0.0027056016919262296
-0.00763019952835448   -0.08377837307570211   -0.0026580734588544535
-0.0077908544712242565   -0.07564747651375157   -0.002718311652707845
-0.012034559679658215   -0.07564153149544112   -0.002874810713017906
-0.00763019952835448   -0.08377837307570211   -0.0026580734588544535
-0.010558977177781143   -0.08358190998759446   -0.0028011205132512686
-0.010774021063005231   -0.08353150341775707   -0.0027019921189054977
-0.012034559679658215   -0.07564153149544112   -0.002874810713017906
-0.00763019952835448   -0.08377837307570211   -0.0026580734588544535
-0.010774021063005231   -0.08353150341775707   -0.0027019921189054977
-0.0077908544712242565   -0.07564747651375157   -0.002718311652707845
-0.012034559679658215   -0.07564153149544112   -0.002874810713017906
-0.010558977177781143   -0.08358190998759446   -0.0028011205132512686
-0.007656495169001244   -0.07570137878780908   -0.0027056016919262296
-0.011877323110473563   -0.07577599872340887   -0.002956059343933172
-0.010558977177781143   -0.08358190998759446   -0.0028011205132512686
-0.00763019952835448   -0.08377837307570211   -0.0026580734588544535
-0.007656495169001244   -0.07570137878780908   -0.0027056016919262296
-0.007459983398134119   -0.08386964411620124   -0.002659562056856674
-0.011877323110473563   -0.07577599872340887   -0.002956059343933172
-0.007522358495219065   -0.0758004594883106   -0.0027050519253264023
-0.007459983398134119   -0.08386964411620124   -0.002659562056856674
-0.007656495169001244   -0.07570137878780908   -0.0027056016919262296
-0.011877323110473563   -0.07577599872340887   -0.002956059343933172
-0.007459983398134119   -0.08386964411620124   -0.002659562056856674
-0.010363888591495807   -0.08370197862727981   -0.002912395189374927
-0.010558977177781143   -0.08358190998759446   -0.0028011205132512686
-0.011877323110473563   -0.07577599872340887   -0.002956059343933172
-0.007459983398134119   -0.08386964411620124   -0.002659562056856674
-0.010558977177781143   -0.08358190998759446   -0.0028011205132512686
-0.007656495169001244   -0.07570137878780908   -0.0027056016919262296
-0.00792103768741941   -0.07563623198458198   -0.0027433419914008675
-0.008002883152464575   -0.0837771778382902   -0.0026981884039590956
-0.003667405268319445   -0.0756162296969855   -0.002774845828409171
-0.0077908544712242565   -0.07564747651375157   -0.002718311652707845
-0.008002883152464575   -0.0837771778382902   -0.0026981884039590956
-0.0051736391370071685   -0.08389707892584639   -0.0027954237221920163
-0.003667405268319445   -0.0756162296969855   -0.002774845828409171
-0.0049620738544977495   -0.08385532750001493   -0.0026629743627765642
-0.0077908544712242565   -0.07564747651375157   -0.002718311652707845
-0.003524807777112094   -0.07560163751483939   -0.002671653541471165
-0.0049620738544977495   -0.08385532750001493   -0.0026629743627765642
-0.003667405268319445   -0.0756162296969855   -0.002774845828409171
-0.0077908544712242565   -0.07564747651375157   -0.002718311652707845
-0.0049620738544977495   -0.08385532750001493   -0.0026629743627765642
-0.007815212949321335   -0.08374820842829664   -0.0026718299029663195
-0.008002883152464575   -0.0837771778382902   -0.0026981884039590956
-0.0077908544712242565   -0.07564747651375157   -0.002718311652707845
-0.0049620738544977495   -0.08385532750001493   -0.0026629743627765642
-0.008002883152464575   -0.0837771778382902   -0.0026981884039590956
-0.003667405268319445   -0.0756162296969855   -0.002774845828409171
-0.0077908544712242565   -0.07564747651375157   -0.002718311652707845
-0.007815212949321335   -0.08374820842829664   -0.0026718299029663195
-0.003524807777112094   -0.07560163751483939   -0.002671653541471165
-0.007656495169001244   -0.07570137878780908   -0.0027056016919262296
-0.007815212949321335   -0.08374820842829664   -0.0026718299029663195
-0.0049620738544977495   -0.08385532750001493   -0.0026629743627765642
-0.003524807777112094   -0.07560163751483939   -0.002671653541471165
-0.004760414440464065   -0.0838655551089444   -0.0025416561924054993
-0.007656495169001244   -0.07570137878780908   -0.0027056016919262296
-0.003386423489771327   -0.07562561035239146   -0.002581593879262387
-0.004760414440464065   -0.0838655551089444   -0.0025416561924054993
-0.003524807777112094   -0.07560163751483939   -0.002671653541471165
-0.007656495169001244   -0.07570137878780908   -0.0027056016919262296
-0.004760414440464065   -0.0838655551089444   -0.0025416561924054993
-0.00763019952835448   -0.08377837307570211   -0.0026580734588544535
-0.007815212949321335   -0.08374820842829664   -0.0026718299029663195
-0.007656495169001244   -0.07570137878780908   -0.0027056016919262296
-0.004760414440464065   -0.0838655551089444   -0.0025416561924054993
-0.007815212949321335   -0.08374820842829664   -0.0026718299029663195
-0.003524807777112094   -0.07560163751483939   -0.002671653541471165
-0.007656495169001244   -0.07570137878780908   -0.0027056016919262296
-0.00763019952835448   -0.08377837307570211   -0.0026580734588544535
-0.003386423489771327   -0.07562561035239146   -0.002581593879262387
-0.007522358495219065   -0.0758004594883106   -0.0027050519253264023
-0.00763019952835448   -0.08377837307570211   -0.0026580734588544535
-0.004760414440464065   -0.0838655551089444   -0.0025416561924054993
-0.003386423489771327   -0.07562561035239146   -0.002581593879262387
-0.004592727870774219   -0.0839379254708824   -0.0024384432434100952
-0.007522358495219065   -0.0758004594883106   -0.0027050519253264023
-0.003261405908219922   -0.075693758077402   -0.002503528389260211
-0.004592727870774219   -0.0839379254708824   -0.0024384432434100952
-0.003386423489771327   -0.07562561035239146   -0.002581593879262387
-0.007522358495219065   -0.0758004594883106   -0.0027050519253264023
-0.004592727870774219   -0.0839379254708824   -0.0024384432434100952
-0.007459983398134119   -0.08386964411620124   -0.002659562056856674
-0.00763019952835448   -0.08377837307570211   -0.0026580734588544535
-0.007522358495219065   -0.0758004594883106   -0.0027050519253264023
-0.004592727870774219   -0.0839379254708824   -0.0024384432434100952
-0.00763019952835448   -0.08377837307570211   -0.0026580734588544535
-0.003386423489771327   -0.07562561035239146   -0.002581593879262387
-0.003667405268319445   -0.0756162296969855   -0.002774845828409171
-0.0051736391370071685   -0.08389707892584639   -0.0027954237221920163
0.0007859262813684371   -0.07546055572399765   -0.002851614522630535
-0.003524807777112094   -0.07560163751483939   -0.002671653541471165
-0.0051736391370071685   -0.08389707892584639   -0.0027954237221920163
-0.0021644662453520016   -0.08386752195026785   -0.0029098969024946367
0.0007859262813684371   -0.07546055572399765   -0.002851614522630535
-0.0018928349669959702   -0.08380208030804226   -0.00267597223970315
-0.003524807777112094   -0.07560163751483939   -0.002671653541471165
0.0009593813576805917   -0.07541314124956203   -0.0026705330318540243
-0.0018928349669959702   -0.08380208030804226   -0.00267597223970315
0.0007859262813684371   -0.07546055572399765   -0.002851614522630535
-0.003524807777112094   -0.07560163751483939   -0.002671653541471165
-0.0018928349669959702   -0.08380208030804226   -0.00267597223970315
-0.0049620738544977495   -0.08385532750001493   -0.0026629743627765642
-0.0051736391370071685   -0.08389707892584639   -0.0027954237221920163
-0.003524807777112094   -0.07560163751483939   -0.002671653541471165
-0.0018928349669959702   -0.08380208030804226   -0.00267597223970315
-0.0051736391370071685   -0.08389707892584639   -0.0027954237221920163
0.0007859262813684371   -0.07546055572399765   -0.002851614522630535
-0.003524807777112094   -0.07560163751483939   -0.002671653541471165
-0.0049620738544977495   -0.08385532750001493   -0.0026629743627765642
0.0009593813576805917   -0.07541314124956203   -0.0026705330318540243
-0.003386423489771327   -0.07562561035239146   -0.002581593879262387
-0.0049620738544977495   -0.08385532750001493   -0.0026629743627765642
-0.0018928349669959702   -0.08380208030804226   -0.00267597223970315
0.0009593813576805917   -0.07541314124956203   -0.0026705330318540243
-0.0016151900092611316   -0.08379049380138234   -0.0024539603374220567
-0.003386423489771327   -0.07562561035239146   -0.002581593879262387
0.0011421503658273285   -0.07540884566155645   -0.0025061008895447497
-0.0016151900092611316   -0.08379049380138234   -0.0024539603374220567
0.0009593813576805917   -0.07541314124956203   -0.0026705330318540243
-0.003386423489771327   -0.07562561035239146   -0.002581593879262387
-0.0016151900092611316   -0.08379049380138234   -0.0024539603374220567
-0.004760414440464065   -0.0838655551089444   -0.0025416561924054993
-0.0049620738544977495   -0.08385532750001493   -0.0026629743627765642
-0.003386423489771327   -0.07562561035239146   -0.002581593879262387
-0.0016151900092611316   -0.08379049380138234   -0.0024539603374220567
-0.0049620738544977495   -0.08385532750001493   -0.0026629743627765642
0.0009593813576805917   -0.07541314124956203   -0.0026705330318540243
-0.003386423489771327   -0.07562561035239146   -0.002581593879262387
-0.004760414440464065   -0.0838655551089444   -0.0025416561924054993
0.0011421503658273285   -0.07540884566155645   -0.0025061008895447497
-0.003261405908219922   -0.075693758077402   -0.002503528389260211
-0.004760414440464065   -0.0838655551089444   -0.0025416561924054993
-0.0016151900092611316   -0.08379049380138234   -0.0024539603374220567
0.0011421503658273285   -0.07540884566155645   -0.0025061008895447497
-0.0014095040823144404   -0.08384439934426928   -0.002252360243188314
-0.003261405908219922   -0.075693758077402   -0.002503528389260211
0.0012758220335445977   -0.07544571065984584   -0.002353133701374187
-0.0014095040823144404   -0.08384439934426928   -0.002252360243188314
0.0011421503658273285   -0.07540884566155645   -0.0025061008895447497
-0.003261405908219922   -0.075693758077402   -0.002503528389260211
-0.0014095040823144404   -0.08384439934426928   -0.002252360243188314
-0.004592727870774219   -0.0839379254708824   -0.0024384432434100952
-0.004760414440464065   -0.0838655551089444   -0.0025416561924054993
-0.003261405908219922   -0.075693758077402   -0.002503528389260211
-0.0014095040823144404   -0.08384439934426928   -0.002252360243188314
-0.004760414440464065   -0.0838655551089444   -0.0025416561924054993
0.0011421503658273285   -0.07540884566155645   -0.0025061008895447497
0.0007859262813684371   -0.07546055572399765   -0.002851614522630535
-0.0021644662453520016   -0.08386752195026785   -0.0029098969024946367
0.0055344044402451395   -0.07515443809150704   -0.0030158773888321415
0.0009593813576805917   -0.07541314124956203   -0.0026705330318540243
-0.0021644662453520016   -0.08386752195026785   -0.0029098969024946367
0.0010754345144813582   -0.0835786924774039   -0.0031447104378824696
0.0055344044402451395   -0.07515443809150704   -0.0030158773888321415
0.0017079793282255193   -0.08343621435470144   -0.00276202130038333
0.0009593813576805917   -0.07541314124956203   -0.0026705330318540243
0.005973513838222118   -0.075063415217246   -0.002738749599386349
0.0017079793282255193   -0.08343621435470144   -0.00276202130038333
0.0055344044402451395   -0.07515443809150704   -0.0030158773888321415
0.0009593813576805917   -0.07541314124956203   -0.0026705330318540243
0.0017079793282255193   -0.08343621435470144   -0.00276202130038333
-0.0018928349669959702   -0.08380208030804226   -0.00267597223970315
-0.0021644662453520016   -0.08386752195026785   -0.0029098969024946367
0.0009593813576805917   -0.07541314124956203   -0.0026705330318540243
0.0017079793282255193   -0.08343621435470144   -0.00276202130038333
-0.0021644662453520016   -0.08386752195026785   -0.0029098969024946367
0.0055344044402451395   -0.07515443809150704   -0.0030158773888321415
0.0009593813576805917   -0.07541314124956203   -0.0026705330318540243
-0.0018928349669959702   -0.08380208030804226   -0.00267597223970315
0.005973513838222118   -0.075063415217246   -0.002738749599386349
0.0011421503658273285   -0.07540884566155645   -0.0025061008895447497
-0.0018928349669959702   -0.08380208030804226   -0.00267597223970315
0.0017079793282255193   -0.08343621435470144   -0.00276202130038333
0.005973513838222118   -0.075063415217246   -0.002738749599386349
0.0022051094413654275   -0.08340732504035547   -0.002402744417946822
0.0011421503658273285   -0.07540884566155645   -0.0025061008895447497
0.006310173410272629   -0.07504765485528105   -0.0024822676758049092
0.0022051094413654275   -0.08340732504035547   -0.002402744417946822
0.005973513838222118   -0.075063415217246   -0.002738749599386349
0.0011421503658273285   -0.07540884566155645   -0.0025061008895447497
0.0022051094413654275   -0.08340732504035547   -0.002402744417946822
-0.0016151900092611316   -0.08379049380138234   -0.0024539603374220567
-0.0018928349669959702   -0.08380208030804226   -0.00267597223970315
0.0011421503658273285   -0.07540884566155645   -0.0025061008895447497
0.0022051094413654275   -0.08340732504035547   -0.002402744417946822
-0.0018928349669959702   -0.08380208030804226   -0.00267597223970315
0.005973513838222118   -0.075063415217246   -0.002738749599386349
0.0011421503658273285   -0.07540884566155645   -0.0025061008895447497
-0.0016151900092611316   -0.08379049380138234   -0.0024539603374220567
0.006310173410272629   -0.07504765485528105   -0.0024822676758049092
0.0012758220335445977   -0.07544571065984584   -0.002353133701374187
-0.0016151900092611316   -0.08379049380138234   -0.0024539603374220567
0.0022051094413654275   -0.08340732504035547   -0.002402744417946822
0.006310173410272629   -0.07504765485528105   -0.0024822676758049092
0.0027215971596240706   -0.08343144574997298   -0.002074678721008184
0.0012758220335445977   -0.07544571065984584   -0.002353133701374187
0.0066588706454772965   -0.07507461392101618   -0.0022485288661854255
0.0027215971596240706   -0.08343144574997298   -0.002074678721008184
0.006310173410272629   -0.07504765485528105   -0.0024822676758049092
0.0012758220335445977   -0.07544571065984584   -0.002353133701374187
0.0027215971596240706   -0.08343144574997298   -0.002074678721008184
-0.0014095040823144404   -0.08384439934426928   -0.002252360243188314
-0.0016151900092611316   -0.08379049380138234   -0.0024539603374220567
0.0012758220335445977   -0.07544571065984584   -0.002353133701374187
0.0027215971596240706   -0.08343144574997298   -0.002074678721008184
-0.0016151900092611316   -0.08379049380138234   -0.0024539603374220567
0.006310173410272629   -0.07504765485528105   -0.0024822676758049092
-0.014573193982719935   -0.08319886206689879   -0.0025106074390119255
-0.010682296005994418   -0.08789998878510612   -0.0022091932394662003
-0.010956881787009098   -0.08354961482687936   -0.002615840614863145
-0.014179184422335777   -0.08318895983349443   -0.002742901161140159
-0.010682296005994418   -0.08789998878510612   -0.0022091932394662003
-0.009000675361630711   -0.08834369107648984   -0.00247597173579194
-0.010956881787009098   -0.08354961482687936   -0.002615840614863145
-0.00876988274287097   -0.08825591252396393   -0.0025676026563258266
-0.014179184422335777   -0.08318895983349443   -0.002742901161140159
-0.010774021063005231   -0.08353150341775707   -0.0027019921189054977
-0.00876988274287097   -0.08825591252396393   -0.0025676026563258266
-0.010956881787009098   -0.08354961482687936   -0.002615840614863145
-0.014179184422335777   -0.08318895983349443   -0.002742901161140159
-0.00876988274287097   -0.08825591252396393   -0.0025676026563258266
-0.010191153540947578   -0.08780111137594991   -0.002487908292164673
-0.010682296005994418   -0.08789998878510612   -0.0022091932394662003
-0.014179184422335777   -0.08318895983349443   -0.002742901161140159
-0.00876988274287097   -0.08825591252396393   -0.0025676026563258266
-0.010682296005994418   -0.08789998878510612   -0.0022091932394662003
-0.010956881787009098   -0.08354961482687936   -0.002615840614863145
-0.014179184422335777   -0.08318895983349443   -0.002742901161140159
-0.010191153540947578   -0.08780111137594991   -0.002487908292164673
-0.010774021063005231   -0.08353150341775707   -0.0027019921189054977
-0.013815961228647708   -0.08325125253213012   -0.0029934688192354924
-0.010191153540947578   -0.08780111137594991   -0.002487908292164673
-0.00876988274287097   -0.08825591252396393   -0.0025676026563258266
-0.010774021063005231   -0.08353150341775707   -0.0027019921189054977
-0.008514321391920685   -0.08826011203987981   -0.0026601598338205717
-0.013815961228647708   -0.08325125253213012   -0.0029934688192354924
-0.010558977177781143   -0.08358190998759446   -0.0028011205132512686
-0.008514321391920685   -0.08826011203987981   -0.0026601598338205717
-0.010774021063005231   -0.08353150341775707   -0.0027019921189054977
-0.013815961228647708   -0.08325125253213012   -0.0029934688192354924
-0.008514321391920685   -0.08826011203987981   -0.0026601598338205717
-0.009767382298675678   -0.08780941520257039   -0.0027655377247222954
-0.010191153540947578   -0.08780111137594991   -0.002487908292164673
-0.013815961228647708   -0.08325125253213012   -0.0029934688192354924
-0.008514321391920685   -0.08826011203987981   -0.0026601598338205717
-0.010191153540947578   -0.08780111137594991   -0.002487908292164673
-0.010774021063005231   -0.08353150341775707   -0.0027019921189054977
-0.013815961228647708   -0.08325125253213012   -0.0029934688192354924
-0.009767382298675678   -0.08780941520257039   -0.0027655377247222954
-0.010558977177781143   -0.08358190998759446   -0.0028011205132512686
-0.01337297174131793   -0.08341770448654172   -0.003261230546553224
-0.009767382298675678   -0.08780941520257039   -0.0027655377247222954
-0.008514321391920685   -0.08826011203987981   -0.0026601598338205717
-0.010558977177781143   -0.08358190998759446   -0.0028011205132512686
-0.00827688138398783   -0.08835671030758979   -0.0027540311277154767
-0.01337297174131793   -0.08341770448654172   -0.003261230546553224
-0.010363888591495807   -0.08370197862727981   -0.002912395189374927
-0.00827688138398783   -0.08835671030758979   -0.0027540311277154767
-0.010558977177781143   -0.08358190998759446   -0.0028011205132512686
-0.01337297174131793   -0.08341770448654172   -0.003261230546553224
-0.00827688138398783   -0.08835671030758979   -0.0027540311277154767
-0.00926477545277491   -0.08793103986173438   -0.003049151071883055
-0.009767382298675678   -0.08780941520257039   -0.0027655377247222954
-0.01337297174131793   -0.08341770448654172   -0.003261230546553224
-0.00827688138398783   -0.08835671030758979   -0.0027540311277154767
-0.009767382298675678   -0.08780941520257039   -0.0027655377247222954
-0.010558977177781143   -0.08358190998759446   -0.0028011205132512686
-0.010956881787009098   -0.08354961482687936   -0.002615840614863145
-0.009000675361630711   -0.08834369107648984   -0.00247597173579194
-0.008002883152464575   -0.0837771778382902   -0.0026981884039590956
-0.010774021063005231   -0.08353150341775707   -0.0027019921189054977
-0.009000675361630711   -0.08834369107648984   -0.00247597173579194
-0.007769669289214565   -0.08878947457301954   -0.002711784601616614
-0.008002883152464575   -0.0837771778382902   -0.0026981884039590956
-0.007526121537998074   -0.08869943616504923   -0.0026474469411477577
-0.010774021063005231   -0.08353150341775707   -0.0027019921189054977
-0.007815212949321335   -0.08374820842829664   -0.0026718299029663195
-0.007526121537998074   -0.08869943616504923   -0.0026474469411477577
-0.008002883152464575   -0.0837771778382902   -0.0026981884039590956
-0.010774021063005231   -0.08353150341775707   -0.0027019921189054977
-0.007526121537998074   -0.08869943616504923   -0.0026474469411477577
-0.00876988274287097   -0.08825591252396393   -0.0025676026563258266
-0.009000675361630711   -0.08834369107648984   -0.00247597173579194
-0.010774021063005231   -0.08353150341775707   -0.0027019921189054977
-0.007526121537998074   -0.08869943616504923   -0.0026474469411477577
-0.009000675361630711   -0.08834369107648984   -0.00247597173579194
-0.008002883152464575   -0.0837771778382902   -0.0026981884039590956
-0.010774021063005231   -0.08353150341775707   -0.0027019921189054977
-0.00876988274287097   -0.08825591252396393   -0.0025676026563258266
-0.007815212949321335   -0.08374820842829664   -0.0026718299029663195
-0.010558977177781143   -0.08358190998759446   -0.0028011205132512686
-0.00876988274287097   -0.08825591252396393   -0.0025676026563258266
-0.007526121537998074   -0.08869943616504923   -0.0026474469411477577
-0.007815212949321335   -0.08374820842829664   -0.0026718299029663195
-0.007290667768503066   -0.08869771861932943   -0.002582306009507123
-0.010558977177781143   -0.08358190998759446   -0.0028011205132512686
-0.00763019952835448   -0.08377837307570211   -0.0026580734588544535
-0.007290667768503066   -0.08869771861932943   -0.002582306009507123
-0.007815212949321335   -0.08374820842829664   -0.0026718299029663195
-0.010558977177781143   -0.08358190998759446   -0.0028011205132512686
-0.007290667768503066   -0.08869771861932943   -0.002582306009507123
-0.008514321391920685   -0.08826011203987981   -0.0026601598338205717
-0.00876988274287097   -0.08825591252396393   -0.0025676026563258266
-0.010558977177781143   -0.08358190998759446   -0.0028011205132512686
-0.007290667768503066   -0.08869771861932943   -0.002582306009507123
-0.00876988274287097   -0.08825591252396393   -0.0025676026563258266
-0.007815212949321335   -0.08374820842829664   -0.0026718299029663195
-0.010558977177781143   -0.08358190998759446   -0.0028011205132512686
-0.008514321391920685   -0.08826011203987981   -0.0026601598338205717
-0.00763019952835448   -0.08377837307570211   -0.0026580734588544535
-0.010363888591495807   -0.08370197862727981   -0.002912395189374927
-0.008514321391920685   -0.08826011203987981   -0.0026601598338205717
-0.007290667768503066   -0.08869771861932943   -0.002582306009507123
-0.00763019952835448   -0.08377837307570211   -0.0026580734588544535
-0.007045181771396124   -0.08878247192832378   -0.0025197298547972894
-0.010363888591495807   -0.08370197862727981   -0.002912395189374927
-0.007459983398134119   -0.08386964411620124   -0.002659562056856674
-0.007045181771396124   -0.08878247192832378   -0.0025197298547972894
-0.00763019952835448   -0.08377837307570211   -0.0026580734588544535
-0.010363888591495807   -0.08370197862727981   -0.002912395189374927
-0.007045181771396124   -0.08878247192832378   -0.0025197298547972894
-0.00827688138398783   -0.08835671030758979   -0.0027540311277154767
-0.008514321391920685   -0.08826011203987981   -0.0026601598338205717
-0.010363888591495807   -0.08370197862727981   -0.002912395189374927
-0.007045181771396124   -0.08878247192832378   -0.0025197298547972894
-0.008514321391920685   -0.08826011203987981   -0.0026601598338205717
-0.00763019952835448   -0.08377837307570211   -0.0026580734588544535
-0.008002883152464575   -0.0837771778382902   -0.0026981884039590956
-0.007769669289214565   -0.08878947457301954   -0.002711784601616614
-0.0051736391370071685   -0.08389707892584639   -0.0027954237221920163
-0.007815212949321335   -0.08374820842829664   -0.0026718299029663195
-0.007769669289214565   -0.08878947457301954   -0.002711784601616614
-0.006645648571443507   -0.08932793908005005   -0.002971398494869492
-0.0051736391370071685   -0.08389707892584639   -0.0027954237221920163
-0.006347055320751466   -0.08924985305741902   -0.0027423331785866177
-0.007815212949321335   -0.08374820842829664   -0.0026718299029663195
-0.0049620738544977495   -0.08385532750001493   -0.0026629743627765642
-0.006347055320751466   -0.08924985305741902   -0.0027423331785866177
-0.0051736391370071685   -0.08389707892584639   -0.0027954237221920163
-0.007815212949321335   -0.08374820842829664   -0.0026718299029663195
-0.006347055320751466   -0.08924985305741902   -0.0027423331785866177
-0.007526121537998074   -0.08869943616504923   -0.0026474469411477577
-0.007769669289214565   -0.08878947457301954   -0.002711784601616614
-0.007815212949321335   -0.08374820842829664   -0.0026718299029663195
-0.006347055320751466   -0.08924985305741902   -0.0027423331785866177
-0.007769669289214565   -0.08878947457301954   -0.002711784601616614
-0.0051736391370071685   -0.08389707892584639   -0.0027954237221920163
-0.007815212949321335   -0.08374820842829664   -0.0026718299029663195
-0.007526121537998074   -0.08869943616504923   -0.0026474469411477577
-0.0049620738544977495   -0.08385532750001493   -0.0026629743627765642
-0.00763019952835448   -0.08377837307570211   -0.0026580734588544535
-0.007526121537998074   -0.08869943616504923   -0.0026474469411477577
-0.006347055320751466   -0.08924985305741902   -0.0027423331785866177
-0.0049620738544977495   -0.08385532750001493   -0.0026629743627765642
-0.006070415723119454   -0.08924561373860906   -0.0025140619732710997
-0.00763019952835448   -0.08377837307570211   -0.0026580734588544535
-0.004760414440464065   -0.0838655551089444   -0.0025416561924054993
-0.006070415723119454   -0.08924561373860906   -0.0025140619732710997
-0.0049620738544977495   -0.08385532750001493   -0.0026629743627765642
-0.00763019952835448   -0.08377837307570211   -0.0026580734588544535
-0.006070415723119454   -0.08924561373860906   -0.0025140619732710997
-0.007290667768503066   -0.08869771861932943   -0.002582306009507123
-0.007526121537998074   -0.08869943616504923   -0.0026474469411477577
-0.00763019952835448   -0.08377837307570211   -0.0026580734588544535
-0.006070415723119454   -0.08924561373860906   -0.0025140619732710997
-0.007526121537998074   -0.08869943616504923   -0.0026474469411477577
-0.0049620738544977495   -0.08385532750001493   -0.0026629743627765642
-0.00763019952835448   -0.08377837307570211   -0.0026580734588544535
-0.007290667768503066   -0.08869771861932943   -0.002582306009507123
-0.004760414440464065   -0.0838655551089444   -0.0025416561924054993
-0.007459983398134119   -0.08386964411620124   -0.002659562056856674
-0.007290667768503066   -0.08869771861932943   -0.002582306009507123
-0.006070415723119454   -0.08924561373860906   -0.0025140619732710997
-0.004760414440464065   -0.0838655551089444   -0.0025416561924054993
-0.005773369439953795   -0.08931121723363489   -0.0022852480788433504
-0.007459983398134119   -0.08386964411620124   -0.002659562056856674
-0.004592727870774219   -0.0839379254708824   -0.0024384432434100952
-0.005773369439953795   -0.08931121723363489   -0.0022852480788433504
-0.004760414440464065   -0.0838655551089444   -0.0025416561924054993
-0.007459983398134119   -0.08386964411620124   -0.002659562056856674
-0.005773369439953795   -0.08931121723363489   -0.0022852480788433504
-0.007045181771396124   -0.08878247192832378   -0.0025197298547972894
-0.007290667768503066   -0.08869771861932943   -0.002582306009507123
-0.007459983398134119   -0.08386964411620124   -0.002659562056856674
-0.005773369439953795   -0.08931121723363489   -0.0022852480788433504
-0.007290667768503066   -0.08869771861932943   -0.002582306009507123
-0.004760414440464065   -0.0838655551089444   -0.0025416561924054993
-0.0051736391370071685   -0.08389707892584639   -0.0027954237221920163
-0.006645648571443507   -0.08932793908005005   -0.002971398494869492
-0.0021644662453520016   -0.08386752195026785   -0.0029098969024946367
-0.0049620738544977495   -0.08385532750001493   -0.0026629743627765642
-0.006645648571443507   -0.08932793908005005   -0.002971398494869492
-0.005539416043878147   -0.09   -0.0031705758895490214
-0.0021644662453520016   -0.08386752195026785   -0.0029098969024946367
-0.005163939394446477   -0.09   -0.002822878276210542
-0.0049620738544977495   -0.08385532750001493   -0.0026629743627765642
-0.0018928349669959702   -0.08380208030804226   -0.00267597223970315
-0.005163939394446477   -0.09   -0.002822878276210542
-0.0021644662453520016   -0.08386752195026785   -0.0029098969024946367
-0.0049620738544977495   -0.08385532750001493   -0.0026629743627765642
-0.005163939394446477   -0.09   -0.002822878276210542
-0.006347055320751466   -0.08924985305741902   -0.0027423331785866177
-0.006645648571443507   -0.08932793908005005   -0.002971398494869492
-0.0049620738544977495   -0.08385532750001493   -0.0026629743627765642
-0.005163939394446477   -0.09   -0.002822878276210542
-0.006645648571443507   -0.08932793908005005   -0.002971398494869492
-0.0021644662453520016   -0.08386752195026785   -0.0029098969024946367
-0.0049620738544977495   -0.08385532750001493   -0.0026629743627765642
-0.006347055320751466   -0.08924985305741902   -0.0027423331785866177
-0.0018928349669959702   -0.08380208030804226   -0.00267597223970315
-0.004760414440464065   -0.0838655551089444   -0.0025416561924054993
-0.006347055320751466   -0.08924985305741902   -0.0027423331785866177
-0.005163939394446477   -0.09   -0.002822878276210542
-0.0018928349669959702   -0.08380208030804226   -0.00267597223970315
-0.004786739362685874   -0.09   -0.0024710551699716967
-0.004760414440464065   -0.0838655551089444   -0.0025416561924054993
-0.0016151900092611316   -0.08379049380138234   -0.0024539603374220567
-0.004786739362685874   -0.09   -0.0024710551699716967
-0.0018928349669959702   -0.08380208030804226   -0.00267597223970315
-0.004760414440464065   -0.0838655551089444   -0.0025416561924054993
-0.004786739362685874   -0.09   -0.0024710551699716967
-0.006070415723119454   -0.08924561373860906   -0.0025140619732710997
-0.006347055320751466   -0.08924985305741902   -0.0027423331785866177
-0.004760414440464065   -0.0838655551089444   -0.0025416561924054993
-0.004786739362685874   -0.09   -0.0024710551699716967
-0.006347055320751466   -0.08924985305741902   -0.0027423331785866177
-0.0018928349669959702   -0.08380208030804226   -0.00267597223970315
-0.004760414440464065   -0.0838655551089444   -0.0025416561924054993
-0.006070415723119454   -0.08924561373860906   -0.0025140619732710997
-0.0016151900092611316   -0.08379049380138234   -0.0024539603374220567
-0.004592727870774219   -0.0839379254708824   -0.0024384432434100952
-0.006070415723119454   -0.08924561373860906   -0.0025140619732710997
-0.004786739362685874   -0.09   -0.0024710551699716967
-0.0016151900092611316   -0.08379049380138234   -0.0024539603374220567
-0.004417940520192777   -0.09   -0.002123878033258291
-0.004592727870774219   -0.0839379254708824   -0.0024384432434100952
-0.0014095040823144404   -0.08384439934426928   -0.002252360243188314
-0.004417940520192777   -0.09   -0.002123878033258291
-0.0016151900092611316   -0.08379049380138234   -0.0024539603374220567
-0.004592727870774219   -0.0839379254708824   -0.0024384432434100952
-0.004417940520192777   -0.09   -0.002123878033258291
-0.005773369439953795   -0.08931121723363489   -0.0022852480788433504
-0.006070415723119454   -0.08924561373860906   -0.0025140619732710997
-0.004592727870774219   -0.0839379254708824   -0.0024384432434100952
-0.004417940520192777   -0.09   -0.002123878033258291
-0.006070415723119454   -0.08924561373860906   -0.0025140619732710997
-0.0016151900092611316   -0.08379049380138234   -0.0024539603374220567
-0.0021644662453520016   -0.08386752195026785   -0.0029098969024946367
-0.005539416043878147   -0.09   -0.0031705758895490214
0.0010754345144813582   -0.0835786924774039   -0.0031447104378824696
-0.0018928349669959702   -0.08380208030804226   -0.00267597223970315
-0.005539416043878147   -0.09   -0.0031705758895490214
-0.0047376444813672395   -0.09   -0.003411801434016292
0.0010754345144813582   -0.0835786924774039   -0.0031447104378824696
-0.003953079022958513   -0.09   -0.002908901192117458
-0.0018928349669959702   -0.08380208030804226   -0.00267597223970315
0.0017079793282255193   -0.08343621435470144   -0.00276202130038333
-0.003953079022958513   -0.09   -0.002908901192117458
0.0010754345144813582   -0.0835786924774039   -0.0031447104378824696
-0.0018928349669959702   -0.08380208030804226   -0.00267597223970315
-0.003953079022958513   -0.09   -0.002908901192117458
-0.005163939394446477   -0.09   -0.002822878276210542
-0.005539416043878147   -0.09   -0.0031705758895490214
-0.0018928349669959702   -0.08380208030804226   -0.00267597223970315
-0.003953079022958513   -0.09   -0.002908901192117458
-0.005539416043878147   -0.09   -0.0031705758895490214
0.0010754345144813582   -0.0835786924774039   -0.0031447104378824696
-0.0018928349669959702   -0.08380208030804226   -0.00267597223970315
-0.005163939394446477   -0.09   -0.002822878276210542
0.0017079793282255193   -0.08343621435470144   -0.00276202130038333
-0.0016151900092611316   -0.08379049380138234   -0.0024539603374220567
-0.005163939394446477   -0.09   -0.002822878276210542
-0.003953079022958513   -0.09   -0.002908901192117458
0.0017079793282255193   -0.08343621435470144   -0.00276202130038333
-0.003327394558716333   -0.09   -0.0024278078533697656
-0.0016151900092611316   -0.08379049380138234   -0.0024539603374220567
0.0022051094413654275   -0.08340732504035547   -0.002402744417946822
-0.003327394558716333   -0.09   -0.0024278078533697656
0.0017079793282255193   -0.08343621435470144   -0.00276202130038333
-0.0016151900092611316   -0.08379049380138234   -0.0024539603374220567
-0.003327394558716333   -0.09   -0.0024278078533697656
-0.004786739362685874   -0.09   -0.0024710551699716967
-0.005163939394446477   -0.09   -0.002822878276210542
-0.0016151900092611316   -0.08379049380138234   -0.0024539603374220567
-0.003327394558716333   -0.09   -0.0024278078533697656
-0.005163939394446477   -0.09   -0.002822878276210542
0.0017079793282255193   -0.08343621435470144   -0.00276202130038333
-0.0016151900092611316   -0.08379049380138234   -0.0024539603374220567
-0.004786739362685874   -0.09   -0.0024710551699716967
0.0022051094413654275   -0.08340732504035547   -0.002402744417946822
-0.0014095040823144404   -0.08384439934426928   -0.002252360243188314
-0.004786739362685874   -0.09   -0.0024710551699716967
-0.003327394558716333   -0.09   -0.0024278078533697656
0.0022051094413654275   -0.08340732504035547   -0.002402744417946822
-0.002554463266918717   -0.09   -0.0019283845713905783
-0.0014095040823144404   -0.08384439934426928   -0.002252360243188314
0.0027215971596240706   -0.08343144574997298   -0.002074678721008184
-0.002554463266918717   -0.09   -0.0019283845713905783
0.0022051094413654275   -0.08340732504035547   -0.002402744417946822
-0.0014095040823144404   -0.08384439934426928   -0.002252360243188314
-0.002554463266918717   -0.09   -0.0019283845713905783
-0.004417940520192777   -0.09   -0.002123878033258291
-0.004786739362685874   -0.09   -0.0024710551699716967
-0.0014095040823144404   -0.08384439934426928   -0.002252360243188314
-0.002554463266918717   -0.09   -0.0019283845713905783
-0.004786739362685874   -0.09   -0.0024710551699716967
0.0022051094413654275   -0.08340732504035547   -0.002402744417946822
-0.010682296005994418   -0.08789998878510612   -0.0022091932394662003
-0.0063776095829960406   -0.08813252776410799   -0.0018907768140178334
-0.009000675361630711   -0.08834369107648984   -0.00247597173579194
-0.010191153540947578   -0.08780111137594991   -0.002487908292164673
-0.0063776095829960406   -0.08813252776410799   -0.0018907768140178334
-0.006766838342925962   -0.08847424429780747   -0.002234261640475205
-0.009000675361630711   -0.08834369107648984   -0.00247597173579194
-0.006592329051570548   -0.08835439564375017   -0.002359354179008366
-0.010191153540947578   -0.08780111137594991   -0.002487908292164673
-0.00876988274287097   -0.08825591252396393   -0.0025676026563258266
-0.006592329051570548   -0.08835439564375017   -0.002359354179008366
-0.009000675361630711   -0.08834369107648984   -0.00247597173579194
-0.010191153540947578   -0.08780111137594991   -0.002487908292164673
-0.006592329051570548   -0.08835439564375017   -0.002359354179008366
-0.005932625494259762   -0.08797865513545595   -0.0021835992667589327
-0.0063776095829960406   -0.08813252776410799   -0.0018907768140178334
-0.010191153540947578   -0.08780111137594991   -0.002487908292164673
-0.006592329051570548   -0.08835439564375017   -0.002359354179008366
-0.0063776095829960406   -0.08813252776410799   -0.0018907768140178334
-0.009000675361630711   -0.08834369107648984   -0.00247597173579194
-0.010191153540947578   -0.08780111137594991   -0.002487908292164673
-0.005932625494259762   -0.08797865513545595   -0.0021835992667589327
-0.00876988274287097   -0.08825591252396393   -0.0025676026563258266
-0.009767382298675678   -0.08780941520257039   -0.0027655377247222954
-0.005932625494259762   -0.08797865513545595   -0.0021835992667589327
-0.006592329051570548   -0.08835439564375017   -0.002359354179008366
-0.00876988274287097   -0.08825591252396393   -0.0025676026563258266
-0.006387675071562206   -0.08831001135212287   -0.002474740536278407
-0.009767382298675678   -0.08780941520257039   -0.0027655377247222954
-0.008514321391920685   -0.08826011203987981   -0.0026601598338205717
-0.006387675071562206   -0.08831001135212287   -0.002474740536278407
-0.00876988274287097   -0.08825591252396393   -0.0025676026563258266
-0.009767382298675678   -0.08780941520257039   -0.0027655377247222954
-0.006387675071562206   -0.08831001135212287   -0.002474740536278407
-0.005562207437116642   -0.08793112633042707   -0.0024643756130652826
-0.005932625494259762   -0.08797865513545595   -0.0021835992667589327
-0.009767382298675678   -0.08780941520257039   -0.0027655377247222954
-0.006387675071562206   -0.08831001135212287   -0.002474740536278407
-0.005932625494259762   -0.08797865513545595   -0.0021835992667589327
-0.00876988274287097   -0.08825591252396393   -0.0025676026563258266
-0.009767382298675678   -0.08780941520257039   -0.0027655377247222954
-0.005562207437116642   -0.08793112633042707   -0.0024643756130652826
-0.008514321391920685   -0.08826011203987981   -0.0026601598338205717
-0.00926477545277491   -0.08793103986173438   -0.003049151071883055
-0.005562207437116642   -0.08793112633042707   -0.0024643756130652826
-0.006387675071562206   -0.08831001135212287   -0.002474740536278407
-0.008514321391920685   -0.08826011203987981   -0.0026601598338205717
-0.006212339168116588   -0.08834172652951423   -0.0025798145684085816
-0.00926477545277491   -0.08793103986173438   -0.003049151071883055
-0.00827688138398783   -0.08835671030758979   -0.0027540311277154767
-0.006212339168116588   -0.08834172652951423   -0.0025798145684085816
-0.008514321391920685   -0.08826011203987981   -0.0026601598338205717
-0.00926477545277491   -0.08793103986173438   -0.003049151071883055
-0.006212339168116588   -0.08834172652951423   -0.0025798145684085816
-0.005143192828232992   -0.08797070054252963   -0.0027318528626688833
-0.005562207437116642   -0.08793112633042707   -0.0024643756130652826
-0.00926477545277491   -0.08793103986173438   -0.003049151071883055
-0.006212339168116588   -0.08834172652951423   -0.0025798145684085816
-0.005562207437116642   -0.08793112633042707   -0.0024643756130652826
-0.008514321391920685   -0.08826011203987981   -0.0026601598338205717
-0.009000675361630711   -0.08834369107648984   -0.00247597173579194
-0.006766838342925962   -0.08847424429780747   -0.002234261640475205
-0.007769669289214565   -0.08878947457301954   -0.002711784601616614
-0.00876988274287097   -0.08825591252396393   -0.0025676026563258266
-0.006766838342925962   -0.08847424429780747   -0.002234261640475205
-0.007292673464543565   -0.08868575394855922   -0.002508932550535805
-0.007769669289214565   -0.08878947457301954   -0.002711784601616614
-0.0071382036186416736   -0.08857874651301254   -0.0025122434805342013
-0.00876988274287097   -0.08825591252396393   -0.0025676026563258266
-0.007526121537998074   -0.08869943616504923   -0.0026474469411477577
-0.0071382036186416736   -0.08857874651301254   -0.0025122434805342013
-0.007769669289214565   -0.08878947457301954   -0.002711784601616614
-0.00876988274287097   -0.08825591252396393   -0.0025676026563258266
-0.0071382036186416736   -0.08857874651301254   -0.0025122434805342013
-0.006592329051570548   -0.08835439564375017   -0.002359354179008366
-0.006766838342925962   -0.08847424429780747   -0.002234261640475205
-0.00876988274287097   -0.08825591252396393   -0.0025676026563258266
-0.0071382036186416736   -0.08857874651301254   -0.0025122434805342013
-0.006766838342925962   -0.08847424429780747   -0.002234261640475205
-0.007769669289214565   -0.08878947457301954   -0.002711784601616614
-0.00876988274287097   -0.08825591252396393   -0.0025676026563258266
-0.006592329051570548   -0.08835439564375017   -0.002359354179008366
-0.007526121537998074   -0.08869943616504923   -0.0026474469411477577
-0.008514321391920685   -0.08826011203987981   -0.0026601598338205717
-0.006592329051570548   -0.08835439564375017   -0.002359354179008366
-0.0071382036186416736   -0.08857874651301254   -0.0025122434805342013
-0.007526121537998074   -0.08869943616504923   -0.0026474469411477577
-0.006966259442493939   -0.08854008997851931   -0.0025029702501145196
-0.008514321391920685   -0.08826011203987981   -0.0026601598338205717
-0.007290667768503066   -0.08869771861932943   -0.002582306009507123
-0.006966259442493939   -0.08854008997851931   -0.0025029702501145196
-0.007526121537998074   -0.08869943616504923   -0.0026474469411477577
-0.008514321391920685   -0.08826011203987981   -0.0026601598338205717
-0.006966259442493939   -0.08854008997851931   -0.0025029702501145196
-0.006387675071562206   -0.08831001135212287   -0.002474740536278407
-0.006592329051570548   -0.08835439564375017   -0.002359354179008366
-0.008514321391920685   -0.08826011203987981   -0.0026601598338205717
-0.006966259442493939   -0.08854008997851931   -0.0025029702501145196
-0.006592329051570548   -0.08835439564375017   -0.002359354179008366
-0.007526121537998074   -0.08869943616504923   -0.0026474469411477577
-0.008514321391920685   -0.08826011203987981   -0.0026601598338205717
-0.006387675071562206   -0.08831001135212287   -0.002474740536278407
-0.007290667768503066   -0.08869771861932943   -0.002582306009507123
-0.00827688138398783   -0.08835671030758979   -0.0027540311277154767
-0.006387675071562206   -0.08831001135212287   -0.002474740536278407
-0.006966259442493939   -0.08854008997851931   -0.0025029702501145196
-0.007290667768503066   -0.08869771861932943   -0.002582306009507123
-0.006791427037584164   -0.08856664869404321   -0.002483822930242545
-0.00827688138398783   -0.08835671030758979   -0.0027540311277154767
-0.007045181771396124   -0.08878247192832378   -0.0025197298547972894
-0.006791427037584164   -0.08856664869404321   -0.002483822930242545
-0.007290667768503066   -0.08869771861932943   -0.002582306009507123
-0.00827688138398783   -0.08835671030758979   -0.0027540311277154767
-0.006791427037584164   -0.08856664869404321   -0.002483822930242545
-0.006212339168116588   -0.08834172652951423   -0.0025798145684085816
-0.006387675071562206   -0.08831001135212287   -0.002474740536278407
-0.00827688138398783   -0.08835671030758979   -0.0027540311277154767
-0.006791427037584164   -0.08856664869404321   -0.002483822930242545
-0.006387675071562206   -0.08831001135212287   -0.002474740536278407
-0.007290667768503066   -0.08869771861932943   -0.002582306009507123
-0.007769669289214565   -0.08878947457301954   -0.002711784601616614
-0.007292673464543565   -0.08868575394855922   -0.002508932550535805
-0.006645648571443507   -0.08932793908005005   -0.002971398494869492
-0.007526121537998074   -0.08869943616504923   -0.0026474469411477577
-0.007292673464543565   -0.08868575394855922   -0.002508932550535805
-0.00785623607721557   -0.08877503157860125   -0.0027792324048762705
-0.006645648571443507   -0.08932793908005005   -0.002971398494869492
-0.007696223532674564   -0.08867302953675747   -0.0026654459346351542
-0.007526121537998074   -0.08869943616504923   -0.0026474469411477577
-0.006347055320751466   -0.08924985305741902   -0.0027423331785866177
-0.007696223532674564   -0.08867302953675747   -0.0026654459346351542
-0.006645648571443507   -0.08932793908005005   -0.002971398494869492
-0.007526121537998074   -0.08869943616504923   -0.0026474469411477577
-0.007696223532674564   -0.08867302953675747   -0.0026654459346351542
-0.0071382036186416736   -0.08857874651301254   -0.0025122434805342013
-0.007292673464543565   -0.08868575394855922   -0.002508932550535805
-0.007526121537998074   -0.08869943616504923   -0.0026474469411477577
-0.007696223532674564   -0.08867302953675747   -0.0026654459346351542
-0.007292673464543565   -0.08868575394855922   -0.002508932550535805
-0.006645648571443507   -0.08932793908005005   -0.002971398494869492
-0.007526121537998074   -0.08869943616504923   -0.0026474469411477577
-0.0071382036186416736   -0.08857874651301254   -0.0025122434805342013
-0.006347055320751466   -0.08924985305741902   -0.0027423331785866177
-0.007290667768503066   -0.08869771861932943   -0.002582306009507123
-0.0071382036186416736   -0.08857874651301254   -0.0025122434805342013
-0.007696223532674564   -0.08867302953675747   -0.0026654459346351542
-0.006347055320751466   -0.08924985305741902   -0.0027423331785866177
-0.00750426432916908   -0.08864049890621173   -0.0025363341197661283
-0.007290667768503066   -0.08869771861932943   -0.002582306009507123
-0.006070415723119454   -0.08924561373860906   -0.0025140619732710997
-0.00750426432916908   -0.08864049890621173   -0.0025363341197661283
-0.006347055320751466   -0.08924985305741902   -0.0027423331785866177
-0.007290667768503066   -0.08869771861932943   -0.002582306009507123
-0.00750426432916908   -0.08864049890621173   -0.0025363341197661283
-0.006966259442493939   -0.08854008997851931   -0.0025029702501145196
-0.0071382036186416736   -0.08857874651301254   -0.0025122434805342013
-0.007290667768503066   -0.08869771861932943   -0.002582306009507123
-0.00750426432916908   -0.08864049890621173   -0.0025363341197661283
-0.0071382036186416736   -0.08857874651301254   -0.0025122434805342013
-0.006347055320751466   -0.08924985305741902   -0.0027423331785866177
-0.007290667768503066   -0.08869771861932943   -0.002582306009507123
-0.006966259442493939   -0.08854008997851931   -0.0025029702501145196
-0.006070415723119454   -0.08924561373860906   -0.0025140619732710997
-0.007045181771396124   -0.08878247192832378   -0.0025197298547972894
-0.006966259442493939   -0.08854008997851931   -0.0025029702501145196
-0.00750426432916908   -0.08864049890621173   -0.0025363341197661283
-0.006070415723119454   -0.08924561373860906   -0.0025140619732710997
-0.00730683901435987   -0.08866649099574513   -0.0023987970531736793
-0.007045181771396124   -0.08878247192832378   -0.0025197298547972894
-0.005773369439953795   -0.08931121723363489   -0.0022852480788433504
-0.00730683901435987   -0.08866649099574513   -0.0023987970531736793
-0.006070415723119454   -0.08924561373860906   -0.0025140619732710997
-0.007045181771396124   -0.08878247192832378   -0.0025197298547972894
-0.00730683901435987   -0.08866649099574513   -0.0023987970531736793
-0.006791427037584164   -0.08856664869404321   -0.002483822930242545
-0.006966259442493939   -0.08854008997851931   -0.0025029702501145196
-0.007045181771396124   -0.08878247192832378   -0.0025197298547972894
-0.00730683901435987   -0.08866649099574513   -0.0023987970531736793
-0.006966259442493939   -0.08854008997851931   -0.0025029702501145196
-0.006070415723119454   -0.08924561373860906   -0.0025140619732710997
-0.006645648571443507   -0.08932793908005005   -0.002971398494869492
-0.00785623607721557   -0.08877503157860125   -0.0027792324048762705
-0.005539416043878147   -0.09   -0.0031705758895490214
-0.006347055320751466   -0.08924985305741902   -0.0027423331785866177
-0.00785623607721557   -0.08877503157860125   -0.0027792324048762705
-0.008672335338726926   -0.08867998881944647   -0.003035938747052732
-0.005539416043878147   -0.09   -0.0031705758895490214
-0.008463311495378694   -0.08858374890992878   -0.002810690153844516
-0.006347055320751466   -0.08924985305741902   -0.0027423331785866177
-0.005163939394446477   -0.09   -0.002822878276210542
-0.008463311495378694   -0.08858374890992878   -0.002810690153844516
-0.005539416043878147   -0.09   -0.0031705758895490214
-0.006347055320751466   -0.08924985305741902   -0.0027423331785866177
-0.008463311495378694   -0.08858374890992878   -0.002810690153844516
-0.007696223532674564   -0.08867302953675747   -0.0026654459346351542
-0.00785623607721557   -0.08877503157860125   -0.0027792324048762705
-0.006347055320751466   -0.08924985305741902   -0.0027423331785866177
-0.008463311495378694   -0.08858374890992878   -0.002810690153844516
-0.00785623607721557   -0.08877503157860125   -0.0027792324048762705
-0.005539416043878147   -0.09   -0.0031705758895490214
-0.006347055320751466   -0.08924985305741902   -0.0027423331785866177
-0.007696223532674564   -0.08867302953675747   -0.0026654459346351542
-0.005163939394446477   -0.09   -0.002822878276210542
-0.006070415723119454   -0.08924561373860906   -0.0025140619732710997
-0.007696223532674564   -0.08867302953675747   -0.0026654459346351542
-0.008463311495378694   -0.08858374890992878   -0.002810690153844516
-0.005163939394446477   -0.09   -0.002822878276210542
-0.008187581711185022   -0.08856177910309666   -0.0025683865038683374
-0.006070415723119454   -0.08924561373860906   -0.0025140619732710997
-0.004786739362685874   -0.09   -0.0024710551699716967
-0.008187581711185022   -0.08856177910309666   -0.0025683865038683374
-0.005163939394446477   -0.09   -0.002822878276210542
-0.006070415723119454   -0.08924561373860906   -0.0025140619732710997
-0.008187581711185022   -0.08856177910309666   -0.0025683865038683374
-0.00750426432916908   -0.08864049890621173   -0.0025363341197661283
-0.007696223532674564   -0.08867302953675747   -0.0026654459346351542
-0.006070415723119454   -0.08924561373860906   -0.0025140619732710997
-0.008187581711185022   -0.08856177910309666   -0.0025683865038683374
-0.007696223532674564   -0.08867302953675747   -0.0026654459346351542
-0.005163939394446477   -0.09   -0.002822878276210542
-0.006070415723119454   -0.08924561373860906   -0.0025140619732710997
-0.00750426432916908   -0.08864049890621173   -0.0025363341197661283
-0.004786739362685874   -0.09   -0.0024710551699716967
-0.005773369439953795   -0.08931121723363489   -0.0022852480788433504
-0.00750426432916908   -0.08864049890621173   -0.0025363341197661283
-0.008187581711185022   -0.08856177910309666   -0.0025683865038683374
-0.004786739362685874   -0.09   -0.0024710551699716967
-0.007928094664050804   -0.08859972048743539   -0.0023167034982200267
-0.005773369439953795   -0.08931121723363489   -0.0022852480788433504
-0.004417940520192777   -0.09   -0.002123878033258291
-0.007928094664050804   -0.08859972048743539   -0.0023167034982200267
-0.004786739362685874   -0.09   -0.0024710551699716967
-0.005773369439953795   -0.08931121723363489   -0.0022852480788433504
-0.007928094664050804   -0.08859972048743539   -0.0023167034982200267
-0.00730683901435987   -0.08866649099574513   -0.0023987970531736793
-0.00750426432916908   -0.08864049890621173   -0.0025363341197661283
-0.005773369439953795   -0.08931121723363489   -0.0022852480788433504
-0.007928094664050804   -0.08859972048743539   -0.0023167034982200267
-0.00750426432916908   -0.08864049890621173   -0.0025363341197661283
-0.004786739362685874   -0.09   -0.0024710551699716967
-0.005539416043878147   -0.09   -0.0031705758895490214
-0.008672335338726926   -0.08867998881944647   -0.003035938747052732
-0.0047376444813672395   -0.09   -0.003411801434016292
-0.005163939394446477   -0.09   -0.002822878276210542
-0.008672335338726926   -0.08867998881944647   -0.003035938747052732
-0.010257259425553606   -0.08824587779199312   -0.0033079346318635777
-0.0047376444813672395   -0.09   -0.003411801434016292
-0.009702396809559435   -0.0881648658553756   -0.0029383684040677374
-0.005163939394446477   -0.09   -0.002822878276210542
-0.003953079022958513   -0.09   -0.002908901192117458
-0.009702396809559435   -0.0881648658553756   -0.0029383684040677374
-0.0047376444813672395   -0.09   -0.003411801434016292
-0.005163939394446477   -0.09   -0.002822878276210542
-0.009702396809559435   -0.0881648658553756   -0.0029383684040677374
-0.008463311495378694   -0.08858374890992878   -0.002810690153844516
-0.008672335338726926   -0.08867998881944647   -0.003035938747052732
-0.005163939394446477   -0.09   -0.002822878276210542
-0.009702396809559435   -0.0881648658553756   -0.0029383684040677374
-0.008672335338726926   -0.08867998881944647   -0.003035938747052732
-0.0047376444813672395   -0.09   -0.003411801434016292
-0.005163939394446477   -0.09   -0.002822878276210542
-0.008463311495378694   -0.08858374890992878   -0.002810690153844516
-0.003953079022958513   -0.09   -0.002908901192117458
-0.004786739362685874   -0.09   -0.0024710551699716967
-0.008463311495378694   -0.08858374890992878   -0.002810690153844516
-0.009702396809559435   -0.0881648658553756   -0.0029383684040677374
-0.003953079022958513   -0.09   -0.002908901192117458
-0.009192416112575855   -0.0881536767113812   -0.002543820233661636
-0.004786739362685874   -0.09   -0.0024710551699716967
-0.003327394558716333   -0.09   -0.0024278078533697656
-0.009192416112575855   -0.0881536767113812   -0.002543820233661636
-0.003953079022958513   -0.09   -0.002908901192117458
-0.004786739362685874   -0.09   -0.0024710551699716967
-0.009192416112575855   -0.0881536767113812   -0.002543820233661636
-0.008187581711185022   -0.08856177910309666   -0.0025683865038683374
-0.008463311495378694   -0.08858374890992878   -0.002810690153844516
-0.004786739362685874   -0.09   -0.0024710551699716967
-0.009192416112575855   -0.0881536767113812   -0.002543820233661636
-0.008463311495378694   -0.08858374890992878   -0.002810690153844516
-0.003953079022958513   -0.09   -0.002908901192117458
-0.004786739362685874   -0.09   -0.0024710551699716967
-0.008187581711185022   -0.08856177910309666   -0.0025683865038683374
-0.003327394558716333   -0.09   -0.0024278078533697656
-0.004417940520192777   -0.09   -0.002123878033258291
-0.008187581711185022   -0.08856177910309666   -0.0025683865038683374
-0.009192416112575855   -0.0881536767113812   -0.002543820233661636
-0.003327394558716333   -0.09   -0.0024278078533697656
-0.00854839734099095   -0.08826002456263089   -0.002131115689391098
-0.004417940520192777   -0.09   -0.002123878033258291
-0.002554463266918717   -0.09   -0.0019283845713905783
-0.00854839734099095   -0.08826002456263089   -0.002131115689391098
-0.003327394558716333   -0.09   -0.0024278078533697656
-0.004417940520192777   -0.09   -0.002123878033258291
-0.00854839734099095   -0.08826002456263089   -0.002131115689391098
-0.007928094664050804   -0.08859972048743539   -0.0023167034982200267
-0.008187581711185022   -0.08856177910309666   -0.0025683865038683374
-0.004417940520192777   -0.09   -0.002123878033258291
-0.00854839734099095   -0.08826002456263089   -0.002131115689391098
-0.008187581711185022   -0.08856177910309666   -0.0025683865038683374
-0.003327394558716333   -0.09   -0.0024278078533697656
-0.0063776095829960406   -0.08813252776410799   -0.0018907768140178334
-0.0025927993108143038   -0.08479553980085563   -0.0016340401428279784
-0.006766838342925962   -0.08847424429780747   -0.002234261640475205
-0.005932625494259762   -0.08797865513545595   -0.0021835992667589327
-0.0025927993108143038   -0.08479553980085563   -0.0016340401428279784
-0.0048523465902176885   -0.08505310633618175   -0.0019988254878129073
-0.006766838342925962   -0.08847424429780747   -0.002234261640475205
-0.004728441619541292   -0.08490809910616127   -0.0021103077559239784
-0.005932625494259762   -0.08797865513545595   -0.0021835992667589327
-0.006592329051570548   -0.08835439564375017   -0.002359354179008366
-0.004728441619541292   -0.08490809910616127   -0.0021103077559239784
-0.006766838342925962   -0.08847424429780747   -0.002234261640475205
-0.005932625494259762   -0.08797865513545595   -0.0021835992667589327
-0.004728441619541292   -0.08490809910616127   -0.0021103077559239784
-0.0022381977377686716   -0.08461613519970336   -0.0018869845683298645
-0.0025927993108143038   -0.08479553980085563   -0.0016340401428279784
-0.005932625494259762   -0.08797865513545595   -0.0021835992667589327
-0.004728441619541292   -0.08490809910616127   -0.0021103077559239784
-0.0025927993108143038   -0.08479553980085563   -0.0016340401428279784
-0.006766838342925962   -0.08847424429780747   -0.002234261640475205
-0.005932625494259762   -0.08797865513545595   -0.0021835992667589327
-0.0022381977377686716   -0.08461613519970336   -0.0018869845683298645
-0.006592329051570548   -0.08835439564375017   -0.002359354179008366
-0.005562207437116642   -0.08793112633042707   -0.0024643756130652826
-0.0022381977377686716   -0.08461613519970336   -0.0018869845683298645
-0.004728441619541292   -0.08490809910616127   -0.0021103077559239784
-0.006592329051570548   -0.08835439564375017   -0.002359354179008366
-0.004588995962266976   -0.08482758960621509   -0.0022117138851429673
-0.005562207437116642   -0.08793112633042707   -0.0024643756130652826
-0.006387675071562206   -0.08831001135212287   -0.002474740536278407
-0.004588995962266976   -0.08482758960621509   -0.0022117138851429673
-0.006592329051570548   -0.08835439564375017   -0.002359354179008366
-0.005562207437116642   -0.08793112633042707   -0.0024643756130652826
-0.004588995962266976   -0.08482758960621509   -0.0022117138851429673
-0.0019591729341875796   -0.08453050244881301   -0.002124991939907004
-0.0022381977377686716   -0.08461613519970336   -0.0018869845683298645
-0.005562207437116642   -0.08793112633042707   -0.0024643756130652826
-0.004588995962266976   -0.08482758960621509   -0.0022117138851429673
-0.0022381977377686716   -0.08461613519970336   -0.0018869845683298645
-0.006592329051570548   -0.08835439564375017   -0.002359354179008366
-0.005562207437116642   -0.08793112633042707   -0.0024643756130652826
-0.0019591729341875796   -0.08453050244881301   -0.002124991939907004
-0.006387675071562206   -0.08831001135212287   -0.002474740536278407
-0.005143192828232992   -0.08797070054252963   -0.0027318528626688833
-0.0019591729341875796   -0.08453050244881301   -0.002124991939907004
-0.004588995962266976   -0.08482758960621509   -0.0022117138851429673
-0.006387675071562206   -0.08831001135212287   -0.002474740536278407
-0.004482069006981381   -0.0848093308137235   -0.002303364160984522
-0.005143192828232992   -0.08797070054252963   -0.0027318528626688833
-0.006212339168116588   -0.08834172652951423   -0.0025798145684085816
-0.004482069006981381   -0.0848093308137235   -0.002303364160984522
-0.006387675071562206   -0.08831001135212287   -0.002474740536278407
-0.005143192828232992   -0.08797070054252963   -0.0027318528626688833
-0.004482069006981381   -0.0848093308137235   -0.002303364160984522
-0.0016545580116690069   -0.08451407649403003   -0.0023474287679364292
-0.0019591729341875796   -0.08453050244881301   -0.002124991939907004
-0.005143192828232992   -0.08797070054252963   -0.0027318528626688833
-0.004482069006981381   -0.0848093308137235   -0.002303364160984522
-0.0019591729341875796   -0.08453050244881301   -0.002124991939907004
-0.006387675071562206   -0.08831001135212287   -0.002474740536278407
-0.006766838342925962   -0.08847424429780747   -0.002234261640475205
-0.0048523465902176885   -0.08505310633618175   -0.0019988254878129073
-0.007292673464543565   -0.08868575394855922   -0.002508932550535805
-0.006592329051570548   -0.08835439564375017   -0.002359354179008366
-0.0048523465902176885   -0.08505310633618175   -0.0019988254878129073
-0.007082074846276098   -0.0851440414456258   -0.00229644231300079
-0.007292673464543565   -0.08868575394855922   -0.002508932550535805
-0.006977866361900671   -0.08501752814932056   -0.0023026238174339675
-0.006592329051570548   -0.08835439564375017   -0.002359354179008366
-0.0071382036186416736   -0.08857874651301254   -0.0025122434805342013
-0.006977866361900671   -0.08501752814932056   -0.0023026238174339675
-0.007292673464543565   -0.08868575394855922   -0.002508932550535805
-0.006592329051570548   -0.08835439564375017   -0.002359354179008366
-0.006977866361900671   -0.08501752814932056   -0.0023026238174339675
-0.004728441619541292   -0.08490809910616127   -0.0021103077559239784
-0.0048523465902176885   -0.08505310633618175   -0.0019988254878129073
-0.006592329051570548   -0.08835439564375017   -0.002359354179008366
-0.006977866361900671   -0.08501752814932056   -0.0023026238174339675
-0.0048523465902176885   -0.08505310633618175   -0.0019988254878129073
-0.007292673464543565   -0.08868575394855922   -0.002508932550535805
-0.006592329051570548   -0.08835439564375017   -0.002359354179008366
-0.004728441619541292   -0.08490809910616127   -0.0021103077559239784
-0.0071382036186416736   -0.08857874651301254   -0.0025122434805342013
-0.006387675071562206   -0.08831001135212287   -0.002474740536278407
-0.004728441619541292   -0.08490809910616127   -0.0021103077559239784
-0.006977866361900671   -0.08501752814932056   -0.0023026238174339675
-0.0071382036186416736   -0.08857874651301254   -0.0025122434805342013
-0.006870091251259384   -0.08494915916609268   -0.002299474351170024
-0.006387675071562206   -0.08831001135212287   -0.002474740536278407
-0.006966259442493939   -0.08854008997851931   -0.0025029702501145196
-0.006870091251259384   -0.08494915916609268   -0.002299474351170024
-0.0071382036186416736   -0.08857874651301254   -0.0025122434805342013
-0.006387675071562206   -0.08831001135212287   -0.002474740536278407
-0.006870091251259384   -0.08494915916609268   -0.002299474351170024
-0.004588995962266976   -0.08482758960621509   -0.0022117138851429673
-0.004728441619541292   -0.08490809910616127   -0.0021103077559239784
-0.006387675071562206   -0.08831001135212287   -0.002474740536278407
-0.006870091251259384   -0.08494915916609268   -0.002299474351170024
-0.004728441619541292   -0.08490809910616127   -0.0021103077559239784
-0.0071382036186416736   -0.08857874651301254   -0.0025122434805342013
-0.006387675071562206   -0.08831001135212287   -0.002474740536278407
-0.004588995962266976   -0.08482758960621509   -0.0022117138851429673
-0.006966259442493939   -0.08854008997851931   -0.0025029702501145196
-0.006212339168116588   -0.08834172652951423   -0.0025798145684085816
-0.004588995962266976   -0.08482758960621509   -0.0022117138851429673
-0.006870091251259384   -0.08494915916609268   -0.002299474351170024
-0.006966259442493939   -0.08854008997851931   -0.0025029702501145196
-0.0067661465771580945   -0.08493612086107619   -0.0022869031968550946
-0.006212339168116588   -0.08834172652951423   -0.0025798145684085816
-0.006791427037584164   -0.08856664869404321   -0.002483822930242545
-0.0067661465771580945   -0.08493612086107619   -0.0022869031968550946
-0.006966259442493939   -0.08854008997851931   -0.0025029702501145196
-0.006212339168116588   -0.08834172652951423   -0.0025798145684085816
-0.0067661465771580945   -0.08493612086107619   -0.0022869031968550946
-0.004482069006981381   -0.0848093308137235   -0.002303364160984522
-0.004588995962266976   -0.08482758960621509   -0.0022117138851429673
-0.006212339168116588   -0.08834172652951423   -0.0025798145684085816
-0.0067661465771580945   -0.08493612086107619   -0.0022869031968550946
-0.004588995962266976   -0.08482758960621509   -0.0022117138851429673
-0.006966259442493939   -0.08854008997851931   -0.0025029702501145196
-0.007292673464543565   -0.08868575394855922   -0.002508932550535805
-0.007082074846276098   -0.0851440414456258   -0.00229644231300079
-0.00785623607721557   -0.08877503157860125   -0.0027792324048762705
-0.0071382036186416736   -0.08857874651301254   -0.0025122434805342013
-0.007082074846276098   -0.0851440414456258   -0.00229644231300079
-0.00929626965133342   -0.08506333994546045   -0.00257496333754685
-0.00785623607721557   -0.08877503157860125   -0.0027792324048762705
-0.009192884138712014   -0.08495099726526677   -0.0024801829638276215
-0.0071382036186416736   -0.08857874651301254   -0.0025122434805342013
-0.007696223532674564   -0.08867302953675747   -0.0026654459346351542
-0.009192884138712014   -0.08495099726526677   -0.0024801829638276215
-0.00785623607721557   -0.08877503157860125   -0.0027792324048762705
-0.0071382036186416736   -0.08857874651301254   -0.0025122434805342013
-0.009192884138712014   -0.08495099726526677   -0.0024801829638276215
-0.006977866361900671   -0.08501752814932056   -0.0023026238174339675
-0.007082074846276098   -0.0851440414456258   -0.00229644231300079
-0.0071382036186416736   -0.08857874651301254   -0.0025122434805342013
-0.009192884138712014   -0.08495099726526677   -0.0024801829638276215
-0.007082074846276098   -0.0851440414456258   -0.00229644231300079
-0.00785623607721557   -0.08877503157860125   -0.0027792324048762705
-0.0071382036186416736   -0.08857874651301254   -0.0025122434805342013
-0.006977866361900671   -0.08501752814932056   -0.0023026238174339675
-0.007696223532674564   -0.08867302953675747   -0.0026654459346351542
-0.006966259442493939   -0.08854008997851931   -0.0025029702501145196
-0.006977866361900671   -0.08501752814932056   -0.0023026238174339675
-0.009192884138712014   -0.08495099726526677   -0.0024801829638276215
-0.007696223532674564   -0.08867302953675747   -0.0026654459346351542
-0.009076861145480139   -0.08489581963129625   -0.002376208320877234
-0.006966259442493939   -0.08854008997851931   -0.0025029702501145196
-0.00750426432916908   -0.08864049890621173   -0.0025363341197661283
-0.009076861145480139   -0.08489581963129625   -0.002376208320877234
-0.007696223532674564   -0.08867302953675747   -0.0026654459346351542
-0.006966259442493939   -0.08854008997851931   -0.0025029702501145196
-0.009076861145480139   -0.08489581963129625   -0.002376208320877234
-0.006870091251259384   -0.08494915916609268   -0.002299474351170024
-0.006977866361900671   -0.08501752814932056   -0.0023026238174339675
-0.006966259442493939   -0.08854008997851931   -0.0025029702501145196
-0.009076861145480139   -0.08489581963129625   -0.002376208320877234
-0.006977866361900671   -0.08501752814932056   -0.0023026238174339675
-0.007696223532674564   -0.08867302953675747   -0.0026654459346351542
-0.006966259442493939   -0.08854008997851931   -0.0025029702501145196
-0.006870091251259384   -0.08494915916609268   -0.002299474351170024
-0.00750426432916908   -0.08864049890621173   -0.0025363341197661283
-0.006791427037584164   -0.08856664869404321   -0.002483822930242545
-0.006870091251259384   -0.08494915916609268   -0.002299474351170024
-0.009076861145480139   -0.08489581963129625   -0.002376208320877234
-0.00750426432916908   -0.08864049890621173   -0.0025363341197661283
-0.008960340870248974   -0.0848922868646576   -0.0022619189481527108
-0.006791427037584164   -0.08856664869404321   -0.002483822930242545
-0.00730683901435987   -0.08866649099574513   -0.0023987970531736793
-0.008960340870248974   -0.0848922868646576   -0.0022619189481527108
-0.00750426432916908   -0.08864049890621173   -0.0025363341197661283
-0.006791427037584164   -0.08856664869404321   -0.002483822930242545
-0.008960340870248974   -0.0848922868646576   -0.0022619189481527108
-0.0067661465771580945   -0.08493612086107619   -0.0022869031968550946
-0.006870091251259384   -0.08494915916609268   -0.002299474351170024
-0.006791427037584164   -0.08856664869404321   -0.002483822930242545
-0.008960340870248974   -0.0848922868646576   -0.0022619189481527108
-0.006870091251259384   -0.08494915916609268   -0.002299474351170024
-0.00750426432916908   -0.08864049890621173   -0.0025363341197661283
-0.00785623607721557   -0.08877503157860125   -0.0027792324048762705
-0.00929626965133342   -0.08506333994546045   -0.00257496333754685
-0.008672335338726926   -0.08867998881944647   -0.003035938747052732
-0.007696223532674564   -0.08867302953675747   -0.0026654459346351542
-0.00929626965133342   -0.08506333994546045   -0.00257496333754685
-0.011729226592936784   -0.08480028885740977   -0.0028307288860077015
-0.008672335338726926   -0.08867998881944647   -0.003035938747052732
-0.011602715999660725   -0.08470216114971667   -0.002637253398875442
-0.007696223532674564   -0.08867302953675747   -0.0026654459346351542
-0.008463311495378694   -0.08858374890992878   -0.002810690153844516
-0.011602715999660725   -0.08470216114971667   -0.002637253398875442
-0.008672335338726926   -0.08867998881944647   -0.003035938747052732
-0.007696223532674564   -0.08867302953675747   -0.0026654459346351542
-0.011602715999660725   -0.08470216114971667   -0.002637253398875442
-0.009192884138712014   -0.08495099726526677   -0.0024801829638276215
-0.00929626965133342   -0.08506333994546045   -0.00257496333754685
-0.007696223532674564   -0.08867302953675747   -0.0026654459346351542
-0.011602715999660725   -0.08470216114971667   -0.002637253398875442
-0.00929626965133342   -0.08506333994546045   -0.00257496333754685
-0.008672335338726926   -0.08867998881944647   -0.003035938747052732
-0.007696223532674564   -0.08867302953675747   -0.0026654459346351542
-0.009192884138712014   -0.08495099726526677   -0.0024801829638276215
-0.008463311495378694   -0.08858374890992878   -0.002810690153844516
-0.00750426432916908   -0.08864049890621173   -0.0025363341197661283
-0.009192884138712014   -0.08495099726526677   -0.0024801829638276215
-0.011602715999660725   -0.08470216114971667   -0.002637253398875442
-0.008463311495378694   -0.08858374890992878   -0.002810690153844516
-0.01142809292495894   -0.08466012218160203   -0.0024352537255944873
-0.00750426432916908   -0.08864049890621173   -0.0025363341197661283
-0.008187581711185022   -0.08856177910309666   -0.0025683865038683374
-0.01142809292495894   -0.08466012218160203   -0.0024352537255944873
-0.008463311495378694   -0.08858374890992878   -0.002810690153844516
-0.00750426432916908   -0.08864049890621173   -0.0025363341197661283
-0.01142809292495894   -0.08466012218160203   -0.0024352537255944873
-0.009076861145480139   -0.08489581963129625   -0.002376208320877234
-0.009192884138712014   -0.08495099726526677   -0.0024801829638276215
-0.00750426432916908   -0.08864049890621173   -0.0025363341197661283
-0.01142809292495894   -0.08466012218160203   -0.0024352537255944873
-0.009192884138712014   -0.08495099726526677   -0.0024801829638276215
-0.008463311495378694   -0.08858374890992878   -0.002810690153844516
-0.00750426432916908   -0.08864049890621173   -0.0025363341197661283
-0.009076861145480139   -0.08489581963129625   -0.002376208320877234
-0.008187581711185022   -0.08856177910309666   -0.0025683865038683374
-0.00730683901435987   -0.08866649099574513   -0.0023987970531736793
-0.009076861145480139   -0.08489581963129625   -0.002376208320877234
-0.01142809292495894   -0.08466012218160203   -0.0024352537255944873
-0.008187581711185022   -0.08856177910309666   -0.0025683865038683374
-0.011275600585211727   -0.08467424266799908   -0.002219088846866995
-0.00730683901435987   -0.08866649099574513   -0.0023987970531736793
-0.007928094664050804   -0.08859972048743539   -0.0023167034982200267
-0.011275600585211727   -0.08467424266799908   -0.002219088846866995
-0.008187581711185022   -0.08856177910309666   -0.0025683865038683374
-0.00730683901435987   -0.08866649099574513   -0.0023987970531736793
-0.011275600585211727   -0.08467424266799908   -0.002219088846866995
-0.008960340870248974   -0.0848922868646576   -0.0022619189481527108
-0.009076861145480139   -0.08489581963129625   -0.002376208320877234
-0.00730683901435987   -0.08866649099574513   -0.0023987970531736793
-0.011275600585211727   -0.08467424266799908   -0.002219088846866995
-0.009076861145480139   -0.08489581963129625   -0.002376208320877234
-0.008187581711185022   -0.08856177910309666   -0.0025683865038683374
-0.008672335338726926   -0.08867998881944647   -0.003035938747052732
-0.011729226592936784   -0.08480028885740977   -0.0028307288860077015
-0.010257259425553606   -0.08824587779199312   -0.0033079346318635777
-0.008463311495378694   -0.08858374890992878   -0.002810690153844516
-0.011729226592936784   -0.08480028885740977   -0.0028307288860077015
-0.01486235779220304   -0.08437248288891208   -0.0030760006914106464
-0.010257259425553606   -0.08824587779199312   -0.0033079346318635777
-0.014455592962707918   -0.08426618908444165   -0.0027705589003170403
-0.008463311495378694   -0.08858374890992878   -0.002810690153844516
-0.009702396809559435   -0.0881648658553756   -0.0029383684040677374
-0.014455592962707918   -0.08426618908444165   -0.0027705589003170403
-0.010257259425553606   -0.08824587779199312   -0.0033079346318635777
-0.008463311495378694   -0.08858374890992878   -0.002810690153844516
-0.014455592962707918   -0.08426618908444165   -0.0027705589003170403
-0.011602715999660725   -0.08470216114971667   -0.002637253398875442
-0.011729226592936784   -0.08480028885740977   -0.0028307288860077015
-0.008463311495378694   -0.08858374890992878   -0.002810690153844516
-0.014455592962707918   -0.08426618908444165   -0.0027705589003170403
-0.011729226592936784   -0.08480028885740977   -0.0028307288860077015
-0.010257259425553606   -0.08824587779199312   -0.0033079346318635777
-0.008463311495378694   -0.08858374890992878   -0.002810690153844516
-0.011602715999660725   -0.08470216114971667   -0.002637253398875442
-0.009702396809559435   -0.0881648658553756   -0.0029383684040677374
-0.008187581711185022   -0.08856177910309666   -0.0025683865038683374
-0.011602715999660725   -0.08470216114971667   -0.002637253398875442
-0.014455592962707918   -0.08426618908444165   -0.0027705589003170403
-0.009702396809559435   -0.0881648658553756   -0.0029383684040677374
-0.01409084597887092   -0.08422730430209925   -0.002447251790216359
-0.008187581711185022   -0.08856177910309666   -0.0025683865038683374
-0.009192416112575855   -0.0881536767113812   -0.002543820233661636
-0.01409084597887092   -0.08422730430209925   -0.002447251790216359
-0.009702396809559435   -0.0881648658553756   -0.0029383684040677374
-0.008187581711185022   -0.08856177910309666   -0.0025683865038683374
-0.01409084597887092   -0.08422730430209925   -0.002447251790216359
-0.01142809292495894   -0.08466012218160203   -0.0024352537255944873
-0.011602715999660725   -0.08470216114971667   -0.002637253398875442
-0.008187581711185022   -0.08856177910309666   -0.0025683865038683374
-0.01409084597887092   -0.08422730430209925   -0.002447251790216359
-0.011602715999660725   -0.08470216114971667   -0.002637253398875442
-0.009702396809559435   -0.0881648658553756   -0.0029383684040677374
-0.008187581711185022   -0.08856177910309666   -0.0025683865038683374
-0.01142809292495894   -0.08466012218160203   -0.0024352537255944873
-0.009192416112575855   -0.0881536767113812   -0.002543820233661636
-0.007928094664050804   -0.08859972048743539   -0.0023167034982200267
-0.01142809292495894   -0.08466012218160203   -0.0024352537255944873
-0.01409084597887092   -0.08422730430209925   -0.002447251790216359
-0.009192416112575855   -0.0881536767113812   -0.002543820233661636
-0.013618097613204769   -0.08427584487697248   -0.0021091570020656345
-0.007928094664050804   -0.08859972048743539   -0.0023167034982200267
-0.00854839734099095   -0.08826002456263089   -0.002131115689391098
-0.013618097613204769   -0.08427584487697248   -0.0021091570020656345
-0.009192416112575855   -0.0881536767113812   -0.002543820233661636
-0.007928094664050804   -0.08859972048743539   -0.0023167034982200267
-0.013618097613204769   -0.08427584487697248   -0.0021091570020656345
-0.011275600585211727   -0.08467424266799908   -0.002219088846866995
-0.01142809292495894   -0.08466012218160203   -0.0024352537255944873
-0.007928094664050804   -0.08859972048743539   -0.0023167034982200267
-0.013618097613204769   -0.08427584487697248   -0.0021091570020656345
-0.01142809292495894   -0.08466012218160203   -0.0024352537255944873
-0.009192416112575855   -0.0881536767113812   -0.002543820233661636
-0.0025927993108143038   -0.08479553980085563   -0.0016340401428279784
0.0004752268502829704   -0.07866090569253933   -0.001351931481723293
-0.0048523465902176885   -0.08505310633618175   -0.0019988254878129073
-0.0022381977377686716   -0.08461613519970336   -0.0018869845683298645
0.0004752268502829704   -0.07866090569253933   -0.001351931481723293
-0.0033331473394204   -0.0788496231031116   -0.001710009389947556
-0.0048523465902176885   -0.08505310633618175   -0.0019988254878129073
-0.0032675298631260866   -0.07869766790097148   -0.0017983899886415938
-0.0022381977377686716   -0.08461613519970336   -0.0018869845683298645
-0.004728441619541292   -0.08490809910616127   -0.0021103077559239784
-0.0032675298631260866   -0.07869766790097148   -0.0017983899886415938
-0.0048523465902176885   -0.08505310633618175   -0.0019988254878129073
-0.0022381977377686716   -0.08461613519970336   -0.0018869845683298645
-0.0032675298631260866   -0.07869766790097148   -0.0017983899886415938
0.0007226196270879957   -0.07847866450637923   -0.0015531930896016909
0.0004752268502829704   -0.07866090569253933   -0.001351931481723293
-0.0022381977377686716   -0.08461613519970336   -0.0018869845683298645
-0.0032675298631260866   -0.07869766790097148   -0.0017983899886415938
0.0004752268502829704   -0.07866090569253933   -0.001351931481723293
-0.0048523465902176885   -0.08505310633618175   -0.0019988254878129073
-0.0022381977377686716   -0.08461613519970336   -0.0018869845683298645
0.0007226196270879957   -0.07847866450637923   -0.0015531930896016909
-0.004728441619541292   -0.08490809910616127   -0.0021103077559239784
-0.0019591729341875796   -0.08453050244881301   -0.002124991939907004
0.0007226196270879957   -0.07847866450637923   -0.0015531930896016909
-0.0032675298631260866   -0.07869766790097148   -0.0017983899886415938
-0.004728441619541292   -0.08490809910616127   -0.0021103077559239784
-0.0031928454540567737   -0.07859826881510248   -0.0018764487430183907
-0.0019591729341875796   -0.08453050244881301   -0.002124991939907004
-0.004588995962266976   -0.08482758960621509   -0.0022117138851429673
-0.0031928454540567737   -0.07859826881510248   -0.0018764487430183907
-0.004728441619541292   -0.08490809910616127   -0.0021103077559239784
-0.0019591729341875796   -0.08453050244881301   -0.002124991939907004
-0.0031928454540567737   -0.07859826881510248   -0.0018764487430183907
0.0009045786869318613   -0.0783731736589447   -0.0017400077345817552
0.0007226196270879957   -0.07847866450637923   -0.0015531930896016909
-0.0019591729341875796   -0.08453050244881301   -0.002124991939907004
-0.0031928454540567737   -0.07859826881510248   -0.0018764487430183907
0.0007226196270879957   -0.07847866450637923   -0.0015531930896016909
-0.004728441619541292   -0.08490809910616127   -0.0021103077559239784
-0.0019591729341875796   -0.08453050244881301   -0.002124991939907004
0.0009045786869318613   -0.0783731736589447   -0.0017400077345817552
-0.004588995962266976   -0.08482758960621509   -0.0022117138851429673
-0.0016545580116690069   -0.08451407649403003   -0.0023474287679364292
0.0009045786869318613   -0.0783731736589447   -0.0017400077345817552
-0.0031928454540567737   -0.07859826881510248   -0.0018764487430183907
-0.004588995962266976   -0.08482758960621509   -0.0022117138851429673
-0.0031481990755615535   -0.07854848988905522   -0.0019452045150072505
-0.0016545580116690069   -0.08451407649403003   -0.0023474287679364292
-0.004482069006981381   -0.0848093308137235   -0.002303364160984522
-0.0031481990755615535   -0.07854848988905522   -0.0019452045150072505
-0.004588995962266976   -0.08482758960621509   -0.0022117138851429673
-0.0016545580116690069   -0.08451407649403003   -0.0023474287679364292
-0.0031481990755615535   -0.07854848988905522   -0.0019452045150072505
0.0010992729107177077   -0.07832089443124697   -0.0019123031430001041
0.0009045786869318613   -0.0783731736589447   -0.0017400077345817552
-0.0016545580116690069   -0.08451407649403003   -0.0023474287679364292
-0.0031481990755615535   -0.07854848988905522   -0.0019452045150072505
0.0009045786869318613   -0.0783731736589447   -0.0017400077345817552
-0.004588995962266976   -0.08482758960621509   -0.0022117138851429673
-0.0048523465902176885   -0.08505310633618175   -0.0019988254878129073
-0.0033331473394204   -0.0788496231031116   -0.001710009389947556
-0.007082074846276098   -0.0851440414456258   -0.00229644231300079
-0.004728441619541292   -0.08490809910616127   -0.0021103077559239784
-0.0033331473394204   -0.0788496231031116   -0.001710009389947556
-0.007016671740023646   -0.07888570391622166   -0.0020051675024709103
-0.007082074846276098   -0.0851440414456258   -0.00229644231300079
-0.006968409866193873   -0.07875523367258973   -0.002007472358388479
-0.004728441619541292   -0.08490809910616127   -0.0021103077559239784
-0.006977866361900671   -0.08501752814932056   -0.0023026238174339675
-0.006968409866193873   -0.07875523367258973   -0.002007472358388479
-0.007082074846276098   -0.0851440414456258   -0.00229644231300079
-0.004728441619541292   -0.08490809910616127   -0.0021103077559239784
-0.006968409866193873   -0.07875523367258973   -0.002007472358388479
-0.0032675298631260866   -0.07869766790097148   -0.0017983899886415938
-0.0033331473394204   -0.0788496231031116   -0.001710009389947556
-0.004728441619541292   -0.08490809910616127   -0.0021103077559239784
-0.006968409866193873   -0.07875523367258973   -0.002007472358388479
-0.0033331473394204   -0.0788496231031116   -0.001710009389947556
-0.007082074846276098   -0.0851440414456258   -0.00229644231300079
-0.004728441619541292   -0.08490809910616127   -0.0021103077559239784
-0.0032675298631260866   -0.07869766790097148   -0.0017983899886415938
-0.006977866361900671   -0.08501752814932056   -0.0023026238174339675
-0.004588995962266976   -0.08482758960621509   -0.0022117138851429673
-0.0032675298631260866   -0.07869766790097148   -0.0017983899886415938
-0.006968409866193873   -0.07875523367258973   -0.002007472358388479
-0.006977866361900671   -0.08501752814932056   -0.0023026238174339675
-0.006918787127285002   -0.07867180656381768   -0.0019998895976338638
-0.004588995962266976   -0.08482758960621509   -0.0022117138851429673
-0.006870091251259384   -0.08494915916609268   -0.002299474351170024
-0.006918787127285002   -0.07867180656381768   -0.0019998895976338638
-0.006977866361900671   -0.08501752814932056   -0.0023026238174339675
-0.004588995962266976   -0.08482758960621509   -0.0022117138851429673
-0.006918787127285002   -0.07867180656381768   -0.0019998895976338638
-0.0031928454540567737   -0.07859826881510248   -0.0018764487430183907
-0.0032675298631260866   -0.07869766790097148   -0.0017983899886415938
-0.004588995962266976   -0.08482758960621509   -0.0022117138851429673
-0.006918787127285002   -0.07867180656381768   -0.0019998895976338638
-0.0032675298631260866   -0.07869766790097148   -0.0017983899886415938
-0.006977866361900671   -0.08501752814932056   -0.0023026238174339675
-0.004588995962266976   -0.08482758960621509   -0.0022117138851429673
-0.0031928454540567737   -0.07859826881510248   -0.0018764487430183907
-0.006870091251259384   -0.08494915916609268   -0.002299474351170024
-0.004482069006981381   -0.0848093308137235   -0.002303364160984522
-0.0031928454540567737   -0.07859826881510248   -0.0018764487430183907
-0.006918787127285002   -0.07867180656381768   -0.0019998895976338638
-0.006870091251259384   -0.08494915916609268   -0.002299474351170024
-0.006875382927901222   -0.07863464149885903   -0.0019830749104157996
-0.004482069006981381   -0.0848093308137235   -0.002303364160984522
-0.0067661465771580945   -0.08493612086107619   -0.0022869031968550946
-0.006875382927901222   -0.07863464149885903   -0.0019830749104157996
-0.006870091251259384   -0.08494915916609268   -0.002299474351170024
-0.004482069006981381   -0.0848093308137235   -0.002303364160984522
-0.006875382927901222   -0.07863464149885903   -0.0019830749104157996
-0.0031481990755615535   -0.07854848988905522   -0.0019452045150072505
-0.0031928454540567737   -0.07859826881510248   -0.0018764487430183907
-0.004482069006981381   -0.0848093308137235   -0.002303364160984522
-0.006875382927901222   -0.07863464149885903   -0.0019830749104157996
-0.0031928454540567737   -0.07859826881510248   -0.0018764487430183907
-0.006870091251259384   -0.08494915916609268   -0.002299474351170024
-0.007082074846276098   -0.0851440414456258   -0.00229644231300079
-0.007016671740023646   -0.07888570391622166   -0.0020051675024709103
-0.00929626965133342   -0.08506333994546045   -0.00257496333754685
-0.006977866361900671   -0.08501752814932056   -0.0023026238174339675
-0.007016671740023646   -0.07888570391622166   -0.0020051675024709103
-0.010642146731615357   -0.07876846813469646   -0.0022716090048170703
-0.00929626965133342   -0.08506333994546045   -0.00257496333754685
-0.01059721226548665   -0.07865588974560467   -0.002189915845861176
-0.006977866361900671   -0.08501752814932056   -0.0023026238174339675
-0.009192884138712014   -0.08495099726526677   -0.0024801829638276215
-0.01059721226548665   -0.07865588974560467   -0.002189915845861176
-0.00929626965133342   -0.08506333994546045   -0.00257496333754685
-0.006977866361900671   -0.08501752814932056   -0.0023026238174339675
-0.01059721226548665   -0.07865588974560467   -0.002189915845861176
-0.006968409866193873   -0.07875523367258973   -0.002007472358388479
-0.007016671740023646   -0.07888570391622166   -0.0020051675024709103
-0.006977866361900671   -0.08501752814932056   -0.0023026238174339675
-0.01059721226548665   -0.07865588974560467   -0.002189915845861176
-0.007016671740023646   -0.07888570391622166   -0.0020051675024709103
-0.00929626965133342   -0.08506333994546045   -0.00257496333754685
-0.006977866361900671   -0.08501752814932056   -0.0023026238174339675
-0.006968409866193873   -0.07875523367258973   -0.002007472358388479
-0.009192884138712014   -0.08495099726526677   -0.0024801829638276215
-0.006870091251259384   -0.08494915916609268   -0.002299474351170024
-0.006968409866193873   -0.07875523367258973   -0.002007472358388479
-0.01059721226548665   -0.07865588974560467   -0.002189915845861176
-0.009192884138712014   -0.08495099726526677   -0.0024801829638276215
-0.010542917979138805   -0.0785898362319519   -0.00209854811579185
-0.006870091251259384   -0.08494915916609268   -0.002299474351170024
-0.009076861145480139   -0.08489581963129625   -0.002376208320877234
-0.010542917979138805   -0.0785898362319519   -0.00209854811579185
-0.009192884138712014   -0.08495099726526677   -0.0024801829638276215
-0.006870091251259384   -0.08494915916609268   -0.002299474351170024
-0.010542917979138805   -0.0785898362319519   -0.00209854811579185
-0.006918787127285002   -0.07867180656381768   -0.0019998895976338638
-0.006968409866193873   -0.07875523367258973   -0.002007472358388479
-0.006870091251259384   -0.08494915916609268   -0.002299474351170024
-0.010542917979138805   -0.0785898362319519   -0.00209854811579185
-0.006968409866193873   -0.07875523367258973   -0.002007472358388479
-0.009192884138712014   -0.08495099726526677   -0.0024801829638276215
-0.006870091251259384   -0.08494915916609268   -0.002299474351170024
-0.006918787127285002   -0.07867180656381768   -0.0019998895976338638
-0.009076861145480139   -0.08489581963129625   -0.002376208320877234
-0.0067661465771580945   -0.08493612086107619   -0.0022869031968550946
-0.006918787127285002   -0.07867180656381768   -0.0019998895976338638
-0.010542917979138805   -0.0785898362319519   -0.00209854811579185
-0.009076861145480139   -0.08489581963129625   -0.002376208320877234
-0.010490099917882816   -0.07856813660171695   -0.0019978041023281288
-0.0067661465771580945   -0.08493612086107619   -0.0022869031968550946
-0.008960340870248974   -0.0848922868646576   -0.0022619189481527108
-0.010490099917882816   -0.07856813660171695   -0.0019978041023281288
-0.009076861145480139   -0.08489581963129625   -0.002376208320877234
-0.0067661465771580945   -0.08493612086107619   -0.0022869031968550946
-0.010490099917882816   -0.07856813660171695   -0.0019978041023281288
-0.006875382927901222   -0.07863464149885903   -0.0019830749104157996
-0.006918787127285002   -0.07867180656381768   -0.0019998895976338638
-0.0067661465771580945   -0.08493612086107619   -0.0022869031968550946
-0.010490099917882816   -0.07856813660171695   -0.0019978041023281288
-0.006918787127285002   -0.07867180656381768   -0.0019998895976338638
-0.009076861145480139   -0.08489581963129625   -0.002376208320877234
-0.00929626965133342   -0.08506333994546045   -0.00257496333754685
-0.010642146731615357   -0.07876846813469646   -0.0022716090048170703
-0.011729226592936784   -0.08480028885740977   -0.0028307288860077015
-0.009192884138712014   -0.08495099726526677   -0.0024801829638276215
-0.010642146731615357   -0.07876846813469646   -0.0022716090048170703
-0.014441701289501866   -0.07850209094736874   -0.0025082840881630545
-0.011729226592936784   -0.08480028885740977   -0.0028307288860077015
-0.01438305139822205   -0.07840661041273268   -0.002342494886078503
-0.009192884138712014   -0.08495099726526677   -0.0024801829638276215
-0.011602715999660725   -0.08470216114971667   -0.002637253398875442
-0.01438305139822205   -0.07840661041273268   -0.002342494886078503
-0.011729226592936784   -0.08480028885740977   -0.0028307288860077015
-0.009192884138712014   -0.08495099726526677   -0.0024801829638276215
-0.01438305139822205   -0.07840661041273268   -0.002342494886078503
-0.01059721226548665   -0.07865588974560467   -0.002189915845861176
-0.010642146731615357   -0.07876846813469646   -0.0022716090048170703
-0.009192884138712014   -0.08495099726526677   -0.0024801829638276215
-0.01438305139822205   -0.07840661041273268   -0.002342494886078503
-0.010642146731615357   -0.07876846813469646   -0.0022716090048170703
-0.011729226592936784   -0.08480028885740977   -0.0028307288860077015
-0.009192884138712014   -0.08495099726526677   -0.0024801829638276215
-0.01059721226548665   -0.07865588974560467   -0.002189915845861176
-0.011602715999660725   -0.08470216114971667   -0.002637253398875442
-0.009076861145480139   -0.08489581963129625   -0.002376208320877234
-0.01059721226548665   -0.07865588974560467   -0.002189915845861176
-0.01438305139822205   -0.07840661041273268   -0.002342494886078503
-0.011602715999660725   -0.08470216114971667   -0.002637253398875442
-0.014283650588662815   -0.07835630845556073   -0.0021685154971349176
-0.009076861145480139   -0.08489581963129625   -0.002376208320877234
-0.01142809292495894   -0.08466012218160203   -0.0024352537255944873
-0.014283650588662815   -0.07835630845556073   -0.0021685154971349176
-0.011602715999660725   -0.08470216114971667   -0.002637253398875442
-0.009076861145480139   -0.08489581963129625   -0.002376208320877234
-0.014283650588662815   -0.07835630845556073   -0.0021685154971349176
-0.010542917979138805   -0.0785898362319519   -0.00209854811579185
-0.01059721226548665   -0.07865588974560467   -0.002189915845861176
-0.009076861145480139   -0.08489581963129625   -0.002376208320877234
-0.014283650588662815   -0.07835630845556073   -0.0021685154971349176
-0.01059721226548665   -0.07865588974560467   -0.002189915845861176
-0.011602715999660725   -0.08470216114971667   -0.002637253398875442
-0.009076861145480139   -0.08489581963129625   -0.002376208320877234
-0.010542917979138805   -0.0785898362319519   -0.00209854811579185
-0.01142809292495894   -0.08466012218160203   -0.0024352537255944873
-0.008960340870248974   -0.0848922868646576   -0.0022619189481527108
-0.010542917979138805   -0.0785898362319519   -0.00209854811579185
-0.014283650588662815   -0.07835630845556073   -0.0021685154971349176
-0.01142809292495894   -0.08466012218160203   -0.0024352537255944873
-0.014202855010802436   -0.07835383538879116   -0.0019837969678437105
-0.008960340870248974   -0.0848922868646576   -0.0022619189481527108
-0.011275600585211727   -0.08467424266799908   -0.002219088846866995
-0.014202855010802436   -0.07835383538879116   -0.0019837969678437105
-0.01142809292495894   -0.08466012218160203   -0.0024352537255944873
-0.008960340870248974   -0.0848922868646576   -0.0022619189481527108
-0.014202855010802436   -0.07835383538879116   -0.0019837969678437105
-0.010490099917882816   -0.07856813660171695   -0.0019978041023281288
-0.010542917979138805   -0.0785898362319519   -0.00209854811579185
-0.008960340870248974   -0.0848922868646576   -0.0022619189481527108
-0.014202855010802436   -0.07835383538879116   -0.0019837969678437105
-0.010542917979138805   -0.0785898362319519   -0.00209854811579185
-0.01142809292495894   -0.08466012218160203   -0.0024352537255944873
-0.011729226592936784   -0.08480028885740977   -0.0028307288860077015
-0.014441701289501866   -0.07850209094736874   -0.0025082840881630545
-0.01486235779220304   -0.08437248288891208   -0.0030760006914106464
-0.011602715999660725   -0.08470216114971667   -0.002637253398875442
-0.014441701289501866   -0.07850209094736874   -0.0025082840881630545
-0.01887296021181243   -0.0781186984450417   -0.002728799053403597
-0.01486235779220304   -0.08437248288891208   -0.0030760006914106464
-0.01857305566485235   -0.0780191928359466   -0.0024693337419345995
-0.011602715999660725   -0.08470216114971667   -0.002637253398875442
-0.014455592962707918   -0.08426618908444165   -0.0027705589003170403
-0.01857305566485235   -0.0780191928359466   -0.0024693337419345995
-0.01486235779220304   -0.08437248288891208   -0.0030760006914106464
-0.011602715999660725   -0.08470216114971667   -0.002637253398875442
-0.01857305566485235   -0.0780191928359466   -0.0024693337419345995
-0.01438305139822205   -0.07840661041273268   -0.002342494886078503
-0.014441701289501866   -0.07850209094736874   -0.0025082840881630545
-0.011602715999660725   -0.08470216114971667   -0.002637253398875442
-0.01857305566485235   -0.0780191928359466   -0.0024693337419345995
-0.014441701289501866   -0.07850209094736874   -0.0025082840881630545
-0.01486235779220304   -0.08437248288891208   -0.0030760006914106464
-0.011602715999660725   -0.08470216114971667   -0.002637253398875442
-0.01438305139822205   -0.07840661041273268   -0.002342494886078503
-0.014455592962707918   -0.08426618908444165   -0.0027705589003170403
-0.01142809292495894   -0.08466012218160203   -0.0024352537255944873
-0.01438305139822205   -0.07840661041273268   -0.002342494886078503
-0.01857305566485235   -0.0780191928359466   -0.0024693337419345995
-0.014455592962707918   -0.08426618908444165   -0.0027705589003170403
-0.01831266883129444   -0.07797316648845827   -0.0021963712701896063
-0.01142809292495894   -0.08466012218160203   -0.0024352537255944873
-0.01409084597887092   -0.08422730430209925   -0.002447251790216359
-0.01831266883129444   -0.07797316648845827   -0.0021963712701896063
-0.014455592962707918   -0.08426618908444165   -0.0027705589003170403
-0.01142809292495894   -0.08466012218160203   -0.0024352537255944873
-0.01831266883129444   -0.07797316648845827   -0.0021963712701896063
-0.014283650588662815   -0.07835630845556073   -0.0021685154971349176
-0.01438305139822205   -0.07840661041273268   -0.002342494886078503
-0.01142809292495894   -0.08466012218160203   -0.0024352537255944873
-0.01831266883129444   -0.07797316648845827   -0.0021963712701896063
-0.01438305139822205   -0.07840661041273268   -0.002342494886078503
-0.014455592962707918   -0.08426618908444165   -0.0027705589003170403
-0.01142809292495894   -0.08466012218160203   -0.0024352537255944873
-0.014283650588662815   -0.07835630845556073   -0.0021685154971349176
-0.01409084597887092   -0.08422730430209925   -0.002447251790216359
-0.011275600585211727   -0.08467424266799908   -0.002219088846866995
-0.014283650588662815   -0.07835630845556073   -0.0021685154971349176
-0.01831266883129444   -0.07797316648845827   -0.0021963712701896063
-0.01409084597887092   -0.08422730430209925   -0.002447251790216359
-0.017961817245344833   -0.07800026623648706   -0.001911652312527458
-0.011275600585211727   -0.08467424266799908   -0.002219088846866995
-0.013618097613204769   -0.08427584487697248   -0.0021091570020656345
-0.017961817245344833   -0.07800026623648706   -0.001911652312527458
-0.01409084597887092   -0.08422730430209925   -0.002447251790216359
-0.011275600585211727   -0.08467424266799908   -0.002219088846866995
-0.017961817245344833   -0.07800026623648706   -0.001911652312527458
-0.014202855010802436   -0.07835383538879116   -0.0019837969678437105
-0.014283650588662815   -0.07835630845556073   -0.0021685154971349176
-0.011275600585211727   -0.08467424266799908   -0.002219088846866995
-0.017961817245344833   -0.07800026623648706   -0.001911652312527458
-0.014283650588662815   -0.07835630845556073   -0.0021685154971349176
-0.01409084597887092   -0.08422730430209925   -0.002447251790216359
0.0004752268502829704   -0.07866090569253933   -0.001351931481723293
0.002802679776083533   -0.07033707818089724   -0.001030319353378204
-0.0033331473394204   -0.0788496231031116   -0.001710009389947556
0.0007226196270879957   -0.07847866450637923   -0.0015531930896016909
0.002802679776083533   -0.07033707818089724   -0.001030319353378204
-0.0022372936039516647   -0.07046167712905604   -0.001372081106721608
-0.0033331473394204   -0.0788496231031116   -0.001710009389947556
-0.0022237205606156635   -0.07031053816149865   -0.0014332875449528872
0.0007226196270879957   -0.07847866450637923   -0.0015531930896016909
-0.0032675298631260866   -0.07869766790097148   -0.0017983899886415938
-0.0022237205606156635   -0.07031053816149865   -0.0014332875449528872
-0.0033331473394204   -0.0788496231031116   -0.001710009389947556
0.0007226196270879957   -0.07847866450637923   -0.0015531930896016909
-0.0022237205606156635   -0.07031053816149865   -0.0014332875449528872
0.002949389536265512   -0.07015926346431282   -0.00117903804955777
0.002802679776083533   -0.07033707818089724   -0.001030319353378204
0.0007226196270879957   -0.07847866450637923   -0.0015531930896016909
-0.0022237205606156635   -0.07031053816149865   -0.0014332875449528872
0.002802679776083533   -0.07033707818089724   -0.001030319353378204
-0.0033331473394204   -0.0788496231031116   -0.001710009389947556
0.0007226196270879957   -0.07847866450637923   -0.0015531930896016909
0.002949389536265512   -0.07015926346431282   -0.00117903804955777
-0.0032675298631260866   -0.07869766790097148   -0.0017983899886415938
0.0009045786869318613   -0.0783731736589447   -0.0017400077345817552
0.002949389536265512   -0.07015926346431282   -0.00117903804955777
-0.0022237205606156635   -0.07031053816149865   -0.0014332875449528872
-0.0032675298631260866   -0.07869766790097148   -0.0017983899886415938
-0.0022064681243936885   -0.07020082615585849   -0.0014850682289233629
0.0009045786869318613   -0.0783731736589447   -0.0017400077345817552
-0.0031928454540567737   -0.07859826881510248   -0.0018764487430183907
-0.0022064681243936885   -0.07020082615585849   -0.0014850682289233629
-0.0032675298631260866   -0.07869766790097148   -0.0017983899886415938
0.0009045786869318613   -0.0783731736589447   -0.0017400077345817552
-0.0022064681243936885   -0.07020082615585849   -0.0014850682289233629
0.0030431263136816798   -0.07004241823253543   -0.0013144383135101762
0.002949389536265512   -0.07015926346431282   -0.00117903804955777
0.0009045786869318613   -0.0783731736589447   -0.0017400077345817552
-0.0022064681243936885   -0.07020082615585849   -0.0014850682289233629
0.002949389536265512   -0.07015926346431282   -0.00117903804955777
-0.0032675298631260866   -0.07869766790097148   -0.0017983899886415938
0.0009045786869318613   -0.0783731736589447   -0.0017400077345817552
0.0030431263136816798   -0.07004241823253543   -0.0013144383135101762
-0.0031928454540567737   -0.07859826881510248   -0.0018764487430183907
0.0010992729107177077   -0.07832089443124697   -0.0019123031430001041
0.0030431263136816798   -0.07004241823253543   -0.0013144383135101762
-0.0022064681243936885   -0.07020082615585849   -0.0014850682289233629
-0.0031928454540567737   -0.07859826881510248   -0.0018764487430183907
-0.0022148454514025946   -0.07012903849288414   -0.0015281109785661997
0.0010992729107177077   -0.07832089443124697   -0.0019123031430001041
-0.0031481990755615535   -0.07854848988905522   -0.0019452045150072505
-0.0022148454514025946   -0.07012903849288414   -0.0015281109785661997
-0.0031928454540567737   -0.07859826881510248   -0.0018764487430183907
0.0010992729107177077   -0.07832089443124697   -0.0019123031430001041
-0.0022148454514025946   -0.07012903849288414   -0.0015281109785661997
0.0031392732057597375   -0.06996393248313351   -0.0014367979184983616
0.0030431263136816798   -0.07004241823253543   -0.0013144383135101762
0.0010992729107177077   -0.07832089443124697   -0.0019123031430001041
-0.0022148454514025946   -0.07012903849288414   -0.0015281109785661997
0.0030431263136816798   -0.07004241823253543   -0.0013144383135101762
-0.0031928454540567737   -0.07859826881510248   -0.0018764487430183907
-0.0033331473394204   -0.0788496231031116   -0.001710009389947556
-0.0022372936039516647   -0.07046167712905604   -0.001372081106721608
-0.007016671740023646   -0.07888570391622166   -0.0020051675024709103
-0.0032675298631260866   -0.07869766790097148   -0.0017983899886415938
-0.0022372936039516647   -0.07046167712905604   -0.001372081106721608
-0.007086633039550079   -0.07046225183974329   -0.0016540926135145302
-0.007016671740023646   -0.07888570391622166   -0.0020051675024709103
-0.0070872932520944015   -0.07033432828426849   -0.001648319752446761
-0.0032675298631260866   -0.07869766790097148   -0.0017983899886415938
-0.006968409866193873   -0.07875523367258973   -0.002007472358388479
-0.0070872932520944015   -0.07033432828426849   -0.001648319752446761
-0.007016671740023646   -0.07888570391622166   -0.0020051675024709103
-0.0032675298631260866   -0.07869766790097148   -0.0017983899886415938
-0.0070872932520944015   -0.07033432828426849   -0.001648319752446761
-0.0022237205606156635   -0.07031053816149865   -0.0014332875449528872
-0.0022372936039516647   -0.07046167712905604   -0.001372081106721608
-0.0032675298631260866   -0.07869766790097148   -0.0017983899886415938
-0.0070872932520944015   -0.07033432828426849   -0.001648319752446761
-0.0022372936039516647   -0.07046167712905604   -0.001372081106721608
-0.007016671740023646   -0.07888570391622166   -0.0020051675024709103
-0.0032675298631260866   -0.07869766790097148   -0.0017983899886415938
-0.0022237205606156635   -0.07031053816149865   -0.0014332875449528872
-0.006968409866193873   -0.07875523367258973   -0.002007472358388479
-0.0031928454540567737   -0.07859826881510248   -0.0018764487430183907
-0.0022237205606156635   -0.07031053816149865   -0.0014332875449528872
-0.0070872932520944015   -0.07033432828426849   -0.001648319752446761
-0.006968409866193873   -0.07875523367258973   -0.002007472358388479
-0.007087630630790843   -0.07024292792971883   -0.0016331597558941187
-0.0031928454540567737   -0.07859826881510248   -0.0018764487430183907
-0.006918787127285002   -0.07867180656381768   -0.0019998895976338638
-0.007087630630790843   -0.07024292792971883   -0.0016331597558941187
-0.006968409866193873   -0.07875523367258973   -0.002007472358388479
-0.0031928454540567737   -0.07859826881510248   -0.0018764487430183907
-0.007087630630790843   -0.07024292792971883   -0.0016331597558941187
-0.0022064681243936885   -0.07020082615585849   -0.0014850682289233629
-0.0022237205606156635   -0.07031053816149865   -0.0014332875449528872
-0.0031928454540567737   -0.07859826881510248   -0.0018764487430183907
-0.007087630630790843   -0.07024292792971883   -0.0016331597558941187
-0.0022237205606156635   -0.07031053816149865   -0.0014332875449528872
-0.006968409866193873   -0.07875523367258973   -0.002007472358388479
-0.0031928454540567737   -0.07859826881510248   -0.0018764487430183907
-0.0022064681243936885   -0.07020082615585849   -0.0014850682289233629
-0.006918787127285002   -0.07867180656381768   -0.0019998895976338638
-0.0031481990755615535   -0.07854848988905522   -0.0019452045150072505
-0.0022064681243936885   -0.07020082615585849   -0.0014850682289233629
-0.007087630630790843   -0.07024292792971883   -0.0016331597558941187
-0.006918787127285002   -0.07867180656381768   -0.0019998895976338638
-0.007094455850191885   -0.07018811451701992   -0.0016090970976335268
-0.0031481990755615535   -0.07854848988905522   -0.0019452045150072505
-0.006875382927901222   -0.07863464149885903   -0.0019830749104157996
-0.007094455850191885   -0.07018811451701992   -0.0016090970976335268
-0.006918787127285002   -0.07867180656381768   -0.0019998895976338638
-0.0031481990755615535   -0.07854848988905522   -0.0019452045150072505
-0.007094455850191885   -0.07018811451701992   -0.0016090970976335268
-0.0022148454514025946   -0.07012903849288414   -0.0015281109785661997
-0.0022064681243936885   -0.07020082615585849   -0.0014850682289233629
-0.0031481990755615535   -0.07854848988905522   -0.0019452045150072505
-0.007094455850191885   -0.07018811451701992   -0.0016090970976335268
-0.0022064681243936885   -0.07020082615585849   -0.0014850682289233629
-0.006918787127285002   -0.07867180656381768   -0.0019998895976338638
-0.007016671740023646   -0.07888570391622166   -0.0020051675024709103
-0.007086633039550079   -0.07046225183974329   -0.0016540926135145302
-0.010642146731615357   -0.07876846813469646   -0.0022716090048170703
-0.006968409866193873   -0.07875523367258973   -0.002007472358388479
-0.007086633039550079   -0.07046225183974329   -0.0016540926135145302
-0.011853466637832008   -0.0703416082335623   -0.0019011741749915966
-0.010642146731615357   -0.07876846813469646   -0.0022716090048170703
-0.011857710704040722   -0.07023409731915452   -0.001829228160159505
-0.006968409866193873   -0.07875523367258973   -0.002007472358388479
-0.01059721226548665   -0.07865588974560467   -0.002189915845861176
-0.011857710704040722   -0.07023409731915452   -0.001829228160159505
-0.010642146731615357   -0.07876846813469646   -0.0022716090048170703
-0.006968409866193873   -0.07875523367258973   -0.002007472358388479
-0.011857710704040722   -0.07023409731915452   -0.001829228160159505
-0.0070872932520944015   -0.07033432828426849   -0.001648319752446761
-0.007086633039550079   -0.07046225183974329   -0.0016540926135145302
-0.006968409866193873   -0.07875523367258973   -0.002007472358388479
-0.011857710704040722   -0.07023409731915452   -0.001829228160159505
-0.007086633039550079   -0.07046225183974329   -0.0016540926135145302
-0.010642146731615357   -0.07876846813469646   -0.0022716090048170703
-0.006968409866193873   -0.07875523367258973   -0.002007472358388479
-0.0070872932520944015   -0.07033432828426849   -0.001648319752446761
-0.01059721226548665   -0.07865588974560467   -0.002189915845861176
-0.006918787127285002   -0.07867180656381768   -0.0019998895976338638
-0.0070872932520944015   -0.07033432828426849   -0.001648319752446761
-0.011857710704040722   -0.07023409731915452   -0.001829228160159505
-0.01059721226548665   -0.07865588974560467   -0.002189915845861176
-0.011853826790542891   -0.07016278626982535   -0.001748075877620233
-0.006918787127285002   -0.07867180656381768   -0.0019998895976338638
-0.010542917979138805   -0.0785898362319519   -0.00209854811579185
-0.011853826790542891   -0.07016278626982535   -0.001748075877620233
-0.01059721226548665   -0.07865588974560467   -0.002189915845861176
-0.006918787127285002   -0.07867180656381768   -0.0019998895976338638
-0.011853826790542891   -0.07016278626982535   -0.001748075877620233
-0.007087630630790843   -0.07024292792971883   -0.0016331597558941187
-0.0070872932520944015   -0.07033432828426849   -0.001648319752446761
-0.006918787127285002   -0.07867180656381768   -0.0019998895976338638
-0.011853826790542891   -0.07016278626982535   -0.001748075877620233
-0.0070872932520944015   -0.07033432828426849   -0.001648319752446761
-0.01059721226548665   -0.07865588974560467   -0.002189915845861176
-0.006918787127285002   -0.07867180656381768   -0.0019998895976338638
-0.007087630630790843   -0.07024292792971883   -0.0016331597558941187
-0.010542917979138805   -0.0785898362319519   -0.00209854811579185
-0.006875382927901222   -0.07863464149885903   -0.0019830749104157996
-0.007087630630790843   -0.07024292792971883   -0.0016331597558941187
-0.011853826790542891   -0.07016278626982535   -0.001748075877620233
-0.010542917979138805   -0.0785898362319519   -0.00209854811579185
-0.01185140247603633   -0.07012703698515324   -0.0016579864244174024
-0.006875382927901222   -0.07863464149885903   -0.0019830749104157996
-0.010490099917882816   -0.07856813660171695   -0.0019978041023281288
-0.01185140247603633   -0.07012703698515324   -0.0016579864244174024
-0.010542917979138805   -0.0785898362319519   -0.00209854811579185
-0.006875382927901222   -0.07863464149885903   -0.0019830749104157996
-0.01185140247603633   -0.07012703698515324   -0.0016579864244174024
-0.007094455850191885   -0.07018811451701992   -0.0016090970976335268
-0.007087630630790843   -0.07024292792971883   -0.0016331597558941187
-0.006875382927901222   -0.07863464149885903   -0.0019830749104157996
-0.01185140247603633   -0.07012703698515324   -0.0016579864244174024
-0.007087630630790843   -0.07024292792971883   -0.0016331597558941187
-0.010542917979138805   -0.0785898362319519   -0.00209854811579185
-0.010642146731615357   -0.07876846813469646   -0.0022716090048170703
-0.011853466637832008   -0.0703416082335623   -0.0019011741749915966
-0.014441701289501866   -0.07850209094736874   -0.0025082840881630545
-0.01059721226548665   -0.07865588974560467   -0.002189915845861176
-0.011853466637832008   -0.0703416082335623   -0.0019011741749915966
-0.016768973902022682   -0.07010433198937896   -0.002113767445125587
-0.014441701289501866   -0.07850209094736874   -0.0025082840881630545
-0.01676323525601699   -0.07001638231054769   -0.001974868492245708
-0.01059721226548665   -0.07865588974560467   -0.002189915845861176
-0.01438305139822205   -0.07840661041273268   -0.002342494886078503
-0.01676323525601699   -0.07001638231054769   -0.001974868492245708
-0.014441701289501866   -0.07850209094736874   -0.0025082840881630545
-0.01059721226548665   -0.07865588974560467   -0.002189915845861176
-0.01676323525601699   -0.07001638231054769   -0.001974868492245708
-0.011857710704040722   -0.07023409731915452   -0.001829228160159505
-0.011853466637832008   -0.0703416082335623   -0.0019011741749915966
-0.01059721226548665   -0.07865588974560467   -0.002189915845861176
-0.01676323525601699   -0.07001638231054769   -0.001974868492245708
-0.011853466637832008   -0.0703416082335623   -0.0019011741749915966
-0.014441701289501866   -0.07850209094736874   -0.0025082840881630545
-0.01059721226548665   -0.07865588974560467   -0.002189915845861176
-0.011857710704040722   -0.07023409731915452   -0.001829228160159505
-0.01438305139822205   -0.07840661041273268   -0.002342494886078503
-0.010542917979138805   -0.0785898362319519   -0.00209854811579185
-0.011857710704040722   -0.07023409731915452   -0.001829228160159505
-0.01676323525601699   -0.07001638231054769   -0.001974868492245708
-0.01438305139822205   -0.07840661041273268   -0.002342494886078503
-0.016722091270609453   -0.06996328601033239   -0.0018281501468073945
-0.010542917979138805   -0.0785898362319519   -0.00209854811579185
-0.014283650588662815   -0.07835630845556073   -0.0021685154971349176
-0.016722091270609453   -0.06996328601033239   -0.0018281501468073945
-0.01438305139822205   -0.07840661041273268   -0.002342494886078503
-0.010542917979138805   -0.0785898362319519   -0.00209854811579185
-0.016722091270609453   -0.06996328601033239   -0.0018281501468073945
-0.011853826790542891   -0.07016278626982535   -0.001748075877620233
-0.011857710704040722   -0.07023409731915452   -0.001829228160159505
-0.010542917979138805   -0.0785898362319519   -0.00209854811579185
-0.016722091270609453   -0.06996328601033239   -0.0018281501468073945
-0.011857710704040722   -0.07023409731915452   -0.001829228160159505
-0.01438305139822205   -0.07840661041273268   -0.002342494886078503
-0.010542917979138805   -0.0785898362319519   -0.00209854811579185
-0.011853826790542891   -0.07016278626982535   -0.001748075877620233
-0.014283650588662815   -0.07835630845556073   -0.0021685154971349176
-0.010490099917882816   -0.07856813660171695   -0.0019978041023281288
-0.011853826790542891   -0.07016278626982535   -0.001748075877620233
-0.016722091270609453   -0.06996328601033239   -0.0018281501468073945
-0.014283650588662815   -0.07835630845556073   -0.0021685154971349176
-0.01669457475998362   -0.06994873739510268   -0.001671777902014688
-0.010490099917882816   -0.07856813660171695   -0.0019978041023281288
-0.014202855010802436   -0.07835383538879116   -0.0019837969678437105
-0.01669457475998362   -0.06994873739510268   -0.001671777902014688
-0.014283650588662815   -0.07835630845556073   -0.0021685154971349176
-0.010490099917882816   -0.07856813660171695   -0.0019978041023281288
-0.01669457475998362   -0.06994873739510268   -0.001671777902014688
-0.01185140247603633   -0.07012703698515324   -0.0016579864244174024
-0.011853826790542891   -0.07016278626982535   -0.001748075877620233
-0.010490099917882816   -0.07856813660171695   -0.0019978041023281288
-0.01669457475998362   -0.06994873739510268   -0.001671777902014688
-0.011853826790542891   -0.07016278626982535   -0.001748075877620233
-0.014283650588662815   -0.07835630845556073   -0.0021685154971349176
-0.014441701289501866   -0.07850209094736874   -0.0025082840881630545
-0.016768973902022682   -0.07010433198937896   -0.002113767445125587
-0.01887296021181243   -0.0781186984450417   -0.002728799053403597
-0.01438305139822205   -0.07840661041273268   -0.002342494886078503
-0.016768973902022682   -0.07010433198937896   -0.002113767445125587
-0.022259483946282455   -0.06977748056695983   -0.0023053785997786684
-0.01887296021181243   -0.0781186984450417   -0.002728799053403597
-0.02205464714268076   -0.06969121073142336   -0.0020929463591121424
-0.01438305139822205   -0.07840661041273268   -0.002342494886078503
-0.01857305566485235   -0.0780191928359466   -0.0024693337419345995
-0.02205464714268076   -0.06969121073142336   -0.0020929463591121424
-0.01887296021181243   -0.0781186984450417   -0.002728799053403597
-0.01438305139822205   -0.07840661041273268   -0.002342494886078503
-0.02205464714268076   -0.06969121073142336   -0.0020929463591121424
-0.01676323525601699   -0.07001638231054769   -0.001974868492245708
-0.016768973902022682   -0.07010433198937896   -0.002113767445125587
-0.01438305139822205   -0.07840661041273268   -0.002342494886078503
-0.02205464714268076   -0.06969121073142336   -0.0020929463591121424
-0.016768973902022682   -0.07010433198937896   -0.002113767445125587
-0.01887296021181243   -0.0781186984450417   -0.002728799053403597
-0.01438305139822205   -0.07840661041273268   -0.002342494886078503
-0.01676323525601699   -0.07001638231054769   -0.001974868492245708
-0.01857305566485235   -0.0780191928359466   -0.0024693337419345995
-0.014283650588662815   -0.07835630845556073   -0.0021685154971349176
-0.01676323525601699   -0.07001638231054769   -0.001974868492245708
-0.02205464714268076   -0.06969121073142336   -0.0020929463591121424
-0.01857305566485235   -0.0780191928359466   -0.0024693337419345995
-0.021879401257596603   -0.06964475595203781   -0.0018673773309613873
-0.014283650588662815   -0.07835630845556073   -0.0021685154971349176
-0.01831266883129444   -0.07797316648845827   -0.0021963712701896063
-0.021879401257596603   -0.06964475595203781   -0.0018673773309613873
-0.01857305566485235   -0.0780191928359466   -0.0024693337419345995
-0.014283650588662815   -0.07835630845556073   -0.0021685154971349176
-0.021879401257596603   -0.06964475595203781   -0.0018673773309613873
-0.016722091270609453   -0.06996328601033239   -0.0018281501468073945
-0.01676323525601699   -0.07001638231054769   -0.001974868492245708
-0.014283650588662815   -0.07835630845556073   -0.0021685154971349176
-0.021879401257596603   -0.06964475595203781   -0.0018673773309613873
-0.01676323525601699   -0.07001638231054769   -0.001974868492245708
-0.01857305566485235   -0.0780191928359466   -0.0024693337419345995
-0.014283650588662815   -0.07835630845556073   -0.0021685154971349176
-0.016722091270609453   -0.06996328601033239   -0.0018281501468073945
-0.01831266883129444   -0.07797316648845827   -0.0021963712701896063
-0.014202855010802436   -0.07835383538879116   -0.0019837969678437105
-0.016722091270609453   -0.06996328601033239   -0.0018281501468073945
-0.021879401257596603   -0.06964475595203781   -0.0018673773309613873
-0.01831266883129444   -0.07797316648845827   -0.0021963712701896063
-0.02162640179633293   -0.06965946790100301   -0.0016304693183587066
-0.014202855010802436   -0.07835383538879116   -0.0019837969678437105
-0.017961817245344833   -0.07800026623648706   -0.001911652312527458
-0.02162640179633293   -0.06965946790100301   -0.0016304693183587066
-0.01831266883129444   -0.07797316648845827   -0.0021963712701896063
-0.014202855010802436   -0.07835383538879116   -0.0019837969678437105
-0.02162640179633293   -0.06965946790100301   -0.0016304693183587066
-0.01669457475998362   -0.06994873739510268   -0.001671777902014688
-0.016722091270609453   -0.06996328601033239   -0.0018281501468073945
-0.014202855010802436   -0.07835383538879116   -0.0019837969678437105
-0.02162640179633293   -0.06965946790100301   -0.0016304693183587066
-0.016722091270609453   -0.06996328601033239   -0.0018281501468073945
-0.01831266883129444   -0.07797316648845827   -0.0021963712701896063
0.002802679776083533   -0.07033707818089724   -0.001030319353378204
0.0044046707770385735   -0.06032913795124987   -0.0006862493890755977
-0.0022372936039516647   -0.07046167712905604   -0.001372081106721608
0.002949389536265512   -0.07015926346431282   -0.00117903804955777
0.0044046707770385735   -0.06032913795124987   -0.0006862493890755977
-0.0015726627407340358   -0.06039025289558105   -0.001007802431894035
-0.0022372936039516647   -0.07046167712905604   -0.001372081106721608
-0.0016009278160548975   -0.0602427856687718   -0.0010407191530241579
0.002949389536265512   -0.07015926346431282   -0.00117903804955777
-0.0022237205606156635   -0.07031053816149865   -0.0014332875449528872
-0.0016009278160548975   -0.0602427856687718   -0.0010407191530241579
-0.0022372936039516647   -0.07046167712905604   -0.001372081106721608
0.002949389536265512   -0.07015926346431282   -0.00117903804955777
-0.0016009278160548975   -0.0602427856687718   -0.0010407191530241579
0.004462350305131695   -0.060157826944863144   -0.0007835455688272163
0.0044046707770385735   -0.06032913795124987   -0.0006862493890755977
0.002949389536265512   -0.07015926346431282   -0.00117903804955777
-0.0016009278160548975   -0.0602427856687718   -0.0010407191530241579
0.0044046707770385735   -0.06032913795124987   -0.0006862493890755977
-0.0022372936039516647   -0.07046167712905604   -0.001372081106721608
0.002949389536265512   -0.07015926346431282   -0.00117903804955777
0.004462350305131695   -0.060157826944863144   -0.0007835455688272163
-0.0022237205606156635   -0.07031053816149865   -0.0014332875449528872
0.0030431263136816798   -0.07004241823253543   -0.0013144383135101762
0.004462350305131695   -0.060157826944863144   -0.0007835455688272163
-0.0016009278160548975   -0.0602427856687718   -0.0010407191530241579
-0.0022237205606156635   -0.07031053816149865   -0.0014332875449528872
-0.0016306514616382555   -0.060125989027568466   -0.0010652288084007165
0.0030431263136816798   -0.07004241823253543   -0.0013144383135101762
-0.0022064681243936885   -0.07020082615585849   -0.0014850682289233629
-0.0016306514616382555   -0.060125989027568466   -0.0010652288084007165
-0.0022237205606156635   -0.07031053816149865   -0.0014332875449528872
0.0030431263136816798   -0.07004241823253543   -0.0013144383135101762
-0.0016306514616382555   -0.060125989027568466   -0.0010652288084007165
0.0044796753041276395   -0.06003281268681051   -0.0008684406262815943
0.004462350305131695   -0.060157826944863144   -0.0007835455688272163
0.0030431263136816798   -0.07004241823253543   -0.0013144383135101762
-0.0016306514616382555   -0.060125989027568466   -0.0010652288084007165
0.004462350305131695   -0.060157826944863144   -0.0007835455688272163
-0.0022237205606156635   -0.07031053816149865   -0.0014332875449528872
0.0030431263136816798   -0.07004241823253543   -0.0013144383135101762
0.0044796753041276395   -0.06003281268681051   -0.0008684406262815943
-0.0022064681243936885   -0.07020082615585849   -0.0014850682289233629
0.0031392732057597375   -0.06996393248313351   -0.0014367979184983616
0.0044796753041276395   -0.06003281268681051   -0.0008684406262815943
-0.0016306514616382555   -0.060125989027568466   -0.0010652288084007165
-0.0022064681243936885   -0.07020082615585849   -0.0014850682289233629
-0.0016811319671385168   -0.06003620506642993   -0.0010816160792471705
0.0031392732057597375   -0.06996393248313351   -0.0014367979184983616
-0.0022148454514025946   -0.07012903849288414   -0.0015281109785661997
-0.0016811319671385168   -0.06003620506642993   -0.0010816160792471705
-0.0022064681243936885   -0.07020082615585849   -0.0014850682289233629
0.0031392732057597375   -0.06996393248313351   -0.0014367979184983616
-0.0016811319671385168   -0.06003620506642993   -0.0010816160792471705
0.004489179907871368   -0.05993213540849077   -0.0009415204930815625
0.0044796753041276395   -0.06003281268681051   -0.0008684406262815943
0.0031392732057597375   -0.06996393248313351   -0.0014367979184983616
-0.0016811319671385168   -0.06003620506642993   -0.0010816160792471705
0.0044796753041276395   -0.06003281268681051   -0.0008684406262815943
-0.0022064681243936885   -0.07020082615585849   -0.0014850682289233629
-0.0022372936039516647   -0.07046167712905604   -0.001372081106721608
-0.0015726627407340358   -0.06039025289558105   -0.001007802431894035
-0.007086633039550079   -0.07046225183974329   -0.0016540926135145302
-0.0022237205606156635   -0.07031053816149865   -0.0014332875449528872
-0.0015726627407340358   -0.06039025289558105   -0.001007802431894035
-0.007301741633905821   -0.06035862401052062   -0.001272771660767185
-0.007086633039550079   -0.07046225183974329   -0.0016540926135145302
-0.007340839030247487   -0.06023531196971391   -0.0012573191587491774
-0.0022237205606156635   -0.07031053816149865   -0.0014332875449528872
-0.0070872932520944015   -0.07033432828426849   -0.001648319752446761
-0.007340839030247487   -0.06023531196971391   -0.0012573191587491774
-0.007086633039550079   -0.07046225183974329   -0.0016540926135145302
-0.0022237205606156635   -0.07031053816149865   -0.0014332875449528872
-0.007340839030247487   -0.06023531196971391   -0.0012573191587491774
-0.0016009278160548975   -0.0602427856687718   -0.0010407191530241579
-0.0015726627407340358   -0.06039025289558105   -0.001007802431894035
-0.0022237205606156635   -0.07031053816149865   -0.0014332875449528872
-0.007340839030247487   -0.06023531196971391   -0.0012573191587491774
-0.0015726627407340358   -0.06039025289558105   -0.001007802431894035
-0.007086633039550079   -0.07046225183974329   -0.0016540926135145302
-0.0022237205606156635   -0.07031053816149865   -0.0014332875449528872
-0.0016009278160548975   -0.0602427856687718   -0.0010407191530241579
-0.0070872932520944015   -0.07033432828426849   -0.001648319752446761
-0.0022064681243936885   -0.07020082615585849   -0.0014850682289233629
-0.0016009278160548975   -0.0602427856687718   -0.0010407191530241579
-0.007340839030247487   -0.06023531196971391   -0.0012573191587491774
-0.0070872932520944015   -0.07033432828426849   -0.001648319752446761
-0.007380472372079903   -0.06013829287337843   -0.0012332136522148613
-0.0022064681243936885   -0.07020082615585849   -0.0014850682289233629
-0.007087630630790843   -0.07024292792971883   -0.0016331597558941187
-0.007380472372079903   -0.06013829287337843   -0.0012332136522148613
-0.0070872932520944015   -0.07033432828426849   -0.001648319752446761
-0.0022064681243936885   -0.07020082615585849   -0.0014850682289233629
-0.007380472372079903   -0.06013829287337843   -0.0012332136522148613
-0.0016306514616382555   -0.060125989027568466   -0.0010652288084007165
-0.0016009278160548975   -0.0602427856687718   -0.0010407191530241579
-0.0022064681243936885   -0.07020082615585849   -0.0014850682289233629
-0.007380472372079903   -0.06013829287337843   -0.0012332136522148613
-0.0016009278160548975   -0.0602427856687718   -0.0010407191530241579
-0.0070872932520944015   -0.07033432828426849   -0.001648319752446761
-0.0022064681243936885   -0.07020082615585849   -0.0014850682289233629
-0.0016306514616382555   -0.060125989027568466   -0.0010652288084007165
-0.007087630630790843   -0.07024292792971883   -0.0016331597558941187
-0.0022148454514025946   -0.07012903849288414   -0.0015281109785661997
-0.0016306514616382555   -0.060125989027568466   -0.0010652288084007165
-0.007380472372079903   -0.06013829287337843   -0.0012332136522148613
-0.007087630630790843   -0.07024292792971883   -0.0016331597558941187
-0.0074262609228531624   -0.06006801419349772   -0.0012008699557906205
-0.0022148454514025946   -0.07012903849288414   -0.0015281109785661997
-0.007094455850191885   -0.07018811451701992   -0.0016090970976335268
-0.0074262609228531624   -0.06006801419349772   -0.0012008699557906205
-0.007087630630790843   -0.07024292792971883   -0.0016331597558941187
-0.0022148454514025946   -0.07012903849288414   -0.0015281109785661997
-0.0074262609228531624   -0.06006801419349772   -0.0012008699557906205
-0.0016811319671385168   -0.06003620506642993   -0.0010816160792471705
-0.0016306514616382555   -0.060125989027568466   -0.0010652288084007165
-0.0022148454514025946   -0.07012903849288414   -0.0015281109785661997
-0.0074262609228531624   -0.06006801419349772   -0.0012008699557906205
-0.0016306514616382555   -0.060125989027568466   -0.0010652288084007165
-0.007087630630790843   -0.07024292792971883   -0.0016331597558941187
-0.007086633039550079   -0.07046225183974329   -0.0016540926135145302
-0.007301741633905821   -0.06035862401052062   -0.001272771660767185
-0.011853466637832008   -0.0703416082335623   -0.0019011741749915966
-0.0070872932520944015   -0.07033432828426849   -0.001648319752446761
-0.007301741633905821   -0.06035862401052062   -0.001272771660767185
-0.012933873323866071   -0.06023994169451854   -0.0014995769748282315
-0.011853466637832008   -0.0703416082335623   -0.0019011741749915966
-0.012976031649291031   -0.06013859290225029   -0.0014359844145852522
-0.0070872932520944015   -0.07033432828426849   -0.001648319752446761
-0.011857710704040722   -0.07023409731915452   -0.001829228160159505
-0.012976031649291031   -0.06013859290225029   -0.0014359844145852522
-0.011853466637832008   -0.0703416082335623   -0.0019011741749915966
-0.0070872932520944015   -0.07033432828426849   -0.001648319752446761
-0.012976031649291031   -0.06013859290225029   -0.0014359844145852522
-0.007340839030247487   -0.06023531196971391   -0.0012573191587491774
-0.007301741633905821   -0.06035862401052062   -0.001272771660767185
-0.0070872932520944015   -0.07033432828426849   -0.001648319752446761
-0.012976031649291031   -0.06013859290225029   -0.0014359844145852522
-0.007301741633905821   -0.06035862401052062   -0.001272771660767185
-0.011853466637832008   -0.0703416082335623   -0.0019011741749915966
-0.0070872932520944015   -0.07033432828426849   -0.001648319752446761
-0.007340839030247487   -0.06023531196971391   -0.0012573191587491774
-0.011857710704040722   -0.07023409731915452   -0.001829228160159505
-0.007087630630790843   -0.07024292792971883   -0.0016331597558941187
-0.007340839030247487   -0.06023531196971391   -0.0012573191587491774
-0.012976031649291031   -0.06013859290225029   -0.0014359844145852522
-0.011857710704040722   -0.07023409731915452   -0.001829228160159505
-0.013010976874101118   -0.06006328554377381   -0.0013638907497425697
-0.007087630630790843   -0.07024292792971883   -0.0016331597558941187
-0.011853826790542891   -0.07016278626982535   -0.001748075877620233
-0.013010976874101118   -0.06006328554377381   -0.0013638907497425697
-0.011857710704040722   -0.07023409731915452   -0.001829228160159505
-0.007087630630790843   -0.07024292792971883   -0.0016331597558941187
-0.013010976874101118   -0.06006328554377381   -0.0013638907497425697
-0.007380472372079903   -0.06013829287337843   -0.0012332136522148613
-0.007340839030247487   -0.06023531196971391   -0.0012573191587491774
-0.007087630630790843   -0.07024292792971883   -0.0016331597558941187
-0.013010976874101118   -0.06006328554377381   -0.0013638907497425697
-0.007340839030247487   -0.06023531196971391   -0.0012573191587491774
-0.011857710704040722   -0.07023409731915452   -0.001829228160159505
-0.007087630630790843   -0.07024292792971883   -0.0016331597558941187
-0.007380472372079903   -0.06013829287337843   -0.0012332136522148613
-0.011853826790542891   -0.07016278626982535   -0.001748075877620233
-0.007094455850191885   -0.07018811451701992   -0.0016090970976335268
-0.007380472372079903   -0.06013829287337843   -0.0012332136522148613
-0.013010976874101118   -0.06006328554377381   -0.0013638907497425697
-0.011853826790542891   -0.07016278626982535   -0.001748075877620233
-0.01304693267985432   -0.06001391140163202   -0.001283547022062821
-0.007094455850191885   -0.07018811451701992   -0.0016090970976335268
-0.01185140247603633   -0.07012703698515324   -0.0016579864244174024
-0.01304693267985432   -0.06001391140163202   -0.001283547022062821
-0.011853826790542891   -0.07016278626982535   -0.001748075877620233
-0.007094455850191885   -0.07018811451701992   -0.0016090970976335268
-0.01304693267985432   -0.06001391140163202   -0.001283547022062821
-0.0074262609228531624   -0.06006801419349772   -0.0012008699557906205
-0.007380472372079903   -0.06013829287337843   -0.0012332136522148613
-0.007094455850191885   -0.07018811451701992   -0.0016090970976335268
-0.01304693267985432   -0.06001391140163202   -0.001283547022062821
-0.007380472372079903   -0.06013829287337843   -0.0012332136522148613
-0.011853826790542891   -0.07016278626982535   -0.001748075877620233
-0.011853466637832008   -0.0703416082335623   -0.0019011741749915966
-0.012933873323866071   -0.06023994169451854   -0.0014995769748282315
-0.016768973902022682   -0.07010433198937896   -0.002113767445125587
-0.011857710704040722   -0.07023409731915452   -0.001829228160159505
-0.012933873323866071   -0.06023994169451854   -0.0014995769748282315
-0.018699978473534988   -0.060036581093746884   -0.0016890625267336344
-0.016768973902022682   -0.07010433198937896   -0.002113767445125587
-0.018734900694285718   -0.05995669796383452   -0.0015766768555880114
-0.011857710704040722   -0.07023409731915452   -0.001829228160159505
-0.01676323525601699   -0.07001638231054769   -0.001974868492245708
-0.018734900694285718   -0.05995669796383452   -0.0015766768555880114
-0.016768973902022682   -0.07010433198937896   -0.002113767445125587
-0.011857710704040722   -0.07023409731915452   -0.001829228160159505
-0.018734900694285718   -0.05995669796383452   -0.0015766768555880114
-0.012976031649291031   -0.06013859290225029   -0.0014359844145852522
-0.012933873323866071   -0.06023994169451854   -0.0014995769748282315
-0.011857710704040722   -0.07023409731915452   -0.001829228160159505
-0.018734900694285718   -0.05995669796383452   -0.0015766768555880114
-0.012933873323866071   -0.06023994169451854   -0.0014995769748282315
-0.016768973902022682   -0.07010433198937896   -0.002113767445125587
-0.011857710704040722   -0.07023409731915452   -0.001829228160159505
-0.012976031649291031   -0.06013859290225029   -0.0014359844145852522
-0.01676323525601699   -0.07001638231054769   -0.001974868492245708
-0.011853826790542891   -0.07016278626982535   -0.001748075877620233
-0.012976031649291031   -0.06013859290225029   -0.0014359844145852522
-0.018734900694285718   -0.05995669796383452   -0.0015766768555880114
-0.01676323525601699   -0.07001638231054769   -0.001974868492245708
-0.0187395259326762   -0.05990124189904518   -0.0014569668145054035
-0.011853826790542891   -0.07016278626982535   -0.001748075877620233
-0.016722091270609453   -0.06996328601033239   -0.0018281501468073945
-0.0187395259326762   -0.05990124189904518   -0.0014569668145054035
-0.01676323525601699   -0.07001638231054769   -0.001974868492245708
-0.011853826790542891   -0.07016278626982535   -0.001748075877620233
-0.0187395259326762   -0.05990124189904518   -0.0014569668145054035
-0.013010976874101118   -0.06006328554377381   -0.0013638907497425697
-0.012976031649291031   -0.06013859290225029   -0.0014359844145852522
-0.011853826790542891   -0.07016278626982535   -0.001748075877620233
-0.0187395259326762   -0.05990124189904518   -0.0014569668145054035
-0.012976031649291031   -0.06013859290225029   -0.0014359844145852522
-0.01676323525601699   -0.07001638231054769   -0.001974868492245708
-0.011853826790542891   -0.07016278626982535   -0.001748075877620233
-0.013010976874101118   -0.06006328554377381   -0.0013638907497425697
-0.016722091270609453   -0.06996328601033239   -0.0018281501468073945
-0.01185140247603633   -0.07012703698515324   -0.0016579864244174024
-0.013010976874101118   -0.06006328554377381   -0.0013638907497425697
-0.0187395259326762   -0.05990124189904518   -0.0014569668145054035
-0.016722091270609453   -0.06996328601033239   -0.0018281501468073945
-0.01875271576349621   -0.05987404825732531   -0.0013283824248724414
-0.01185140247603633   -0.07012703698515324   -0.0016579864244174024
-0.01669457475998362   -0.06994873739510268   -0.001671777902014688
-0.01875271576349621   -0.05987404825732531   -0.0013283824248724414
-0.016722091270609453   -0.06996328601033239   -0.0018281501468073945
-0.01185140247603633   -0.07012703698515324   -0.0016579864244174024
-0.01875271576349621   -0.05987404825732531   -0.0013283824248724414
-0.01304693267985432   -0.06001391140163202   -0.001283547022062821
-0.013010976874101118   -0.06006328554377381   -0.0013638907497425697
-0.01185140247603633   -0.07012703698515324   -0.0016579864244174024
-0.01875271576349621   -0.05987404825732531   -0.0013283824248724414
-0.013010976874101118   -0.06006328554377381   -0.0013638907497425697
-0.016722091270609453   -0.06996328601033239   -0.0018281501468073945
-0.016768973902022682   -0.07010433198937896   -0.002113767445125587
-0.018699978473534988   -0.060036581093746884   -0.0016890625267336344
-0.022259483946282455   -0.06977748056695983   -0.0023053785997786684
-0.01676323525601699   -0.07001638231054769   -0.001974868492245708
-0.018699978473534988   -0.060036581093746884   -0.0016890625267336344
-0.024987562302449487   -0.05976999295646858   -0.0018509192354293762
-0.022259483946282455   -0.06977748056695983   -0.0023053785997786684
-0.024867705843490302   -0.05969702470130117   -0.0016869925869393882
-0.01676323525601699   -0.07001638231054769   -0.001974868492245708
-0.02205464714268076   -0.06969121073142336   -0.0020929463591121424
-0.024867705843490302   -0.05969702470130117   -0.0016869925869393882
-0.022259483946282455   -0.06977748056695983   -0.0023053785997786684
-0.01676323525601699   -0.07001638231054769   -0.001974868492245708
-0.024867705843490302   -0.05969702470130117   -0.0016869925869393882
-0.018734900694285718   -0.05995669796383452   -0.0015766768555880114
-0.018699978473534988   -0.060036581093746884   -0.0016890625267336344
-0.01676323525601699   -0.07001638231054769   -0.001974868492245708
-0.024867705843490302   -0.05969702470130117   -0.0016869925869393882
-0.018699978473534988   -0.060036581093746884   -0.0016890625267336344
-0.022259483946282455   -0.06977748056695983   -0.0023053785997786684
-0.01676323525601699   -0.07001638231054769   -0.001974868492245708
-0.018734900694285718   -0.05995669796383452   -0.0015766768555880114
-0.02205464714268076   -0.06969121073142336   -0.0020929463591121424
-0.016722091270609453   -0.06996328601033239   -0.0018281501468073945
-0.018734900694285718   -0.05995669796383452   -0.0015766768555880114
-0.024867705843490302   -0.05969702470130117   -0.0016869925869393882
-0.02205464714268076   -0.06969121073142336   -0.0020929463591121424
-0.024766627734187013   -0.059649981816180184   -0.0015102815835076645
-0.016722091270609453   -0.06996328601033239   -0.0018281501468073945
-0.021879401257596603   -0.06964475595203781   -0.0018673773309613873
-0.024766627734187013   -0.059649981816180184   -0.0015102815835076645
-0.02205464714268076   -0.06969121073142336   -0.0020929463591121424
-0.016722091270609453   -0.06996328601033239   -0.0018281501468073945
-0.024766627734187013   -0.059649981816180184   -0.0015102815835076645
-0.0187395259326762   -0.05990124189904518   -0.0014569668145054035
-0.018734900694285718   -0.05995669796383452   -0.0015766768555880114
-0.016722091270609453   -0.06996328601033239   -0.0018281501468073945
-0.024766627734187013   -0.059649981816180184   -0.0015102815835076645
-0.018734900694285718   -0.05995669796383452   -0.0015766768555880114
-0.02205464714268076   -0.06969121073142336   -0.0020929463591121424
-0.016722091270609453   -0.06996328601033239   -0.0018281501468073945
-0.0187395259326762   -0.05990124189904518   -0.0014569668145054035
-0.021879401257596603   -0.06964475595203781   -0.0018673773309613873
-0.01669457475998362   -0.06994873739510268   -0.001671777902014688
-0.0187395259326762   -0.05990124189904518   -0.0014569668145054035
-0.024766627734187013   -0.059649981816180184   -0.0015102815835076645
-0.021879401257596603   -0.06964475595203781   -0.0018673773309613873
-0.024599683601220147   -0.05965099027594703   -0.0013223788387320809
-0.01669457475998362   -0.06994873739510268   -0.001671777902014688
-0.02162640179633293   -0.06965946790100301   -0.0016304693183587066
-0.024599683601220147   -0.05965099027594703   -0.0013223788387320809
-0.021879401257596603   -0.06964475595203781   -0.0018673773309613873
-0.01669457475998362   -0.06994873739510268   -0.001671777902014688
-0.024599683601220147   -0.05965099027594703   -0.0013223788387320809
-0.01875271576349621   -0.05987404825732531   -0.0013283824248724414
-0.0187395259326762   -0.05990124189904518   -0.0014569668145054035
-0.01669457475998362   -0.06994873739510268   -0.001671777902014688
-0.024599683601220147   -0.05965099027594703   -0.0013223788387320809
-0.0187395259326762   -0.05990124189904518   -0.0014569668145054035
-0.021879401257596603   -0.06964475595203781   -0.0018673773309613873
0.0044046707770385735   -0.06032913795124987   -0.0006862493890755977
0.005292515457044826   -0.049102751128255344   -0.00034925865323994523
-0.0015726627407340358   -0.06039025289558105   -0.001007802431894035
0.004462350305131695   -0.060157826944863144   -0.0007835455688272163
0.005292515457044826   -0.049102751128255344   -0.00034925865323994523
-0.0013412126746344126   -0.049101085274146666   -0.0006474989909901954
-0.0015726627407340358   -0.06039025289558105   -0.001007802431894035
-0.001400742662662891   -0.04895842020570193   -0.0006517915956774896
0.004462350305131695   -0.060157826944863144   -0.0007835455688272163
-0.0016009278160548975   -0.0602427856687718   -0.0010407191530241579
-0.001400742662662891   -0.04895842020570193   -0.0006517915956774896
-0.0015726627407340358   -0.06039025289558105   -0.001007802431894035
0.004462350305131695   -0.060157826944863144   -0.0007835455688272163
-0.001400742662662891   -0.04895842020570193   -0.0006517915956774896
0.0052729352013376205   -0.04893873088229378   -0.0003957518862985948
0.005292515457044826   -0.049102751128255344   -0.00034925865323994523
0.004462350305131695   -0.060157826944863144   -0.0007835455688272163
-0.001400742662662891   -0.04895842020570193   -0.0006517915956774896
0.005292515457044826   -0.049102751128255344   -0.00034925865323994523
-0.0015726627407340358   -0.06039025289558105   -0.001007802431894035
0.004462350305131695   -0.060157826944863144   -0.0007835455688272163
0.0052729352013376205   -0.04893873088229378   -0.0003957518862985948
-0.0016009278160548975   -0.0602427856687718   -0.0010407191530241579
0.0044796753041276395   -0.06003281268681051   -0.0008684406262815943
0.0052729352013376205   -0.04893873088229378   -0.0003957518862985948
-0.001400742662662891   -0.04895842020570193   -0.0006517915956774896
-0.0016009278160548975   -0.0602427856687718   -0.0010407191530241579
-0.0014668875698395107   -0.048835493460872646   -0.0006486370080205667
0.0044796753041276395   -0.06003281268681051   -0.0008684406262815943
-0.0016306514616382555   -0.060125989027568466   -0.0010652288084007165
-0.0014668875698395107   -0.048835493460872646   -0.0006486370080205667
-0.0016009278160548975   -0.0602427856687718   -0.0010407191530241579
0.0044796753041276395   -0.06003281268681051   -0.0008684406262815943
-0.0014668875698395107   -0.048835493460872646   -0.0006486370080205667
0.005224863173438329   -0.0488065828781501   -0.00043030863994777935
0.0052729352013376205   -0.04893873088229378   -0.0003957518862985948
0.0044796753041276395   -0.06003281268681051   -0.0008684406262815943
-0.0014668875698395107   -0.048835493460872646   -0.0006486370080205667
0.0052729352013376205   -0.04893873088229378   -0.0003957518862985948
-0.0016009278160548975   -0.0602427856687718   -0.0010407191530241579
0.0044796753041276395   -0.06003281268681051   -0.0008684406262815943
0.005224863173438329   -0.0488065828781501   -0.00043030863994777935
-0.0016306514616382555   -0.060125989027568466   -0.0010652288084007165
0.004489179907871368   -0.05993213540849077   -0.0009415204930815625
0.005224863173438329   -0.0488065828781501   -0.00043030863994777935
-0.0014668875698395107   -0.048835493460872646   -0.0006486370080205667
-0.0016306514616382555   -0.060125989027568466   -0.0010652288084007165
-0.0015489159084232137   -0.04872913143372312   -0.0006377416365347374
0.004489179907871368   -0.05993213540849077   -0.0009415204930815625
-0.0016811319671385168   -0.06003620506642993   -0.0010816160792471705
-0.0015489159084232137   -0.04872913143372312   -0.0006377416365347374
-0.0016306514616382555   -0.060125989027568466   -0.0010652288084007165
0.004489179907871368   -0.05993213540849077   -0.0009415204930815625
-0.0015489159084232137   -0.04872913143372312   -0.0006377416365347374
0.005157813694436281   -0.04868483477077871   -0.0004537624253897792
0.005224863173438329   -0.0488065828781501   -0.00043030863994777935
0.004489179907871368   -0.05993213540849077   -0.0009415204930815625
-0.0015489159084232137   -0.04872913143372312   -0.0006377416365347374
0.005224863173438329   -0.0488065828781501   -0.00043030863994777935
-0.0016306514616382555   -0.060125989027568466   -0.0010652288084007165
-0.0015726627407340358   -0.06039025289558105   -0.001007802431894035
-0.0013412126746344126   -0.049101085274146666   -0.0006474989909901954
-0.007301741633905821   -0.06035862401052062   -0.001272771660767185
-0.0016009278160548975   -0.0602427856687718   -0.0010407191530241579
-0.0013412126746344126   -0.049101085274146666   -0.0006474989909901954
-0.0076684149334656036   -0.04904105747147296   -0.0008938483898670815
-0.007301741633905821   -0.06035862401052062   -0.001272771660767185
-0.007734969108915349   -0.048922542198029516   -0.0008679186931124401
-0.0016009278160548975   -0.0602427856687718   -0.0010407191530241579
-0.007340839030247487   -0.06023531196971391   -0.0012573191587491774
-0.007734969108915349   -0.048922542198029516   -0.0008679186931124401
-0.007301741633905821   -0.06035862401052062   -0.001272771660767185
-0.0016009278160548975   -0.0602427856687718   -0.0010407191530241579
-0.007734969108915349   -0.048922542198029516   -0.0008679186931124401
-0.001400742662662891   -0.04895842020570193   -0.0006517915956774896
-0.0013412126746344126   -0.049101085274146666   -0.0006474989909901954
-0.0016009278160548975   -0.0602427856687718   -0.0010407191530241579
-0.007734969108915349   -0.048922542198029516   -0.0008679186931124401
-0.0013412126746344126   -0.049101085274146666   -0.0006474989909901954
-0.007301741633905821   -0.06035862401052062   -0.001272771660767185
-0.0016009278160548975   -0.0602427856687718   -0.0010407191530241579
-0.001400742662662891   -0.04895842020570193   -0.0006517915956774896
-0.007340839030247487   -0.06023531196971391   -0.0012573191587491774
-0.0016306514616382555   -0.060125989027568466   -0.0010652288084007165
-0.001400742662662891   -0.04895842020570193   -0.0006517915956774896
-0.007734969108915349   -0.048922542198029516   -0.0008679186931124401
-0.007340839030247487   -0.06023531196971391   -0.0012573191587491774
-0.007802857350025719   -0.04882009581394709   -0.0008342336040980207
-0.0016306514616382555   -0.060125989027568466   -0.0010652288084007165
-0.007380472372079903   -0.06013829287337843   -0.0012332136522148613
-0.007802857350025719   -0.04882009581394709   -0.0008342336040980207
-0.007340839030247487   -0.06023531196971391   -0.0012573191587491774
-0.0016306514616382555   -0.060125989027568466   -0.0010652288084007165
-0.007802857350025719   -0.04882009581394709   -0.0008342336040980207
-0.0014668875698395107   -0.048835493460872646   -0.0006486370080205667
-0.001400742662662891   -0.04895842020570193   -0.0006517915956774896
-0.0016306514616382555   -0.060125989027568466   -0.0010652288084007165
-0.007802857350025719   -0.04882009581394709   -0.0008342336040980207
-0.001400742662662891   -0.04895842020570193   -0.0006517915956774896
-0.007340839030247487   -0.06023531196971391   -0.0012573191587491774
-0.0016306514616382555   -0.060125989027568466   -0.0010652288084007165
-0.0014668875698395107   -0.048835493460872646   -0.0006486370080205667
-0.007380472372079903   -0.06013829287337843   -0.0012332136522148613
-0.0016811319671385168   -0.06003620506642993   -0.0010816160792471705
-0.0014668875698395107   -0.048835493460872646   -0.0006486370080205667
-0.007802857350025719   -0.04882009581394709   -0.0008342336040980207
-0.007380472372079903   -0.06013829287337843   -0.0012332136522148613
-0.0078764750902775   -0.048734679577958157   -0.000793154438197038
-0.0016811319671385168   -0.06003620506642993   -0.0010816160792471705
-0.0074262609228531624   -0.06006801419349772   -0.0012008699557906205
-0.0078764750902775   -0.048734679577958157   -0.000793154438197038
-0.007380472372079903   -0.06013829287337843   -0.0012332136522148613
-0.0016811319671385168   -0.06003620506642993   -0.0010816160792471705
-0.0078764750902775   -0.048734679577958157   -0.000793154438197038
-0.0015489159084232137   -0.04872913143372312   -0.0006377416365347374
-0.0014668875698395107   -0.048835493460872646   -0.0006486370080205667
-0.0016811319671385168   -0.06003620506642993   -0.0010816160792471705
-0.0078764750902775   -0.048734679577958157   -0.000793154438197038
-0.0014668875698395107   -0.048835493460872646   -0.0006486370080205667
-0.007380472372079903   -0.06013829287337843   -0.0012332136522148613
-0.007301741633905821   -0.06035862401052062   -0.001272771660767185
-0.0076684149334656036   -0.04904105747147296   -0.0008938483898670815
-0.012933873323866071   -0.06023994169451854   -0.0014995769748282315
-0.007340839030247487   -0.06023531196971391   -0.0012573191587491774
-0.0076684149334656036   -0.04904105747147296   -0.0008938483898670815
-0.013888623589871411   -0.04892922175383432   -0.0011017945288703851
-0.012933873323866071   -0.06023994169451854   -0.0014995769748282315
-0.013957118561429966   -0.048832984638898805   -0.0010456901561079217
-0.007340839030247487   -0.06023531196971391   -0.0012573191587491774
-0.012976031649291031   -0.06013859290225029   -0.0014359844145852522
-0.013957118561429966   -0.048832984638898805   -0.0010456901561079217
-0.012933873323866071   -0.06023994169451854   -0.0014995769748282315
-0.007340839030247487   -0.06023531196971391   -0.0012573191587491774
-0.013957118561429966   -0.048832984638898805   -0.0010456901561079217
-0.007734969108915349   -0.048922542198029516   -0.0008679186931124401
-0.0076684149334656036   -0.04904105747147296   -0.0008938483898670815
-0.007340839030247487   -0.06023531196971391   -0.0012573191587491774
-0.013957118561429966   -0.048832984638898805   -0.0010456901561079217
-0.0076684149334656036   -0.04904105747147296   -0.0008938483898670815
-0.012933873323866071   -0.06023994169451854   -0.0014995769748282315
-0.007340839030247487   -0.06023531196971391   -0.0012573191587491774
-0.007734969108915349   -0.048922542198029516   -0.0008679186931124401
-0.012976031649291031   -0.06013859290225029   -0.0014359844145852522
-0.007380472372079903   -0.06013829287337843   -0.0012332136522148613
-0.007734969108915349   -0.048922542198029516   -0.0008679186931124401
-0.013957118561429966   -0.048832984638898805   -0.0010456901561079217
-0.012976031649291031   -0.06013859290225029   -0.0014359844145852522
-0.014019266980368175   -0.048752702747435595   -0.0009820103930718673
-0.007380472372079903   -0.06013829287337843   -0.0012332136522148613
-0.013010976874101118   -0.06006328554377381   -0.0013638907497425697
-0.014019266980368175   -0.048752702747435595   -0.0009820103930718673
-0.012976031649291031   -0.06013859290225029   -0.0014359844145852522
-0.007380472372079903   -0.06013829287337843   -0.0012332136522148613
-0.014019266980368175   -0.048752702747435595   -0.0009820103930718673
-0.007802857350025719   -0.04882009581394709   -0.0008342336040980207
-0.007734969108915349   -0.048922542198029516   -0.0008679186931124401
-0.007380472372079903   -0.06013829287337843   -0.0012332136522148613
-0.014019266980368175   -0.048752702747435595   -0.0009820103930718673
-0.007734969108915349   -0.048922542198029516   -0.0008679186931124401
-0.012976031649291031   -0.06013859290225029   -0.0014359844145852522
-0.007380472372079903   -0.06013829287337843   -0.0012332136522148613
-0.007802857350025719   -0.04882009581394709   -0.0008342336040980207
-0.013010976874101118   -0.06006328554377381   -0.0013638907497425697
-0.0074262609228531624   -0.06006801419349772   -0.0012008699557906205
-0.007802857350025719   -0.04882009581394709   -0.0008342336040980207
-0.014019266980368175   -0.048752702747435595   -0.0009820103930718673
-0.013010976874101118   -0.06006328554377381   -0.0013638907497425697
-0.014082003187245576   -0.0486885133051167   -0.0009110449798100143
-0.0074262609228531624   -0.06006801419349772   -0.0012008699557906205
-0.01304693267985432   -0.06001391140163202   -0.001283547022062821
-0.014082003187245576   -0.0486885133051167   -0.0009110449798100143
-0.013010976874101118   -0.06006328554377381   -0.0013638907497425697
-0.0074262609228531624   -0.06006801419349772   -0.0012008699557906205
-0.014082003187245576   -0.0486885133051167   -0.0009110449798100143
-0.0078764750902775   -0.048734679577958157   -0.000793154438197038
-0.007802857350025719   -0.04882009581394709   -0.0008342336040980207
-0.0074262609228531624   -0.06006801419349772   -0.0012008699557906205
-0.014082003187245576   -0.0486885133051167   -0.0009110449798100143
-0.007802857350025719   -0.04882009581394709   -0.0008342336040980207
-0.013010976874101118   -0.06006328554377381   -0.0013638907497425697
-0.012933873323866071   -0.06023994169451854   -0.0014995769748282315
-0.013888623589871411   -0.04892922175383432   -0.0011017945288703851
-0.018699978473534988   -0.060036581093746884   -0.0016890625267336344
-0.012976031649291031   -0.06013859290225029   -0.0014359844145852522
-0.013888623589871411   -0.04892922175383432   -0.0011017945288703851
-0.020231979419884985   -0.04876319566145574   -0.0012717907773571071
-0.018699978473534988   -0.060036581093746884   -0.0016890625267336344
-0.020295599119856355   -0.04868943238008055   -0.0011852822925468567
-0.012976031649291031   -0.06013859290225029   -0.0014359844145852522
-0.018734900694285718   -0.05995669796383452   -0.0015766768555880114
-0.020295599119856355   -0.04868943238008055   -0.0011852822925468567
-0.018699978473534988   -0.060036581093746884   -0.0016890625267336344
-0.012976031649291031   -0.06013859290225029   -0.0014359844145852522
-0.020295599119856355   -0.04868943238008055   -0.0011852822925468567
-0.013957118561429966   -0.048832984638898805   -0.0010456901561079217
-0.013888623589871411   -0.04892922175383432   -0.0011017945288703851
-0.012976031649291031   -0.06013859290225029   -0.0014359844145852522
-0.020295599119856355   -0.04868943238008055   -0.0011852822925468567
-0.013888623589871411   -0.04892922175383432   -0.0011017945288703851
-0.018699978473534988   -0.060036581093746884   -0.0016890625267336344
-0.012976031649291031   -0.06013859290225029   -0.0014359844145852522
-0.013957118561429966   -0.048832984638898805   -0.0010456901561079217
-0.018734900694285718   -0.05995669796383452   -0.0015766768555880114
-0.013010976874101118   -0.06006328554377381   -0.0013638907497425697
-0.013957118561429966   -0.048832984638898805   -0.0010456901561079217
-0.020295599119856355   -0.04868943238008055   -0.0011852822925468567
-0.018734900694285718   -0.05995669796383452   -0.0015766768555880114
-0.020334221014395634   -0.048629572797730516   -0.0010922226306293306
-0.013010976874101118   -0.06006328554377381   -0.0013638907497425697
-0.0187395259326762   -0.05990124189904518   -0.0014569668145054035
-0.020334221014395634   -0.048629572797730516   -0.0010922226306293306
-0.018734900694285718   -0.05995669796383452   -0.0015766768555880114
-0.013010976874101118   -0.06006328554377381   -0.0013638907497425697
-0.020334221014395634   -0.048629572797730516   -0.0010922226306293306
-0.014019266980368175   -0.048752702747435595   -0.0009820103930718673
-0.013957118561429966   -0.048832984638898805   -0.0010456901561079217
-0.013010976874101118   -0.06006328554377381   -0.0013638907497425697
-0.020334221014395634   -0.048629572797730516   -0.0010922226306293306
-0.013957118561429966   -0.048832984638898805   -0.0010456901561079217
-0.018734900694285718   -0.05995669796383452   -0.0015766768555880114
-0.013010976874101118   -0.06006328554377381   -0.0013638907497425697
-0.014019266980368175   -0.048752702747435595   -0.0009820103930718673
-0.0187395259326762   -0.05990124189904518   -0.0014569668145054035
-0.01304693267985432   -0.06001391140163202   -0.001283547022062821
-0.014019266980368175   -0.048752702747435595   -0.0009820103930718673
-0.020334221014395634   -0.048629572797730516   -0.0010922226306293306
-0.0187395259326762   -0.05990124189904518   -0.0014569668145054035
-0.02037659776532749   -0.04858719713287836   -0.0009912562925525267
-0.01304693267985432   -0.06001391140163202   -0.001283547022062821
-0.01875271576349621   -0.05987404825732531   -0.0013283824248724414
-0.02037659776532749   -0.04858719713287836   -0.0009912562925525267
-0.0187395259326762   -0.05990124189904518   -0.0014569668145054035
-0.01304693267985432   -0.06001391140163202   -0.001283547022062821
-0.02037659776532749   -0.04858719713287836   -0.0009912562925525267
-0.014082003187245576   -0.0486885133051167   -0.0009110449798100143
-0.014019266980368175   -0.048752702747435595   -0.0009820103930718673
-0.01304693267985432   -0.06001391140163202   -0.001283547022062821
-0.02037659776532749   -0.04858719713287836   -0.0009912562925525267
-0.014019266980368175   -0.048752702747435595   -0.0009820103930718673
-0.0187395259326762   -0.05990124189904518   -0.0014569668145054035
-0.018699978473534988   -0.060036581093746884   -0.0016890625267336344
-0.020231979419884985   -0.04876319566145574   -0.0012717907773571071
-0.024987562302449487   -0.05976999295646858   -0.0018509192354293762
-0.018734900694285718   -0.05995669796383452   -0.0015766768555880114
-0.020231979419884985   -0.04876319566145574   -0.0012717907773571071
-0.027039607831793704   -0.048559100334781585   -0.0014070252921367713
-0.024987562302449487   -0.05976999295646858   -0.0018509192354293762
-0.026993295933392232   -0.04849687494628053   -0.0012918708319576986
-0.018734900694285718   -0.05995669796383452   -0.0015766768555880114
-0.024867705843490302   -0.05969702470130117   -0.0016869925869393882
-0.026993295933392232   -0.04849687494628053   -0.0012918708319576986
-0.024987562302449487   -0.05976999295646858   -0.0018509192354293762
-0.018734900694285718   -0.05995669796383452   -0.0015766768555880114
-0.026993295933392232   -0.04849687494628053   -0.0012918708319576986
-0.020295599119856355   -0.04868943238008055   -0.0011852822925468567
-0.020231979419884985   -0.04876319566145574   -0.0012717907773571071
-0.018734900694285718   -0.05995669796383452   -0.0015766768555880114
-0.026993295933392232   -0.04849687494628053   -0.0012918708319576986
-0.020231979419884985   -0.04876319566145574   -0.0012717907773571071
-0.024987562302449487   -0.05976999295646858   -0.0018509192354293762
-0.018734900694285718   -0.05995669796383452   -0.0015766768555880114
-0.020295599119856355   -0.04868943238008055   -0.0011852822925468567
-0.024867705843490302   -0.05969702470130117   -0.0016869925869393882
-0.0187395259326762   -0.05990124189904518   -0.0014569668145054035
-0.020295599119856355   -0.04868943238008055   -0.0011852822925468567
-0.026993295933392232   -0.04849687494628053   -0.0012918708319576986
-0.024867705843490302   -0.05969702470130117   -0.0016869925869393882
-0.026955562561532333   -0.04844663431001477   -0.0011646956649389365
-0.0187395259326762   -0.05990124189904518   -0.0014569668145054035
-0.024766627734187013   -0.059649981816180184   -0.0015102815835076645
-0.026955562561532333   -0.04844663431001477   -0.0011646956649389365
-0.024867705843490302   -0.05969702470130117   -0.0016869925869393882
-0.0187395259326762   -0.05990124189904518   -0.0014569668145054035
-0.026955562561532333   -0.04844663431001477   -0.0011646956649389365
-0.020334221014395634   -0.048629572797730516   -0.0010922226306293306
-0.020295599119856355   -0.04868943238008055   -0.0011852822925468567
-0.0187395259326762   -0.05990124189904518   -0.0014569668145054035
-0.026955562561532333   -0.04844663431001477   -0.0011646956649389365
-0.020295599119856355   -0.04868943238008055   -0.0011852822925468567
-0.024867705843490302   -0.05969702470130117   -0.0016869925869393882
-0.0187395259326762   -0.05990124189904518   -0.0014569668145054035
-0.020334221014395634   -0.048629572797730516   -0.0010922226306293306
-0.024766627734187013   -0.059649981816180184   -0.0015102815835076645
-0.01875271576349621   -0.05987404825732531   -0.0013283824248724414
-0.020334221014395634   -0.048629572797730516   -0.0010922226306293306
-0.026955562561532333   -0.04844663431001477   -0.0011646956649389365
-0.024766627734187013   -0.059649981816180184   -0.0015102815835076645
-0.026864458482308173   -0.048430386644339525   -0.001026871488687652
-0.01875271576349621   -0.05987404825732531   -0.0013283824248724414
-0.024599683601220147   -0.05965099027594703   -0.0013223788387320809
-0.026864458482308173   -0.048430386644339525   -0.001026871488687652
-0.024766627734187013   -0.059649981816180184   -0.0015102815835076645
-0.01875271576349621   -0.05987404825732531   -0.0013283824248724414
-0.026864458482308173   -0.048430386644339525   -0.001026871488687652
-0.02037659776532749   -0.04858719713287836   -0.0009912562925525267
-0.020334221014395634   -0.048629572797730516   -0.0010922226306293306
-0.01875271576349621   -0.05987404825732531   -0.0013283824248724414
-0.026864458482308173   -0.048430386644339525   -0.001026871488687652
-0.020334221014395634   -0.048629572797730516   -0.0010922226306293306
-0.024766627734187013   -0.059649981816180184   -0.0015102815835076645
0.005292515457044826   -0.049102751128255344   -0.00034925865323994523
0.005467124622426606   -0.03710427353624312   -5.4064719106903896e-05
-0.0013412126746344126   -0.049101085274146666   -0.0006474989909901954
0.0052729352013376205   -0.04893873088229378   -0.0003957518862985948
0.005467124622426606   -0.03710427353624312   -5.4064719106903896e-05
-0.0015412154898814215   -0.03704238173310218   -0.0003223214874389764
-0.0013412126746344126   -0.049101085274146666   -0.0006474989909901954
-0.00162283743954766   -0.03690580428389069   -0.00029802462121171063
0.0052729352013376205   -0.04893873088229378   -0.0003957518862985948
-0.001400742662662891   -0.04895842020570193   -0.0006517915956774896
-0.00162283743954766   -0.03690580428389069   -0.00029802462121171063
-0.0013412126746344126   -0.049101085274146666   -0.0006474989909901954
0.0052729352013376205   -0.04893873088229378   -0.0003957518862985948
-0.00162283743954766   -0.03690580428389069   -0.00029802462121171063
0.005380268128451437   -0.03694777649425791   -4.891089852378902e-05
0.005467124622426606   -0.03710427353624312   -5.4064719106903896e-05
0.0052729352013376205   -0.04893873088229378   -0.0003957518862985948
-0.00162283743954766   -0.03690580428389069   -0.00029802462121171063
0.005467124622426606   -0.03710427353624312   -5.4064719106903896e-05
-0.0013412126746344126   -0.049101085274146666   -0.0006474989909901954
0.0052729352013376205   -0.04893873088229378   -0.0003957518862985948
0.005380268128451437   -0.03694777649425791   -4.891089852378902e-05
-0.001400742662662891   -0.04895842020570193   -0.0006517915956774896
0.005224863173438329   -0.0488065828781501   -0.00043030863994777935
0.005380268128451437   -0.03694777649425791   -4.891089852378902e-05
-0.00162283743954766   -0.03690580428389069   -0.00029802462121171063
-0.001400742662662891   -0.04895842020570193   -0.0006517915956774896
-0.0017162644550833674   -0.036776802937098285   -0.0002669819405375105
0.005224863173438329   -0.0488065828781501   -0.00043030863994777935
-0.0014668875698395107   -0.048835493460872646   -0.0006486370080205667
-0.0017162644550833674   -0.036776802937098285   -0.0002669819405375105
-0.001400742662662891   -0.04895842020570193   -0.0006517915956774896
0.005224863173438329   -0.0488065828781501   -0.00043030863994777935
-0.0017162644550833674   -0.036776802937098285   -0.0002669819405375105
0.005273839792179952   -0.03680779025282807   -2.9968774464454168e-05
0.005380268128451437   -0.03694777649425791   -4.891089852378902e-05
0.005224863173438329   -0.0488065828781501   -0.00043030863994777935
-0.0017162644550833674   -0.036776802937098285   -0.0002669819405375105
0.005380268128451437   -0.03694777649425791   -4.891089852378902e-05
-0.001400742662662891   -0.04895842020570193   -0.0006517915956774896
0.005224863173438329   -0.0488065828781501   -0.00043030863994777935
0.005273839792179952   -0.03680779025282807   -2.9968774464454168e-05
-0.0014668875698395107   -0.048835493460872646   -0.0006486370080205667
0.005157813694436281   -0.04868483477077871   -0.0004537624253897792
0.005273839792179952   -0.03680779025282807   -2.9968774464454168e-05
-0.0017162644550833674   -0.036776802937098285   -0.0002669819405375105
-0.0014668875698395107   -0.048835493460872646   -0.0006486370080205667
-0.001821079668081229   -0.03665361712763976   -0.0002275015118761291
0.005157813694436281   -0.04868483477077871   -0.0004537624253897792
-0.0015489159084232137   -0.04872913143372312   -0.0006377416365347374
-0.001821079668081229   -0.03665361712763976   -0.0002275015118761291
-0.0014668875698395107   -0.048835493460872646   -0.0006486370080205667
0.005157813694436281   -0.04868483477077871   -0.0004537624253897792
-0.001821079668081229   -0.03665361712763976   -0.0002275015118761291
0.005133596078396953   -0.03666128668900996   2.1362427156085593e-06
0.005273839792179952   -0.03680779025282807   -2.9968774464454168e-05
0.005157813694436281   -0.04868483477077871   -0.0004537624253897792
-0.001821079668081229   -0.03665361712763976   -0.0002275015118761291
0.005273839792179952   -0.03680779025282807   -2.9968774464454168e-05
-0.0014668875698395107   -0.048835493460872646   -0.0006486370080205667
-0.0013412126746344126   -0.049101085274146666   -0.0006474989909901954
-0.0015412154898814215   -0.03704238173310218   -0.0003223214874389764
-0.0076684149334656036   -0.04904105747147296   -0.0008938483898670815
-0.001400742662662891   -0.04895842020570193   -0.0006517915956774896
-0.0015412154898814215   -0.03704238173310218   -0.0003223214874389764
-0.00818203834694009   -0.03697050939190046   -0.000549553641121216
-0.0076684149334656036   -0.04904105747147296   -0.0008938483898670815
-0.0082652353461436   -0.03685618775258215   -0.0005124963297062025
-0.001400742662662891   -0.04895842020570193   -0.0006517915956774896
-0.007734969108915349   -0.048922542198029516   -0.0008679186931124401
-0.0082652353461436   -0.03685618775258215   -0.0005124963297062025
-0.0076684149334656036   -0.04904105747147296   -0.0008938483898670815
-0.001400742662662891   -0.04895842020570193   -0.0006517915956774896
-0.0082652353461436   -0.03685618775258215   -0.0005124963297062025
-0.00162283743954766   -0.03690580428389069   -0.00029802462121171063
-0.0015412154898814215   -0.03704238173310218   -0.0003223214874389764
-0.001400742662662891   -0.04895842020570193   -0.0006517915956774896
-0.0082652353461436   -0.03685618775258215   -0.0005124963297062025
-0.0015412154898814215   -0.03704238173310218   -0.0003223214874389764
-0.0076684149334656036   -0.04904105747147296   -0.0008938483898670815
-0.001400742662662891   -0.04895842020570193   -0.0006517915956774896
-0.00162283743954766   -0.03690580428389069   -0.00029802462121171063
-0.007734969108915349   -0.048922542198029516   -0.0008679186931124401
-0.0014668875698395107   -0.048835493460872646   -0.0006486370080205667
-0.00162283743954766   -0.03690580428389069   -0.00029802462121171063
-0.0082652353461436   -0.03685618775258215   -0.0005124963297062025
-0.007734969108915349   -0.048922542198029516   -0.0008679186931124401
-0.008350287144322224   -0.03674774897175894   -0.00046901443193608756
-0.0014668875698395107   -0.048835493460872646   -0.0006486370080205667
-0.007802857350025719   -0.04882009581394709   -0.0008342336040980207
-0.008350287144322224   -0.03674774897175894   -0.00046901443193608756
-0.007734969108915349   -0.048922542198029516   -0.0008679186931124401
-0.0014668875698395107   -0.048835493460872646   -0.0006486370080205667
-0.008350287144322224   -0.03674774897175894   -0.00046901443193608756
-0.0017162644550833674   -0.036776802937098285   -0.0002669819405375105
-0.00162283743954766   -0.03690580428389069   -0.00029802462121171063
-0.0014668875698395107   -0.048835493460872646   -0.0006486370080205667
-0.008350287144322224   -0.03674774897175894   -0.00046901443193608756
-0.00162283743954766   -0.03690580428389069   -0.00029802462121171063
-0.007734969108915349   -0.048922542198029516   -0.0008679186931124401
-0.0014668875698395107   -0.048835493460872646   -0.0006486370080205667
-0.0017162644550833674   -0.036776802937098285   -0.0002669819405375105
-0.007802857350025719   -0.04882009581394709   -0.0008342336040980207
-0.0015489159084232137   -0.04872913143372312   -0.0006377416365347374
-0.0017162644550833674   -0.036776802937098285   -0.0002669819405375105
-0.008350287144322224   -0.03674774897175894   -0.00046901443193608756
-0.007802857350025719   -0.04882009581394709   -0.0008342336040980207
-0.008440734600895788   -0.03664685982584134   -0.00041903538722648466
-0.0015489159084232137   -0.04872913143372312   -0.0006377416365347374
-0.0078764750902775   -0.048734679577958157   -0.000793154438197038
-0.008440734600895788   -0.03664685982584134   -0.00041903538722648466
-0.007802857350025719   -0.04882009581394709   -0.0008342336040980207
-0.0015489159084232137   -0.04872913143372312   -0.0006377416365347374
-0.008440734600895788   -0.03664685982584134   -0.00041903538722648466
-0.001821079668081229   -0.03665361712763976   -0.0002275015118761291
-0.0017162644550833674   -0.036776802937098285   -0.0002669819405375105
-0.0015489159084232137   -0.04872913143372312   -0.0006377416365347374
-0.008440734600895788   -0.03664685982584134   -0.00041903538722648466
-0.0017162644550833674   -0.036776802937098285   -0.0002669819405375105
-0.007802857350025719   -0.04882009581394709   -0.0008342336040980207
-0.0076684149334656036   -0.04904105747147296   -0.0008938483898670815
-0.00818203834694009   -0.03697050939190046   -0.000549553641121216
-0.013888623589871411   -0.04892922175383432   -0.0011017945288703851
-0.007734969108915349   -0.048922542198029516   -0.0008679186931124401
-0.00818203834694009   -0.03697050939190046   -0.000549553641121216
-0.014714964001655744   -0.03688444176339953   -0.0007426530532158354
-0.013888623589871411   -0.04892922175383432   -0.0011017945288703851
-0.014797532720964911   -0.03679075910445629   -0.0006928339271559597
-0.007734969108915349   -0.048922542198029516   -0.0008679186931124401
-0.013957118561429966   -0.048832984638898805   -0.0010456901561079217
-0.014797532720964911   -0.03679075910445629   -0.0006928339271559597
-0.013888623589871411   -0.04892922175383432   -0.0011017945288703851
-0.007734969108915349   -0.048922542198029516   -0.0008679186931124401
-0.014797532720964911   -0.03679075910445629   -0.0006928339271559597
-0.0082652353461436   -0.03685618775258215   -0.0005124963297062025
-0.00818203834694009   -0.03697050939190046   -0.000549553641121216
-0.007734969108915349   -0.048922542198029516   -0.0008679186931124401
-0.014797532720964911   -0.03679075910445629   -0.0006928339271559597
-0.00818203834694009   -0.03697050939190046   -0.000549553641121216
-0.013888623589871411   -0.04892922175383432   -0.0011017945288703851
-0.007734969108915349   -0.048922542198029516   -0.0008679186931124401
-0.0082652353461436   -0.03685618775258215   -0.0005124963297062025
-0.013957118561429966   -0.048832984638898805   -0.0010456901561079217
-0.007802857350025719   -0.04882009581394709   -0.0008342336040980207
-0.0082652353461436   -0.03685618775258215   -0.0005124963297062025
-0.014797532720964911   -0.03679075910445629   -0.0006928339271559597
-0.013957118561429966   -0.048832984638898805   -0.0010456901561079217
-0.014874766694343834   -0.03670329821937731   -0.000636810071048858
-0.007802857350025719   -0.04882009581394709   -0.0008342336040980207
-0.014019266980368175   -0.048752702747435595   -0.0009820103930718673
-0.014874766694343834   -0.03670329821937731   -0.000636810071048858
-0.013957118561429966   -0.048832984638898805   -0.0010456901561079217
-0.007802857350025719   -0.04882009581394709   -0.0008342336040980207
-0.014874766694343834   -0.03670329821937731   -0.000636810071048858
-0.008350287144322224   -0.03674774897175894   -0.00046901443193608756
-0.0082652353461436   -0.03685618775258215   -0.0005124963297062025
-0.007802857350025719   -0.04882009581394709   -0.0008342336040980207
-0.014874766694343834   -0.03670329821937731   -0.000636810071048858
-0.0082652353461436   -0.03685618775258215   -0.0005124963297062025
-0.013957118561429966   -0.048832984638898805   -0.0010456901561079217
-0.007802857350025719   -0.04882009581394709   -0.0008342336040980207
-0.008350287144322224   -0.03674774897175894   -0.00046901443193608756
-0.014019266980368175   -0.048752702747435595   -0.0009820103930718673
-0.0078764750902775   -0.048734679577958157   -0.000793154438197038
-0.008350287144322224   -0.03674774897175894   -0.00046901443193608756
-0.014874766694343834   -0.03670329821937731   -0.000636810071048858
-0.014019266980368175   -0.048752702747435595   -0.0009820103930718673
-0.014952276686408725   -0.036622303380998915   -0.0005748897443473895
-0.0078764750902775   -0.048734679577958157   -0.000793154438197038
-0.014082003187245576   -0.0486885133051167   -0.0009110449798100143
-0.014952276686408725   -0.036622303380998915   -0.0005748897443473895
-0.014019266980368175   -0.048752702747435595   -0.0009820103930718673
-0.0078764750902775   -0.048734679577958157   -0.000793154438197038
-0.014952276686408725   -0.036622303380998915   -0.0005748897443473895
-0.008440734600895788   -0.03664685982584134   -0.00041903538722648466
-0.008350287144322224   -0.03674774897175894   -0.00046901443193608756
-0.0078764750902775   -0.048734679577958157   -0.000793154438197038
-0.014952276686408725   -0.036622303380998915   -0.0005748897443473895
-0.008350287144322224   -0.03674774897175894   -0.00046901443193608756
-0.014019266980368175   -0.048752702747435595   -0.0009820103930718673
-0.013888623589871411   -0.04892922175383432   -0.0011017945288703851
-0.014714964001655744   -0.03688444176339953   -0.0007426530532158354
-0.020231979419884985   -0.04876319566145574   -0.0012717907773571071
-0.013957118561429966   -0.048832984638898805   -0.0010456901561079217
-0.014714964001655744   -0.03688444176339953   -0.0007426530532158354
-0.021365807821684624   -0.03676816548690165   -0.0008999714105382122
-0.020231979419884985   -0.04876319566145574   -0.0012717907773571071
-0.021444887389659426   -0.036696198550248416   -0.0008375416260271879
-0.013957118561429966   -0.048832984638898805   -0.0010456901561079217
-0.020295599119856355   -0.04868943238008055   -0.0011852822925468567
-0.021444887389659426   -0.036696198550248416   -0.0008375416260271879
-0.020231979419884985   -0.04876319566145574   -0.0012717907773571071
-0.013957118561429966   -0.048832984638898805   -0.0010456901561079217
-0.021444887389659426   -0.036696198550248416   -0.0008375416260271879
-0.014797532720964911   -0.03679075910445629   -0.0006928339271559597
-0.014714964001655744   -0.03688444176339953   -0.0007426530532158354
-0.013957118561429966   -0.048832984638898805   -0.0010456901561079217
-0.021444887389659426   -0.036696198550248416   -0.0008375416260271879
-0.014714964001655744   -0.03688444176339953   -0.0007426530532158354
-0.020231979419884985   -0.04876319566145574   -0.0012717907773571071
-0.013957118561429966   -0.048832984638898805   -0.0010456901561079217
-0.014797532720964911   -0.03679075910445629   -0.0006928339271559597
-0.020295599119856355   -0.04868943238008055   -0.0011852822925468567
-0.014019266980368175   -0.048752702747435595   -0.0009820103930718673
-0.014797532720964911   -0.03679075910445629   -0.0006928339271559597
-0.021444887389659426   -0.036696198550248416   -0.0008375416260271879
-0.020295599119856355   -0.04868943238008055   -0.0011852822925468567
-0.02150489785358221   -0.03662804885468802   -0.0007699354740492803
-0.014019266980368175   -0.048752702747435595   -0.0009820103930718673
-0.020334221014395634   -0.048629572797730516   -0.0010922226306293306
-0.02150489785358221   -0.03662804885468802   -0.0007699354740492803
-0.020295599119856355   -0.04868943238008055   -0.0011852822925468567
-0.014019266980368175   -0.048752702747435595   -0.0009820103930718673
-0.02150489785358221   -0.03662804885468802   -0.0007699354740492803
-0.014874766694343834   -0.03670329821937731   -0.000636810071048858
-0.014797532720964911   -0.03679075910445629   -0.0006928339271559597
-0.014019266980368175   -0.048752702747435595   -0.0009820103930718673
-0.02150489785358221   -0.03662804885468802   -0.0007699354740492803
-0.014797532720964911   -0.03679075910445629   -0.0006928339271559597
-0.020295599119856355   -0.04868943238008055   -0.0011852822925468567
-0.014019266980368175   -0.048752702747435595   -0.0009820103930718673
-0.014874766694343834   -0.03670329821937731   -0.000636810071048858
-0.020334221014395634   -0.048629572797730516   -0.0010922226306293306
-0.014082003187245576   -0.0486885133051167   -0.0009110449798100143
-0.014874766694343834   -0.03670329821937731   -0.000636810071048858
-0.02150489785358221   -0.03662804885468802   -0.0007699354740492803
-0.020334221014395634   -0.048629572797730516   -0.0010922226306293306
-0.021564426743882283   -0.036566718031998305   -0.0006957985910162779
-0.014082003187245576   -0.0486885133051167   -0.0009110449798100143
-0.02037659776532749   -0.04858719713287836   -0.0009912562925525267
-0.021564426743882283   -0.036566718031998305   -0.0006957985910162779
-0.020334221014395634   -0.048629572797730516   -0.0010922226306293306
-0.014082003187245576   -0.0486885133051167   -0.0009110449798100143
-0.021564426743882283   -0.036566718031998305   -0.0006957985910162779
-0.014952276686408725   -0.036622303380998915   -0.0005748897443473895
-0.014874766694343834   -0.03670329821937731   -0.000636810071048858
-0.014082003187245576   -0.0486885133051167   -0.0009110449798100143
-0.021564426743882283   -0.036566718031998305   -0.0006957985910162779
-0.014874766694343834   -0.03670329821937731   -0.000636810071048858
-0.020334221014395634   -0.048629572797730516   -0.0010922226306293306
-0.020231979419884985   -0.04876319566145574   -0.0012717907773571071
-0.021365807821684624   -0.03676816548690165   -0.0008999714105382122
-0.027039607831793704   -0.048559100334781585   -0.0014070252921367713
-0.020295599119856355   -0.04868943238008055   -0.0011852822925468567
-0.021365807821684624   -0.03676816548690165   -0.0008999714105382122
-0.028414197127468066   -0.03663092524591922   -0.0010168588644994293
-0.027039607831793704   -0.048559100334781585   -0.0014070252921367713
-0.02842662980055018   -0.03657341063032507   -0.0009479961407437333
-0.020295599119856355   -0.04868943238008055   -0.0011852822925468567
-0.026993295933392232   -0.04849687494628053   -0.0012918708319576986
-0.02842662980055018   -0.03657341063032507   -0.0009479961407437333
-0.027039607831793704   -0.048559100334781585   -0.0014070252921367713
-0.020295599119856355   -0.04868943238008055   -0.0011852822925468567
-0.02842662980055018   -0.03657341063032507   -0.0009479961407437333
-0.021444887389659426   -0.036696198550248416   -0.0008375416260271879
-0.021365807821684624   -0.03676816548690165   -0.0008999714105382122
-0.020295599119856355   -0.04868943238008055   -0.0011852822925468567
-0.02842662980055018   -0.03657341063032507   -0.0009479961407437333
-0.021365807821684624   -0.03676816548690165   -0.0008999714105382122
-0.027039607831793704   -0.048559100334781585   -0.0014070252921367713
-0.020295599119856355   -0.04868943238008055   -0.0011852822925468567
-0.021444887389659426   -0.036696198550248416   -0.0008375416260271879
-0.026993295933392232   -0.04849687494628053   -0.0012918708319576986
-0.020334221014395634   -0.048629572797730516   -0.0010922226306293306
-0.021444887389659426   -0.036696198550248416   -0.0008375416260271879
-0.02842662980055018   -0.03657341063032507   -0.0009479961407437333
-0.026993295933392232   -0.04849687494628053   -0.0012918708319576986
-0.028439349120643925   -0.03651517805449896   -0.000868706124351136
-0.020334221014395634   -0.048629572797730516   -0.0010922226306293306
-0.026955562561532333   -0.04844663431001477   -0.0011646956649389365
-0.028439349120643925   -0.03651517805449896   -0.000868706124351136
-0.026993295933392232   -0.04849687494628053   -0.0012918708319576986
-0.020334221014395634   -0.048629572797730516   -0.0010922226306293306
-0.028439349120643925   -0.03651517805449896   -0.000868706124351136
-0.02150489785358221   -0.03662804885468802   -0.0007699354740492803
-0.021444887389659426   -0.036696198550248416   -0.0008375416260271879
-0.020334221014395634   -0.048629572797730516   -0.0010922226306293306
-0.028439349120643925   -0.03651517805449896   -0.000868706124351136
-0.021444887389659426   -0.036696198550248416   -0.0008375416260271879
-0.026993295933392232   -0.04849687494628053   -0.0012918708319576986
-0.020334221014395634   -0.048629572797730516   -0.0010922226306293306
-0.02150489785358221   -0.03662804885468802   -0.0007699354740492803
-0.026955562561532333   -0.04844663431001477   -0.0011646956649389365
-0.02037659776532749   -0.04858719713287836   -0.0009912562925525267
-0.02150489785358221   -0.03662804885468802   -0.0007699354740492803
-0.028439349120643925   -0.03651517805449896   -0.000868706124351136
-0.026955562561532333   -0.04844663431001477   -0.0011646956649389365
-0.028412527957955527   -0.036476578731240925   -0.0007802287512355692
-0.02037659776532749   -0.04858719713287836   -0.0009912562925525267
-0.026864458482308173   -0.048430386644339525   -0.001026871488687652
-0.028412527957955527   -0.036476578731240925   -0.0007802287512355692
-0.026955562561532333   -0.04844663431001477   -0.0011646956649389365
-0.02037659776532749   -0.04858719713287836   -0.0009912562925525267
-0.028412527957955527   -0.036476578731240925   -0.0007802287512355692
-0.021564426743882283   -0.036566718031998305   -0.0006957985910162779
-0.02150489785358221   -0.03662804885468802   -0.0007699354740492803
-0.02037659776532749   -0.04858719713287836   -0.0009912562925525267
-0.028412527957955527   -0.036476578731240925   -0.0007802287512355692
-0.02150489785358221   -0.03662804885468802   -0.0007699354740492803
-0.026955562561532333   -0.04844663431001477   -0.0011646956649389365
0.005467124622426606   -0.03710427353624312   -5.4064719106903896e-05
0.004898160975422598   -0.02475255801429319   0.0001496453383685354
-0.0015412154898814215   -0.03704238173310218   -0.0003223214874389764
0.005380268128451437   -0.03694777649425791   -4.891089852378902e-05
0.004898160975422598   -0.02475255801429319   0.0001496453383685354
-0.0021607062892648643   -0.024635955408849965   -6.375213353708509e-05
-0.0015412154898814215   -0.03704238173310218   -0.0003223214874389764
-0.002258123530577083   -0.02451225483879018   -1.3174129063850742e-05
0.005380268128451437   -0.03694777649425791   -4.891089852378902e-05
-0.00162283743954766   -0.03690580428389069   -0.00029802462121171063
-0.002258123530577083   -0.02451225483879018   -1.3174129063850742e-05
-0.0015412154898814215   -0.03704238173310218   -0.0003223214874389764
0.005380268128451437   -0.03694777649425791   -4.891089852378902e-05
-0.002258123530577083   -0.02451225483879018   -1.3174129063850742e-05
0.004744562140393976   -0.024603411920257202   0.0002127347961246908
0.004898160975422598   -0.02475255801429319   0.0001496453383685354
0.005380268128451437   -0.03694777649425791   -4.891089852378902e-05
-0.002258123530577083   -0.02451225483879018   -1.3174129063850742e-05
0.004898160975422598   -0.02475255801429319   0.0001496453383685354
-0.0015412154898814215   -0.03704238173310218   -0.0003223214874389764
0.005380268128451437   -0.03694777649425791   -4.891089852378902e-05
0.004744562140393976   -0.024603411920257202   0.0002127347961246908
-0.00162283743954766   -0.03690580428389069   -0.00029802462121171063
0.005273839792179952   -0.03680779025282807   -2.9968774464454168e-05
0.004744562140393976   -0.024603411920257202   0.0002127347961246908
-0.002258123530577083   -0.02451225483879018   -1.3174129063850742e-05
-0.00162283743954766   -0.03690580428389069   -0.00029802462121171063
-0.0023720565264649957   -0.02438166436841239   4.638009578355326e-05
0.005273839792179952   -0.03680779025282807   -2.9968774464454168e-05
-0.0017162644550833674   -0.036776802937098285   -0.0002669819405375105
-0.0023720565264649957   -0.02438166436841239   4.638009578355326e-05
-0.00162283743954766   -0.03690580428389069   -0.00029802462121171063
0.005273839792179952   -0.03680779025282807   -2.9968774464454168e-05
-0.0023720565264649957   -0.02438166436841239   4.638009578355326e-05
0.004573252295021076   -0.024455207668146708   0.0003032274855747323
0.004744562140393976   -0.024603411920257202   0.0002127347961246908
0.005273839792179952   -0.03680779025282807   -2.9968774464454168e-05
-0.0023720565264649957   -0.02438166436841239   4.638009578355326e-05
0.004744562140393976   -0.024603411920257202   0.0002127347961246908
-0.00162283743954766   -0.03690580428389069   -0.00029802462121171063
0.005273839792179952   -0.03680779025282807   -2.9968774464454168e-05
0.004573252295021076   -0.024455207668146708   0.0003032274855747323
-0.0017162644550833674   -0.036776802937098285   -0.0002669819405375105
0.005133596078396953   -0.03666128668900996   2.1362427156085593e-06
0.004573252295021076   -0.024455207668146708   0.0003032274855747323
-0.0023720565264649957   -0.02438166436841239   4.638009578355326e-05
-0.0017162644550833674   -0.036776802937098285   -0.0002669819405375105
-0.0024898734173012366   -0.024242973273224628   0.00011478622662171751
0.005133596078396953   -0.03666128668900996   2.1362427156085593e-06
-0.001821079668081229   -0.03665361712763976   -0.0002275015118761291
-0.0024898734173012366   -0.024242973273224628   0.00011478622662171751
-0.0017162644550833674   -0.036776802937098285   -0.0002669819405375105
0.005133596078396953   -0.03666128668900996   2.1362427156085593e-06
-0.0024898734173012366   -0.024242973273224628   0.00011478622662171751
0.004363947605444729   -0.024273180955532946   0.00040278106876289626
0.004573252295021076   -0.024455207668146708   0.0003032274855747323
0.005133596078396953   -0.03666128668900996   2.1362427156085593e-06
-0.0024898734173012366   -0.024242973273224628   0.00011478622662171751
0.004573252295021076   -0.024455207668146708   0.0003032274855747323
-0.0017162644550833674   -0.036776802937098285   -0.0002669819405375105
-0.0015412154898814215   -0.03704238173310218   -0.0003223214874389764
-0.0021607062892648643   -0.024635955408849965   -6.375213353708509e-05
-0.00818203834694009   -0.03697050939190046   -0.000549553641121216
-0.00162283743954766   -0.03690580428389069   -0.00029802462121171063
-0.0021607062892648643   -0.024635955408849965   -6.375213353708509e-05
-0.008808312022103408   -0.024605789114827754   -0.0002695363205755863
-0.00818203834694009   -0.03697050939190046   -0.000549553641121216
-0.008896318029862715   -0.024497752519669007   -0.00022254436759790435
-0.00162283743954766   -0.03690580428389069   -0.00029802462121171063
-0.0082652353461436   -0.03685618775258215   -0.0005124963297062025
-0.008896318029862715   -0.024497752519669007   -0.00022254436759790435
-0.00818203834694009   -0.03697050939190046   -0.000549553641121216
-0.00162283743954766   -0.03690580428389069   -0.00029802462121171063
-0.008896318029862715   -0.024497752519669007   -0.00022254436759790435
-0.002258123530577083   -0.02451225483879018   -1.3174129063850742e-05
-0.0021607062892648643   -0.024635955408849965   -6.375213353708509e-05
-0.00162283743954766   -0.03690580428389069   -0.00029802462121171063
-0.008896318029862715   -0.024497752519669007   -0.00022254436759790435
-0.0021607062892648643   -0.024635955408849965   -6.375213353708509e-05
-0.00818203834694009   -0.03697050939190046   -0.000549553641121216
-0.00162283743954766   -0.03690580428389069   -0.00029802462121171063
-0.002258123530577083   -0.02451225483879018   -1.3174129063850742e-05
-0.0082652353461436   -0.03685618775258215   -0.0005124963297062025
-0.0017162644550833674   -0.036776802937098285   -0.0002669819405375105
-0.002258123530577083   -0.02451225483879018   -1.3174129063850742e-05
-0.008896318029862715   -0.024497752519669007   -0.00022254436759790435
-0.0082652353461436   -0.03685618775258215   -0.0005124963297062025
-0.008987342737902108   -0.024385360407779843   -0.0001709033467018872
-0.0017162644550833674   -0.036776802937098285   -0.0002669819405375105
-0.008350287144322224   -0.03674774897175894   -0.00046901443193608756
-0.008987342737902108   -0.024385360407779843   -0.0001709033467018872
-0.0082652353461436   -0.03685618775258215   -0.0005124963297062025
-0.0017162644550833674   -0.036776802937098285   -0.0002669819405375105
-0.008987342737902108   -0.024385360407779843   -0.0001709033467018872
-0.0023720565264649957   -0.02438166436841239   4.638009578355326e-05
-0.002258123530577083   -0.02451225483879018   -1.3174129063850742e-05
-0.0017162644550833674   -0.036776802937098285   -0.0002669819405375105
-0.008987342737902108   -0.024385360407779843   -0.0001709033467018872
-0.002258123530577083   -0.02451225483879018   -1.3174129063850742e-05
-0.0082652353461436   -0.03685618775258215   -0.0005124963297062025
-0.0017162644550833674   -0.036776802937098285   -0.0002669819405375105
-0.0023720565264649957   -0.02438166436841239   4.638009578355326e-05
-0.008350287144322224   -0.03674774897175894   -0.00046901443193608756
-0.001821079668081229   -0.03665361712763976   -0.0002275015118761291
-0.0023720565264649957   -0.02438166436841239   4.638009578355326e-05
-0.008987342737902108   -0.024385360407779843   -0.0001709033467018872
-0.008350287144322224   -0.03674774897175894   -0.00046901443193608756
-0.009082093563898665   -0.02427060493587484   -0.00011368114175024407
-0.001821079668081229   -0.03665361712763976   -0.0002275015118761291
-0.008440734600895788   -0.03664685982584134   -0.00041903538722648466
-0.009082093563898665   -0.02427060493587484   -0.00011368114175024407
-0.008350287144322224   -0.03674774897175894   -0.00046901443193608756
-0.001821079668081229   -0.03665361712763976   -0.0002275015118761291
-0.009082093563898665   -0.02427060493587484   -0.00011368114175024407
-0.0024898734173012366   -0.024242973273224628   0.00011478622662171751
-0.0023720565264649957   -0.02438166436841239   4.638009578355326e-05
-0.001821079668081229   -0.03665361712763976   -0.0002275015118761291
-0.009082093563898665   -0.02427060493587484   -0.00011368114175024407
-0.0023720565264649957   -0.02438166436841239   4.638009578355326e-05
-0.008350287144322224   -0.03674774897175894   -0.00046901443193608756
-0.00818203834694009   -0.03697050939190046   -0.000549553641121216
-0.008808312022103408   -0.024605789114827754   -0.0002695363205755863
-0.014714964001655744   -0.03688444176339953   -0.0007426530532158354
-0.0082652353461436   -0.03685618775258215   -0.0005124963297062025
-0.008808312022103408   -0.024605789114827754   -0.0002695363205755863
-0.015388065298765232   -0.024597417669926496   -0.00045560203348668325
-0.014714964001655744   -0.03688444176339953   -0.0007426530532158354
-0.015472173416745495   -0.024502634114312024   -0.0004108301059257614
-0.0082652353461436   -0.03685618775258215   -0.0005124963297062025
-0.014797532720964911   -0.03679075910445629   -0.0006928339271559597
-0.015472173416745495   -0.024502634114312024   -0.0004108301059257614
-0.014714964001655744   -0.03688444176339953   -0.0007426530532158354
-0.0082652353461436   -0.03685618775258215   -0.0005124963297062025
-0.015472173416745495   -0.024502634114312024   -0.0004108301059257614
-0.008896318029862715   -0.024497752519669007   -0.00022254436759790435
-0.008808312022103408   -0.024605789114827754   -0.0002695363205755863
-0.0082652353461436   -0.03685618775258215   -0.0005124963297062025
-0.015472173416745495   -0.024502634114312024   -0.0004108301059257614
-0.008808312022103408   -0.024605789114827754   -0.0002695363205755863
-0.014714964001655744   -0.03688444176339953   -0.0007426530532158354
-0.0082652353461436   -0.03685618775258215   -0.0005124963297062025
-0.008896318029862715   -0.024497752519669007   -0.00022254436759790435
-0.014797532720964911   -0.03679075910445629   -0.0006928339271559597
-0.008350287144322224   -0.03674774897175894   -0.00046901443193608756
-0.008896318029862715   -0.024497752519669007   -0.00022254436759790435
-0.015472173416745495   -0.024502634114312024   -0.0004108301059257614
-0.014797532720964911   -0.03679075910445629   -0.0006928339271559597
-0.015552293813862184   -0.024406113734170645   -0.0003619951537280175
-0.008350287144322224   -0.03674774897175894   -0.00046901443193608756
-0.014874766694343834   -0.03670329821937731   -0.000636810071048858
-0.015552293813862184   -0.024406113734170645   -0.0003619951537280175
-0.014797532720964911   -0.03679075910445629   -0.0006928339271559597
-0.008350287144322224   -0.03674774897175894   -0.00046901443193608756
-0.015552293813862184   -0.024406113734170645   -0.0003619951537280175
-0.008987342737902108   -0.024385360407779843   -0.0001709033467018872
-0.008896318029862715   -0.024497752519669007   -0.00022254436759790435
-0.008350287144322224   -0.03674774897175894   -0.00046901443193608756
-0.015552293813862184   -0.024406113734170645   -0.0003619951537280175
-0.008896318029862715   -0.024497752519669007   -0.00022254436759790435
-0.014797532720964911   -0.03679075910445629   -0.0006928339271559597
-0.008350287144322224   -0.03674774897175894   -0.00046901443193608756
-0.008987342737902108   -0.024385360407779843   -0.0001709033467018872
-0.014874766694343834   -0.03670329821937731   -0.000636810071048858
-0.008440734600895788   -0.03664685982584134   -0.00041903538722648466
-0.008987342737902108   -0.024385360407779843   -0.0001709033467018872
-0.015552293813862184   -0.024406113734170645   -0.0003619951537280175
-0.014874766694343834   -0.03670329821937731   -0.000636810071048858
-0.01563160677660983   -0.024307309487140074   -0.0003093296133102077
-0.008440734600895788   -0.03664685982584134   -0.00041903538722648466
-0.014952276686408725   -0.036622303380998915   -0.0005748897443473895
-0.01563160677660983   -0.024307309487140074   -0.0003093296133102077
-0.014874766694343834   -0.03670329821937731   -0.000636810071048858
-0.008440734600895788   -0.03664685982584134   -0.00041903538722648466
-0.01563160677660983   -0.024307309487140074   -0.0003093296133102077
-0.009082093563898665   -0.02427060493587484   -0.00011368114175024407
-0.008987342737902108   -0.024385360407779843   -0.0001709033467018872
-0.008440734600895788   -0.03664685982584134   -0.00041903538722648466
-0.01563160677660983   -0.024307309487140074   -0.0003093296133102077
-0.008987342737902108   -0.024385360407779843   -0.0001709033467018872
-0.014874766694343834   -0.03670329821937731   -0.000636810071048858
-0.014714964001655744   -0.03688444176339953   -0.0007426530532158354
-0.015388065298765232   -0.024597417669926496   -0.00045560203348668325
-0.021365807821684624   -0.03676816548690165   -0.0008999714105382122
-0.014797532720964911   -0.03679075910445629   -0.0006928339271559597
-0.015388065298765232   -0.024597417669926496   -0.00045560203348668325
-0.022107157153147636   -0.024559272023883888   -0.0006120070447167378
-0.021365807821684624   -0.03676816548690165   -0.0008999714105382122
-0.022187340165870595   -0.02448194164644132   -0.0005696738061745263
-0.014797532720964911   -0.03679075910445629   -0.0006928339271559597
-0.021444887389659426   -0.036696198550248416   -0.0008375416260271879
-0.022187340165870595   -0.02448194164644132   -0.0005696738061745263
-0.021365807821684624   -0.03676816548690165   -0.0008999714105382122
-0.014797532720964911   -0.03679075910445629   -0.0006928339271559597
-0.022187340165870595   -0.02448194164644132   -0.0005696738061745263
-0.015472173416745495   -0.024502634114312024   -0.0004108301059257614
-0.015388065298765232   -0.024597417669926496   -0.00045560203348668325
-0.014797532720964911   -0.03679075910445629   -0.0006928339271559597
-0.022187340165870595   -0.02448194164644132   -0.0005696738061745263
-0.015388065298765232   -0.024597417669926496   -0.00045560203348668325
-0.021365807821684624   -0.03676816548690165   -0.0008999714105382122
-0.014797532720964911   -0.03679075910445629   -0.0006928339271559597
-0.015472173416745495   -0.024502634114312024   -0.0004108301059257614
-0.021444887389659426   -0.036696198550248416   -0.0008375416260271879
-0.014874766694343834   -0.03670329821937731   -0.000636810071048858
-0.015472173416745495   -0.024502634114312024   -0.0004108301059257614
-0.022187340165870595   -0.02448194164644132   -0.0005696738061745263
-0.021444887389659426   -0.036696198550248416   -0.0008375416260271879
-0.022255308785562575   -0.02440036174093897   -0.0005244619752972468
-0.014874766694343834   -0.03670329821937731   -0.000636810071048858
-0.02150489785358221   -0.03662804885468802   -0.0007699354740492803
-0.022255308785562575   -0.02440036174093897   -0.0005244619752972468
-0.021444887389659426   -0.036696198550248416   -0.0008375416260271879
-0.014874766694343834   -0.03670329821937731   -0.000636810071048858
-0.022255308785562575   -0.02440036174093897   -0.0005244619752972468
-0.015552293813862184   -0.024406113734170645   -0.0003619951537280175
-0.015472173416745495   -0.024502634114312024   -0.0004108301059257614
-0.014874766694343834   -0.03670329821937731   -0.000636810071048858
-0.022255308785562575   -0.02440036174093897   -0.0005244619752972468
-0.015472173416745495   -0.024502634114312024   -0.0004108301059257614
-0.021444887389659426   -0.036696198550248416   -0.0008375416260271879
-0.014874766694343834   -0.03670329821937731   -0.000636810071048858
-0.015552293813862184   -0.024406113734170645   -0.0003619951537280175
-0.02150489785358221   -0.03662804885468802   -0.0007699354740492803
-0.014952276686408725   -0.036622303380998915   -0.0005748897443473895
-0.015552293813862184   -0.024406113734170645   -0.0003619951537280175
-0.022255308785562575   -0.02440036174093897   -0.0005244619752972468
-0.02150489785358221   -0.03662804885468802   -0.0007699354740492803
-0.022319550800265167   -0.024316615599714854   -0.0004751114286905799
-0.014952276686408725   -0.036622303380998915   -0.0005748897443473895
-0.021564426743882283   -0.036566718031998305   -0.0006957985910162779
-0.022319550800265167   -0.024316615599714854   -0.0004751114286905799
-0.02150489785358221   -0.03662804885468802   -0.0007699354740492803
-0.014952276686408725   -0.036622303380998915   -0.0005748897443473895
-0.022319550800265167   -0.024316615599714854   -0.0004751114286905799
-0.01563160677660983   -0.024307309487140074   -0.0003093296133102077
-0.015552293813862184   -0.024406113734170645   -0.0003619951537280175
-0.014952276686408725   -0.036622303380998915   -0.0005748897443473895
-0.022319550800265167   -0.024316615599714854   -0.0004751114286905799
-0.015552293813862184   -0.024406113734170645   -0.0003619951537280175
-0.02150489785358221   -0.03662804885468802   -0.0007699354740492803
-0.021365807821684624   -0.03676816548690165   -0.0008999714105382122
-0.022107157153147636   -0.024559272023883888   -0.0006120070447167378
-0.028414197127468066   -0.03663092524591922   -0.0010168588644994293
-0.021444887389659426   -0.036696198550248416   -0.0008375416260271879
-0.022107157153147636   -0.024559272023883888   -0.0006120070447167378
-0.0291447774537756   -0.024496513489850547   -0.0007279089768750828
-0.028414197127468066   -0.03663092524591922   -0.0010168588644994293
-0.02919477021913489   -0.024431520458723863   -0.0006962514018763364
-0.021444887389659426   -0.036696198550248416   -0.0008375416260271879
-0.02842662980055018   -0.03657341063032507   -0.0009479961407437333
-0.02919477021913489   -0.024431520458723863   -0.0006962514018763364
-0.028414197127468066   -0.03663092524591922   -0.0010168588644994293
-0.021444887389659426   -0.036696198550248416   -0.0008375416260271879
-0.02919477021913489   -0.024431520458723863   -0.0006962514018763364
-0.022187340165870595   -0.02448194164644132   -0.0005696738061745263
-0.022107157153147636   -0.024559272023883888   -0.0006120070447167378
-0.021444887389659426   -0.036696198550248416   -0.0008375416260271879
-0.02919477021913489   -0.024431520458723863   -0.0006962514018763364
-0.022107157153147636   -0.024559272023883888   -0.0006120070447167378
-0.028414197127468066   -0.03663092524591922   -0.0010168588644994293
-0.021444887389659426   -0.036696198550248416   -0.0008375416260271879
-0.022187340165870595   -0.02448194164644132   -0.0005696738061745263
-0.02842662980055018   -0.03657341063032507   -0.0009479961407437333
-0.02150489785358221   -0.03662804885468802   -0.0007699354740492803
-0.022187340165870595   -0.02448194164644132   -0.0005696738061745263
-0.02919477021913489   -0.024431520458723863   -0.0006962514018763364
-0.02842662980055018   -0.03657341063032507   -0.0009479961407437333
-0.029240482737805405   -0.024358011229267593   -0.0006575185311104407
-0.02150489785358221   -0.03662804885468802   -0.0007699354740492803
-0.028439349120643925   -0.03651517805449896   -0.000868706124351136
-0.029240482737805405   -0.024358011229267593   -0.0006575185311104407
-0.02842662980055018   -0.03657341063032507   -0.0009479961407437333
-0.02150489785358221   -0.03662804885468802   -0.0007699354740492803
-0.029240482737805405   -0.024358011229267593   -0.0006575185311104407
-0.022255308785562575   -0.02440036174093897   -0.0005244619752972468
-0.022187340165870595   -0.02448194164644132   -0.0005696738061745263
-0.02150489785358221   -0.03662804885468802   -0.0007699354740492803
-0.029240482737805405   -0.024358011229267593   -0.0006575185311104407
-0.022187340165870595   -0.02448194164644132   -0.0005696738061745263
-0.02842662980055018   -0.03657341063032507   -0.0009479961407437333
-0.02150489785358221   -0.03662804885468802   -0.0007699354740492803
-0.022255308785562575   -0.02440036174093897   -0.0005244619752972468
-0.028439349120643925   -0.03651517805449896   -0.000868706124351136
-0.021564426743882283   -0.036566718031998305   -0.0006957985910162779
-0.022255308785562575   -0.02440036174093897   -0.0005244619752972468
-0.029240482737805405   -0.024358011229267593   -0.0006575185311104407
-0.028439349120643925   -0.03651517805449896   -0.000868706124351136
-0.02926281494448825   -0.024290455956463484   -0.0006134866706537812
-0.021564426743882283   -0.036566718031998305   -0.0006957985910162779
-0.028412527957955527   -0.036476578731240925   -0.0007802287512355692
-0.02926281494448825   -0.024290455956463484   -0.0006134866706537812
-0.028439349120643925   -0.03651517805449896   -0.000868706124351136
-0.021564426743882283   -0.036566718031998305   -0.0006957985910162779
-0.02926281494448825   -0.024290455956463484   -0.0006134866706537812
-0.022319550800265167   -0.024316615599714854   -0.0004751114286905799
-0.022255308785562575   -0.02440036174093897   -0.0005244619752972468
-0.021564426743882283   -0.036566718031998305   -0.0006957985910162779
-0.02926281494448825   -0.024290455956463484   -0.0006134866706537812
-0.022255308785562575   -0.02440036174093897   -0.0005244619752972468
-0.028439349120643925   -0.03651517805449896   -0.000868706124351136
0.004898160975422598   -0.02475255801429319   0.0001496453383685354
0.003430274984212689   -0.012427412867317428   0.00016059465567617897
-0.0021607062892648643   -0.024635955408849965   -6.375213353708509e-05
0.004744562140393976   -0.024603411920257202   0.0002127347961246908
0.003430274984212689   -0.012427412867317428   0.00016059465567617897
-0.0031502508767063822   -0.012265848463611081   8.097230997614047e-05
-0.0021607062892648643   -0.024635955408849965   -6.375213353708509e-05
-0.0032470925944167194   -0.012203178605846217   0.00015114892904100316
0.004744562140393976   -0.024603411920257202   0.0002127347961246908
-0.002258123530577083   -0.02451225483879018   -1.3174129063850742e-05
-0.0032470925944167194   -0.012203178605846217   0.00015114892904100316
-0.0021607062892648643   -0.024635955408849965   -6.375213353708509e-05
0.004744562140393976   -0.024603411920257202   0.0002127347961246908
-0.0032470925944167194   -0.012203178605846217   0.00015114892904100316
0.0031285018556657714   -0.012269080966074099   0.00033440638213935253
0.003430274984212689   -0.012427412867317428   0.00016059465567617897
0.004744562140393976   -0.024603411920257202   0.0002127347961246908
-0.0032470925944167194   -0.012203178605846217   0.00015114892904100316
0.003430274984212689   -0.012427412867317428   0.00016059465567617897
-0.0021607062892648643   -0.024635955408849965   -6.375213353708509e-05
0.004744562140393976   -0.024603411920257202   0.0002127347961246908
0.0031285018556657714   -0.012269080966074099   0.00033440638213935253
-0.002258123530577083   -0.02451225483879018   -1.3174129063850742e-05
0.004573252295021076   -0.024455207668146708   0.0003032274855747323
0.0031285018556657714   -0.012269080966074099   0.00033440638213935253
-0.0032470925944167194   -0.012203178605846217   0.00015114892904100316
-0.002258123530577083   -0.02451225483879018   -1.3174129063850742e-05
-0.003374256033550597   -0.012091943873937487   0.0002363314099571044
0.004573252295021076   -0.024455207668146708   0.0003032274855747323
-0.0023720565264649957   -0.02438166436841239   4.638009578355326e-05
-0.003374256033550597   -0.012091943873937487   0.0002363314099571044
-0.002258123530577083   -0.02451225483879018   -1.3174129063850742e-05
0.004573252295021076   -0.024455207668146708   0.0003032274855747323
-0.003374256033550597   -0.012091943873937487   0.0002363314099571044
0.0029517404339062365   -0.012139394354914524   0.0004641776659579572
0.0031285018556657714   -0.012269080966074099   0.00033440638213935253
0.004573252295021076   -0.024455207668146708   0.0003032274855747323
-0.003374256033550597   -0.012091943873937487   0.0002363314099571044
0.0031285018556657714   -0.012269080966074099   0.00033440638213935253
-0.002258123530577083   -0.02451225483879018   -1.3174129063850742e-05
0.004573252295021076   -0.024455207668146708   0.0003032274855747323
0.0029517404339062365   -0.012139394354914524   0.0004641776659579572
-0.0023720565264649957   -0.02438166436841239   4.638009578355326e-05
0.004363947605444729   -0.024273180955532946   0.00040278106876289626
0.0029517404339062365   -0.012139394354914524   0.0004641776659579572
-0.003374256033550597   -0.012091943873937487   0.0002363314099571044
-0.0023720565264649957   -0.02438166436841239   4.638009578355326e-05
-0.0034811181659837793   -0.011972274296488152   0.0003113232622312992
0.004363947605444729   -0.024273180955532946   0.00040278106876289626
-0.0024898734173012366   -0.024242973273224628   0.00011478622662171751
-0.0034811181659837793   -0.011972274296488152   0.0003113232622312992
-0.0023720565264649957   -0.02438166436841239   4.638009578355326e-05
0.004363947605444729   -0.024273180955532946   0.00040278106876289626
-0.0034811181659837793   -0.011972274296488152   0.0003113232622312992
0.0027252938819556584   -0.011941350591789695   0.0006127417586119342
0.0029517404339062365   -0.012139394354914524   0.0004641776659579572
0.004363947605444729   -0.024273180955532946   0.00040278106876289626
-0.0034811181659837793   -0.011972274296488152   0.0003113232622312992
0.0029517404339062365   -0.012139394354914524   0.0004641776659579572
-0.0023720565264649957   -0.02438166436841239   4.638009578355326e-05
-0.0021607062892648643   -0.024635955408849965   -6.375213353708509e-05
-0.0031502508767063822   -0.012265848463611081   8.097230997614047e-05
-0.008808312022103408   -0.024605789114827754   -0.0002695363205755863
-0.002258123530577083   -0.02451225483879018   -1.3174129063850742e-05
-0.0031502508767063822   -0.012265848463611081   8.097230997614047e-05
-0.009414791243096302   -0.012446837711086645   -8.3003011614789e-05
-0.008808312022103408   -0.024605789114827754   -0.0002695363205755863
-0.00950386291231884   -0.012351267197598399   -3.333404199891409e-05
-0.002258123530577083   -0.02451225483879018   -1.3174129063850742e-05
-0.008896318029862715   -0.024497752519669007   -0.00022254436759790435
-0.00950386291231884   -0.012351267197598399   -3.333404199891409e-05
-0.008808312022103408   -0.024605789114827754   -0.0002695363205755863
-0.002258123530577083   -0.02451225483879018   -1.3174129063850742e-05
-0.00950386291231884   -0.012351267197598399   -3.333404199891409e-05
-0.0032470925944167194   -0.012203178605846217   0.00015114892904100316
-0.0031502508767063822   -0.012265848463611081   8.097230997614047e-05
-0.002258123530577083   -0.02451225483879018   -1.3174129063850742e-05
-0.00950386291231884   -0.012351267197598399   -3.333404199891409e-05
-0.0031502508767063822   -0.012265848463611081   8.097230997614047e-05
-0.008808312022103408   -0.024605789114827754   -0.0002695363205755863
-0.002258123530577083   -0.02451225483879018   -1.3174129063850742e-05
-0.0032470925944167194   -0.012203178605846217   0.00015114892904100316
-0.008896318029862715   -0.024497752519669007   -0.00022254436759790435
-0.0023720565264649957   -0.02438166436841239   4.638009578355326e-05
-0.0032470925944167194   -0.012203178605846217   0.00015114892904100316
-0.00950386291231884   -0.012351267197598399   -3.333404199891409e-05
-0.008896318029862715   -0.024497752519669007   -0.00022254436759790435
-0.009597043089351366   -0.012243427625227777   1.920447607741531e-05
-0.0023720565264649957   -0.02438166436841239   4.638009578355326e-05
-0.008987342737902108   -0.024385360407779843   -0.0001709033467018872
-0.009597043089351366   -0.012243427625227777   1.920447607741531e-05
-0.008896318029862715   -0.024497752519669007   -0.00022254436759790435
-0.0023720565264649957   -0.02438166436841239   4.638009578355326e-05
-0.009597043089351366   -0.012243427625227777   1.920447607741531e-05
-0.003374256033550597   -0.012091943873937487   0.0002363314099571044
-0.0032470925944167194   -0.012203178605846217   0.00015114892904100316
-0.0023720565264649957   -0.02438166436841239   4.638009578355326e-05
-0.009597043089351366   -0.012243427625227777   1.920447607741531e-05
-0.0032470925944167194   -0.012203178605846217   0.00015114892904100316
-0.008896318029862715   -0.024497752519669007   -0.00022254436759790435
-0.0023720565264649957   -0.02438166436841239   4.638009578355326e-05
-0.003374256033550597   -0.012091943873937487   0.0002363314099571044
-0.008987342737902108   -0.024385360407779843   -0.0001709033467018872
-0.0024898734173012366   -0.024242973273224628   0.00011478622662171751
-0.003374256033550597   -0.012091943873937487   0.0002363314099571044
-0.009597043089351366   -0.012243427625227777   1.920447607741531e-05
-0.008987342737902108   -0.024385360407779843   -0.0001709033467018872
-0.00968556541756381   -0.012125236320607845   7.713022610564568e-05
-0.0024898734173012366   -0.024242973273224628   0.00011478622662171751
-0.009082093563898665   -0.02427060493587484   -0.00011368114175024407
-0.00968556541756381   -0.012125236320607845   7.713022610564568e-05
-0.008987342737902108   -0.024385360407779843   -0.0001709033467018872
-0.0024898734173012366   -0.024242973273224628   0.00011478622662171751
-0.00968556541756381   -0.012125236320607845   7.713022610564568e-05
-0.0034811181659837793   -0.011972274296488152   0.0003113232622312992
-0.003374256033550597   -0.012091943873937487   0.0002363314099571044
-0.0024898734173012366   -0.024242973273224628   0.00011478622662171751
-0.00968556541756381   -0.012125236320607845   7.713022610564568e-05
-0.003374256033550597   -0.012091943873937487   0.0002363314099571044
-0.008987342737902108   -0.024385360407779843   -0.0001709033467018872
-0.008808312022103408   -0.024605789114827754   -0.0002695363205755863
-0.009414791243096302   -0.012446837711086645   -8.3003011614789e-05
-0.015388065298765232   -0.024597417669926496   -0.00045560203348668325
-0.008896318029862715   -0.024497752519669007   -0.00022254436759790435
-0.009414791243096302   -0.012446837711086645   -8.3003011614789e-05
-0.015833582854435573   -0.01258821360011266   -0.0002645677884544333
-0.015388065298765232   -0.024597417669926496   -0.00045560203348668325
-0.015913538641663765   -0.01249011431047641   -0.00022611442740493178
-0.008896318029862715   -0.024497752519669007   -0.00022254436759790435
-0.015472173416745495   -0.024502634114312024   -0.0004108301059257614
-0.015913538641663765   -0.01249011431047641   -0.00022611442740493178
-0.015388065298765232   -0.024597417669926496   -0.00045560203348668325
-0.008896318029862715   -0.024497752519669007   -0.00022254436759790435
-0.015913538641663765   -0.01249011431047641   -0.00022611442740493178
-0.00950386291231884   -0.012351267197598399   -3.333404199891409e-05
-0.009414791243096302   -0.012446837711086645   -8.3003011614789e-05
-0.008896318029862715   -0.024497752519669007   -0.00022254436759790435
-0.015913538641663765   -0.01249011431047641   -0.00022611442740493178
-0.009414791243096302   -0.012446837711086645   -8.3003011614789e-05
-0.015388065298765232   -0.024597417669926496   -0.00045560203348668325
-0.008896318029862715   -0.024497752519669007   -0.00022254436759790435
-0.00950386291231884   -0.012351267197598399   -3.333404199891409e-05
-0.015472173416745495   -0.024502634114312024   -0.0004108301059257614
-0.008987342737902108   -0.024385360407779843   -0.0001709033467018872
-0.00950386291231884   -0.012351267197598399   -3.333404199891409e-05
-0.015913538641663765   -0.01249011431047641   -0.00022611442740493178
-0.015472173416745495   -0.024502634114312024   -0.0004108301059257614
-0.015990039381429687   -0.012386535493093213   -0.0001878060738708675
-0.008987342737902108   -0.024385360407779843   -0.0001709033467018872
-0.015552293813862184   -0.024406113734170645   -0.0003619951537280175
-0.015990039381429687   -0.012386535493093213   -0.0001878060738708675
-0.015472173416745495   -0.024502634114312024   -0.0004108301059257614
-0.008987342737902108   -0.024385360407779843   -0.0001709033467018872
-0.015990039381429687   -0.012386535493093213   -0.0001878060738708675
-0.009597043089351366   -0.012243427625227777   1.920447607741531e-05
-0.00950386291231884   -0.012351267197598399   -3.333404199891409e-05
-0.008987342737902108   -0.024385360407779843   -0.0001709033467018872
-0.015990039381429687   -0.012386535493093213   -0.0001878060738708675
-0.00950386291231884   -0.012351267197598399   -3.333404199891409e-05
-0.015472173416745495   -0.024502634114312024   -0.0004108301059257614
-0.008987342737902108   -0.024385360407779843   -0.0001709033467018872
-0.009597043089351366   -0.012243427625227777   1.920447607741531e-05
-0.015552293813862184   -0.024406113734170645   -0.0003619951537280175
-0.009082093563898665   -0.02427060493587484   -0.00011368114175024407
-0.009597043089351366   -0.012243427625227777   1.920447607741531e-05
-0.015990039381429687   -0.012386535493093213   -0.0001878060738708675
-0.015552293813862184   -0.024406113734170645   -0.0003619951537280175
-0.01606052811370201   -0.012274414753731935   -0.00014612103793488996
-0.009082093563898665   -0.02427060493587484   -0.00011368114175024407
-0.01563160677660983   -0.024307309487140074   -0.0003093296133102077
-0.01606052811370201   -0.012274414753731935   -0.00014612103793488996
-0.015552293813862184   -0.024406113734170645   -0.0003619951537280175
-0.009082093563898665   -0.02427060493587484   -0.00011368114175024407
-0.01606052811370201   -0.012274414753731935   -0.00014612103793488996
-0.00968556541756381   -0.012125236320607845   7.713022610564568e-05
-0.009597043089351366   -0.012243427625227777   1.920447607741531e-05
-0.009082093563898665   -0.02427060493587484   -0.00011368114175024407
-0.01606052811370201   -0.012274414753731935   -0.00014612103793488996
-0.009597043089351366   -0.012243427625227777   1.920447607741531e-05
-0.015552293813862184   -0.024406113734170645   -0.0003619951537280175
-0.015388065298765232   -0.024597417669926496   -0.00045560203348668325
-0.015833582854435573   -0.01258821360011266   -0.0002645677884544333
-0.022107157153147636   -0.024559272023883888   -0.0006120070447167378
-0.015472173416745495   -0.024502634114312024   -0.0004108301059257614
-0.015833582854435573   -0.01258821360011266   -0.0002645677884544333
-0.022477821411334635   -0.012646184562121904   -0.0004322279023798507
-0.022107157153147636   -0.024559272023883888   -0.0006120070447167378
-0.02254984527227116   -0.012558012615115825   -0.00040422760116804634
-0.015472173416745495   -0.024502634114312024   -0.0004108301059257614
-0.022187340165870595   -0.02448194164644132   -0.0005696738061745263
-0.02254984527227116   -0.012558012615115825   -0.00040422760116804634
-0.022107157153147636   -0.024559272023883888   -0.0006120070447167378
-0.015472173416745495   -0.024502634114312024   -0.0004108301059257614
-0.02254984527227116   -0.012558012615115825   -0.00040422760116804634
-0.015913538641663765   -0.01249011431047641   -0.00022611442740493178
-0.015833582854435573   -0.01258821360011266   -0.0002645677884544333
-0.015472173416745495   -0.024502634114312024   -0.0004108301059257614
-0.02254984527227116   -0.012558012615115825   -0.00040422760116804634
-0.015833582854435573   -0.01258821360011266   -0.0002645677884544333
-0.022107157153147636   -0.024559272023883888   -0.0006120070447167378
-0.015472173416745495   -0.024502634114312024   -0.0004108301059257614
-0.015913538641663765   -0.01249011431047641   -0.00022611442740493178
-0.022187340165870595   -0.02448194164644132   -0.0005696738061745263
-0.015552293813862184   -0.024406113734170645   -0.0003619951537280175
-0.015913538641663765   -0.01249011431047641   -0.00022611442740493178
-0.02254984527227116   -0.012558012615115825   -0.00040422760116804634
-0.022187340165870595   -0.02448194164644132   -0.0005696738061745263
-0.0226140243317864   -0.012462023262038689   -0.00037704453017545415
-0.015552293813862184   -0.024406113734170645   -0.0003619951537280175
-0.022255308785562575   -0.02440036174093897   -0.0005244619752972468
-0.0226140243317864   -0.012462023262038689   -0.00037704453017545415
-0.022187340165870595   -0.02448194164644132   -0.0005696738061745263
-0.015552293813862184   -0.024406113734170645   -0.0003619951537280175
-0.0226140243317864   -0.012462023262038689   -0.00037704453017545415
-0.015990039381429687   -0.012386535493093213   -0.0001878060738708675
-0.015913538641663765   -0.01249011431047641   -0.00022611442740493178
-0.015552293813862184   -0.024406113734170645   -0.0003619951537280175
-0.0226140243317864   -0.012462023262038689   -0.00037704453017545415
-0.015913538641663765   -0.01249011431047641   -0.00022611442740493178
-0.022187340165870595   -0.02448194164644132   -0.0005696738061745263
-0.015552293813862184   -0.024406113734170645   -0.0003619951537280175
-0.015990039381429687   -0.012386535493093213   -0.0001878060738708675
-0.022255308785562575   -0.02440036174093897   -0.0005244619752972468
-0.01563160677660983   -0.024307309487140074   -0.0003093296133102077
-0.015990039381429687   -0.012386535493093213   -0.0001878060738708675
-0.0226140243317864   -0.012462023262038689   -0.00037704453017545415
-0.022255308785562575   -0.02440036174093897   -0.0005244619752972468
-0.022672132156335366   -0.0123598656907696   -0.0003490765171019012
-0.01563160677660983   -0.024307309487140074   -0.0003093296133102077
-0.022319550800265167   -0.024316615599714854   -0.0004751114286905799
-0.022672132156335366   -0.0123598656907696   -0.0003490765171019012
-0.022255308785562575   -0.02440036174093897   -0.0005244619752972468
-0.01563160677660983   -0.024307309487140074   -0.0003093296133102077
-0.022672132156335366   -0.0123598656907696   -0.0003490765171019012
-0.01606052811370201   -0.012274414753731935   -0.00014612103793488996
-0.015990039381429687   -0.012386535493093213   -0.0001878060738708675
-0.01563160677660983   -0.024307309487140074   -0.0003093296133102077
-0.022672132156335366   -0.0123598656907696   -0.0003490765171019012
-0.015990039381429687   -0.012386535493093213   -0.0001878060738708675
-0.022255308785562575   -0.02440036174093897   -0.0005244619752972468
-0.022107157153147636   -0.024559272023883888   -0.0006120070447167378
-0.022477821411334635   -0.012646184562121904   -0.0004322279023798507
-0.0291447774537756   -0.024496513489850547   -0.0007279089768750828
-0.022187340165870595   -0.02448194164644132   -0.0005696738061745263
-0.022477821411334635   -0.012646184562121904   -0.0004322279023798507
-0.029357933775555223   -0.01265273809464848   -0.0005715657514209244
-0.0291447774537756   -0.024496513489850547   -0.0007279089768750828
-0.029419878428550813   -0.012567122030072406   -0.0005596063296918496
-0.022187340165870595   -0.02448194164644132   -0.0005696738061745263
-0.02919477021913489   -0.024431520458723863   -0.0006962514018763364
-0.029419878428550813   -0.012567122030072406   -0.0005596063296918496
-0.0291447774537756   -0.024496513489850547   -0.0007279089768750828
-0.022187340165870595   -0.02448194164644132   -0.0005696738061745263
-0.029419878428550813   -0.012567122030072406   -0.0005596063296918496
-0.02254984527227116   -0.012558012615115825   -0.00040422760116804634
-0.022477821411334635   -0.012646184562121904   -0.0004322279023798507
-0.022187340165870595   -0.02448194164644132   -0.0005696738061745263
-0.029419878428550813   -0.012567122030072406   -0.0005596063296918496
-0.022477821411334635   -0.012646184562121904   -0.0004322279023798507
-0.0291447774537756   -0.024496513489850547   -0.0007279089768750828
-0.022187340165870595   -0.02448194164644132   -0.0005696738061745263
-0.02254984527227116   -0.012558012615115825   -0.00040422760116804634
-0.02919477021913489   -0.024431520458723863   -0.0006962514018763364
-0.022255308785562575   -0.02440036174093897   -0.0005244619752972468
-0.02254984527227116   -0.012558012615115825   -0.00040422760116804634
-0.029419878428550813   -0.012567122030072406   -0.0005596063296918496
-0.02919477021913489   -0.024431520458723863   -0.0006962514018763364
-0.029475375334973984   -0.012474601916495024   -0.0005456305762562219
-0.022255308785562575   -0.02440036174093897   -0.0005244619752972468
-0.029240482737805405   -0.024358011229267593   -0.0006575185311104407
-0.029475375334973984   -0.012474601916495024   -0.0005456305762562219
-0.02919477021913489   -0.024431520458723863   -0.0006962514018763364
-0.022255308785562575   -0.02440036174093897   -0.0005244619752972468
-0.029475375334973984   -0.012474601916495024   -0.0005456305762562219
-0.0226140243317864   -0.012462023262038689   -0.00037704453017545415
-0.02254984527227116   -0.012558012615115825   -0.00040422760116804634
-0.022255308785562575   -0.02440036174093897   -0.0005244619752972468
-0.029475375334973984   -0.012474601916495024   -0.0005456305762562219
-0.02254984527227116   -0.012558012615115825   -0.00040422760116804634
-0.02919477021913489   -0.024431520458723863   -0.0006962514018763364
-0.022255308785562575   -0.02440036174093897   -0.0005244619752972468
-0.0226140243317864   -0.012462023262038689   -0.00037704453017545415
-0.029240482737805405   -0.024358011229267593   -0.0006575185311104407
-0.022319550800265167   -0.024316615599714854   -0.0004751114286905799
-0.0226140243317864   -0.012462023262038689   -0.00037704453017545415
-0.029475375334973984   -0.012474601916495024   -0.0005456305762562219
-0.029240482737805405   -0.024358011229267593   -0.0006575185311104407
-0.029522123394274572   -0.012376622851722006   -0.0005326718279530543
-0.022319550800265167   -0.024316615599714854   -0.0004751114286905799
-0.02926281494448825   -0.024290455956463484   -0.0006134866706537812
-0.029522123394274572   -0.012376622851722006   -0.0005326718279530543
-0.029240482737805405   -0.024358011229267593   -0.0006575185311104407
-0.022319550800265167   -0.024316615599714854   -0.0004751114286905799
-0.029522123394274572   -0.012376622851722006   -0.0005326718279530543
-0.022672132156335366   -0.0123598656907696   -0.0003490765171019012
-0.0226140243317864   -0.012462023262038689   -0.00037704453017545415
-0.022319550800265167   -0.024316615599714854   -0.0004751114286905799
-0.029522123394274572   -0.012376622851722006   -0.0005326718279530543
-0.0226140243317864   -0.012462023262038689   -0.00037704453017545415
-0.029240482737805405   -0.024358011229267593   -0.0006575185311104407
0.003430274984212689   -0.012427412867317428   0.00016059465567617897
0.0   0.0   0.0
-0.0031502508767063822   -0.012265848463611081   8.097230997614047e-05
0.0031285018556657714   -0.012269080966074099   0.00033440638213935253
0.0   0.0   0.0
-0.003957835084171645   -0.0009982967393541945   -3.45799815965393e-05
-0.0031502508767063822   -0.012265848463611081   8.097230997614047e-05
-0.004194194405138402   -0.0007748029567304836   0.00010122761592248805
0.0031285018556657714   -0.012269080966074099   0.00033440638213935253
-0.0032470925944167194   -0.012203178605846217   0.00015114892904100316
-0.004194194405138402   -0.0007748029567304836   0.00010122761592248805
-0.0031502508767063822   -0.012265848463611081   8.097230997614047e-05
0.0031285018556657714   -0.012269080966074099   0.00033440638213935253
-0.004194194405138402   -0.0007748029567304836   0.00010122761592248805
0.0   0.0   0.0
0.0   0.0   0.0
0.0031285018556657714   -0.012269080966074099   0.00033440638213935253
-0.004194194405138402   -0.0007748029567304836   0.00010122761592248805
0.0   0.0   0.0
-0.0031502508767063822   -0.012265848463611081   8.097230997614047e-05
0.0031285018556657714   -0.012269080966074099   0.00033440638213935253
0.0   0.0   0.0
-0.0032470925944167194   -0.012203178605846217   0.00015114892904100316
0.0029517404339062365   -0.012139394354914524   0.0004641776659579572
0.0   0.0   0.0
-0.004194194405138402   -0.0007748029567304836   0.00010122761592248805
-0.0032470925944167194   -0.012203178605846217   0.00015114892904100316
-0.004342375893808682   -0.0006669615450606783   0.0001794497579407879
0.0029517404339062365   -0.012139394354914524   0.0004641776659579572
-0.003374256033550597   -0.012091943873937487   0.0002363314099571044
-0.004342375893808682   -0.0006669615450606783   0.0001794497579407879
-0.0032470925944167194   -0.012203178605846217   0.00015114892904100316
0.0029517404339062365   -0.012139394354914524   0.0004641776659579572
-0.004342375893808682   -0.0006669615450606783   0.0001794497579407879
0.0   0.0   0.0
0.0   0.0   0.0
0.0029517404339062365   -0.012139394354914524   0.0004641776659579572
-0.004342375893808682   -0.0006669615450606783   0.0001794497579407879
0.0   0.0   0.0
-0.0032470925944167194   -0.012203178605846217   0.00015114892904100316
0.0029517404339062365   -0.012139394354914524   0.0004641776659579572
0.0   0.0   0.0
-0.003374256033550597   -0.012091943873937487   0.0002363314099571044
0.0027252938819556584   -0.011941350591789695   0.0006127417586119342
0.0   0.0   0.0
-0.004342375893808682   -0.0006669615450606783   0.0001794497579407879
-0.003374256033550597   -0.012091943873937487   0.0002363314099571044
-0.004540774045847325   -0.0005238448931224546   0.0002692025306690671
0.0027252938819556584   -0.011941350591789695   0.0006127417586119342
-0.0034811181659837793   -0.011972274296488152   0.0003113232622312992
-0.004540774045847325   -0.0005238448931224546   0.0002692025306690671
-0.003374256033550597   -0.012091943873937487   0.0002363314099571044
0.0027252938819556584   -0.011941350591789695   0.0006127417586119342
-0.004540774045847325   -0.0005238448931224546   0.0002692025306690671
0.0   0.0   0.0
0.0   0.0   0.0
0.0027252938819556584   -0.011941350591789695   0.0006127417586119342
-0.004540774045847325   -0.0005238448931224546   0.0002692025306690671
0.0   0.0   0.0
-0.003374256033550597   -0.012091943873937487   0.0002363314099571044
-0.0031502508767063822   -0.012265848463611081   8.097230997614047e-05
-0.003957835084171645   -0.0009982967393541945   -3.45799815965393e-05
-0.009414791243096302   -0.012446837711086645   -8.3003011614789e-05
-0.0032470925944167194   -0.012203178605846217   0.00015114892904100316
-0.003957835084171645   -0.0009982967393541945   -3.45799815965393e-05
-0.009696446471823623   -0.0013057138072209748   -3.4439067377764006e-05
-0.009414791243096302   -0.012446837711086645   -8.3003011614789e-05
-0.009818032838431674   -0.001183243052134201   1.1821907657313836e-07
-0.0032470925944167194   -0.012203178605846217   0.00015114892904100316
-0.00950386291231884   -0.012351267197598399   -3.333404199891409e-05
-0.009818032838431674   -0.001183243052134201   1.1821907657313836e-07
-0.009414791243096302   -0.012446837711086645   -8.3003011614789e-05
-0.0032470925944167194   -0.012203178605846217   0.00015114892904100316
-0.009818032838431674   -0.001183243052134201   1.1821907657313836e-07
-0.004194194405138402   -0.0007748029567304836   0.00010122761592248805
-0.003957835084171645   -0.0009982967393541945   -3.45799815965393e-05
-0.0032470925944167194   -0.012203178605846217   0.00015114892904100316
-0.009818032838431674   -0.001183243052134201   1.1821907657313836e-07
-0.003957835084171645   -0.0009982967393541945   -3.45799815965393e-05
-0.009414791243096302   -0.012446837711086645   -8.3003011614789e-05
-0.0032470925944167194   -0.012203178605846217   0.00015114892904100316
-0.004194194405138402   -0.0007748029567304836   0.00010122761592248805
-0.00950386291231884   -0.012351267197598399   -3.333404199891409e-05
-0.003374256033550597   -0.012091943873937487   0.0002363314099571044
-0.004194194405138402   -0.0007748029567304836   0.00010122761592248805
-0.009818032838431674   -0.001183243052134201   1.1821907657313836e-07
-0.00950386291231884   -0.012351267197598399   -3.333404199891409e-05
-0.009939034086906398   -0.0010400340795157835   6.221357359380441e-05
-0.003374256033550597   -0.012091943873937487   0.0002363314099571044
-0.009597043089351366   -0.012243427625227777   1.920447607741531e-05
-0.009939034086906398   -0.0010400340795157835   6.221357359380441e-05
-0.00950386291231884   -0.012351267197598399   -3.333404199891409e-05
-0.003374256033550597   -0.012091943873937487   0.0002363314099571044
-0.009939034086906398   -0.0010400340795157835   6.221357359380441e-05
-0.004342375893808682   -0.0006669615450606783   0.0001794497579407879
-0.004194194405138402   -0.0007748029567304836   0.00010122761592248805
-0.003374256033550597   -0.012091943873937487   0.0002363314099571044
-0.009939034086906398   -0.0010400340795157835   6.221357359380441e-05
-0.004194194405138402   -0.0007748029567304836   0.00010122761592248805
-0.00950386291231884   -0.012351267197598399   -3.333404199891409e-05
-0.003374256033550597   -0.012091943873937487   0.0002363314099571044
-0.004342375893808682   -0.0006669615450606783   0.0001794497579407879
-0.009597043089351366   -0.012243427625227777   1.920447607741531e-05
-0.0034811181659837793   -0.011972274296488152   0.0003113232622312992
-0.004342375893808682   -0.0006669615450606783   0.0001794497579407879
-0.009939034086906398   -0.0010400340795157835   6.221357359380441e-05
-0.009597043089351366   -0.012243427625227777   1.920447607741531e-05
-0.010072733883733509   -0.0008746604234973327   0.0001215482907393492
-0.0034811181659837793   -0.011972274296488152   0.0003113232622312992
-0.00968556541756381   -0.012125236320607845   7.713022610564568e-05
-0.010072733883733509   -0.0008746604234973327   0.0001215482907393492
-0.009597043089351366   -0.012243427625227777   1.920447607741531e-05
-0.0034811181659837793   -0.011972274296488152   0.0003113232622312992
-0.010072733883733509   -0.0008746604234973327   0.0001215482907393492
-0.004540774045847325   -0.0005238448931224546   0.0002692025306690671
-0.004342375893808682   -0.0006669615450606783   0.0001794497579407879
-0.0034811181659837793   -0.011972274296488152   0.0003113232622312992
-0.010072733883733509   -0.0008746604234973327   0.0001215482907393492
-0.004342375893808682   -0.0006669615450606783   0.0001794497579407879
-0.009597043089351366   -0.012243427625227777   1.920447607741531e-05
-0.009414791243096302   -0.012446837711086645   -8.3003011614789e-05
-0.009696446471823623   -0.0013057138072209748   -3.4439067377764006e-05
-0.015833582854435573   -0.01258821360011266   -0.0002645677884544333
-0.00950386291231884   -0.012351267197598399   -3.333404199891409e-05
-0.009696446471823623   -0.0013057138072209748   -3.4439067377764006e-05
-0.01599051484575665   -0.0013904396247628218   -0.0001500672697822122
-0.015833582854435573   -0.01258821360011266   -0.0002645677884544333
-0.016064140978917264   -0.001294526910989776   -0.00014064896057293513
-0.00950386291231884   -0.012351267197598399   -3.333404199891409e-05
-0.015913538641663765   -0.01249011431047641   -0.00022611442740493178
-0.016064140978917264   -0.001294526910989776   -0.00014064896057293513
-0.015833582854435573   -0.01258821360011266   -0.0002645677884544333
-0.00950386291231884   -0.012351267197598399   -3.333404199891409e-05
-0.016064140978917264   -0.001294526910989776   -0.00014064896057293513
-0.009818032838431674   -0.001183243052134201   1.1821907657313836e-07
-0.009696446471823623   -0.0013057138072209748   -3.4439067377764006e-05
-0.00950386291231884   -0.012351267197598399   -3.333404199891409e-05
-0.016064140978917264   -0.001294526910989776   -0.00014064896057293513
-0.009696446471823623   -0.0013057138072209748   -3.4439067377764006e-05
-0.015833582854435573   -0.01258821360011266   -0.0002645677884544333
-0.00950386291231884   -0.012351267197598399   -3.333404199891409e-05
-0.009818032838431674   -0.001183243052134201   1.1821907657313836e-07
-0.015913538641663765   -0.01249011431047641   -0.00022611442740493178
-0.009597043089351366   -0.012243427625227777   1.920447607741531e-05
-0.009818032838431674   -0.001183243052134201   1.1821907657313836e-07
-0.016064140978917264   -0.001294526910989776   -0.00014064896057293513
-0.015913538641663765   -0.01249011431047641   -0.00022611442740493178
-0.016140672005290346   -0.0011834108938208858   -0.00012403186991182604
-0.009597043089351366   -0.012243427625227777   1.920447607741531e-05
-0.015990039381429687   -0.012386535493093213   -0.0001878060738708675
-0.016140672005290346   -0.0011834108938208858   -0.00012403186991182604
-0.015913538641663765   -0.01249011431047641   -0.00022611442740493178
-0.009597043089351366   -0.012243427625227777   1.920447607741531e-05
-0.016140672005290346   -0.0011834108938208858   -0.00012403186991182604
-0.009939034086906398   -0.0010400340795157835   6.221357359380441e-05
-0.009818032838431674   -0.001183243052134201   1.1821907657313836e-07
-0.009597043089351366   -0.012243427625227777   1.920447607741531e-05
-0.016140672005290346   -0.0011834108938208858   -0.00012403186991182604
-0.009818032838431674   -0.001183243052134201   1.1821907657313836e-07
-0.015913538641663765   -0.01249011431047641   -0.00022611442740493178
-0.009597043089351366   -0.012243427625227777   1.920447607741531e-05
-0.009939034086906398   -0.0010400340795157835   6.221357359380441e-05
-0.015990039381429687   -0.012386535493093213   -0.0001878060738708675
-0.00968556541756381   -0.012125236320607845   7.713022610564568e-05
-0.009939034086906398   -0.0010400340795157835   6.221357359380441e-05
-0.016140672005290346   -0.0011834108938208858   -0.00012403186991182604
-0.015990039381429687   -0.012386535493093213   -0.0001878060738708675
-0.01621304713545575   -0.0010485576053729483   -0.00010204630214967204
-0.00968556541756381   -0.012125236320607845   7.713022610564568e-05
-0.01606052811370201   -0.012274414753731935   -0.00014612103793488996
-0.01621304713545575   -0.0010485576053729483   -0.00010204630214967204
-0.015990039381429687   -0.012386535493093213   -0.0001878060738708675
-0.00968556541756381   -0.012125236320607845   7.713022610564568e-05
-0.01621304713545575   -0.0010485576053729483   -0.00010204630214967204
-0.010072733883733509   -0.0008746604234973327   0.0001215482907393492
-0.009939034086906398   -0.0010400340795157835   6.221357359380441e-05
-0.00968556541756381   -0.012125236320607845   7.713022610564568e-05
-0.01621304713545575   -0.0010485576053729483   -0.00010204630214967204
-0.009939034086906398   -0.0010400340795157835   6.221357359380441e-05
-0.015990039381429687   -0.012386535493093213   -0.0001878060738708675
-0.015833582854435573   -0.01258821360011266   -0.0002645677884544333
-0.01599051484575665   -0.0013904396247628218   -0.0001500672697822122
-0.022477821411334635   -0.012646184562121904   -0.0004322279023798507
-0.015913538641663765   -0.01249011431047641   -0.00022611442740493178
-0.01599051484575665   -0.0013904396247628218   -0.0001500672697822122
-0.02259392913840198   -0.0013745348122045412   -0.0003153168226745537
-0.022477821411334635   -0.012646184562121904   -0.0004322279023798507
-0.022643619816939197   -0.0012880393826561719   -0.00031130778662266623
-0.015913538641663765   -0.01249011431047641   -0.00022611442740493178
-0.02254984527227116   -0.012558012615115825   -0.00040422760116804634
-0.022643619816939197   -0.0012880393826561719   -0.00031130778662266623
-0.022477821411334635   -0.012646184562121904   -0.0004322279023798507
-0.015913538641663765   -0.01249011431047641   -0.00022611442740493178
-0.022643619816939197   -0.0012880393826561719   -0.00031130778662266623
-0.016064140978917264   -0.001294526910989776   -0.00014064896057293513
-0.01599051484575665   -0.0013904396247628218   -0.0001500672697822122
-0.015913538641663765   -0.01249011431047641   -0.00022611442740493178
-0.022643619816939197   -0.0012880393826561719   -0.00031130778662266623
-0.01599051484575665   -0.0013904396247628218   -0.0001500672697822122
-0.022477821411334635   -0.012646184562121904   -0.0004322279023798507
-0.015913538641663765   -0.01249011431047641   -0.00022611442740493178
-0.016064140978917264   -0.001294526910989776   -0.00014064896057293513
-0.02254984527227116   -0.012558012615115825   -0.00040422760116804634
-0.015990039381429687   -0.012386535493093213   -0.0001878060738708675
-0.016064140978917264   -0.001294526910989776   -0.00014064896057293513
-0.022643619816939197   -0.0012880393826561719   -0.00031130778662266623
-0.02254984527227116   -0.012558012615115825   -0.00040422760116804634
-0.02269547056189284   -0.0011919630434511646   -0.00030864889441600417
-0.015990039381429687   -0.012386535493093213   -0.0001878060738708675
-0.0226140243317864   -0.012462023262038689   -0.00037704453017545415
-0.02269547056189284   -0.0011919630434511646   -0.00030864889441600417
-0.02254984527227116   -0.012558012615115825   -0.00040422760116804634
-0.015990039381429687   -0.012386535493093213   -0.0001878060738708675
-0.02269547056189284   -0.0011919630434511646   -0.00030864889441600417
-0.016140672005290346   -0.0011834108938208858   -0.00012403186991182604
-0.016064140978917264   -0.001294526910989776   -0.00014064896057293513
-0.015990039381429687   -0.012386535493093213   -0.0001878060738708675
-0.02269547056189284   -0.0011919630434511646   -0.00030864889441600417
-0.016064140978917264   -0.001294526910989776   -0.00014064896057293513
-0.02254984527227116   -0.012558012615115825   -0.00040422760116804634
-0.015990039381429687   -0.012386535493093213   -0.0001878060738708675
-0.016140672005290346   -0.0011834108938208858   -0.00012403186991182604
-0.0226140243317864   -0.012462023262038689   -0.00037704453017545415
-0.01606052811370201   -0.012274414753731935   -0.00014612103793488996
-0.016140672005290346   -0.0011834108938208858   -0.00012403186991182604
-0.02269547056189284   -0.0011919630434511646   -0.00030864889441600417
-0.0226140243317864   -0.012462023262038689   -0.00037704453017545415
-0.022734657620179285   -0.0010881381623989931   -0.0003075731434863941
-0.01606052811370201   -0.012274414753731935   -0.00014612103793488996
-0.022672132156335366   -0.0123598656907696   -0.0003490765171019012
-0.022734657620179285   -0.0010881381623989931   -0.0003075731434863941
-0.0226140243317864   -0.012462023262038689   -0.00037704453017545415
-0.01606052811370201   -0.012274414753731935   -0.00014612103793488996
-0.022734657620179285   -0.0010881381623989931   -0.0003075731434863941
-0.01621304713545575   -0.0010485576053729483   -0.00010204630214967204
-0.016140672005290346   -0.0011834108938208858   -0.00012403186991182604
-0.01606052811370201   -0.012274414753731935   -0.00014612103793488996
-0.022734657620179285   -0.0010881381623989931   -0.0003075731434863941
-0.016140672005290346   -0.0011834108938208858   -0.00012403186991182604
-0.0226140243317864   -0.012462023262038689   -0.00037704453017545415
-0.022477821411334635   -0.012646184562121904   -0.0004322279023798507
-0.02259392913840198   -0.0013745348122045412   -0.0003153168226745537
-0.029357933775555223   -0.01265273809464848   -0.0005715657514209244
-0.02254984527227116   -0.012558012615115825   -0.00040422760116804634
-0.02259392913840198   -0.0013745348122045412   -0.0003153168226745537
-0.029379076742690143   -0.0013644500775763851   -0.00047789909162677854
-0.029357933775555223   -0.01265273809464848   -0.0005715657514209244
-0.029419074018237165   -0.0012705491355676048   -0.00047788941322607955
-0.02254984527227116   -0.012558012615115825   -0.00040422760116804634
-0.029419878428550813   -0.012567122030072406   -0.0005596063296918496
-0.029419074018237165   -0.0012705491355676048   -0.00047788941322607955
-0.029357933775555223   -0.01265273809464848   -0.0005715657514209244
-0.02254984527227116   -0.012558012615115825   -0.00040422760116804634
-0.029419074018237165   -0.0012705491355676048   -0.00047788941322607955
-0.022643619816939197   -0.0012880393826561719   -0.00031130778662266623
-0.02259392913840198   -0.0013745348122045412   -0.0003153168226745537
-0.02254984527227116   -0.012558012615115825   -0.00040422760116804634
-0.029419074018237165   -0.0012705491355676048   -0.00047788941322607955
-0.02259392913840198   -0.0013745348122045412   -0.0003153168226745537
-0.029357933775555223   -0.01265273809464848   -0.0005715657514209244
-0.02254984527227116   -0.012558012615115825   -0.00040422760116804634
-0.022643619816939197   -0.0012880393826561719   -0.00031130778662266623
-0.029419878428550813   -0.012567122030072406   -0.0005596063296918496
-0.0226140243317864   -0.012462023262038689   -0.00037704453017545415
-0.022643619816939197   -0.0012880393826561719   -0.00031130778662266623
-0.029419074018237165   -0.0012705491355676048   -0.00047788941322607955
-0.029419878428550813   -0.012567122030072406   -0.0005596063296918496
-0.02946299775196553   -0.0011768743514103542   -0.000485199724205257
-0.0226140243317864   -0.012462023262038689   -0.00037704453017545415
-0.029475375334973984   -0.012474601916495024   -0.0005456305762562219
-0.02946299775196553   -0.0011768743514103542   -0.000485199724205257
-0.029419878428550813   -0.012567122030072406   -0.0005596063296918496
-0.0226140243317864   -0.012462023262038689   -0.00037704453017545415
-0.02946299775196553   -0.0011768743514103542   -0.000485199724205257
-0.02269547056189284   -0.0011919630434511646   -0.00030864889441600417
-0.022643619816939197   -0.0012880393826561719   -0.00031130778662266623
-0.0226140243317864   -0.012462023262038689   -0.00037704453017545415
-0.02946299775196553   -0.0011768743514103542   -0.000485199724205257
-0.022643619816939197   -0.0012880393826561719   -0.00031130778662266623
-0.029419878428550813   -0.012567122030072406   -0.0005596063296918496
-0.0226140243317864   -0.012462023262038689   -0.00037704453017545415
-0.02269547056189284   -0.0011919630434511646   -0.00030864889441600417
-0.029475375334973984   -0.012474601916495024   -0.0005456305762562219
-0.022672132156335366   -0.0123598656907696   -0.0003490765171019012
-0.02269547056189284   -0.0011919630434511646   -0.00030864889441600417
-0.02946299775196553   -0.0011768743514103542   -0.000485199724205257
-0.029475375334973984   -0.012474601916495024   -0.0005456305762562219
-0.02949529390063457   -0.0010749822871290154   -0.000493003776647877
-0.022672132156335366   -0.0123598656907696   -0.0003490765171019012
-0.029522123394274572   -0.012376622851722006   -0.0005326718279530543
-0.02949529390063457   -0.0010749822871290154   -0.000493003776647877
-0.029475375334973984   -0.012474601916495024   -0.0005456305762562219
-0.022672132156335366   -0.0123598656907696   -0.0003490765171019012
-0.02949529390063457   -0.0010749822871290154   -0.000493003776647877
-0.022734657620179285   -0.0010881381623989931   -0.0003075731434863941
-0.02269547056189284   -0.0011919630434511646   -0.00030864889441600417
-0.022672132156335366   -0.0123598656907696   -0.0003490765171019012
-0.02949529390063457   -0.0010749822871290154   -0.000493003776647877
-0.02269547056189284   -0.0011919630434511646   -0.00030864889441600417
-0.029475375334973984   -0.012474601916495024   -0.0005456305762562219
              </DataArray>   
          </PointData>  
       </Piece>  
   </UnstructuredGrid> 
</VTKFile> 
