<?xml version="1.0"?> 
<VTKFile type="UnstructuredGrid"> 
   <UnstructuredGrid> 
      <Piece NumberOfPoints="6000"  NumberOfCells="1500">  
          <Points>  
             <DataArray type="Float64" NumberOfComponents="3" format="ascii">   
-500.0   0.0   0.0
-450.0   0.0   0.0
-500.0   30.0   0.0
-500.0   0.0   16.666666666666668
-450.0   0.0   0.0
-450.0   30.0   0.0
-500.0   30.0   0.0
-450.0   30.0   16.666666666666668
-500.0   0.0   16.666666666666668
-500.0   30.0   16.666666666666668
-450.0   30.0   16.666666666666668
-500.0   30.0   0.0
-500.0   0.0   16.666666666666668
-450.0   30.0   16.666666666666668
-450.0   0.0   16.666666666666668
-450.0   0.0   0.0
-500.0   0.0   16.666666666666668
-450.0   30.0   16.666666666666668
-450.0   0.0   0.0
-500.0   30.0   0.0
-500.0   0.0   16.666666666666668
-450.0   0.0   16.666666666666668
-500.0   30.0   16.666666666666668
-500.0   0.0   33.333333333333336
-450.0   0.0   16.666666666666668
-450.0   30.0   16.666666666666668
-500.0   30.0   16.666666666666668
-450.0   30.0   33.333333333333336
-500.0   0.0   33.333333333333336
-500.0   30.0   33.333333333333336
-450.0   30.0   33.333333333333336
-500.0   30.0   16.666666666666668
-500.0   0.0   33.333333333333336
-450.0   30.0   33.333333333333336
-450.0   0.0   33.333333333333336
-450.0   0.0   16.666666666666668
-500.0   0.0   33.333333333333336
-450.0   30.0   33.333333333333336
-450.0   0.0   16.666666666666668
-500.0   30.0   16.666666666666668
-500.0   0.0   33.333333333333336
-450.0   0.0   33.333333333333336
-500.0   30.0   33.333333333333336
-500.0   0.0   50.0
-450.0   0.0   33.333333333333336
-450.0   30.0   33.333333333333336
-500.0   30.0   33.333333333333336
-450.0   30.0   50.0
-500.0   0.0   50.0
-500.0   30.0   50.0
-450.0   30.0   50.0
-500.0   30.0   33.333333333333336
-500.0   0.0   50.0
-450.0   30.0   50.0
-450.0   0.0   50.0
-450.0   0.0   33.333333333333336
-500.0   0.0   50.0
-450.0   30.0   50.0
-450.0   0.0   33.333333333333336
-500.0   30.0   33.333333333333336
-500.0   30.0   0.0
-450.0   30.0   0.0
-500.0   60.0   0.0
-500.0   30.0   16.666666666666668
-450.0   30.0   0.0
-450.0   60.0   0.0
-500.0   60.0   0.0
-450.0   60.0   16.666666666666668
-500.0   30.0   16.666666666666668
-500.0   60.0   16.666666666666668
-450.0   60.0   16.666666666666668
-500.0   60.0   0.0
-500.0   30.0   16.666666666666668
-450.0   60.0   16.666666666666668
-450.0   30.0   16.666666666666668
-450.0   30.0   0.0
-500.0   30.0   16.666666666666668
-450.0   60.0   16.666666666666668
-450.0   30.0   0.0
-500.0   60.0   0.0
-500.0   30.0   16.666666666666668
-450.0   30.0   16.666666666666668
-500.0   60.0   16.666666666666668
-500.0   30.0   33.333333333333336
-450.0   30.0   16.666666666666668
-450.0   60.0   16.666666666666668
-500.0   60.0   16.666666666666668
-450.0   60.0   33.333333333333336
-500.0   30.0   33.333333333333336
-500.0   60.0   33.333333333333336
-450.0   60.0   33.333333333333336
-500.0   60.0   16.666666666666668
-500.0   30.0   33.333333333333336
-450.0   60.0   33.333333333333336
-450.0   30.0   33.333333333333336
-450.0   30.0   16.666666666666668
-500.0   30.0   33.333333333333336
-450.0   60.0   33.333333333333336
-450.0   30.0   16.666666666666668
-500.0   60.0   16.666666666666668
-500.0   30.0   33.333333333333336
-450.0   30.0   33.333333333333336
-500.0   60.0   33.333333333333336
-500.0   30.0   50.0
-450.0   30.0   33.333333333333336
-450.0   60.0   33.333333333333336
-500.0   60.0   33.333333333333336
-450.0   60.0   50.0
-500.0   30.0   50.0
-500.0   60.0   50.0
-450.0   60.0   50.0
-500.0   60.0   33.333333333333336
-500.0   30.0   50.0
-450.0   60.0   50.0
-450.0   30.0   50.0
-450.0   30.0   33.333333333333336
-500.0   30.0   50.0
-450.0   60.0   50.0
-450.0   30.0   33.333333333333336
-500.0   60.0   33.333333333333336
-500.0   60.0   0.0
-450.0   60.0   0.0
-500.0   90.0   0.0
-500.0   60.0   16.666666666666668
-450.0   60.0   0.0
-450.0   90.0   0.0
-500.0   90.0   0.0
-450.0   90.0   16.666666666666668
-500.0   60.0   16.666666666666668
-500.0   90.0   16.666666666666668
-450.0   90.0   16.666666666666668
-500.0   90.0   0.0
-500.0   60.0   16.666666666666668
-450.0   90.0   16.666666666666668
-450.0   60.0   16.666666666666668
-450.0   60.0   0.0
-500.0   60.0   16.666666666666668
-450.0   90.0   16.666666666666668
-450.0   60.0   0.0
-500.0   90.0   0.0
-500.0   60.0   16.666666666666668
-450.0   60.0   16.666666666666668
-500.0   90.0   16.666666666666668
-500.0   60.0   33.333333333333336
-450.0   60.0   16.666666666666668
-450.0   90.0   16.666666666666668
-500.0   90.0   16.666666666666668
-450.0   90.0   33.333333333333336
-500.0   60.0   33.333333333333336
-500.0   90.0   33.333333333333336
-450.0   90.0   33.333333333333336
-500.0   90.0   16.666666666666668
-500.0   60.0   33.333333333333336
-450.0   90.0   33.333333333333336
-450.0   60.0   33.333333333333336
-450.0   60.0   16.666666666666668
-500.0   60.0   33.333333333333336
-450.0   90.0   33.333333333333336
-450.0   60.0   16.666666666666668
-500.0   90.0   16.666666666666668
-500.0   60.0   33.333333333333336
-450.0   60.0   33.333333333333336
-500.0   90.0   33.333333333333336
-500.0   60.0   50.0
-450.0   60.0   33.333333333333336
-450.0   90.0   33.333333333333336
-500.0   90.0   33.333333333333336
-450.0   90.0   50.0
-500.0   60.0   50.0
-500.0   90.0   50.0
-450.0   90.0   50.0
-500.0   90.0   33.333333333333336
-500.0   60.0   50.0
-450.0   90.0   50.0
-450.0   60.0   50.0
-450.0   60.0   33.333333333333336
-500.0   60.0   50.0
-450.0   90.0   50.0
-450.0   60.0   33.333333333333336
-500.0   90.0   33.333333333333336
-500.0   90.0   0.0
-450.0   90.0   0.0
-500.0   120.0   0.0
-500.0   90.0   16.666666666666668
-450.0   90.0   0.0
-450.0   120.0   0.0
-500.0   120.0   0.0
-450.0   120.0   16.666666666666668
-500.0   90.0   16.666666666666668
-500.0   120.0   16.666666666666668
-450.0   120.0   16.666666666666668
-500.0   120.0   0.0
-500.0   90.0   16.666666666666668
-450.0   120.0   16.666666666666668
-450.0   90.0   16.666666666666668
-450.0   90.0   0.0
-500.0   90.0   16.666666666666668
-450.0   120.0   16.666666666666668
-450.0   90.0   0.0
-500.0   120.0   0.0
-500.0   90.0   16.666666666666668
-450.0   90.0   16.666666666666668
-500.0   120.0   16.666666666666668
-500.0   90.0   33.333333333333336
-450.0   90.0   16.666666666666668
-450.0   120.0   16.666666666666668
-500.0   120.0   16.666666666666668
-450.0   120.0   33.333333333333336
-500.0   90.0   33.333333333333336
-500.0   120.0   33.333333333333336
-450.0   120.0   33.333333333333336
-500.0   120.0   16.666666666666668
-500.0   90.0   33.333333333333336
-450.0   120.0   33.333333333333336
-450.0   90.0   33.333333333333336
-450.0   90.0   16.666666666666668
-500.0   90.0   33.333333333333336
-450.0   120.0   33.333333333333336
-450.0   90.0   16.666666666666668
-500.0   120.0   16.666666666666668
-500.0   90.0   33.333333333333336
-450.0   90.0   33.333333333333336
-500.0   120.0   33.333333333333336
-500.0   90.0   50.0
-450.0   90.0   33.333333333333336
-450.0   120.0   33.333333333333336
-500.0   120.0   33.333333333333336
-450.0   120.0   50.0
-500.0   90.0   50.0
-500.0   120.0   50.0
-450.0   120.0   50.0
-500.0   120.0   33.333333333333336
-500.0   90.0   50.0
-450.0   120.0   50.0
-450.0   90.0   50.0
-450.0   90.0   33.333333333333336
-500.0   90.0   50.0
-450.0   120.0   50.0
-450.0   90.0   33.333333333333336
-500.0   120.0   33.333333333333336
-500.0   120.0   0.0
-450.0   120.0   0.0
-500.0   150.0   0.0
-500.0   120.0   16.666666666666668
-450.0   120.0   0.0
-450.0   150.0   0.0
-500.0   150.0   0.0
-450.0   150.0   16.666666666666668
-500.0   120.0   16.666666666666668
-500.0   150.0   16.666666666666668
-450.0   150.0   16.666666666666668
-500.0   150.0   0.0
-500.0   120.0   16.666666666666668
-450.0   150.0   16.666666666666668
-450.0   120.0   16.666666666666668
-450.0   120.0   0.0
-500.0   120.0   16.666666666666668
-450.0   150.0   16.666666666666668
-450.0   120.0   0.0
-500.0   150.0   0.0
-500.0   120.0   16.666666666666668
-450.0   120.0   16.666666666666668
-500.0   150.0   16.666666666666668
-500.0   120.0   33.333333333333336
-450.0   120.0   16.666666666666668
-450.0   150.0   16.666666666666668
-500.0   150.0   16.666666666666668
-450.0   150.0   33.333333333333336
-500.0   120.0   33.333333333333336
-500.0   150.0   33.333333333333336
-450.0   150.0   33.333333333333336
-500.0   150.0   16.666666666666668
-500.0   120.0   33.333333333333336
-450.0   150.0   33.333333333333336
-450.0   120.0   33.333333333333336
-450.0   120.0   16.666666666666668
-500.0   120.0   33.333333333333336
-450.0   150.0   33.333333333333336
-450.0   120.0   16.666666666666668
-500.0   150.0   16.666666666666668
-500.0   120.0   33.333333333333336
-450.0   120.0   33.333333333333336
-500.0   150.0   33.333333333333336
-500.0   120.0   50.0
-450.0   120.0   33.333333333333336
-450.0   150.0   33.333333333333336
-500.0   150.0   33.333333333333336
-450.0   150.0   50.0
-500.0   120.0   50.0
-500.0   150.0   50.0
-450.0   150.0   50.0
-500.0   150.0   33.333333333333336
-500.0   120.0   50.0
-450.0   150.0   50.0
-450.0   120.0   50.0
-450.0   120.0   33.333333333333336
-500.0   120.0   50.0
-450.0   150.0   50.0
-450.0   120.0   33.333333333333336
-500.0   150.0   33.333333333333336
-450.0   0.0   0.0
-400.0   0.0   0.0
-450.0   30.0   0.0
-450.0   0.0   16.666666666666668
-400.0   0.0   0.0
-400.0   30.0   0.0
-450.0   30.0   0.0
-400.0   30.0   16.666666666666668
-450.0   0.0   16.666666666666668
-450.0   30.0   16.666666666666668
-400.0   30.0   16.666666666666668
-450.0   30.0   0.0
-450.0   0.0   16.666666666666668
-400.0   30.0   16.666666666666668
-400.0   0.0   16.666666666666668
-400.0   0.0   0.0
-450.0   0.0   16.666666666666668
-400.0   30.0   16.666666666666668
-400.0   0.0   0.0
-450.0   30.0   0.0
-450.0   0.0   16.666666666666668
-400.0   0.0   16.666666666666668
-450.0   30.0   16.666666666666668
-450.0   0.0   33.333333333333336
-400.0   0.0   16.666666666666668
-400.0   30.0   16.666666666666668
-450.0   30.0   16.666666666666668
-400.0   30.0   33.333333333333336
-450.0   0.0   33.333333333333336
-450.0   30.0   33.333333333333336
-400.0   30.0   33.333333333333336
-450.0   30.0   16.666666666666668
-450.0   0.0   33.333333333333336
-400.0   30.0   33.333333333333336
-400.0   0.0   33.333333333333336
-400.0   0.0   16.666666666666668
-450.0   0.0   33.333333333333336
-400.0   30.0   33.333333333333336
-400.0   0.0   16.666666666666668
-450.0   30.0   16.666666666666668
-450.0   0.0   33.333333333333336
-400.0   0.0   33.333333333333336
-450.0   30.0   33.333333333333336
-450.0   0.0   50.0
-400.0   0.0   33.333333333333336
-400.0   30.0   33.333333333333336
-450.0   30.0   33.333333333333336
-400.0   30.0   50.0
-450.0   0.0   50.0
-450.0   30.0   50.0
-400.0   30.0   50.0
-450.0   30.0   33.333333333333336
-450.0   0.0   50.0
-400.0   30.0   50.0
-400.0   0.0   50.0
-400.0   0.0   33.333333333333336
-450.0   0.0   50.0
-400.0   30.0   50.0
-400.0   0.0   33.333333333333336
-450.0   30.0   33.333333333333336
-450.0   30.0   0.0
-400.0   30.0   0.0
-450.0   60.0   0.0
-450.0   30.0   16.666666666666668
-400.0   30.0   0.0
-400.0   60.0   0.0
-450.0   60.0   0.0
-400.0   60.0   16.666666666666668
-450.0   30.0   16.666666666666668
-450.0   60.0   16.666666666666668
-400.0   60.0   16.666666666666668
-450.0   60.0   0.0
-450.0   30.0   16.666666666666668
-400.0   60.0   16.666666666666668
-400.0   30.0   16.666666666666668
-400.0   30.0   0.0
-450.0   30.0   16.666666666666668
-400.0   60.0   16.666666666666668
-400.0   30.0   0.0
-450.0   60.0   0.0
-450.0   30.0   16.666666666666668
-400.0   30.0   16.666666666666668
-450.0   60.0   16.666666666666668
-450.0   30.0   33.333333333333336
-400.0   30.0   16.666666666666668
-400.0   60.0   16.666666666666668
-450.0   60.0   16.666666666666668
-400.0   60.0   33.333333333333336
-450.0   30.0   33.333333333333336
-450.0   60.0   33.333333333333336
-400.0   60.0   33.333333333333336
-450.0   60.0   16.666666666666668
-450.0   30.0   33.333333333333336
-400.0   60.0   33.333333333333336
-400.0   30.0   33.333333333333336
-400.0   30.0   16.666666666666668
-450.0   30.0   33.333333333333336
-400.0   60.0   33.333333333333336
-400.0   30.0   16.666666666666668
-450.0   60.0   16.666666666666668
-450.0   30.0   33.333333333333336
-400.0   30.0   33.333333333333336
-450.0   60.0   33.333333333333336
-450.0   30.0   50.0
-400.0   30.0   33.333333333333336
-400.0   60.0   33.333333333333336
-450.0   60.0   33.333333333333336
-400.0   60.0   50.0
-450.0   30.0   50.0
-450.0   60.0   50.0
-400.0   60.0   50.0
-450.0   60.0   33.333333333333336
-450.0   30.0   50.0
-400.0   60.0   50.0
-400.0   30.0   50.0
-400.0   30.0   33.333333333333336
-450.0   30.0   50.0
-400.0   60.0   50.0
-400.0   30.0   33.333333333333336
-450.0   60.0   33.333333333333336
-450.0   60.0   0.0
-400.0   60.0   0.0
-450.0   90.0   0.0
-450.0   60.0   16.666666666666668
-400.0   60.0   0.0
-400.0   90.0   0.0
-450.0   90.0   0.0
-400.0   90.0   16.666666666666668
-450.0   60.0   16.666666666666668
-450.0   90.0   16.666666666666668
-400.0   90.0   16.666666666666668
-450.0   90.0   0.0
-450.0   60.0   16.666666666666668
-400.0   90.0   16.666666666666668
-400.0   60.0   16.666666666666668
-400.0   60.0   0.0
-450.0   60.0   16.666666666666668
-400.0   90.0   16.666666666666668
-400.0   60.0   0.0
-450.0   90.0   0.0
-450.0   60.0   16.666666666666668
-400.0   60.0   16.666666666666668
-450.0   90.0   16.666666666666668
-450.0   60.0   33.333333333333336
-400.0   60.0   16.666666666666668
-400.0   90.0   16.666666666666668
-450.0   90.0   16.666666666666668
-400.0   90.0   33.333333333333336
-450.0   60.0   33.333333333333336
-450.0   90.0   33.333333333333336
-400.0   90.0   33.333333333333336
-450.0   90.0   16.666666666666668
-450.0   60.0   33.333333333333336
-400.0   90.0   33.333333333333336
-400.0   60.0   33.333333333333336
-400.0   60.0   16.666666666666668
-450.0   60.0   33.333333333333336
-400.0   90.0   33.333333333333336
-400.0   60.0   16.666666666666668
-450.0   90.0   16.666666666666668
-450.0   60.0   33.333333333333336
-400.0   60.0   33.333333333333336
-450.0   90.0   33.333333333333336
-450.0   60.0   50.0
-400.0   60.0   33.333333333333336
-400.0   90.0   33.333333333333336
-450.0   90.0   33.333333333333336
-400.0   90.0   50.0
-450.0   60.0   50.0
-450.0   90.0   50.0
-400.0   90.0   50.0
-450.0   90.0   33.333333333333336
-450.0   60.0   50.0
-400.0   90.0   50.0
-400.0   60.0   50.0
-400.0   60.0   33.333333333333336
-450.0   60.0   50.0
-400.0   90.0   50.0
-400.0   60.0   33.333333333333336
-450.0   90.0   33.333333333333336
-450.0   90.0   0.0
-400.0   90.0   0.0
-450.0   120.0   0.0
-450.0   90.0   16.666666666666668
-400.0   90.0   0.0
-400.0   120.0   0.0
-450.0   120.0   0.0
-400.0   120.0   16.666666666666668
-450.0   90.0   16.666666666666668
-450.0   120.0   16.666666666666668
-400.0   120.0   16.666666666666668
-450.0   120.0   0.0
-450.0   90.0   16.666666666666668
-400.0   120.0   16.666666666666668
-400.0   90.0   16.666666666666668
-400.0   90.0   0.0
-450.0   90.0   16.666666666666668
-400.0   120.0   16.666666666666668
-400.0   90.0   0.0
-450.0   120.0   0.0
-450.0   90.0   16.666666666666668
-400.0   90.0   16.666666666666668
-450.0   120.0   16.666666666666668
-450.0   90.0   33.333333333333336
-400.0   90.0   16.666666666666668
-400.0   120.0   16.666666666666668
-450.0   120.0   16.666666666666668
-400.0   120.0   33.333333333333336
-450.0   90.0   33.333333333333336
-450.0   120.0   33.333333333333336
-400.0   120.0   33.333333333333336
-450.0   120.0   16.666666666666668
-450.0   90.0   33.333333333333336
-400.0   120.0   33.333333333333336
-400.0   90.0   33.333333333333336
-400.0   90.0   16.666666666666668
-450.0   90.0   33.333333333333336
-400.0   120.0   33.333333333333336
-400.0   90.0   16.666666666666668
-450.0   120.0   16.666666666666668
-450.0   90.0   33.333333333333336
-400.0   90.0   33.333333333333336
-450.0   120.0   33.333333333333336
-450.0   90.0   50.0
-400.0   90.0   33.333333333333336
-400.0   120.0   33.333333333333336
-450.0   120.0   33.333333333333336
-400.0   120.0   50.0
-450.0   90.0   50.0
-450.0   120.0   50.0
-400.0   120.0   50.0
-450.0   120.0   33.333333333333336
-450.0   90.0   50.0
-400.0   120.0   50.0
-400.0   90.0   50.0
-400.0   90.0   33.333333333333336
-450.0   90.0   50.0
-400.0   120.0   50.0
-400.0   90.0   33.333333333333336
-450.0   120.0   33.333333333333336
-450.0   120.0   0.0
-400.0   120.0   0.0
-450.0   150.0   0.0
-450.0   120.0   16.666666666666668
-400.0   120.0   0.0
-400.0   150.0   0.0
-450.0   150.0   0.0
-400.0   150.0   16.666666666666668
-450.0   120.0   16.666666666666668
-450.0   150.0   16.666666666666668
-400.0   150.0   16.666666666666668
-450.0   150.0   0.0
-450.0   120.0   16.666666666666668
-400.0   150.0   16.666666666666668
-400.0   120.0   16.666666666666668
-400.0   120.0   0.0
-450.0   120.0   16.666666666666668
-400.0   150.0   16.666666666666668
-400.0   120.0   0.0
-450.0   150.0   0.0
-450.0   120.0   16.666666666666668
-400.0   120.0   16.666666666666668
-450.0   150.0   16.666666666666668
-450.0   120.0   33.333333333333336
-400.0   120.0   16.666666666666668
-400.0   150.0   16.666666666666668
-450.0   150.0   16.666666666666668
-400.0   150.0   33.333333333333336
-450.0   120.0   33.333333333333336
-450.0   150.0   33.333333333333336
-400.0   150.0   33.333333333333336
-450.0   150.0   16.666666666666668
-450.0   120.0   33.333333333333336
-400.0   150.0   33.333333333333336
-400.0   120.0   33.333333333333336
-400.0   120.0   16.666666666666668
-450.0   120.0   33.333333333333336
-400.0   150.0   33.333333333333336
-400.0   120.0   16.666666666666668
-450.0   150.0   16.666666666666668
-450.0   120.0   33.333333333333336
-400.0   120.0   33.333333333333336
-450.0   150.0   33.333333333333336
-450.0   120.0   50.0
-400.0   120.0   33.333333333333336
-400.0   150.0   33.333333333333336
-450.0   150.0   33.333333333333336
-400.0   150.0   50.0
-450.0   120.0   50.0
-450.0   150.0   50.0
-400.0   150.0   50.0
-450.0   150.0   33.333333333333336
-450.0   120.0   50.0
-400.0   150.0   50.0
-400.0   120.0   50.0
-400.0   120.0   33.333333333333336
-450.0   120.0   50.0
-400.0   150.0   50.0
-400.0   120.0   33.333333333333336
-450.0   150.0   33.333333333333336
-400.0   0.0   0.0
-350.0   0.0   0.0
-400.0   30.0   0.0
-400.0   0.0   16.666666666666668
-350.0   0.0   0.0
-350.0   30.0   0.0
-400.0   30.0   0.0
-350.0   30.0   16.666666666666668
-400.0   0.0   16.666666666666668
-400.0   30.0   16.666666666666668
-350.0   30.0   16.666666666666668
-400.0   30.0   0.0
-400.0   0.0   16.666666666666668
-350.0   30.0   16.666666666666668
-350.0   0.0   16.666666666666668
-350.0   0.0   0.0
-400.0   0.0   16.666666666666668
-350.0   30.0   16.666666666666668
-350.0   0.0   0.0
-400.0   30.0   0.0
-400.0   0.0   16.666666666666668
-350.0   0.0   16.666666666666668
-400.0   30.0   16.666666666666668
-400.0   0.0   33.333333333333336
-350.0   0.0   16.666666666666668
-350.0   30.0   16.666666666666668
-400.0   30.0   16.666666666666668
-350.0   30.0   33.333333333333336
-400.0   0.0   33.333333333333336
-400.0   30.0   33.333333333333336
-350.0   30.0   33.333333333333336
-400.0   30.0   16.666666666666668
-400.0   0.0   33.333333333333336
-350.0   30.0   33.333333333333336
-350.0   0.0   33.333333333333336
-350.0   0.0   16.666666666666668
-400.0   0.0   33.333333333333336
-350.0   30.0   33.333333333333336
-350.0   0.0   16.666666666666668
-400.0   30.0   16.666666666666668
-400.0   0.0   33.333333333333336
-350.0   0.0   33.333333333333336
-400.0   30.0   33.333333333333336
-400.0   0.0   50.0
-350.0   0.0   33.333333333333336
-350.0   30.0   33.333333333333336
-400.0   30.0   33.333333333333336
-350.0   30.0   50.0
-400.0   0.0   50.0
-400.0   30.0   50.0
-350.0   30.0   50.0
-400.0   30.0   33.333333333333336
-400.0   0.0   50.0
-350.0   30.0   50.0
-350.0   0.0   50.0
-350.0   0.0   33.333333333333336
-400.0   0.0   50.0
-350.0   30.0   50.0
-350.0   0.0   33.333333333333336
-400.0   30.0   33.333333333333336
-400.0   30.0   0.0
-350.0   30.0   0.0
-400.0   60.0   0.0
-400.0   30.0   16.666666666666668
-350.0   30.0   0.0
-350.0   60.0   0.0
-400.0   60.0   0.0
-350.0   60.0   16.666666666666668
-400.0   30.0   16.666666666666668
-400.0   60.0   16.666666666666668
-350.0   60.0   16.666666666666668
-400.0   60.0   0.0
-400.0   30.0   16.666666666666668
-350.0   60.0   16.666666666666668
-350.0   30.0   16.666666666666668
-350.0   30.0   0.0
-400.0   30.0   16.666666666666668
-350.0   60.0   16.666666666666668
-350.0   30.0   0.0
-400.0   60.0   0.0
-400.0   30.0   16.666666666666668
-350.0   30.0   16.666666666666668
-400.0   60.0   16.666666666666668
-400.0   30.0   33.333333333333336
-350.0   30.0   16.666666666666668
-350.0   60.0   16.666666666666668
-400.0   60.0   16.666666666666668
-350.0   60.0   33.333333333333336
-400.0   30.0   33.333333333333336
-400.0   60.0   33.333333333333336
-350.0   60.0   33.333333333333336
-400.0   60.0   16.666666666666668
-400.0   30.0   33.333333333333336
-350.0   60.0   33.333333333333336
-350.0   30.0   33.333333333333336
-350.0   30.0   16.666666666666668
-400.0   30.0   33.333333333333336
-350.0   60.0   33.333333333333336
-350.0   30.0   16.666666666666668
-400.0   60.0   16.666666666666668
-400.0   30.0   33.333333333333336
-350.0   30.0   33.333333333333336
-400.0   60.0   33.333333333333336
-400.0   30.0   50.0
-350.0   30.0   33.333333333333336
-350.0   60.0   33.333333333333336
-400.0   60.0   33.333333333333336
-350.0   60.0   50.0
-400.0   30.0   50.0
-400.0   60.0   50.0
-350.0   60.0   50.0
-400.0   60.0   33.333333333333336
-400.0   30.0   50.0
-350.0   60.0   50.0
-350.0   30.0   50.0
-350.0   30.0   33.333333333333336
-400.0   30.0   50.0
-350.0   60.0   50.0
-350.0   30.0   33.333333333333336
-400.0   60.0   33.333333333333336
-400.0   60.0   0.0
-350.0   60.0   0.0
-400.0   90.0   0.0
-400.0   60.0   16.666666666666668
-350.0   60.0   0.0
-350.0   90.0   0.0
-400.0   90.0   0.0
-350.0   90.0   16.666666666666668
-400.0   60.0   16.666666666666668
-400.0   90.0   16.666666666666668
-350.0   90.0   16.666666666666668
-400.0   90.0   0.0
-400.0   60.0   16.666666666666668
-350.0   90.0   16.666666666666668
-350.0   60.0   16.666666666666668
-350.0   60.0   0.0
-400.0   60.0   16.666666666666668
-350.0   90.0   16.666666666666668
-350.0   60.0   0.0
-400.0   90.0   0.0
-400.0   60.0   16.666666666666668
-350.0   60.0   16.666666666666668
-400.0   90.0   16.666666666666668
-400.0   60.0   33.333333333333336
-350.0   60.0   16.666666666666668
-350.0   90.0   16.666666666666668
-400.0   90.0   16.666666666666668
-350.0   90.0   33.333333333333336
-400.0   60.0   33.333333333333336
-400.0   90.0   33.333333333333336
-350.0   90.0   33.333333333333336
-400.0   90.0   16.666666666666668
-400.0   60.0   33.333333333333336
-350.0   90.0   33.333333333333336
-350.0   60.0   33.333333333333336
-350.0   60.0   16.666666666666668
-400.0   60.0   33.333333333333336
-350.0   90.0   33.333333333333336
-350.0   60.0   16.666666666666668
-400.0   90.0   16.666666666666668
-400.0   60.0   33.333333333333336
-350.0   60.0   33.333333333333336
-400.0   90.0   33.333333333333336
-400.0   60.0   50.0
-350.0   60.0   33.333333333333336
-350.0   90.0   33.333333333333336
-400.0   90.0   33.333333333333336
-350.0   90.0   50.0
-400.0   60.0   50.0
-400.0   90.0   50.0
-350.0   90.0   50.0
-400.0   90.0   33.333333333333336
-400.0   60.0   50.0
-350.0   90.0   50.0
-350.0   60.0   50.0
-350.0   60.0   33.333333333333336
-400.0   60.0   50.0
-350.0   90.0   50.0
-350.0   60.0   33.333333333333336
-400.0   90.0   33.333333333333336
-400.0   90.0   0.0
-350.0   90.0   0.0
-400.0   120.0   0.0
-400.0   90.0   16.666666666666668
-350.0   90.0   0.0
-350.0   120.0   0.0
-400.0   120.0   0.0
-350.0   120.0   16.666666666666668
-400.0   90.0   16.666666666666668
-400.0   120.0   16.666666666666668
-350.0   120.0   16.666666666666668
-400.0   120.0   0.0
-400.0   90.0   16.666666666666668
-350.0   120.0   16.666666666666668
-350.0   90.0   16.666666666666668
-350.0   90.0   0.0
-400.0   90.0   16.666666666666668
-350.0   120.0   16.666666666666668
-350.0   90.0   0.0
-400.0   120.0   0.0
-400.0   90.0   16.666666666666668
-350.0   90.0   16.666666666666668
-400.0   120.0   16.666666666666668
-400.0   90.0   33.333333333333336
-350.0   90.0   16.666666666666668
-350.0   120.0   16.666666666666668
-400.0   120.0   16.666666666666668
-350.0   120.0   33.333333333333336
-400.0   90.0   33.333333333333336
-400.0   120.0   33.333333333333336
-350.0   120.0   33.333333333333336
-400.0   120.0   16.666666666666668
-400.0   90.0   33.333333333333336
-350.0   120.0   33.333333333333336
-350.0   90.0   33.333333333333336
-350.0   90.0   16.666666666666668
-400.0   90.0   33.333333333333336
-350.0   120.0   33.333333333333336
-350.0   90.0   16.666666666666668
-400.0   120.0   16.666666666666668
-400.0   90.0   33.333333333333336
-350.0   90.0   33.333333333333336
-400.0   120.0   33.333333333333336
-400.0   90.0   50.0
-350.0   90.0   33.333333333333336
-350.0   120.0   33.333333333333336
-400.0   120.0   33.333333333333336
-350.0   120.0   50.0
-400.0   90.0   50.0
-400.0   120.0   50.0
-350.0   120.0   50.0
-400.0   120.0   33.333333333333336
-400.0   90.0   50.0
-350.0   120.0   50.0
-350.0   90.0   50.0
-350.0   90.0   33.333333333333336
-400.0   90.0   50.0
-350.0   120.0   50.0
-350.0   90.0   33.333333333333336
-400.0   120.0   33.333333333333336
-400.0   120.0   0.0
-350.0   120.0   0.0
-400.0   150.0   0.0
-400.0   120.0   16.666666666666668
-350.0   120.0   0.0
-350.0   150.0   0.0
-400.0   150.0   0.0
-350.0   150.0   16.666666666666668
-400.0   120.0   16.666666666666668
-400.0   150.0   16.666666666666668
-350.0   150.0   16.666666666666668
-400.0   150.0   0.0
-400.0   120.0   16.666666666666668
-350.0   150.0   16.666666666666668
-350.0   120.0   16.666666666666668
-350.0   120.0   0.0
-400.0   120.0   16.666666666666668
-350.0   150.0   16.666666666666668
-350.0   120.0   0.0
-400.0   150.0   0.0
-400.0   120.0   16.666666666666668
-350.0   120.0   16.666666666666668
-400.0   150.0   16.666666666666668
-400.0   120.0   33.333333333333336
-350.0   120.0   16.666666666666668
-350.0   150.0   16.666666666666668
-400.0   150.0   16.666666666666668
-350.0   150.0   33.333333333333336
-400.0   120.0   33.333333333333336
-400.0   150.0   33.333333333333336
-350.0   150.0   33.333333333333336
-400.0   150.0   16.666666666666668
-400.0   120.0   33.333333333333336
-350.0   150.0   33.333333333333336
-350.0   120.0   33.333333333333336
-350.0   120.0   16.666666666666668
-400.0   120.0   33.333333333333336
-350.0   150.0   33.333333333333336
-350.0   120.0   16.666666666666668
-400.0   150.0   16.666666666666668
-400.0   120.0   33.333333333333336
-350.0   120.0   33.333333333333336
-400.0   150.0   33.333333333333336
-400.0   120.0   50.0
-350.0   120.0   33.333333333333336
-350.0   150.0   33.333333333333336
-400.0   150.0   33.333333333333336
-350.0   150.0   50.0
-400.0   120.0   50.0
-400.0   150.0   50.0
-350.0   150.0   50.0
-400.0   150.0   33.333333333333336
-400.0   120.0   50.0
-350.0   150.0   50.0
-350.0   120.0   50.0
-350.0   120.0   33.333333333333336
-400.0   120.0   50.0
-350.0   150.0   50.0
-350.0   120.0   33.333333333333336
-400.0   150.0   33.333333333333336
-350.0   0.0   0.0
-300.0   0.0   0.0
-350.0   30.0   0.0
-350.0   0.0   16.666666666666668
-300.0   0.0   0.0
-300.0   30.0   0.0
-350.0   30.0   0.0
-300.0   30.0   16.666666666666668
-350.0   0.0   16.666666666666668
-350.0   30.0   16.666666666666668
-300.0   30.0   16.666666666666668
-350.0   30.0   0.0
-350.0   0.0   16.666666666666668
-300.0   30.0   16.666666666666668
-300.0   0.0   16.666666666666668
-300.0   0.0   0.0
-350.0   0.0   16.666666666666668
-300.0   30.0   16.666666666666668
-300.0   0.0   0.0
-350.0   30.0   0.0
-350.0   0.0   16.666666666666668
-300.0   0.0   16.666666666666668
-350.0   30.0   16.666666666666668
-350.0   0.0   33.333333333333336
-300.0   0.0   16.666666666666668
-300.0   30.0   16.666666666666668
-350.0   30.0   16.666666666666668
-300.0   30.0   33.333333333333336
-350.0   0.0   33.333333333333336
-350.0   30.0   33.333333333333336
-300.0   30.0   33.333333333333336
-350.0   30.0   16.666666666666668
-350.0   0.0   33.333333333333336
-300.0   30.0   33.333333333333336
-300.0   0.0   33.333333333333336
-300.0   0.0   16.666666666666668
-350.0   0.0   33.333333333333336
-300.0   30.0   33.333333333333336
-300.0   0.0   16.666666666666668
-350.0   30.0   16.666666666666668
-350.0   0.0   33.333333333333336
-300.0   0.0   33.333333333333336
-350.0   30.0   33.333333333333336
-350.0   0.0   50.0
-300.0   0.0   33.333333333333336
-300.0   30.0   33.333333333333336
-350.0   30.0   33.333333333333336
-300.0   30.0   50.0
-350.0   0.0   50.0
-350.0   30.0   50.0
-300.0   30.0   50.0
-350.0   30.0   33.333333333333336
-350.0   0.0   50.0
-300.0   30.0   50.0
-300.0   0.0   50.0
-300.0   0.0   33.333333333333336
-350.0   0.0   50.0
-300.0   30.0   50.0
-300.0   0.0   33.333333333333336
-350.0   30.0   33.333333333333336
-350.0   30.0   0.0
-300.0   30.0   0.0
-350.0   60.0   0.0
-350.0   30.0   16.666666666666668
-300.0   30.0   0.0
-300.0   60.0   0.0
-350.0   60.0   0.0
-300.0   60.0   16.666666666666668
-350.0   30.0   16.666666666666668
-350.0   60.0   16.666666666666668
-300.0   60.0   16.666666666666668
-350.0   60.0   0.0
-350.0   30.0   16.666666666666668
-300.0   60.0   16.666666666666668
-300.0   30.0   16.666666666666668
-300.0   30.0   0.0
-350.0   30.0   16.666666666666668
-300.0   60.0   16.666666666666668
-300.0   30.0   0.0
-350.0   60.0   0.0
-350.0   30.0   16.666666666666668
-300.0   30.0   16.666666666666668
-350.0   60.0   16.666666666666668
-350.0   30.0   33.333333333333336
-300.0   30.0   16.666666666666668
-300.0   60.0   16.666666666666668
-350.0   60.0   16.666666666666668
-300.0   60.0   33.333333333333336
-350.0   30.0   33.333333333333336
-350.0   60.0   33.333333333333336
-300.0   60.0   33.333333333333336
-350.0   60.0   16.666666666666668
-350.0   30.0   33.333333333333336
-300.0   60.0   33.333333333333336
-300.0   30.0   33.333333333333336
-300.0   30.0   16.666666666666668
-350.0   30.0   33.333333333333336
-300.0   60.0   33.333333333333336
-300.0   30.0   16.666666666666668
-350.0   60.0   16.666666666666668
-350.0   30.0   33.333333333333336
-300.0   30.0   33.333333333333336
-350.0   60.0   33.333333333333336
-350.0   30.0   50.0
-300.0   30.0   33.333333333333336
-300.0   60.0   33.333333333333336
-350.0   60.0   33.333333333333336
-300.0   60.0   50.0
-350.0   30.0   50.0
-350.0   60.0   50.0
-300.0   60.0   50.0
-350.0   60.0   33.333333333333336
-350.0   30.0   50.0
-300.0   60.0   50.0
-300.0   30.0   50.0
-300.0   30.0   33.333333333333336
-350.0   30.0   50.0
-300.0   60.0   50.0
-300.0   30.0   33.333333333333336
-350.0   60.0   33.333333333333336
-350.0   60.0   0.0
-300.0   60.0   0.0
-350.0   90.0   0.0
-350.0   60.0   16.666666666666668
-300.0   60.0   0.0
-300.0   90.0   0.0
-350.0   90.0   0.0
-300.0   90.0   16.666666666666668
-350.0   60.0   16.666666666666668
-350.0   90.0   16.666666666666668
-300.0   90.0   16.666666666666668
-350.0   90.0   0.0
-350.0   60.0   16.666666666666668
-300.0   90.0   16.666666666666668
-300.0   60.0   16.666666666666668
-300.0   60.0   0.0
-350.0   60.0   16.666666666666668
-300.0   90.0   16.666666666666668
-300.0   60.0   0.0
-350.0   90.0   0.0
-350.0   60.0   16.666666666666668
-300.0   60.0   16.666666666666668
-350.0   90.0   16.666666666666668
-350.0   60.0   33.333333333333336
-300.0   60.0   16.666666666666668
-300.0   90.0   16.666666666666668
-350.0   90.0   16.666666666666668
-300.0   90.0   33.333333333333336
-350.0   60.0   33.333333333333336
-350.0   90.0   33.333333333333336
-300.0   90.0   33.333333333333336
-350.0   90.0   16.666666666666668
-350.0   60.0   33.333333333333336
-300.0   90.0   33.333333333333336
-300.0   60.0   33.333333333333336
-300.0   60.0   16.666666666666668
-350.0   60.0   33.333333333333336
-300.0   90.0   33.333333333333336
-300.0   60.0   16.666666666666668
-350.0   90.0   16.666666666666668
-350.0   60.0   33.333333333333336
-300.0   60.0   33.333333333333336
-350.0   90.0   33.333333333333336
-350.0   60.0   50.0
-300.0   60.0   33.333333333333336
-300.0   90.0   33.333333333333336
-350.0   90.0   33.333333333333336
-300.0   90.0   50.0
-350.0   60.0   50.0
-350.0   90.0   50.0
-300.0   90.0   50.0
-350.0   90.0   33.333333333333336
-350.0   60.0   50.0
-300.0   90.0   50.0
-300.0   60.0   50.0
-300.0   60.0   33.333333333333336
-350.0   60.0   50.0
-300.0   90.0   50.0
-300.0   60.0   33.333333333333336
-350.0   90.0   33.333333333333336
-350.0   90.0   0.0
-300.0   90.0   0.0
-350.0   120.0   0.0
-350.0   90.0   16.666666666666668
-300.0   90.0   0.0
-300.0   120.0   0.0
-350.0   120.0   0.0
-300.0   120.0   16.666666666666668
-350.0   90.0   16.666666666666668
-350.0   120.0   16.666666666666668
-300.0   120.0   16.666666666666668
-350.0   120.0   0.0
-350.0   90.0   16.666666666666668
-300.0   120.0   16.666666666666668
-300.0   90.0   16.666666666666668
-300.0   90.0   0.0
-350.0   90.0   16.666666666666668
-300.0   120.0   16.666666666666668
-300.0   90.0   0.0
-350.0   120.0   0.0
-350.0   90.0   16.666666666666668
-300.0   90.0   16.666666666666668
-350.0   120.0   16.666666666666668
-350.0   90.0   33.333333333333336
-300.0   90.0   16.666666666666668
-300.0   120.0   16.666666666666668
-350.0   120.0   16.666666666666668
-300.0   120.0   33.333333333333336
-350.0   90.0   33.333333333333336
-350.0   120.0   33.333333333333336
-300.0   120.0   33.333333333333336
-350.0   120.0   16.666666666666668
-350.0   90.0   33.333333333333336
-300.0   120.0   33.333333333333336
-300.0   90.0   33.333333333333336
-300.0   90.0   16.666666666666668
-350.0   90.0   33.333333333333336
-300.0   120.0   33.333333333333336
-300.0   90.0   16.666666666666668
-350.0   120.0   16.666666666666668
-350.0   90.0   33.333333333333336
-300.0   90.0   33.333333333333336
-350.0   120.0   33.333333333333336
-350.0   90.0   50.0
-300.0   90.0   33.333333333333336
-300.0   120.0   33.333333333333336
-350.0   120.0   33.333333333333336
-300.0   120.0   50.0
-350.0   90.0   50.0
-350.0   120.0   50.0
-300.0   120.0   50.0
-350.0   120.0   33.333333333333336
-350.0   90.0   50.0
-300.0   120.0   50.0
-300.0   90.0   50.0
-300.0   90.0   33.333333333333336
-350.0   90.0   50.0
-300.0   120.0   50.0
-300.0   90.0   33.333333333333336
-350.0   120.0   33.333333333333336
-350.0   120.0   0.0
-300.0   120.0   0.0
-350.0   150.0   0.0
-350.0   120.0   16.666666666666668
-300.0   120.0   0.0
-300.0   150.0   0.0
-350.0   150.0   0.0
-300.0   150.0   16.666666666666668
-350.0   120.0   16.666666666666668
-350.0   150.0   16.666666666666668
-300.0   150.0   16.666666666666668
-350.0   150.0   0.0
-350.0   120.0   16.666666666666668
-300.0   150.0   16.666666666666668
-300.0   120.0   16.666666666666668
-300.0   120.0   0.0
-350.0   120.0   16.666666666666668
-300.0   150.0   16.666666666666668
-300.0   120.0   0.0
-350.0   150.0   0.0
-350.0   120.0   16.666666666666668
-300.0   120.0   16.666666666666668
-350.0   150.0   16.666666666666668
-350.0   120.0   33.333333333333336
-300.0   120.0   16.666666666666668
-300.0   150.0   16.666666666666668
-350.0   150.0   16.666666666666668
-300.0   150.0   33.333333333333336
-350.0   120.0   33.333333333333336
-350.0   150.0   33.333333333333336
-300.0   150.0   33.333333333333336
-350.0   150.0   16.666666666666668
-350.0   120.0   33.333333333333336
-300.0   150.0   33.333333333333336
-300.0   120.0   33.333333333333336
-300.0   120.0   16.666666666666668
-350.0   120.0   33.333333333333336
-300.0   150.0   33.333333333333336
-300.0   120.0   16.666666666666668
-350.0   150.0   16.666666666666668
-350.0   120.0   33.333333333333336
-300.0   120.0   33.333333333333336
-350.0   150.0   33.333333333333336
-350.0   120.0   50.0
-300.0   120.0   33.333333333333336
-300.0   150.0   33.333333333333336
-350.0   150.0   33.333333333333336
-300.0   150.0   50.0
-350.0   120.0   50.0
-350.0   150.0   50.0
-300.0   150.0   50.0
-350.0   150.0   33.333333333333336
-350.0   120.0   50.0
-300.0   150.0   50.0
-300.0   120.0   50.0
-300.0   120.0   33.333333333333336
-350.0   120.0   50.0
-300.0   150.0   50.0
-300.0   120.0   33.333333333333336
-350.0   150.0   33.333333333333336
-300.0   0.0   0.0
-250.0   0.0   0.0
-300.0   30.0   0.0
-300.0   0.0   16.666666666666668
-250.0   0.0   0.0
-250.0   30.0   0.0
-300.0   30.0   0.0
-250.0   30.0   16.666666666666668
-300.0   0.0   16.666666666666668
-300.0   30.0   16.666666666666668
-250.0   30.0   16.666666666666668
-300.0   30.0   0.0
-300.0   0.0   16.666666666666668
-250.0   30.0   16.666666666666668
-250.0   0.0   16.666666666666668
-250.0   0.0   0.0
-300.0   0.0   16.666666666666668
-250.0   30.0   16.666666666666668
-250.0   0.0   0.0
-300.0   30.0   0.0
-300.0   0.0   16.666666666666668
-250.0   0.0   16.666666666666668
-300.0   30.0   16.666666666666668
-300.0   0.0   33.333333333333336
-250.0   0.0   16.666666666666668
-250.0   30.0   16.666666666666668
-300.0   30.0   16.666666666666668
-250.0   30.0   33.333333333333336
-300.0   0.0   33.333333333333336
-300.0   30.0   33.333333333333336
-250.0   30.0   33.333333333333336
-300.0   30.0   16.666666666666668
-300.0   0.0   33.333333333333336
-250.0   30.0   33.333333333333336
-250.0   0.0   33.333333333333336
-250.0   0.0   16.666666666666668
-300.0   0.0   33.333333333333336
-250.0   30.0   33.333333333333336
-250.0   0.0   16.666666666666668
-300.0   30.0   16.666666666666668
-300.0   0.0   33.333333333333336
-250.0   0.0   33.333333333333336
-300.0   30.0   33.333333333333336
-300.0   0.0   50.0
-250.0   0.0   33.333333333333336
-250.0   30.0   33.333333333333336
-300.0   30.0   33.333333333333336
-250.0   30.0   50.0
-300.0   0.0   50.0
-300.0   30.0   50.0
-250.0   30.0   50.0
-300.0   30.0   33.333333333333336
-300.0   0.0   50.0
-250.0   30.0   50.0
-250.0   0.0   50.0
-250.0   0.0   33.333333333333336
-300.0   0.0   50.0
-250.0   30.0   50.0
-250.0   0.0   33.333333333333336
-300.0   30.0   33.333333333333336
-300.0   30.0   0.0
-250.0   30.0   0.0
-300.0   60.0   0.0
-300.0   30.0   16.666666666666668
-250.0   30.0   0.0
-250.0   60.0   0.0
-300.0   60.0   0.0
-250.0   60.0   16.666666666666668
-300.0   30.0   16.666666666666668
-300.0   60.0   16.666666666666668
-250.0   60.0   16.666666666666668
-300.0   60.0   0.0
-300.0   30.0   16.666666666666668
-250.0   60.0   16.666666666666668
-250.0   30.0   16.666666666666668
-250.0   30.0   0.0
-300.0   30.0   16.666666666666668
-250.0   60.0   16.666666666666668
-250.0   30.0   0.0
-300.0   60.0   0.0
-300.0   30.0   16.666666666666668
-250.0   30.0   16.666666666666668
-300.0   60.0   16.666666666666668
-300.0   30.0   33.333333333333336
-250.0   30.0   16.666666666666668
-250.0   60.0   16.666666666666668
-300.0   60.0   16.666666666666668
-250.0   60.0   33.333333333333336
-300.0   30.0   33.333333333333336
-300.0   60.0   33.333333333333336
-250.0   60.0   33.333333333333336
-300.0   60.0   16.666666666666668
-300.0   30.0   33.333333333333336
-250.0   60.0   33.333333333333336
-250.0   30.0   33.333333333333336
-250.0   30.0   16.666666666666668
-300.0   30.0   33.333333333333336
-250.0   60.0   33.333333333333336
-250.0   30.0   16.666666666666668
-300.0   60.0   16.666666666666668
-300.0   30.0   33.333333333333336
-250.0   30.0   33.333333333333336
-300.0   60.0   33.333333333333336
-300.0   30.0   50.0
-250.0   30.0   33.333333333333336
-250.0   60.0   33.333333333333336
-300.0   60.0   33.333333333333336
-250.0   60.0   50.0
-300.0   30.0   50.0
-300.0   60.0   50.0
-250.0   60.0   50.0
-300.0   60.0   33.333333333333336
-300.0   30.0   50.0
-250.0   60.0   50.0
-250.0   30.0   50.0
-250.0   30.0   33.333333333333336
-300.0   30.0   50.0
-250.0   60.0   50.0
-250.0   30.0   33.333333333333336
-300.0   60.0   33.333333333333336
-300.0   60.0   0.0
-250.0   60.0   0.0
-300.0   90.0   0.0
-300.0   60.0   16.666666666666668
-250.0   60.0   0.0
-250.0   90.0   0.0
-300.0   90.0   0.0
-250.0   90.0   16.666666666666668
-300.0   60.0   16.666666666666668
-300.0   90.0   16.666666666666668
-250.0   90.0   16.666666666666668
-300.0   90.0   0.0
-300.0   60.0   16.666666666666668
-250.0   90.0   16.666666666666668
-250.0   60.0   16.666666666666668
-250.0   60.0   0.0
-300.0   60.0   16.666666666666668
-250.0   90.0   16.666666666666668
-250.0   60.0   0.0
-300.0   90.0   0.0
-300.0   60.0   16.666666666666668
-250.0   60.0   16.666666666666668
-300.0   90.0   16.666666666666668
-300.0   60.0   33.333333333333336
-250.0   60.0   16.666666666666668
-250.0   90.0   16.666666666666668
-300.0   90.0   16.666666666666668
-250.0   90.0   33.333333333333336
-300.0   60.0   33.333333333333336
-300.0   90.0   33.333333333333336
-250.0   90.0   33.333333333333336
-300.0   90.0   16.666666666666668
-300.0   60.0   33.333333333333336
-250.0   90.0   33.333333333333336
-250.0   60.0   33.333333333333336
-250.0   60.0   16.666666666666668
-300.0   60.0   33.333333333333336
-250.0   90.0   33.333333333333336
-250.0   60.0   16.666666666666668
-300.0   90.0   16.666666666666668
-300.0   60.0   33.333333333333336
-250.0   60.0   33.333333333333336
-300.0   90.0   33.333333333333336
-300.0   60.0   50.0
-250.0   60.0   33.333333333333336
-250.0   90.0   33.333333333333336
-300.0   90.0   33.333333333333336
-250.0   90.0   50.0
-300.0   60.0   50.0
-300.0   90.0   50.0
-250.0   90.0   50.0
-300.0   90.0   33.333333333333336
-300.0   60.0   50.0
-250.0   90.0   50.0
-250.0   60.0   50.0
-250.0   60.0   33.333333333333336
-300.0   60.0   50.0
-250.0   90.0   50.0
-250.0   60.0   33.333333333333336
-300.0   90.0   33.333333333333336
-300.0   90.0   0.0
-250.0   90.0   0.0
-300.0   120.0   0.0
-300.0   90.0   16.666666666666668
-250.0   90.0   0.0
-250.0   120.0   0.0
-300.0   120.0   0.0
-250.0   120.0   16.666666666666668
-300.0   90.0   16.666666666666668
-300.0   120.0   16.666666666666668
-250.0   120.0   16.666666666666668
-300.0   120.0   0.0
-300.0   90.0   16.666666666666668
-250.0   120.0   16.666666666666668
-250.0   90.0   16.666666666666668
-250.0   90.0   0.0
-300.0   90.0   16.666666666666668
-250.0   120.0   16.666666666666668
-250.0   90.0   0.0
-300.0   120.0   0.0
-300.0   90.0   16.666666666666668
-250.0   90.0   16.666666666666668
-300.0   120.0   16.666666666666668
-300.0   90.0   33.333333333333336
-250.0   90.0   16.666666666666668
-250.0   120.0   16.666666666666668
-300.0   120.0   16.666666666666668
-250.0   120.0   33.333333333333336
-300.0   90.0   33.333333333333336
-300.0   120.0   33.333333333333336
-250.0   120.0   33.333333333333336
-300.0   120.0   16.666666666666668
-300.0   90.0   33.333333333333336
-250.0   120.0   33.333333333333336
-250.0   90.0   33.333333333333336
-250.0   90.0   16.666666666666668
-300.0   90.0   33.333333333333336
-250.0   120.0   33.333333333333336
-250.0   90.0   16.666666666666668
-300.0   120.0   16.666666666666668
-300.0   90.0   33.333333333333336
-250.0   90.0   33.333333333333336
-300.0   120.0   33.333333333333336
-300.0   90.0   50.0
-250.0   90.0   33.333333333333336
-250.0   120.0   33.333333333333336
-300.0   120.0   33.333333333333336
-250.0   120.0   50.0
-300.0   90.0   50.0
-300.0   120.0   50.0
-250.0   120.0   50.0
-300.0   120.0   33.333333333333336
-300.0   90.0   50.0
-250.0   120.0   50.0
-250.0   90.0   50.0
-250.0   90.0   33.333333333333336
-300.0   90.0   50.0
-250.0   120.0   50.0
-250.0   90.0   33.333333333333336
-300.0   120.0   33.333333333333336
-300.0   120.0   0.0
-250.0   120.0   0.0
-300.0   150.0   0.0
-300.0   120.0   16.666666666666668
-250.0   120.0   0.0
-250.0   150.0   0.0
-300.0   150.0   0.0
-250.0   150.0   16.666666666666668
-300.0   120.0   16.666666666666668
-300.0   150.0   16.666666666666668
-250.0   150.0   16.666666666666668
-300.0   150.0   0.0
-300.0   120.0   16.666666666666668
-250.0   150.0   16.666666666666668
-250.0   120.0   16.666666666666668
-250.0   120.0   0.0
-300.0   120.0   16.666666666666668
-250.0   150.0   16.666666666666668
-250.0   120.0   0.0
-300.0   150.0   0.0
-300.0   120.0   16.666666666666668
-250.0   120.0   16.666666666666668
-300.0   150.0   16.666666666666668
-300.0   120.0   33.333333333333336
-250.0   120.0   16.666666666666668
-250.0   150.0   16.666666666666668
-300.0   150.0   16.666666666666668
-250.0   150.0   33.333333333333336
-300.0   120.0   33.333333333333336
-300.0   150.0   33.333333333333336
-250.0   150.0   33.333333333333336
-300.0   150.0   16.666666666666668
-300.0   120.0   33.333333333333336
-250.0   150.0   33.333333333333336
-250.0   120.0   33.333333333333336
-250.0   120.0   16.666666666666668
-300.0   120.0   33.333333333333336
-250.0   150.0   33.333333333333336
-250.0   120.0   16.666666666666668
-300.0   150.0   16.666666666666668
-300.0   120.0   33.333333333333336
-250.0   120.0   33.333333333333336
-300.0   150.0   33.333333333333336
-300.0   120.0   50.0
-250.0   120.0   33.333333333333336
-250.0   150.0   33.333333333333336
-300.0   150.0   33.333333333333336
-250.0   150.0   50.0
-300.0   120.0   50.0
-300.0   150.0   50.0
-250.0   150.0   50.0
-300.0   150.0   33.333333333333336
-300.0   120.0   50.0
-250.0   150.0   50.0
-250.0   120.0   50.0
-250.0   120.0   33.333333333333336
-300.0   120.0   50.0
-250.0   150.0   50.0
-250.0   120.0   33.333333333333336
-300.0   150.0   33.333333333333336
-250.0   0.0   0.0
-200.0   0.0   0.0
-250.0   30.0   0.0
-250.0   0.0   16.666666666666668
-200.0   0.0   0.0
-200.0   30.0   0.0
-250.0   30.0   0.0
-200.0   30.0   16.666666666666668
-250.0   0.0   16.666666666666668
-250.0   30.0   16.666666666666668
-200.0   30.0   16.666666666666668
-250.0   30.0   0.0
-250.0   0.0   16.666666666666668
-200.0   30.0   16.666666666666668
-200.0   0.0   16.666666666666668
-200.0   0.0   0.0
-250.0   0.0   16.666666666666668
-200.0   30.0   16.666666666666668
-200.0   0.0   0.0
-250.0   30.0   0.0
-250.0   0.0   16.666666666666668
-200.0   0.0   16.666666666666668
-250.0   30.0   16.666666666666668
-250.0   0.0   33.333333333333336
-200.0   0.0   16.666666666666668
-200.0   30.0   16.666666666666668
-250.0   30.0   16.666666666666668
-200.0   30.0   33.333333333333336
-250.0   0.0   33.333333333333336
-250.0   30.0   33.333333333333336
-200.0   30.0   33.333333333333336
-250.0   30.0   16.666666666666668
-250.0   0.0   33.333333333333336
-200.0   30.0   33.333333333333336
-200.0   0.0   33.333333333333336
-200.0   0.0   16.666666666666668
-250.0   0.0   33.333333333333336
-200.0   30.0   33.333333333333336
-200.0   0.0   16.666666666666668
-250.0   30.0   16.666666666666668
-250.0   0.0   33.333333333333336
-200.0   0.0   33.333333333333336
-250.0   30.0   33.333333333333336
-250.0   0.0   50.0
-200.0   0.0   33.333333333333336
-200.0   30.0   33.333333333333336
-250.0   30.0   33.333333333333336
-200.0   30.0   50.0
-250.0   0.0   50.0
-250.0   30.0   50.0
-200.0   30.0   50.0
-250.0   30.0   33.333333333333336
-250.0   0.0   50.0
-200.0   30.0   50.0
-200.0   0.0   50.0
-200.0   0.0   33.333333333333336
-250.0   0.0   50.0
-200.0   30.0   50.0
-200.0   0.0   33.333333333333336
-250.0   30.0   33.333333333333336
-250.0   30.0   0.0
-200.0   30.0   0.0
-250.0   60.0   0.0
-250.0   30.0   16.666666666666668
-200.0   30.0   0.0
-200.0   60.0   0.0
-250.0   60.0   0.0
-200.0   60.0   16.666666666666668
-250.0   30.0   16.666666666666668
-250.0   60.0   16.666666666666668
-200.0   60.0   16.666666666666668
-250.0   60.0   0.0
-250.0   30.0   16.666666666666668
-200.0   60.0   16.666666666666668
-200.0   30.0   16.666666666666668
-200.0   30.0   0.0
-250.0   30.0   16.666666666666668
-200.0   60.0   16.666666666666668
-200.0   30.0   0.0
-250.0   60.0   0.0
-250.0   30.0   16.666666666666668
-200.0   30.0   16.666666666666668
-250.0   60.0   16.666666666666668
-250.0   30.0   33.333333333333336
-200.0   30.0   16.666666666666668
-200.0   60.0   16.666666666666668
-250.0   60.0   16.666666666666668
-200.0   60.0   33.333333333333336
-250.0   30.0   33.333333333333336
-250.0   60.0   33.333333333333336
-200.0   60.0   33.333333333333336
-250.0   60.0   16.666666666666668
-250.0   30.0   33.333333333333336
-200.0   60.0   33.333333333333336
-200.0   30.0   33.333333333333336
-200.0   30.0   16.666666666666668
-250.0   30.0   33.333333333333336
-200.0   60.0   33.333333333333336
-200.0   30.0   16.666666666666668
-250.0   60.0   16.666666666666668
-250.0   30.0   33.333333333333336
-200.0   30.0   33.333333333333336
-250.0   60.0   33.333333333333336
-250.0   30.0   50.0
-200.0   30.0   33.333333333333336
-200.0   60.0   33.333333333333336
-250.0   60.0   33.333333333333336
-200.0   60.0   50.0
-250.0   30.0   50.0
-250.0   60.0   50.0
-200.0   60.0   50.0
-250.0   60.0   33.333333333333336
-250.0   30.0   50.0
-200.0   60.0   50.0
-200.0   30.0   50.0
-200.0   30.0   33.333333333333336
-250.0   30.0   50.0
-200.0   60.0   50.0
-200.0   30.0   33.333333333333336
-250.0   60.0   33.333333333333336
-250.0   60.0   0.0
-200.0   60.0   0.0
-250.0   90.0   0.0
-250.0   60.0   16.666666666666668
-200.0   60.0   0.0
-200.0   90.0   0.0
-250.0   90.0   0.0
-200.0   90.0   16.666666666666668
-250.0   60.0   16.666666666666668
-250.0   90.0   16.666666666666668
-200.0   90.0   16.666666666666668
-250.0   90.0   0.0
-250.0   60.0   16.666666666666668
-200.0   90.0   16.666666666666668
-200.0   60.0   16.666666666666668
-200.0   60.0   0.0
-250.0   60.0   16.666666666666668
-200.0   90.0   16.666666666666668
-200.0   60.0   0.0
-250.0   90.0   0.0
-250.0   60.0   16.666666666666668
-200.0   60.0   16.666666666666668
-250.0   90.0   16.666666666666668
-250.0   60.0   33.333333333333336
-200.0   60.0   16.666666666666668
-200.0   90.0   16.666666666666668
-250.0   90.0   16.666666666666668
-200.0   90.0   33.333333333333336
-250.0   60.0   33.333333333333336
-250.0   90.0   33.333333333333336
-200.0   90.0   33.333333333333336
-250.0   90.0   16.666666666666668
-250.0   60.0   33.333333333333336
-200.0   90.0   33.333333333333336
-200.0   60.0   33.333333333333336
-200.0   60.0   16.666666666666668
-250.0   60.0   33.333333333333336
-200.0   90.0   33.333333333333336
-200.0   60.0   16.666666666666668
-250.0   90.0   16.666666666666668
-250.0   60.0   33.333333333333336
-200.0   60.0   33.333333333333336
-250.0   90.0   33.333333333333336
-250.0   60.0   50.0
-200.0   60.0   33.333333333333336
-200.0   90.0   33.333333333333336
-250.0   90.0   33.333333333333336
-200.0   90.0   50.0
-250.0   60.0   50.0
-250.0   90.0   50.0
-200.0   90.0   50.0
-250.0   90.0   33.333333333333336
-250.0   60.0   50.0
-200.0   90.0   50.0
-200.0   60.0   50.0
-200.0   60.0   33.333333333333336
-250.0   60.0   50.0
-200.0   90.0   50.0
-200.0   60.0   33.333333333333336
-250.0   90.0   33.333333333333336
-250.0   90.0   0.0
-200.0   90.0   0.0
-250.0   120.0   0.0
-250.0   90.0   16.666666666666668
-200.0   90.0   0.0
-200.0   120.0   0.0
-250.0   120.0   0.0
-200.0   120.0   16.666666666666668
-250.0   90.0   16.666666666666668
-250.0   120.0   16.666666666666668
-200.0   120.0   16.666666666666668
-250.0   120.0   0.0
-250.0   90.0   16.666666666666668
-200.0   120.0   16.666666666666668
-200.0   90.0   16.666666666666668
-200.0   90.0   0.0
-250.0   90.0   16.666666666666668
-200.0   120.0   16.666666666666668
-200.0   90.0   0.0
-250.0   120.0   0.0
-250.0   90.0   16.666666666666668
-200.0   90.0   16.666666666666668
-250.0   120.0   16.666666666666668
-250.0   90.0   33.333333333333336
-200.0   90.0   16.666666666666668
-200.0   120.0   16.666666666666668
-250.0   120.0   16.666666666666668
-200.0   120.0   33.333333333333336
-250.0   90.0   33.333333333333336
-250.0   120.0   33.333333333333336
-200.0   120.0   33.333333333333336
-250.0   120.0   16.666666666666668
-250.0   90.0   33.333333333333336
-200.0   120.0   33.333333333333336
-200.0   90.0   33.333333333333336
-200.0   90.0   16.666666666666668
-250.0   90.0   33.333333333333336
-200.0   120.0   33.333333333333336
-200.0   90.0   16.666666666666668
-250.0   120.0   16.666666666666668
-250.0   90.0   33.333333333333336
-200.0   90.0   33.333333333333336
-250.0   120.0   33.333333333333336
-250.0   90.0   50.0
-200.0   90.0   33.333333333333336
-200.0   120.0   33.333333333333336
-250.0   120.0   33.333333333333336
-200.0   120.0   50.0
-250.0   90.0   50.0
-250.0   120.0   50.0
-200.0   120.0   50.0
-250.0   120.0   33.333333333333336
-250.0   90.0   50.0
-200.0   120.0   50.0
-200.0   90.0   50.0
-200.0   90.0   33.333333333333336
-250.0   90.0   50.0
-200.0   120.0   50.0
-200.0   90.0   33.333333333333336
-250.0   120.0   33.333333333333336
-250.0   120.0   0.0
-200.0   120.0   0.0
-250.0   150.0   0.0
-250.0   120.0   16.666666666666668
-200.0   120.0   0.0
-200.0   150.0   0.0
-250.0   150.0   0.0
-200.0   150.0   16.666666666666668
-250.0   120.0   16.666666666666668
-250.0   150.0   16.666666666666668
-200.0   150.0   16.666666666666668
-250.0   150.0   0.0
-250.0   120.0   16.666666666666668
-200.0   150.0   16.666666666666668
-200.0   120.0   16.666666666666668
-200.0   120.0   0.0
-250.0   120.0   16.666666666666668
-200.0   150.0   16.666666666666668
-200.0   120.0   0.0
-250.0   150.0   0.0
-250.0   120.0   16.666666666666668
-200.0   120.0   16.666666666666668
-250.0   150.0   16.666666666666668
-250.0   120.0   33.333333333333336
-200.0   120.0   16.666666666666668
-200.0   150.0   16.666666666666668
-250.0   150.0   16.666666666666668
-200.0   150.0   33.333333333333336
-250.0   120.0   33.333333333333336
-250.0   150.0   33.333333333333336
-200.0   150.0   33.333333333333336
-250.0   150.0   16.666666666666668
-250.0   120.0   33.333333333333336
-200.0   150.0   33.333333333333336
-200.0   120.0   33.333333333333336
-200.0   120.0   16.666666666666668
-250.0   120.0   33.333333333333336
-200.0   150.0   33.333333333333336
-200.0   120.0   16.666666666666668
-250.0   150.0   16.666666666666668
-250.0   120.0   33.333333333333336
-200.0   120.0   33.333333333333336
-250.0   150.0   33.333333333333336
-250.0   120.0   50.0
-200.0   120.0   33.333333333333336
-200.0   150.0   33.333333333333336
-250.0   150.0   33.333333333333336
-200.0   150.0   50.0
-250.0   120.0   50.0
-250.0   150.0   50.0
-200.0   150.0   50.0
-250.0   150.0   33.333333333333336
-250.0   120.0   50.0
-200.0   150.0   50.0
-200.0   120.0   50.0
-200.0   120.0   33.333333333333336
-250.0   120.0   50.0
-200.0   150.0   50.0
-200.0   120.0   33.333333333333336
-250.0   150.0   33.333333333333336
-200.0   0.0   0.0
-150.0   0.0   0.0
-200.0   30.0   0.0
-200.0   0.0   16.666666666666668
-150.0   0.0   0.0
-150.0   30.0   0.0
-200.0   30.0   0.0
-150.0   30.0   16.666666666666668
-200.0   0.0   16.666666666666668
-200.0   30.0   16.666666666666668
-150.0   30.0   16.666666666666668
-200.0   30.0   0.0
-200.0   0.0   16.666666666666668
-150.0   30.0   16.666666666666668
-150.0   0.0   16.666666666666668
-150.0   0.0   0.0
-200.0   0.0   16.666666666666668
-150.0   30.0   16.666666666666668
-150.0   0.0   0.0
-200.0   30.0   0.0
-200.0   0.0   16.666666666666668
-150.0   0.0   16.666666666666668
-200.0   30.0   16.666666666666668
-200.0   0.0   33.333333333333336
-150.0   0.0   16.666666666666668
-150.0   30.0   16.666666666666668
-200.0   30.0   16.666666666666668
-150.0   30.0   33.333333333333336
-200.0   0.0   33.333333333333336
-200.0   30.0   33.333333333333336
-150.0   30.0   33.333333333333336
-200.0   30.0   16.666666666666668
-200.0   0.0   33.333333333333336
-150.0   30.0   33.333333333333336
-150.0   0.0   33.333333333333336
-150.0   0.0   16.666666666666668
-200.0   0.0   33.333333333333336
-150.0   30.0   33.333333333333336
-150.0   0.0   16.666666666666668
-200.0   30.0   16.666666666666668
-200.0   0.0   33.333333333333336
-150.0   0.0   33.333333333333336
-200.0   30.0   33.333333333333336
-200.0   0.0   50.0
-150.0   0.0   33.333333333333336
-150.0   30.0   33.333333333333336
-200.0   30.0   33.333333333333336
-150.0   30.0   50.0
-200.0   0.0   50.0
-200.0   30.0   50.0
-150.0   30.0   50.0
-200.0   30.0   33.333333333333336
-200.0   0.0   50.0
-150.0   30.0   50.0
-150.0   0.0   50.0
-150.0   0.0   33.333333333333336
-200.0   0.0   50.0
-150.0   30.0   50.0
-150.0   0.0   33.333333333333336
-200.0   30.0   33.333333333333336
-200.0   30.0   0.0
-150.0   30.0   0.0
-200.0   60.0   0.0
-200.0   30.0   16.666666666666668
-150.0   30.0   0.0
-150.0   60.0   0.0
-200.0   60.0   0.0
-150.0   60.0   16.666666666666668
-200.0   30.0   16.666666666666668
-200.0   60.0   16.666666666666668
-150.0   60.0   16.666666666666668
-200.0   60.0   0.0
-200.0   30.0   16.666666666666668
-150.0   60.0   16.666666666666668
-150.0   30.0   16.666666666666668
-150.0   30.0   0.0
-200.0   30.0   16.666666666666668
-150.0   60.0   16.666666666666668
-150.0   30.0   0.0
-200.0   60.0   0.0
-200.0   30.0   16.666666666666668
-150.0   30.0   16.666666666666668
-200.0   60.0   16.666666666666668
-200.0   30.0   33.333333333333336
-150.0   30.0   16.666666666666668
-150.0   60.0   16.666666666666668
-200.0   60.0   16.666666666666668
-150.0   60.0   33.333333333333336
-200.0   30.0   33.333333333333336
-200.0   60.0   33.333333333333336
-150.0   60.0   33.333333333333336
-200.0   60.0   16.666666666666668
-200.0   30.0   33.333333333333336
-150.0   60.0   33.333333333333336
-150.0   30.0   33.333333333333336
-150.0   30.0   16.666666666666668
-200.0   30.0   33.333333333333336
-150.0   60.0   33.333333333333336
-150.0   30.0   16.666666666666668
-200.0   60.0   16.666666666666668
-200.0   30.0   33.333333333333336
-150.0   30.0   33.333333333333336
-200.0   60.0   33.333333333333336
-200.0   30.0   50.0
-150.0   30.0   33.333333333333336
-150.0   60.0   33.333333333333336
-200.0   60.0   33.333333333333336
-150.0   60.0   50.0
-200.0   30.0   50.0
-200.0   60.0   50.0
-150.0   60.0   50.0
-200.0   60.0   33.333333333333336
-200.0   30.0   50.0
-150.0   60.0   50.0
-150.0   30.0   50.0
-150.0   30.0   33.333333333333336
-200.0   30.0   50.0
-150.0   60.0   50.0
-150.0   30.0   33.333333333333336
-200.0   60.0   33.333333333333336
-200.0   60.0   0.0
-150.0   60.0   0.0
-200.0   90.0   0.0
-200.0   60.0   16.666666666666668
-150.0   60.0   0.0
-150.0   90.0   0.0
-200.0   90.0   0.0
-150.0   90.0   16.666666666666668
-200.0   60.0   16.666666666666668
-200.0   90.0   16.666666666666668
-150.0   90.0   16.666666666666668
-200.0   90.0   0.0
-200.0   60.0   16.666666666666668
-150.0   90.0   16.666666666666668
-150.0   60.0   16.666666666666668
-150.0   60.0   0.0
-200.0   60.0   16.666666666666668
-150.0   90.0   16.666666666666668
-150.0   60.0   0.0
-200.0   90.0   0.0
-200.0   60.0   16.666666666666668
-150.0   60.0   16.666666666666668
-200.0   90.0   16.666666666666668
-200.0   60.0   33.333333333333336
-150.0   60.0   16.666666666666668
-150.0   90.0   16.666666666666668
-200.0   90.0   16.666666666666668
-150.0   90.0   33.333333333333336
-200.0   60.0   33.333333333333336
-200.0   90.0   33.333333333333336
-150.0   90.0   33.333333333333336
-200.0   90.0   16.666666666666668
-200.0   60.0   33.333333333333336
-150.0   90.0   33.333333333333336
-150.0   60.0   33.333333333333336
-150.0   60.0   16.666666666666668
-200.0   60.0   33.333333333333336
-150.0   90.0   33.333333333333336
-150.0   60.0   16.666666666666668
-200.0   90.0   16.666666666666668
-200.0   60.0   33.333333333333336
-150.0   60.0   33.333333333333336
-200.0   90.0   33.333333333333336
-200.0   60.0   50.0
-150.0   60.0   33.333333333333336
-150.0   90.0   33.333333333333336
-200.0   90.0   33.333333333333336
-150.0   90.0   50.0
-200.0   60.0   50.0
-200.0   90.0   50.0
-150.0   90.0   50.0
-200.0   90.0   33.333333333333336
-200.0   60.0   50.0
-150.0   90.0   50.0
-150.0   60.0   50.0
-150.0   60.0   33.333333333333336
-200.0   60.0   50.0
-150.0   90.0   50.0
-150.0   60.0   33.333333333333336
-200.0   90.0   33.333333333333336
-200.0   90.0   0.0
-150.0   90.0   0.0
-200.0   120.0   0.0
-200.0   90.0   16.666666666666668
-150.0   90.0   0.0
-150.0   120.0   0.0
-200.0   120.0   0.0
-150.0   120.0   16.666666666666668
-200.0   90.0   16.666666666666668
-200.0   120.0   16.666666666666668
-150.0   120.0   16.666666666666668
-200.0   120.0   0.0
-200.0   90.0   16.666666666666668
-150.0   120.0   16.666666666666668
-150.0   90.0   16.666666666666668
-150.0   90.0   0.0
-200.0   90.0   16.666666666666668
-150.0   120.0   16.666666666666668
-150.0   90.0   0.0
-200.0   120.0   0.0
-200.0   90.0   16.666666666666668
-150.0   90.0   16.666666666666668
-200.0   120.0   16.666666666666668
-200.0   90.0   33.333333333333336
-150.0   90.0   16.666666666666668
-150.0   120.0   16.666666666666668
-200.0   120.0   16.666666666666668
-150.0   120.0   33.333333333333336
-200.0   90.0   33.333333333333336
-200.0   120.0   33.333333333333336
-150.0   120.0   33.333333333333336
-200.0   120.0   16.666666666666668
-200.0   90.0   33.333333333333336
-150.0   120.0   33.333333333333336
-150.0   90.0   33.333333333333336
-150.0   90.0   16.666666666666668
-200.0   90.0   33.333333333333336
-150.0   120.0   33.333333333333336
-150.0   90.0   16.666666666666668
-200.0   120.0   16.666666666666668
-200.0   90.0   33.333333333333336
-150.0   90.0   33.333333333333336
-200.0   120.0   33.333333333333336
-200.0   90.0   50.0
-150.0   90.0   33.333333333333336
-150.0   120.0   33.333333333333336
-200.0   120.0   33.333333333333336
-150.0   120.0   50.0
-200.0   90.0   50.0
-200.0   120.0   50.0
-150.0   120.0   50.0
-200.0   120.0   33.333333333333336
-200.0   90.0   50.0
-150.0   120.0   50.0
-150.0   90.0   50.0
-150.0   90.0   33.333333333333336
-200.0   90.0   50.0
-150.0   120.0   50.0
-150.0   90.0   33.333333333333336
-200.0   120.0   33.333333333333336
-200.0   120.0   0.0
-150.0   120.0   0.0
-200.0   150.0   0.0
-200.0   120.0   16.666666666666668
-150.0   120.0   0.0
-150.0   150.0   0.0
-200.0   150.0   0.0
-150.0   150.0   16.666666666666668
-200.0   120.0   16.666666666666668
-200.0   150.0   16.666666666666668
-150.0   150.0   16.666666666666668
-200.0   150.0   0.0
-200.0   120.0   16.666666666666668
-150.0   150.0   16.666666666666668
-150.0   120.0   16.666666666666668
-150.0   120.0   0.0
-200.0   120.0   16.666666666666668
-150.0   150.0   16.666666666666668
-150.0   120.0   0.0
-200.0   150.0   0.0
-200.0   120.0   16.666666666666668
-150.0   120.0   16.666666666666668
-200.0   150.0   16.666666666666668
-200.0   120.0   33.333333333333336
-150.0   120.0   16.666666666666668
-150.0   150.0   16.666666666666668
-200.0   150.0   16.666666666666668
-150.0   150.0   33.333333333333336
-200.0   120.0   33.333333333333336
-200.0   150.0   33.333333333333336
-150.0   150.0   33.333333333333336
-200.0   150.0   16.666666666666668
-200.0   120.0   33.333333333333336
-150.0   150.0   33.333333333333336
-150.0   120.0   33.333333333333336
-150.0   120.0   16.666666666666668
-200.0   120.0   33.333333333333336
-150.0   150.0   33.333333333333336
-150.0   120.0   16.666666666666668
-200.0   150.0   16.666666666666668
-200.0   120.0   33.333333333333336
-150.0   120.0   33.333333333333336
-200.0   150.0   33.333333333333336
-200.0   120.0   50.0
-150.0   120.0   33.333333333333336
-150.0   150.0   33.333333333333336
-200.0   150.0   33.333333333333336
-150.0   150.0   50.0
-200.0   120.0   50.0
-200.0   150.0   50.0
-150.0   150.0   50.0
-200.0   150.0   33.333333333333336
-200.0   120.0   50.0
-150.0   150.0   50.0
-150.0   120.0   50.0
-150.0   120.0   33.333333333333336
-200.0   120.0   50.0
-150.0   150.0   50.0
-150.0   120.0   33.333333333333336
-200.0   150.0   33.333333333333336
-150.0   0.0   0.0
-100.0   0.0   0.0
-150.0   30.0   0.0
-150.0   0.0   16.666666666666668
-100.0   0.0   0.0
-100.0   30.0   0.0
-150.0   30.0   0.0
-100.0   30.0   16.666666666666668
-150.0   0.0   16.666666666666668
-150.0   30.0   16.666666666666668
-100.0   30.0   16.666666666666668
-150.0   30.0   0.0
-150.0   0.0   16.666666666666668
-100.0   30.0   16.666666666666668
-100.0   0.0   16.666666666666668
-100.0   0.0   0.0
-150.0   0.0   16.666666666666668
-100.0   30.0   16.666666666666668
-100.0   0.0   0.0
-150.0   30.0   0.0
-150.0   0.0   16.666666666666668
-100.0   0.0   16.666666666666668
-150.0   30.0   16.666666666666668
-150.0   0.0   33.333333333333336
-100.0   0.0   16.666666666666668
-100.0   30.0   16.666666666666668
-150.0   30.0   16.666666666666668
-100.0   30.0   33.333333333333336
-150.0   0.0   33.333333333333336
-150.0   30.0   33.333333333333336
-100.0   30.0   33.333333333333336
-150.0   30.0   16.666666666666668
-150.0   0.0   33.333333333333336
-100.0   30.0   33.333333333333336
-100.0   0.0   33.333333333333336
-100.0   0.0   16.666666666666668
-150.0   0.0   33.333333333333336
-100.0   30.0   33.333333333333336
-100.0   0.0   16.666666666666668
-150.0   30.0   16.666666666666668
-150.0   0.0   33.333333333333336
-100.0   0.0   33.333333333333336
-150.0   30.0   33.333333333333336
-150.0   0.0   50.0
-100.0   0.0   33.333333333333336
-100.0   30.0   33.333333333333336
-150.0   30.0   33.333333333333336
-100.0   30.0   50.0
-150.0   0.0   50.0
-150.0   30.0   50.0
-100.0   30.0   50.0
-150.0   30.0   33.333333333333336
-150.0   0.0   50.0
-100.0   30.0   50.0
-100.0   0.0   50.0
-100.0   0.0   33.333333333333336
-150.0   0.0   50.0
-100.0   30.0   50.0
-100.0   0.0   33.333333333333336
-150.0   30.0   33.333333333333336
-150.0   30.0   0.0
-100.0   30.0   0.0
-150.0   60.0   0.0
-150.0   30.0   16.666666666666668
-100.0   30.0   0.0
-100.0   60.0   0.0
-150.0   60.0   0.0
-100.0   60.0   16.666666666666668
-150.0   30.0   16.666666666666668
-150.0   60.0   16.666666666666668
-100.0   60.0   16.666666666666668
-150.0   60.0   0.0
-150.0   30.0   16.666666666666668
-100.0   60.0   16.666666666666668
-100.0   30.0   16.666666666666668
-100.0   30.0   0.0
-150.0   30.0   16.666666666666668
-100.0   60.0   16.666666666666668
-100.0   30.0   0.0
-150.0   60.0   0.0
-150.0   30.0   16.666666666666668
-100.0   30.0   16.666666666666668
-150.0   60.0   16.666666666666668
-150.0   30.0   33.333333333333336
-100.0   30.0   16.666666666666668
-100.0   60.0   16.666666666666668
-150.0   60.0   16.666666666666668
-100.0   60.0   33.333333333333336
-150.0   30.0   33.333333333333336
-150.0   60.0   33.333333333333336
-100.0   60.0   33.333333333333336
-150.0   60.0   16.666666666666668
-150.0   30.0   33.333333333333336
-100.0   60.0   33.333333333333336
-100.0   30.0   33.333333333333336
-100.0   30.0   16.666666666666668
-150.0   30.0   33.333333333333336
-100.0   60.0   33.333333333333336
-100.0   30.0   16.666666666666668
-150.0   60.0   16.666666666666668
-150.0   30.0   33.333333333333336
-100.0   30.0   33.333333333333336
-150.0   60.0   33.333333333333336
-150.0   30.0   50.0
-100.0   30.0   33.333333333333336
-100.0   60.0   33.333333333333336
-150.0   60.0   33.333333333333336
-100.0   60.0   50.0
-150.0   30.0   50.0
-150.0   60.0   50.0
-100.0   60.0   50.0
-150.0   60.0   33.333333333333336
-150.0   30.0   50.0
-100.0   60.0   50.0
-100.0   30.0   50.0
-100.0   30.0   33.333333333333336
-150.0   30.0   50.0
-100.0   60.0   50.0
-100.0   30.0   33.333333333333336
-150.0   60.0   33.333333333333336
-150.0   60.0   0.0
-100.0   60.0   0.0
-150.0   90.0   0.0
-150.0   60.0   16.666666666666668
-100.0   60.0   0.0
-100.0   90.0   0.0
-150.0   90.0   0.0
-100.0   90.0   16.666666666666668
-150.0   60.0   16.666666666666668
-150.0   90.0   16.666666666666668
-100.0   90.0   16.666666666666668
-150.0   90.0   0.0
-150.0   60.0   16.666666666666668
-100.0   90.0   16.666666666666668
-100.0   60.0   16.666666666666668
-100.0   60.0   0.0
-150.0   60.0   16.666666666666668
-100.0   90.0   16.666666666666668
-100.0   60.0   0.0
-150.0   90.0   0.0
-150.0   60.0   16.666666666666668
-100.0   60.0   16.666666666666668
-150.0   90.0   16.666666666666668
-150.0   60.0   33.333333333333336
-100.0   60.0   16.666666666666668
-100.0   90.0   16.666666666666668
-150.0   90.0   16.666666666666668
-100.0   90.0   33.333333333333336
-150.0   60.0   33.333333333333336
-150.0   90.0   33.333333333333336
-100.0   90.0   33.333333333333336
-150.0   90.0   16.666666666666668
-150.0   60.0   33.333333333333336
-100.0   90.0   33.333333333333336
-100.0   60.0   33.333333333333336
-100.0   60.0   16.666666666666668
-150.0   60.0   33.333333333333336
-100.0   90.0   33.333333333333336
-100.0   60.0   16.666666666666668
-150.0   90.0   16.666666666666668
-150.0   60.0   33.333333333333336
-100.0   60.0   33.333333333333336
-150.0   90.0   33.333333333333336
-150.0   60.0   50.0
-100.0   60.0   33.333333333333336
-100.0   90.0   33.333333333333336
-150.0   90.0   33.333333333333336
-100.0   90.0   50.0
-150.0   60.0   50.0
-150.0   90.0   50.0
-100.0   90.0   50.0
-150.0   90.0   33.333333333333336
-150.0   60.0   50.0
-100.0   90.0   50.0
-100.0   60.0   50.0
-100.0   60.0   33.333333333333336
-150.0   60.0   50.0
-100.0   90.0   50.0
-100.0   60.0   33.333333333333336
-150.0   90.0   33.333333333333336
-150.0   90.0   0.0
-100.0   90.0   0.0
-150.0   120.0   0.0
-150.0   90.0   16.666666666666668
-100.0   90.0   0.0
-100.0   120.0   0.0
-150.0   120.0   0.0
-100.0   120.0   16.666666666666668
-150.0   90.0   16.666666666666668
-150.0   120.0   16.666666666666668
-100.0   120.0   16.666666666666668
-150.0   120.0   0.0
-150.0   90.0   16.666666666666668
-100.0   120.0   16.666666666666668
-100.0   90.0   16.666666666666668
-100.0   90.0   0.0
-150.0   90.0   16.666666666666668
-100.0   120.0   16.666666666666668
-100.0   90.0   0.0
-150.0   120.0   0.0
-150.0   90.0   16.666666666666668
-100.0   90.0   16.666666666666668
-150.0   120.0   16.666666666666668
-150.0   90.0   33.333333333333336
-100.0   90.0   16.666666666666668
-100.0   120.0   16.666666666666668
-150.0   120.0   16.666666666666668
-100.0   120.0   33.333333333333336
-150.0   90.0   33.333333333333336
-150.0   120.0   33.333333333333336
-100.0   120.0   33.333333333333336
-150.0   120.0   16.666666666666668
-150.0   90.0   33.333333333333336
-100.0   120.0   33.333333333333336
-100.0   90.0   33.333333333333336
-100.0   90.0   16.666666666666668
-150.0   90.0   33.333333333333336
-100.0   120.0   33.333333333333336
-100.0   90.0   16.666666666666668
-150.0   120.0   16.666666666666668
-150.0   90.0   33.333333333333336
-100.0   90.0   33.333333333333336
-150.0   120.0   33.333333333333336
-150.0   90.0   50.0
-100.0   90.0   33.333333333333336
-100.0   120.0   33.333333333333336
-150.0   120.0   33.333333333333336
-100.0   120.0   50.0
-150.0   90.0   50.0
-150.0   120.0   50.0
-100.0   120.0   50.0
-150.0   120.0   33.333333333333336
-150.0   90.0   50.0
-100.0   120.0   50.0
-100.0   90.0   50.0
-100.0   90.0   33.333333333333336
-150.0   90.0   50.0
-100.0   120.0   50.0
-100.0   90.0   33.333333333333336
-150.0   120.0   33.333333333333336
-150.0   120.0   0.0
-100.0   120.0   0.0
-150.0   150.0   0.0
-150.0   120.0   16.666666666666668
-100.0   120.0   0.0
-100.0   150.0   0.0
-150.0   150.0   0.0
-100.0   150.0   16.666666666666668
-150.0   120.0   16.666666666666668
-150.0   150.0   16.666666666666668
-100.0   150.0   16.666666666666668
-150.0   150.0   0.0
-150.0   120.0   16.666666666666668
-100.0   150.0   16.666666666666668
-100.0   120.0   16.666666666666668
-100.0   120.0   0.0
-150.0   120.0   16.666666666666668
-100.0   150.0   16.666666666666668
-100.0   120.0   0.0
-150.0   150.0   0.0
-150.0   120.0   16.666666666666668
-100.0   120.0   16.666666666666668
-150.0   150.0   16.666666666666668
-150.0   120.0   33.333333333333336
-100.0   120.0   16.666666666666668
-100.0   150.0   16.666666666666668
-150.0   150.0   16.666666666666668
-100.0   150.0   33.333333333333336
-150.0   120.0   33.333333333333336
-150.0   150.0   33.333333333333336
-100.0   150.0   33.333333333333336
-150.0   150.0   16.666666666666668
-150.0   120.0   33.333333333333336
-100.0   150.0   33.333333333333336
-100.0   120.0   33.333333333333336
-100.0   120.0   16.666666666666668
-150.0   120.0   33.333333333333336
-100.0   150.0   33.333333333333336
-100.0   120.0   16.666666666666668
-150.0   150.0   16.666666666666668
-150.0   120.0   33.333333333333336
-100.0   120.0   33.333333333333336
-150.0   150.0   33.333333333333336
-150.0   120.0   50.0
-100.0   120.0   33.333333333333336
-100.0   150.0   33.333333333333336
-150.0   150.0   33.333333333333336
-100.0   150.0   50.0
-150.0   120.0   50.0
-150.0   150.0   50.0
-100.0   150.0   50.0
-150.0   150.0   33.333333333333336
-150.0   120.0   50.0
-100.0   150.0   50.0
-100.0   120.0   50.0
-100.0   120.0   33.333333333333336
-150.0   120.0   50.0
-100.0   150.0   50.0
-100.0   120.0   33.333333333333336
-150.0   150.0   33.333333333333336
-100.0   0.0   0.0
-50.0   0.0   0.0
-100.0   30.0   0.0
-100.0   0.0   16.666666666666668
-50.0   0.0   0.0
-50.0   30.0   0.0
-100.0   30.0   0.0
-50.0   30.0   16.666666666666668
-100.0   0.0   16.666666666666668
-100.0   30.0   16.666666666666668
-50.0   30.0   16.666666666666668
-100.0   30.0   0.0
-100.0   0.0   16.666666666666668
-50.0   30.0   16.666666666666668
-50.0   0.0   16.666666666666668
-50.0   0.0   0.0
-100.0   0.0   16.666666666666668
-50.0   30.0   16.666666666666668
-50.0   0.0   0.0
-100.0   30.0   0.0
-100.0   0.0   16.666666666666668
-50.0   0.0   16.666666666666668
-100.0   30.0   16.666666666666668
-100.0   0.0   33.333333333333336
-50.0   0.0   16.666666666666668
-50.0   30.0   16.666666666666668
-100.0   30.0   16.666666666666668
-50.0   30.0   33.333333333333336
-100.0   0.0   33.333333333333336
-100.0   30.0   33.333333333333336
-50.0   30.0   33.333333333333336
-100.0   30.0   16.666666666666668
-100.0   0.0   33.333333333333336
-50.0   30.0   33.333333333333336
-50.0   0.0   33.333333333333336
-50.0   0.0   16.666666666666668
-100.0   0.0   33.333333333333336
-50.0   30.0   33.333333333333336
-50.0   0.0   16.666666666666668
-100.0   30.0   16.666666666666668
-100.0   0.0   33.333333333333336
-50.0   0.0   33.333333333333336
-100.0   30.0   33.333333333333336
-100.0   0.0   50.0
-50.0   0.0   33.333333333333336
-50.0   30.0   33.333333333333336
-100.0   30.0   33.333333333333336
-50.0   30.0   50.0
-100.0   0.0   50.0
-100.0   30.0   50.0
-50.0   30.0   50.0
-100.0   30.0   33.333333333333336
-100.0   0.0   50.0
-50.0   30.0   50.0
-50.0   0.0   50.0
-50.0   0.0   33.333333333333336
-100.0   0.0   50.0
-50.0   30.0   50.0
-50.0   0.0   33.333333333333336
-100.0   30.0   33.333333333333336
-100.0   30.0   0.0
-50.0   30.0   0.0
-100.0   60.0   0.0
-100.0   30.0   16.666666666666668
-50.0   30.0   0.0
-50.0   60.0   0.0
-100.0   60.0   0.0
-50.0   60.0   16.666666666666668
-100.0   30.0   16.666666666666668
-100.0   60.0   16.666666666666668
-50.0   60.0   16.666666666666668
-100.0   60.0   0.0
-100.0   30.0   16.666666666666668
-50.0   60.0   16.666666666666668
-50.0   30.0   16.666666666666668
-50.0   30.0   0.0
-100.0   30.0   16.666666666666668
-50.0   60.0   16.666666666666668
-50.0   30.0   0.0
-100.0   60.0   0.0
-100.0   30.0   16.666666666666668
-50.0   30.0   16.666666666666668
-100.0   60.0   16.666666666666668
-100.0   30.0   33.333333333333336
-50.0   30.0   16.666666666666668
-50.0   60.0   16.666666666666668
-100.0   60.0   16.666666666666668
-50.0   60.0   33.333333333333336
-100.0   30.0   33.333333333333336
-100.0   60.0   33.333333333333336
-50.0   60.0   33.333333333333336
-100.0   60.0   16.666666666666668
-100.0   30.0   33.333333333333336
-50.0   60.0   33.333333333333336
-50.0   30.0   33.333333333333336
-50.0   30.0   16.666666666666668
-100.0   30.0   33.333333333333336
-50.0   60.0   33.333333333333336
-50.0   30.0   16.666666666666668
-100.0   60.0   16.666666666666668
-100.0   30.0   33.333333333333336
-50.0   30.0   33.333333333333336
-100.0   60.0   33.333333333333336
-100.0   30.0   50.0
-50.0   30.0   33.333333333333336
-50.0   60.0   33.333333333333336
-100.0   60.0   33.333333333333336
-50.0   60.0   50.0
-100.0   30.0   50.0
-100.0   60.0   50.0
-50.0   60.0   50.0
-100.0   60.0   33.333333333333336
-100.0   30.0   50.0
-50.0   60.0   50.0
-50.0   30.0   50.0
-50.0   30.0   33.333333333333336
-100.0   30.0   50.0
-50.0   60.0   50.0
-50.0   30.0   33.333333333333336
-100.0   60.0   33.333333333333336
-100.0   60.0   0.0
-50.0   60.0   0.0
-100.0   90.0   0.0
-100.0   60.0   16.666666666666668
-50.0   60.0   0.0
-50.0   90.0   0.0
-100.0   90.0   0.0
-50.0   90.0   16.666666666666668
-100.0   60.0   16.666666666666668
-100.0   90.0   16.666666666666668
-50.0   90.0   16.666666666666668
-100.0   90.0   0.0
-100.0   60.0   16.666666666666668
-50.0   90.0   16.666666666666668
-50.0   60.0   16.666666666666668
-50.0   60.0   0.0
-100.0   60.0   16.666666666666668
-50.0   90.0   16.666666666666668
-50.0   60.0   0.0
-100.0   90.0   0.0
-100.0   60.0   16.666666666666668
-50.0   60.0   16.666666666666668
-100.0   90.0   16.666666666666668
-100.0   60.0   33.333333333333336
-50.0   60.0   16.666666666666668
-50.0   90.0   16.666666666666668
-100.0   90.0   16.666666666666668
-50.0   90.0   33.333333333333336
-100.0   60.0   33.333333333333336
-100.0   90.0   33.333333333333336
-50.0   90.0   33.333333333333336
-100.0   90.0   16.666666666666668
-100.0   60.0   33.333333333333336
-50.0   90.0   33.333333333333336
-50.0   60.0   33.333333333333336
-50.0   60.0   16.666666666666668
-100.0   60.0   33.333333333333336
-50.0   90.0   33.333333333333336
-50.0   60.0   16.666666666666668
-100.0   90.0   16.666666666666668
-100.0   60.0   33.333333333333336
-50.0   60.0   33.333333333333336
-100.0   90.0   33.333333333333336
-100.0   60.0   50.0
-50.0   60.0   33.333333333333336
-50.0   90.0   33.333333333333336
-100.0   90.0   33.333333333333336
-50.0   90.0   50.0
-100.0   60.0   50.0
-100.0   90.0   50.0
-50.0   90.0   50.0
-100.0   90.0   33.333333333333336
-100.0   60.0   50.0
-50.0   90.0   50.0
-50.0   60.0   50.0
-50.0   60.0   33.333333333333336
-100.0   60.0   50.0
-50.0   90.0   50.0
-50.0   60.0   33.333333333333336
-100.0   90.0   33.333333333333336
-100.0   90.0   0.0
-50.0   90.0   0.0
-100.0   120.0   0.0
-100.0   90.0   16.666666666666668
-50.0   90.0   0.0
-50.0   120.0   0.0
-100.0   120.0   0.0
-50.0   120.0   16.666666666666668
-100.0   90.0   16.666666666666668
-100.0   120.0   16.666666666666668
-50.0   120.0   16.666666666666668
-100.0   120.0   0.0
-100.0   90.0   16.666666666666668
-50.0   120.0   16.666666666666668
-50.0   90.0   16.666666666666668
-50.0   90.0   0.0
-100.0   90.0   16.666666666666668
-50.0   120.0   16.666666666666668
-50.0   90.0   0.0
-100.0   120.0   0.0
-100.0   90.0   16.666666666666668
-50.0   90.0   16.666666666666668
-100.0   120.0   16.666666666666668
-100.0   90.0   33.333333333333336
-50.0   90.0   16.666666666666668
-50.0   120.0   16.666666666666668
-100.0   120.0   16.666666666666668
-50.0   120.0   33.333333333333336
-100.0   90.0   33.333333333333336
-100.0   120.0   33.333333333333336
-50.0   120.0   33.333333333333336
-100.0   120.0   16.666666666666668
-100.0   90.0   33.333333333333336
-50.0   120.0   33.333333333333336
-50.0   90.0   33.333333333333336
-50.0   90.0   16.666666666666668
-100.0   90.0   33.333333333333336
-50.0   120.0   33.333333333333336
-50.0   90.0   16.666666666666668
-100.0   120.0   16.666666666666668
-100.0   90.0   33.333333333333336
-50.0   90.0   33.333333333333336
-100.0   120.0   33.333333333333336
-100.0   90.0   50.0
-50.0   90.0   33.333333333333336
-50.0   120.0   33.333333333333336
-100.0   120.0   33.333333333333336
-50.0   120.0   50.0
-100.0   90.0   50.0
-100.0   120.0   50.0
-50.0   120.0   50.0
-100.0   120.0   33.333333333333336
-100.0   90.0   50.0
-50.0   120.0   50.0
-50.0   90.0   50.0
-50.0   90.0   33.333333333333336
-100.0   90.0   50.0
-50.0   120.0   50.0
-50.0   90.0   33.333333333333336
-100.0   120.0   33.333333333333336
-100.0   120.0   0.0
-50.0   120.0   0.0
-100.0   150.0   0.0
-100.0   120.0   16.666666666666668
-50.0   120.0   0.0
-50.0   150.0   0.0
-100.0   150.0   0.0
-50.0   150.0   16.666666666666668
-100.0   120.0   16.666666666666668
-100.0   150.0   16.666666666666668
-50.0   150.0   16.666666666666668
-100.0   150.0   0.0
-100.0   120.0   16.666666666666668
-50.0   150.0   16.666666666666668
-50.0   120.0   16.666666666666668
-50.0   120.0   0.0
-100.0   120.0   16.666666666666668
-50.0   150.0   16.666666666666668
-50.0   120.0   0.0
-100.0   150.0   0.0
-100.0   120.0   16.666666666666668
-50.0   120.0   16.666666666666668
-100.0   150.0   16.666666666666668
-100.0   120.0   33.333333333333336
-50.0   120.0   16.666666666666668
-50.0   150.0   16.666666666666668
-100.0   150.0   16.666666666666668
-50.0   150.0   33.333333333333336
-100.0   120.0   33.333333333333336
-100.0   150.0   33.333333333333336
-50.0   150.0   33.333333333333336
-100.0   150.0   16.666666666666668
-100.0   120.0   33.333333333333336
-50.0   150.0   33.333333333333336
-50.0   120.0   33.333333333333336
-50.0   120.0   16.666666666666668
-100.0   120.0   33.333333333333336
-50.0   150.0   33.333333333333336
-50.0   120.0   16.666666666666668
-100.0   150.0   16.666666666666668
-100.0   120.0   33.333333333333336
-50.0   120.0   33.333333333333336
-100.0   150.0   33.333333333333336
-100.0   120.0   50.0
-50.0   120.0   33.333333333333336
-50.0   150.0   33.333333333333336
-100.0   150.0   33.333333333333336
-50.0   150.0   50.0
-100.0   120.0   50.0
-100.0   150.0   50.0
-50.0   150.0   50.0
-100.0   150.0   33.333333333333336
-100.0   120.0   50.0
-50.0   150.0   50.0
-50.0   120.0   50.0
-50.0   120.0   33.333333333333336
-100.0   120.0   50.0
-50.0   150.0   50.0
-50.0   120.0   33.333333333333336
-100.0   150.0   33.333333333333336
-50.0   0.0   0.0
0.0   0.0   0.0
-50.0   30.0   0.0
-50.0   0.0   16.666666666666668
0.0   0.0   0.0
0.0   30.0   0.0
-50.0   30.0   0.0
0.0   30.0   16.666666666666668
-50.0   0.0   16.666666666666668
-50.0   30.0   16.666666666666668
0.0   30.0   16.666666666666668
-50.0   30.0   0.0
-50.0   0.0   16.666666666666668
0.0   30.0   16.666666666666668
0.0   0.0   16.666666666666668
0.0   0.0   0.0
-50.0   0.0   16.666666666666668
0.0   30.0   16.666666666666668
0.0   0.0   0.0
-50.0   30.0   0.0
-50.0   0.0   16.666666666666668
0.0   0.0   16.666666666666668
-50.0   30.0   16.666666666666668
-50.0   0.0   33.333333333333336
0.0   0.0   16.666666666666668
0.0   30.0   16.666666666666668
-50.0   30.0   16.666666666666668
0.0   30.0   33.333333333333336
-50.0   0.0   33.333333333333336
-50.0   30.0   33.333333333333336
0.0   30.0   33.333333333333336
-50.0   30.0   16.666666666666668
-50.0   0.0   33.333333333333336
0.0   30.0   33.333333333333336
0.0   0.0   33.333333333333336
0.0   0.0   16.666666666666668
-50.0   0.0   33.333333333333336
0.0   30.0   33.333333333333336
0.0   0.0   16.666666666666668
-50.0   30.0   16.666666666666668
-50.0   0.0   33.333333333333336
0.0   0.0   33.333333333333336
-50.0   30.0   33.333333333333336
-50.0   0.0   50.0
0.0   0.0   33.333333333333336
0.0   30.0   33.333333333333336
-50.0   30.0   33.333333333333336
0.0   30.0   50.0
-50.0   0.0   50.0
-50.0   30.0   50.0
0.0   30.0   50.0
-50.0   30.0   33.333333333333336
-50.0   0.0   50.0
0.0   30.0   50.0
0.0   0.0   50.0
0.0   0.0   33.333333333333336
-50.0   0.0   50.0
0.0   30.0   50.0
0.0   0.0   33.333333333333336
-50.0   30.0   33.333333333333336
-50.0   30.0   0.0
0.0   30.0   0.0
-50.0   60.0   0.0
-50.0   30.0   16.666666666666668
0.0   30.0   0.0
0.0   60.0   0.0
-50.0   60.0   0.0
0.0   60.0   16.666666666666668
-50.0   30.0   16.666666666666668
-50.0   60.0   16.666666666666668
0.0   60.0   16.666666666666668
-50.0   60.0   0.0
-50.0   30.0   16.666666666666668
0.0   60.0   16.666666666666668
0.0   30.0   16.666666666666668
0.0   30.0   0.0
-50.0   30.0   16.666666666666668
0.0   60.0   16.666666666666668
0.0   30.0   0.0
-50.0   60.0   0.0
-50.0   30.0   16.666666666666668
0.0   30.0   16.666666666666668
-50.0   60.0   16.666666666666668
-50.0   30.0   33.333333333333336
0.0   30.0   16.666666666666668
0.0   60.0   16.666666666666668
-50.0   60.0   16.666666666666668
0.0   60.0   33.333333333333336
-50.0   30.0   33.333333333333336
-50.0   60.0   33.333333333333336
0.0   60.0   33.333333333333336
-50.0   60.0   16.666666666666668
-50.0   30.0   33.333333333333336
0.0   60.0   33.333333333333336
0.0   30.0   33.333333333333336
0.0   30.0   16.666666666666668
-50.0   30.0   33.333333333333336
0.0   60.0   33.333333333333336
0.0   30.0   16.666666666666668
-50.0   60.0   16.666666666666668
-50.0   30.0   33.333333333333336
0.0   30.0   33.333333333333336
-50.0   60.0   33.333333333333336
-50.0   30.0   50.0
0.0   30.0   33.333333333333336
0.0   60.0   33.333333333333336
-50.0   60.0   33.333333333333336
0.0   60.0   50.0
-50.0   30.0   50.0
-50.0   60.0   50.0
0.0   60.0   50.0
-50.0   60.0   33.333333333333336
-50.0   30.0   50.0
0.0   60.0   50.0
0.0   30.0   50.0
0.0   30.0   33.333333333333336
-50.0   30.0   50.0
0.0   60.0   50.0
0.0   30.0   33.333333333333336
-50.0   60.0   33.333333333333336
-50.0   60.0   0.0
0.0   60.0   0.0
-50.0   90.0   0.0
-50.0   60.0   16.666666666666668
0.0   60.0   0.0
0.0   90.0   0.0
-50.0   90.0   0.0
0.0   90.0   16.666666666666668
-50.0   60.0   16.666666666666668
-50.0   90.0   16.666666666666668
0.0   90.0   16.666666666666668
-50.0   90.0   0.0
-50.0   60.0   16.666666666666668
0.0   90.0   16.666666666666668
0.0   60.0   16.666666666666668
0.0   60.0   0.0
-50.0   60.0   16.666666666666668
0.0   90.0   16.666666666666668
0.0   60.0   0.0
-50.0   90.0   0.0
-50.0   60.0   16.666666666666668
0.0   60.0   16.666666666666668
-50.0   90.0   16.666666666666668
-50.0   60.0   33.333333333333336
0.0   60.0   16.666666666666668
0.0   90.0   16.666666666666668
-50.0   90.0   16.666666666666668
0.0   90.0   33.333333333333336
-50.0   60.0   33.333333333333336
-50.0   90.0   33.333333333333336
0.0   90.0   33.333333333333336
-50.0   90.0   16.666666666666668
-50.0   60.0   33.333333333333336
0.0   90.0   33.333333333333336
0.0   60.0   33.333333333333336
0.0   60.0   16.666666666666668
-50.0   60.0   33.333333333333336
0.0   90.0   33.333333333333336
0.0   60.0   16.666666666666668
-50.0   90.0   16.666666666666668
-50.0   60.0   33.333333333333336
0.0   60.0   33.333333333333336
-50.0   90.0   33.333333333333336
-50.0   60.0   50.0
0.0   60.0   33.333333333333336
0.0   90.0   33.333333333333336
-50.0   90.0   33.333333333333336
0.0   90.0   50.0
-50.0   60.0   50.0
-50.0   90.0   50.0
0.0   90.0   50.0
-50.0   90.0   33.333333333333336
-50.0   60.0   50.0
0.0   90.0   50.0
0.0   60.0   50.0
0.0   60.0   33.333333333333336
-50.0   60.0   50.0
0.0   90.0   50.0
0.0   60.0   33.333333333333336
-50.0   90.0   33.333333333333336
-50.0   90.0   0.0
0.0   90.0   0.0
-50.0   120.0   0.0
-50.0   90.0   16.666666666666668
0.0   90.0   0.0
0.0   120.0   0.0
-50.0   120.0   0.0
0.0   120.0   16.666666666666668
-50.0   90.0   16.666666666666668
-50.0   120.0   16.666666666666668
0.0   120.0   16.666666666666668
-50.0   120.0   0.0
-50.0   90.0   16.666666666666668
0.0   120.0   16.666666666666668
0.0   90.0   16.666666666666668
0.0   90.0   0.0
-50.0   90.0   16.666666666666668
0.0   120.0   16.666666666666668
0.0   90.0   0.0
-50.0   120.0   0.0
-50.0   90.0   16.666666666666668
0.0   90.0   16.666666666666668
-50.0   120.0   16.666666666666668
-50.0   90.0   33.333333333333336
0.0   90.0   16.666666666666668
0.0   120.0   16.666666666666668
-50.0   120.0   16.666666666666668
0.0   120.0   33.333333333333336
-50.0   90.0   33.333333333333336
-50.0   120.0   33.333333333333336
0.0   120.0   33.333333333333336
-50.0   120.0   16.666666666666668
-50.0   90.0   33.333333333333336
0.0   120.0   33.333333333333336
0.0   90.0   33.333333333333336
0.0   90.0   16.666666666666668
-50.0   90.0   33.333333333333336
0.0   120.0   33.333333333333336
0.0   90.0   16.666666666666668
-50.0   120.0   16.666666666666668
-50.0   90.0   33.333333333333336
0.0   90.0   33.333333333333336
-50.0   120.0   33.333333333333336
-50.0   90.0   50.0
0.0   90.0   33.333333333333336
0.0   120.0   33.333333333333336
-50.0   120.0   33.333333333333336
0.0   120.0   50.0
-50.0   90.0   50.0
-50.0   120.0   50.0
0.0   120.0   50.0
-50.0   120.0   33.333333333333336
-50.0   90.0   50.0
0.0   120.0   50.0
0.0   90.0   50.0
0.0   90.0   33.333333333333336
-50.0   90.0   50.0
0.0   120.0   50.0
0.0   90.0   33.333333333333336
-50.0   120.0   33.333333333333336
-50.0   120.0   0.0
0.0   120.0   0.0
-50.0   150.0   0.0
-50.0   120.0   16.666666666666668
0.0   120.0   0.0
0.0   150.0   0.0
-50.0   150.0   0.0
0.0   150.0   16.666666666666668
-50.0   120.0   16.666666666666668
-50.0   150.0   16.666666666666668
0.0   150.0   16.666666666666668
-50.0   150.0   0.0
-50.0   120.0   16.666666666666668
0.0   150.0   16.666666666666668
0.0   120.0   16.666666666666668
0.0   120.0   0.0
-50.0   120.0   16.666666666666668
0.0   150.0   16.666666666666668
0.0   120.0   0.0
-50.0   150.0   0.0
-50.0   120.0   16.666666666666668
0.0   120.0   16.666666666666668
-50.0   150.0   16.666666666666668
-50.0   120.0   33.333333333333336
0.0   120.0   16.666666666666668
0.0   150.0   16.666666666666668
-50.0   150.0   16.666666666666668
0.0   150.0   33.333333333333336
-50.0   120.0   33.333333333333336
-50.0   150.0   33.333333333333336
0.0   150.0   33.333333333333336
-50.0   150.0   16.666666666666668
-50.0   120.0   33.333333333333336
0.0   150.0   33.333333333333336
0.0   120.0   33.333333333333336
0.0   120.0   16.666666666666668
-50.0   120.0   33.333333333333336
0.0   150.0   33.333333333333336
0.0   120.0   16.666666666666668
-50.0   150.0   16.666666666666668
-50.0   120.0   33.333333333333336
0.0   120.0   33.333333333333336
-50.0   150.0   33.333333333333336
-50.0   120.0   50.0
0.0   120.0   33.333333333333336
0.0   150.0   33.333333333333336
-50.0   150.0   33.333333333333336
0.0   150.0   50.0
-50.0   120.0   50.0
-50.0   150.0   50.0
0.0   150.0   50.0
-50.0   150.0   33.333333333333336
-50.0   120.0   50.0
0.0   150.0   50.0
0.0   120.0   50.0
0.0   120.0   33.333333333333336
-50.0   120.0   50.0
0.0   150.0   50.0
0.0   120.0   33.333333333333336
-50.0   150.0   33.333333333333336
0.0   0.0   0.0
50.0   0.0   0.0
0.0   30.0   0.0
0.0   0.0   16.666666666666668
50.0   0.0   0.0
50.0   30.0   0.0
0.0   30.0   0.0
50.0   30.0   16.666666666666668
0.0   0.0   16.666666666666668
0.0   30.0   16.666666666666668
50.0   30.0   16.666666666666668
0.0   30.0   0.0
0.0   0.0   16.666666666666668
50.0   30.0   16.666666666666668
50.0   0.0   16.666666666666668
50.0   0.0   0.0
0.0   0.0   16.666666666666668
50.0   30.0   16.666666666666668
50.0   0.0   0.0
0.0   30.0   0.0
0.0   0.0   16.666666666666668
50.0   0.0   16.666666666666668
0.0   30.0   16.666666666666668
0.0   0.0   33.333333333333336
50.0   0.0   16.666666666666668
50.0   30.0   16.666666666666668
0.0   30.0   16.666666666666668
50.0   30.0   33.333333333333336
0.0   0.0   33.333333333333336
0.0   30.0   33.333333333333336
50.0   30.0   33.333333333333336
0.0   30.0   16.666666666666668
0.0   0.0   33.333333333333336
50.0   30.0   33.333333333333336
50.0   0.0   33.333333333333336
50.0   0.0   16.666666666666668
0.0   0.0   33.333333333333336
50.0   30.0   33.333333333333336
50.0   0.0   16.666666666666668
0.0   30.0   16.666666666666668
0.0   0.0   33.333333333333336
50.0   0.0   33.333333333333336
0.0   30.0   33.333333333333336
0.0   0.0   50.0
50.0   0.0   33.333333333333336
50.0   30.0   33.333333333333336
0.0   30.0   33.333333333333336
50.0   30.0   50.0
0.0   0.0   50.0
0.0   30.0   50.0
50.0   30.0   50.0
0.0   30.0   33.333333333333336
0.0   0.0   50.0
50.0   30.0   50.0
50.0   0.0   50.0
50.0   0.0   33.333333333333336
0.0   0.0   50.0
50.0   30.0   50.0
50.0   0.0   33.333333333333336
0.0   30.0   33.333333333333336
0.0   30.0   0.0
50.0   30.0   0.0
0.0   60.0   0.0
0.0   30.0   16.666666666666668
50.0   30.0   0.0
50.0   60.0   0.0
0.0   60.0   0.0
50.0   60.0   16.666666666666668
0.0   30.0   16.666666666666668
0.0   60.0   16.666666666666668
50.0   60.0   16.666666666666668
0.0   60.0   0.0
0.0   30.0   16.666666666666668
50.0   60.0   16.666666666666668
50.0   30.0   16.666666666666668
50.0   30.0   0.0
0.0   30.0   16.666666666666668
50.0   60.0   16.666666666666668
50.0   30.0   0.0
0.0   60.0   0.0
0.0   30.0   16.666666666666668
50.0   30.0   16.666666666666668
0.0   60.0   16.666666666666668
0.0   30.0   33.333333333333336
50.0   30.0   16.666666666666668
50.0   60.0   16.666666666666668
0.0   60.0   16.666666666666668
50.0   60.0   33.333333333333336
0.0   30.0   33.333333333333336
0.0   60.0   33.333333333333336
50.0   60.0   33.333333333333336
0.0   60.0   16.666666666666668
0.0   30.0   33.333333333333336
50.0   60.0   33.333333333333336
50.0   30.0   33.333333333333336
50.0   30.0   16.666666666666668
0.0   30.0   33.333333333333336
50.0   60.0   33.333333333333336
50.0   30.0   16.666666666666668
0.0   60.0   16.666666666666668
0.0   30.0   33.333333333333336
50.0   30.0   33.333333333333336
0.0   60.0   33.333333333333336
0.0   30.0   50.0
50.0   30.0   33.333333333333336
50.0   60.0   33.333333333333336
0.0   60.0   33.333333333333336
50.0   60.0   50.0
0.0   30.0   50.0
0.0   60.0   50.0
50.0   60.0   50.0
0.0   60.0   33.333333333333336
0.0   30.0   50.0
50.0   60.0   50.0
50.0   30.0   50.0
50.0   30.0   33.333333333333336
0.0   30.0   50.0
50.0   60.0   50.0
50.0   30.0   33.333333333333336
0.0   60.0   33.333333333333336
0.0   60.0   0.0
50.0   60.0   0.0
0.0   90.0   0.0
0.0   60.0   16.666666666666668
50.0   60.0   0.0
50.0   90.0   0.0
0.0   90.0   0.0
50.0   90.0   16.666666666666668
0.0   60.0   16.666666666666668
0.0   90.0   16.666666666666668
50.0   90.0   16.666666666666668
0.0   90.0   0.0
0.0   60.0   16.666666666666668
50.0   90.0   16.666666666666668
50.0   60.0   16.666666666666668
50.0   60.0   0.0
0.0   60.0   16.666666666666668
50.0   90.0   16.666666666666668
50.0   60.0   0.0
0.0   90.0   0.0
0.0   60.0   16.666666666666668
50.0   60.0   16.666666666666668
0.0   90.0   16.666666666666668
0.0   60.0   33.333333333333336
50.0   60.0   16.666666666666668
50.0   90.0   16.666666666666668
0.0   90.0   16.666666666666668
50.0   90.0   33.333333333333336
0.0   60.0   33.333333333333336
0.0   90.0   33.333333333333336
50.0   90.0   33.333333333333336
0.0   90.0   16.666666666666668
0.0   60.0   33.333333333333336
50.0   90.0   33.333333333333336
50.0   60.0   33.333333333333336
50.0   60.0   16.666666666666668
0.0   60.0   33.333333333333336
50.0   90.0   33.333333333333336
50.0   60.0   16.666666666666668
0.0   90.0   16.666666666666668
0.0   60.0   33.333333333333336
50.0   60.0   33.333333333333336
0.0   90.0   33.333333333333336
0.0   60.0   50.0
50.0   60.0   33.333333333333336
50.0   90.0   33.333333333333336
0.0   90.0   33.333333333333336
50.0   90.0   50.0
0.0   60.0   50.0
0.0   90.0   50.0
50.0   90.0   50.0
0.0   90.0   33.333333333333336
0.0   60.0   50.0
50.0   90.0   50.0
50.0   60.0   50.0
50.0   60.0   33.333333333333336
0.0   60.0   50.0
50.0   90.0   50.0
50.0   60.0   33.333333333333336
0.0   90.0   33.333333333333336
0.0   90.0   0.0
50.0   90.0   0.0
0.0   120.0   0.0
0.0   90.0   16.666666666666668
50.0   90.0   0.0
50.0   120.0   0.0
0.0   120.0   0.0
50.0   120.0   16.666666666666668
0.0   90.0   16.666666666666668
0.0   120.0   16.666666666666668
50.0   120.0   16.666666666666668
0.0   120.0   0.0
0.0   90.0   16.666666666666668
50.0   120.0   16.666666666666668
50.0   90.0   16.666666666666668
50.0   90.0   0.0
0.0   90.0   16.666666666666668
50.0   120.0   16.666666666666668
50.0   90.0   0.0
0.0   120.0   0.0
0.0   90.0   16.666666666666668
50.0   90.0   16.666666666666668
0.0   120.0   16.666666666666668
0.0   90.0   33.333333333333336
50.0   90.0   16.666666666666668
50.0   120.0   16.666666666666668
0.0   120.0   16.666666666666668
50.0   120.0   33.333333333333336
0.0   90.0   33.333333333333336
0.0   120.0   33.333333333333336
50.0   120.0   33.333333333333336
0.0   120.0   16.666666666666668
0.0   90.0   33.333333333333336
50.0   120.0   33.333333333333336
50.0   90.0   33.333333333333336
50.0   90.0   16.666666666666668
0.0   90.0   33.333333333333336
50.0   120.0   33.333333333333336
50.0   90.0   16.666666666666668
0.0   120.0   16.666666666666668
0.0   90.0   33.333333333333336
50.0   90.0   33.333333333333336
0.0   120.0   33.333333333333336
0.0   90.0   50.0
50.0   90.0   33.333333333333336
50.0   120.0   33.333333333333336
0.0   120.0   33.333333333333336
50.0   120.0   50.0
0.0   90.0   50.0
0.0   120.0   50.0
50.0   120.0   50.0
0.0   120.0   33.333333333333336
0.0   90.0   50.0
50.0   120.0   50.0
50.0   90.0   50.0
50.0   90.0   33.333333333333336
0.0   90.0   50.0
50.0   120.0   50.0
50.0   90.0   33.333333333333336
0.0   120.0   33.333333333333336
0.0   120.0   0.0
50.0   120.0   0.0
0.0   150.0   0.0
0.0   120.0   16.666666666666668
50.0   120.0   0.0
50.0   150.0   0.0
0.0   150.0   0.0
50.0   150.0   16.666666666666668
0.0   120.0   16.666666666666668
0.0   150.0   16.666666666666668
50.0   150.0   16.666666666666668
0.0   150.0   0.0
0.0   120.0   16.666666666666668
50.0   150.0   16.666666666666668
50.0   120.0   16.666666666666668
50.0   120.0   0.0
0.0   120.0   16.666666666666668
50.0   150.0   16.666666666666668
50.0   120.0   0.0
0.0   150.0   0.0
0.0   120.0   16.666666666666668
50.0   120.0   16.666666666666668
0.0   150.0   16.666666666666668
0.0   120.0   33.333333333333336
50.0   120.0   16.666666666666668
50.0   150.0   16.666666666666668
0.0   150.0   16.666666666666668
50.0   150.0   33.333333333333336
0.0   120.0   33.333333333333336
0.0   150.0   33.333333333333336
50.0   150.0   33.333333333333336
0.0   150.0   16.666666666666668
0.0   120.0   33.333333333333336
50.0   150.0   33.333333333333336
50.0   120.0   33.333333333333336
50.0   120.0   16.666666666666668
0.0   120.0   33.333333333333336
50.0   150.0   33.333333333333336
50.0   120.0   16.666666666666668
0.0   150.0   16.666666666666668
0.0   120.0   33.333333333333336
50.0   120.0   33.333333333333336
0.0   150.0   33.333333333333336
0.0   120.0   50.0
50.0   120.0   33.333333333333336
50.0   150.0   33.333333333333336
0.0   150.0   33.333333333333336
50.0   150.0   50.0
0.0   120.0   50.0
0.0   150.0   50.0
50.0   150.0   50.0
0.0   150.0   33.333333333333336
0.0   120.0   50.0
50.0   150.0   50.0
50.0   120.0   50.0
50.0   120.0   33.333333333333336
0.0   120.0   50.0
50.0   150.0   50.0
50.0   120.0   33.333333333333336
0.0   150.0   33.333333333333336
50.0   0.0   0.0
100.0   0.0   0.0
50.0   30.0   0.0
50.0   0.0   16.666666666666668
100.0   0.0   0.0
100.0   30.0   0.0
50.0   30.0   0.0
100.0   30.0   16.666666666666668
50.0   0.0   16.666666666666668
50.0   30.0   16.666666666666668
100.0   30.0   16.666666666666668
50.0   30.0   0.0
50.0   0.0   16.666666666666668
100.0   30.0   16.666666666666668
100.0   0.0   16.666666666666668
100.0   0.0   0.0
50.0   0.0   16.666666666666668
100.0   30.0   16.666666666666668
100.0   0.0   0.0
50.0   30.0   0.0
50.0   0.0   16.666666666666668
100.0   0.0   16.666666666666668
50.0   30.0   16.666666666666668
50.0   0.0   33.333333333333336
100.0   0.0   16.666666666666668
100.0   30.0   16.666666666666668
50.0   30.0   16.666666666666668
100.0   30.0   33.333333333333336
50.0   0.0   33.333333333333336
50.0   30.0   33.333333333333336
100.0   30.0   33.333333333333336
50.0   30.0   16.666666666666668
50.0   0.0   33.333333333333336
100.0   30.0   33.333333333333336
100.0   0.0   33.333333333333336
100.0   0.0   16.666666666666668
50.0   0.0   33.333333333333336
100.0   30.0   33.333333333333336
100.0   0.0   16.666666666666668
50.0   30.0   16.666666666666668
50.0   0.0   33.333333333333336
100.0   0.0   33.333333333333336
50.0   30.0   33.333333333333336
50.0   0.0   50.0
100.0   0.0   33.333333333333336
100.0   30.0   33.333333333333336
50.0   30.0   33.333333333333336
100.0   30.0   50.0
50.0   0.0   50.0
50.0   30.0   50.0
100.0   30.0   50.0
50.0   30.0   33.333333333333336
50.0   0.0   50.0
100.0   30.0   50.0
100.0   0.0   50.0
100.0   0.0   33.333333333333336
50.0   0.0   50.0
100.0   30.0   50.0
100.0   0.0   33.333333333333336
50.0   30.0   33.333333333333336
50.0   30.0   0.0
100.0   30.0   0.0
50.0   60.0   0.0
50.0   30.0   16.666666666666668
100.0   30.0   0.0
100.0   60.0   0.0
50.0   60.0   0.0
100.0   60.0   16.666666666666668
50.0   30.0   16.666666666666668
50.0   60.0   16.666666666666668
100.0   60.0   16.666666666666668
50.0   60.0   0.0
50.0   30.0   16.666666666666668
100.0   60.0   16.666666666666668
100.0   30.0   16.666666666666668
100.0   30.0   0.0
50.0   30.0   16.666666666666668
100.0   60.0   16.666666666666668
100.0   30.0   0.0
50.0   60.0   0.0
50.0   30.0   16.666666666666668
100.0   30.0   16.666666666666668
50.0   60.0   16.666666666666668
50.0   30.0   33.333333333333336
100.0   30.0   16.666666666666668
100.0   60.0   16.666666666666668
50.0   60.0   16.666666666666668
100.0   60.0   33.333333333333336
50.0   30.0   33.333333333333336
50.0   60.0   33.333333333333336
100.0   60.0   33.333333333333336
50.0   60.0   16.666666666666668
50.0   30.0   33.333333333333336
100.0   60.0   33.333333333333336
100.0   30.0   33.333333333333336
100.0   30.0   16.666666666666668
50.0   30.0   33.333333333333336
100.0   60.0   33.333333333333336
100.0   30.0   16.666666666666668
50.0   60.0   16.666666666666668
50.0   30.0   33.333333333333336
100.0   30.0   33.333333333333336
50.0   60.0   33.333333333333336
50.0   30.0   50.0
100.0   30.0   33.333333333333336
100.0   60.0   33.333333333333336
50.0   60.0   33.333333333333336
100.0   60.0   50.0
50.0   30.0   50.0
50.0   60.0   50.0
100.0   60.0   50.0
50.0   60.0   33.333333333333336
50.0   30.0   50.0
100.0   60.0   50.0
100.0   30.0   50.0
100.0   30.0   33.333333333333336
50.0   30.0   50.0
100.0   60.0   50.0
100.0   30.0   33.333333333333336
50.0   60.0   33.333333333333336
50.0   60.0   0.0
100.0   60.0   0.0
50.0   90.0   0.0
50.0   60.0   16.666666666666668
100.0   60.0   0.0
100.0   90.0   0.0
50.0   90.0   0.0
100.0   90.0   16.666666666666668
50.0   60.0   16.666666666666668
50.0   90.0   16.666666666666668
100.0   90.0   16.666666666666668
50.0   90.0   0.0
50.0   60.0   16.666666666666668
100.0   90.0   16.666666666666668
100.0   60.0   16.666666666666668
100.0   60.0   0.0
50.0   60.0   16.666666666666668
100.0   90.0   16.666666666666668
100.0   60.0   0.0
50.0   90.0   0.0
50.0   60.0   16.666666666666668
100.0   60.0   16.666666666666668
50.0   90.0   16.666666666666668
50.0   60.0   33.333333333333336
100.0   60.0   16.666666666666668
100.0   90.0   16.666666666666668
50.0   90.0   16.666666666666668
100.0   90.0   33.333333333333336
50.0   60.0   33.333333333333336
50.0   90.0   33.333333333333336
100.0   90.0   33.333333333333336
50.0   90.0   16.666666666666668
50.0   60.0   33.333333333333336
100.0   90.0   33.333333333333336
100.0   60.0   33.333333333333336
100.0   60.0   16.666666666666668
50.0   60.0   33.333333333333336
100.0   90.0   33.333333333333336
100.0   60.0   16.666666666666668
50.0   90.0   16.666666666666668
50.0   60.0   33.333333333333336
100.0   60.0   33.333333333333336
50.0   90.0   33.333333333333336
50.0   60.0   50.0
100.0   60.0   33.333333333333336
100.0   90.0   33.333333333333336
50.0   90.0   33.333333333333336
100.0   90.0   50.0
50.0   60.0   50.0
50.0   90.0   50.0
100.0   90.0   50.0
50.0   90.0   33.333333333333336
50.0   60.0   50.0
100.0   90.0   50.0
100.0   60.0   50.0
100.0   60.0   33.333333333333336
50.0   60.0   50.0
100.0   90.0   50.0
100.0   60.0   33.333333333333336
50.0   90.0   33.333333333333336
50.0   90.0   0.0
100.0   90.0   0.0
50.0   120.0   0.0
50.0   90.0   16.666666666666668
100.0   90.0   0.0
100.0   120.0   0.0
50.0   120.0   0.0
100.0   120.0   16.666666666666668
50.0   90.0   16.666666666666668
50.0   120.0   16.666666666666668
100.0   120.0   16.666666666666668
50.0   120.0   0.0
50.0   90.0   16.666666666666668
100.0   120.0   16.666666666666668
100.0   90.0   16.666666666666668
100.0   90.0   0.0
50.0   90.0   16.666666666666668
100.0   120.0   16.666666666666668
100.0   90.0   0.0
50.0   120.0   0.0
50.0   90.0   16.666666666666668
100.0   90.0   16.666666666666668
50.0   120.0   16.666666666666668
50.0   90.0   33.333333333333336
100.0   90.0   16.666666666666668
100.0   120.0   16.666666666666668
50.0   120.0   16.666666666666668
100.0   120.0   33.333333333333336
50.0   90.0   33.333333333333336
50.0   120.0   33.333333333333336
100.0   120.0   33.333333333333336
50.0   120.0   16.666666666666668
50.0   90.0   33.333333333333336
100.0   120.0   33.333333333333336
100.0   90.0   33.333333333333336
100.0   90.0   16.666666666666668
50.0   90.0   33.333333333333336
100.0   120.0   33.333333333333336
100.0   90.0   16.666666666666668
50.0   120.0   16.666666666666668
50.0   90.0   33.333333333333336
100.0   90.0   33.333333333333336
50.0   120.0   33.333333333333336
50.0   90.0   50.0
100.0   90.0   33.333333333333336
100.0   120.0   33.333333333333336
50.0   120.0   33.333333333333336
100.0   120.0   50.0
50.0   90.0   50.0
50.0   120.0   50.0
100.0   120.0   50.0
50.0   120.0   33.333333333333336
50.0   90.0   50.0
100.0   120.0   50.0
100.0   90.0   50.0
100.0   90.0   33.333333333333336
50.0   90.0   50.0
100.0   120.0   50.0
100.0   90.0   33.333333333333336
50.0   120.0   33.333333333333336
50.0   120.0   0.0
100.0   120.0   0.0
50.0   150.0   0.0
50.0   120.0   16.666666666666668
100.0   120.0   0.0
100.0   150.0   0.0
50.0   150.0   0.0
100.0   150.0   16.666666666666668
50.0   120.0   16.666666666666668
50.0   150.0   16.666666666666668
100.0   150.0   16.666666666666668
50.0   150.0   0.0
50.0   120.0   16.666666666666668
100.0   150.0   16.666666666666668
100.0   120.0   16.666666666666668
100.0   120.0   0.0
50.0   120.0   16.666666666666668
100.0   150.0   16.666666666666668
100.0   120.0   0.0
50.0   150.0   0.0
50.0   120.0   16.666666666666668
100.0   120.0   16.666666666666668
50.0   150.0   16.666666666666668
50.0   120.0   33.333333333333336
100.0   120.0   16.666666666666668
100.0   150.0   16.666666666666668
50.0   150.0   16.666666666666668
100.0   150.0   33.333333333333336
50.0   120.0   33.333333333333336
50.0   150.0   33.333333333333336
100.0   150.0   33.333333333333336
50.0   150.0   16.666666666666668
50.0   120.0   33.333333333333336
100.0   150.0   33.333333333333336
100.0   120.0   33.333333333333336
100.0   120.0   16.666666666666668
50.0   120.0   33.333333333333336
100.0   150.0   33.333333333333336
100.0   120.0   16.666666666666668
50.0   150.0   16.666666666666668
50.0   120.0   33.333333333333336
100.0   120.0   33.333333333333336
50.0   150.0   33.333333333333336
50.0   120.0   50.0
100.0   120.0   33.333333333333336
100.0   150.0   33.333333333333336
50.0   150.0   33.333333333333336
100.0   150.0   50.0
50.0   120.0   50.0
50.0   150.0   50.0
100.0   150.0   50.0
50.0   150.0   33.333333333333336
50.0   120.0   50.0
100.0   150.0   50.0
100.0   120.0   50.0
100.0   120.0   33.333333333333336
50.0   120.0   50.0
100.0   150.0   50.0
100.0   120.0   33.333333333333336
50.0   150.0   33.333333333333336
100.0   0.0   0.0
150.0   0.0   0.0
100.0   30.0   0.0
100.0   0.0   16.666666666666668
150.0   0.0   0.0
150.0   30.0   0.0
100.0   30.0   0.0
150.0   30.0   16.666666666666668
100.0   0.0   16.666666666666668
100.0   30.0   16.666666666666668
150.0   30.0   16.666666666666668
100.0   30.0   0.0
100.0   0.0   16.666666666666668
150.0   30.0   16.666666666666668
150.0   0.0   16.666666666666668
150.0   0.0   0.0
100.0   0.0   16.666666666666668
150.0   30.0   16.666666666666668
150.0   0.0   0.0
100.0   30.0   0.0
100.0   0.0   16.666666666666668
150.0   0.0   16.666666666666668
100.0   30.0   16.666666666666668
100.0   0.0   33.333333333333336
150.0   0.0   16.666666666666668
150.0   30.0   16.666666666666668
100.0   30.0   16.666666666666668
150.0   30.0   33.333333333333336
100.0   0.0   33.333333333333336
100.0   30.0   33.333333333333336
150.0   30.0   33.333333333333336
100.0   30.0   16.666666666666668
100.0   0.0   33.333333333333336
150.0   30.0   33.333333333333336
150.0   0.0   33.333333333333336
150.0   0.0   16.666666666666668
100.0   0.0   33.333333333333336
150.0   30.0   33.333333333333336
150.0   0.0   16.666666666666668
100.0   30.0   16.666666666666668
100.0   0.0   33.333333333333336
150.0   0.0   33.333333333333336
100.0   30.0   33.333333333333336
100.0   0.0   50.0
150.0   0.0   33.333333333333336
150.0   30.0   33.333333333333336
100.0   30.0   33.333333333333336
150.0   30.0   50.0
100.0   0.0   50.0
100.0   30.0   50.0
150.0   30.0   50.0
100.0   30.0   33.333333333333336
100.0   0.0   50.0
150.0   30.0   50.0
150.0   0.0   50.0
150.0   0.0   33.333333333333336
100.0   0.0   50.0
150.0   30.0   50.0
150.0   0.0   33.333333333333336
100.0   30.0   33.333333333333336
100.0   30.0   0.0
150.0   30.0   0.0
100.0   60.0   0.0
100.0   30.0   16.666666666666668
150.0   30.0   0.0
150.0   60.0   0.0
100.0   60.0   0.0
150.0   60.0   16.666666666666668
100.0   30.0   16.666666666666668
100.0   60.0   16.666666666666668
150.0   60.0   16.666666666666668
100.0   60.0   0.0
100.0   30.0   16.666666666666668
150.0   60.0   16.666666666666668
150.0   30.0   16.666666666666668
150.0   30.0   0.0
100.0   30.0   16.666666666666668
150.0   60.0   16.666666666666668
150.0   30.0   0.0
100.0   60.0   0.0
100.0   30.0   16.666666666666668
150.0   30.0   16.666666666666668
100.0   60.0   16.666666666666668
100.0   30.0   33.333333333333336
150.0   30.0   16.666666666666668
150.0   60.0   16.666666666666668
100.0   60.0   16.666666666666668
150.0   60.0   33.333333333333336
100.0   30.0   33.333333333333336
100.0   60.0   33.333333333333336
150.0   60.0   33.333333333333336
100.0   60.0   16.666666666666668
100.0   30.0   33.333333333333336
150.0   60.0   33.333333333333336
150.0   30.0   33.333333333333336
150.0   30.0   16.666666666666668
100.0   30.0   33.333333333333336
150.0   60.0   33.333333333333336
150.0   30.0   16.666666666666668
100.0   60.0   16.666666666666668
100.0   30.0   33.333333333333336
150.0   30.0   33.333333333333336
100.0   60.0   33.333333333333336
100.0   30.0   50.0
150.0   30.0   33.333333333333336
150.0   60.0   33.333333333333336
100.0   60.0   33.333333333333336
150.0   60.0   50.0
100.0   30.0   50.0
100.0   60.0   50.0
150.0   60.0   50.0
100.0   60.0   33.333333333333336
100.0   30.0   50.0
150.0   60.0   50.0
150.0   30.0   50.0
150.0   30.0   33.333333333333336
100.0   30.0   50.0
150.0   60.0   50.0
150.0   30.0   33.333333333333336
100.0   60.0   33.333333333333336
100.0   60.0   0.0
150.0   60.0   0.0
100.0   90.0   0.0
100.0   60.0   16.666666666666668
150.0   60.0   0.0
150.0   90.0   0.0
100.0   90.0   0.0
150.0   90.0   16.666666666666668
100.0   60.0   16.666666666666668
100.0   90.0   16.666666666666668
150.0   90.0   16.666666666666668
100.0   90.0   0.0
100.0   60.0   16.666666666666668
150.0   90.0   16.666666666666668
150.0   60.0   16.666666666666668
150.0   60.0   0.0
100.0   60.0   16.666666666666668
150.0   90.0   16.666666666666668
150.0   60.0   0.0
100.0   90.0   0.0
100.0   60.0   16.666666666666668
150.0   60.0   16.666666666666668
100.0   90.0   16.666666666666668
100.0   60.0   33.333333333333336
150.0   60.0   16.666666666666668
150.0   90.0   16.666666666666668
100.0   90.0   16.666666666666668
150.0   90.0   33.333333333333336
100.0   60.0   33.333333333333336
100.0   90.0   33.333333333333336
150.0   90.0   33.333333333333336
100.0   90.0   16.666666666666668
100.0   60.0   33.333333333333336
150.0   90.0   33.333333333333336
150.0   60.0   33.333333333333336
150.0   60.0   16.666666666666668
100.0   60.0   33.333333333333336
150.0   90.0   33.333333333333336
150.0   60.0   16.666666666666668
100.0   90.0   16.666666666666668
100.0   60.0   33.333333333333336
150.0   60.0   33.333333333333336
100.0   90.0   33.333333333333336
100.0   60.0   50.0
150.0   60.0   33.333333333333336
150.0   90.0   33.333333333333336
100.0   90.0   33.333333333333336
150.0   90.0   50.0
100.0   60.0   50.0
100.0   90.0   50.0
150.0   90.0   50.0
100.0   90.0   33.333333333333336
100.0   60.0   50.0
150.0   90.0   50.0
150.0   60.0   50.0
150.0   60.0   33.333333333333336
100.0   60.0   50.0
150.0   90.0   50.0
150.0   60.0   33.333333333333336
100.0   90.0   33.333333333333336
100.0   90.0   0.0
150.0   90.0   0.0
100.0   120.0   0.0
100.0   90.0   16.666666666666668
150.0   90.0   0.0
150.0   120.0   0.0
100.0   120.0   0.0
150.0   120.0   16.666666666666668
100.0   90.0   16.666666666666668
100.0   120.0   16.666666666666668
150.0   120.0   16.666666666666668
100.0   120.0   0.0
100.0   90.0   16.666666666666668
150.0   120.0   16.666666666666668
150.0   90.0   16.666666666666668
150.0   90.0   0.0
100.0   90.0   16.666666666666668
150.0   120.0   16.666666666666668
150.0   90.0   0.0
100.0   120.0   0.0
100.0   90.0   16.666666666666668
150.0   90.0   16.666666666666668
100.0   120.0   16.666666666666668
100.0   90.0   33.333333333333336
150.0   90.0   16.666666666666668
150.0   120.0   16.666666666666668
100.0   120.0   16.666666666666668
150.0   120.0   33.333333333333336
100.0   90.0   33.333333333333336
100.0   120.0   33.333333333333336
150.0   120.0   33.333333333333336
100.0   120.0   16.666666666666668
100.0   90.0   33.333333333333336
150.0   120.0   33.333333333333336
150.0   90.0   33.333333333333336
150.0   90.0   16.666666666666668
100.0   90.0   33.333333333333336
150.0   120.0   33.333333333333336
150.0   90.0   16.666666666666668
100.0   120.0   16.666666666666668
100.0   90.0   33.333333333333336
150.0   90.0   33.333333333333336
100.0   120.0   33.333333333333336
100.0   90.0   50.0
150.0   90.0   33.333333333333336
150.0   120.0   33.333333333333336
100.0   120.0   33.333333333333336
150.0   120.0   50.0
100.0   90.0   50.0
100.0   120.0   50.0
150.0   120.0   50.0
100.0   120.0   33.333333333333336
100.0   90.0   50.0
150.0   120.0   50.0
150.0   90.0   50.0
150.0   90.0   33.333333333333336
100.0   90.0   50.0
150.0   120.0   50.0
150.0   90.0   33.333333333333336
100.0   120.0   33.333333333333336
100.0   120.0   0.0
150.0   120.0   0.0
100.0   150.0   0.0
100.0   120.0   16.666666666666668
150.0   120.0   0.0
150.0   150.0   0.0
100.0   150.0   0.0
150.0   150.0   16.666666666666668
100.0   120.0   16.666666666666668
100.0   150.0   16.666666666666668
150.0   150.0   16.666666666666668
100.0   150.0   0.0
100.0   120.0   16.666666666666668
150.0   150.0   16.666666666666668
150.0   120.0   16.666666666666668
150.0   120.0   0.0
100.0   120.0   16.666666666666668
150.0   150.0   16.666666666666668
150.0   120.0   0.0
100.0   150.0   0.0
100.0   120.0   16.666666666666668
150.0   120.0   16.666666666666668
100.0   150.0   16.666666666666668
100.0   120.0   33.333333333333336
150.0   120.0   16.666666666666668
150.0   150.0   16.666666666666668
100.0   150.0   16.666666666666668
150.0   150.0   33.333333333333336
100.0   120.0   33.333333333333336
100.0   150.0   33.333333333333336
150.0   150.0   33.333333333333336
100.0   150.0   16.666666666666668
100.0   120.0   33.333333333333336
150.0   150.0   33.333333333333336
150.0   120.0   33.333333333333336
150.0   120.0   16.666666666666668
100.0   120.0   33.333333333333336
150.0   150.0   33.333333333333336
150.0   120.0   16.666666666666668
100.0   150.0   16.666666666666668
100.0   120.0   33.333333333333336
150.0   120.0   33.333333333333336
100.0   150.0   33.333333333333336
100.0   120.0   50.0
150.0   120.0   33.333333333333336
150.0   150.0   33.333333333333336
100.0   150.0   33.333333333333336
150.0   150.0   50.0
100.0   120.0   50.0
100.0   150.0   50.0
150.0   150.0   50.0
100.0   150.0   33.333333333333336
100.0   120.0   50.0
150.0   150.0   50.0
150.0   120.0   50.0
150.0   120.0   33.333333333333336
100.0   120.0   50.0
150.0   150.0   50.0
150.0   120.0   33.333333333333336
100.0   150.0   33.333333333333336
150.0   0.0   0.0
200.0   0.0   0.0
150.0   30.0   0.0
150.0   0.0   16.666666666666668
200.0   0.0   0.0
200.0   30.0   0.0
150.0   30.0   0.0
200.0   30.0   16.666666666666668
150.0   0.0   16.666666666666668
150.0   30.0   16.666666666666668
200.0   30.0   16.666666666666668
150.0   30.0   0.0
150.0   0.0   16.666666666666668
200.0   30.0   16.666666666666668
200.0   0.0   16.666666666666668
200.0   0.0   0.0
150.0   0.0   16.666666666666668
200.0   30.0   16.666666666666668
200.0   0.0   0.0
150.0   30.0   0.0
150.0   0.0   16.666666666666668
200.0   0.0   16.666666666666668
150.0   30.0   16.666666666666668
150.0   0.0   33.333333333333336
200.0   0.0   16.666666666666668
200.0   30.0   16.666666666666668
150.0   30.0   16.666666666666668
200.0   30.0   33.333333333333336
150.0   0.0   33.333333333333336
150.0   30.0   33.333333333333336
200.0   30.0   33.333333333333336
150.0   30.0   16.666666666666668
150.0   0.0   33.333333333333336
200.0   30.0   33.333333333333336
200.0   0.0   33.333333333333336
200.0   0.0   16.666666666666668
150.0   0.0   33.333333333333336
200.0   30.0   33.333333333333336
200.0   0.0   16.666666666666668
150.0   30.0   16.666666666666668
150.0   0.0   33.333333333333336
200.0   0.0   33.333333333333336
150.0   30.0   33.333333333333336
150.0   0.0   50.0
200.0   0.0   33.333333333333336
200.0   30.0   33.333333333333336
150.0   30.0   33.333333333333336
200.0   30.0   50.0
150.0   0.0   50.0
150.0   30.0   50.0
200.0   30.0   50.0
150.0   30.0   33.333333333333336
150.0   0.0   50.0
200.0   30.0   50.0
200.0   0.0   50.0
200.0   0.0   33.333333333333336
150.0   0.0   50.0
200.0   30.0   50.0
200.0   0.0   33.333333333333336
150.0   30.0   33.333333333333336
150.0   30.0   0.0
200.0   30.0   0.0
150.0   60.0   0.0
150.0   30.0   16.666666666666668
200.0   30.0   0.0
200.0   60.0   0.0
150.0   60.0   0.0
200.0   60.0   16.666666666666668
150.0   30.0   16.666666666666668
150.0   60.0   16.666666666666668
200.0   60.0   16.666666666666668
150.0   60.0   0.0
150.0   30.0   16.666666666666668
200.0   60.0   16.666666666666668
200.0   30.0   16.666666666666668
200.0   30.0   0.0
150.0   30.0   16.666666666666668
200.0   60.0   16.666666666666668
200.0   30.0   0.0
150.0   60.0   0.0
150.0   30.0   16.666666666666668
200.0   30.0   16.666666666666668
150.0   60.0   16.666666666666668
150.0   30.0   33.333333333333336
200.0   30.0   16.666666666666668
200.0   60.0   16.666666666666668
150.0   60.0   16.666666666666668
200.0   60.0   33.333333333333336
150.0   30.0   33.333333333333336
150.0   60.0   33.333333333333336
200.0   60.0   33.333333333333336
150.0   60.0   16.666666666666668
150.0   30.0   33.333333333333336
200.0   60.0   33.333333333333336
200.0   30.0   33.333333333333336
200.0   30.0   16.666666666666668
150.0   30.0   33.333333333333336
200.0   60.0   33.333333333333336
200.0   30.0   16.666666666666668
150.0   60.0   16.666666666666668
150.0   30.0   33.333333333333336
200.0   30.0   33.333333333333336
150.0   60.0   33.333333333333336
150.0   30.0   50.0
200.0   30.0   33.333333333333336
200.0   60.0   33.333333333333336
150.0   60.0   33.333333333333336
200.0   60.0   50.0
150.0   30.0   50.0
150.0   60.0   50.0
200.0   60.0   50.0
150.0   60.0   33.333333333333336
150.0   30.0   50.0
200.0   60.0   50.0
200.0   30.0   50.0
200.0   30.0   33.333333333333336
150.0   30.0   50.0
200.0   60.0   50.0
200.0   30.0   33.333333333333336
150.0   60.0   33.333333333333336
150.0   60.0   0.0
200.0   60.0   0.0
150.0   90.0   0.0
150.0   60.0   16.666666666666668
200.0   60.0   0.0
200.0   90.0   0.0
150.0   90.0   0.0
200.0   90.0   16.666666666666668
150.0   60.0   16.666666666666668
150.0   90.0   16.666666666666668
200.0   90.0   16.666666666666668
150.0   90.0   0.0
150.0   60.0   16.666666666666668
200.0   90.0   16.666666666666668
200.0   60.0   16.666666666666668
200.0   60.0   0.0
150.0   60.0   16.666666666666668
200.0   90.0   16.666666666666668
200.0   60.0   0.0
150.0   90.0   0.0
150.0   60.0   16.666666666666668
200.0   60.0   16.666666666666668
150.0   90.0   16.666666666666668
150.0   60.0   33.333333333333336
200.0   60.0   16.666666666666668
200.0   90.0   16.666666666666668
150.0   90.0   16.666666666666668
200.0   90.0   33.333333333333336
150.0   60.0   33.333333333333336
150.0   90.0   33.333333333333336
200.0   90.0   33.333333333333336
150.0   90.0   16.666666666666668
150.0   60.0   33.333333333333336
200.0   90.0   33.333333333333336
200.0   60.0   33.333333333333336
200.0   60.0   16.666666666666668
150.0   60.0   33.333333333333336
200.0   90.0   33.333333333333336
200.0   60.0   16.666666666666668
150.0   90.0   16.666666666666668
150.0   60.0   33.333333333333336
200.0   60.0   33.333333333333336
150.0   90.0   33.333333333333336
150.0   60.0   50.0
200.0   60.0   33.333333333333336
200.0   90.0   33.333333333333336
150.0   90.0   33.333333333333336
200.0   90.0   50.0
150.0   60.0   50.0
150.0   90.0   50.0
200.0   90.0   50.0
150.0   90.0   33.333333333333336
150.0   60.0   50.0
200.0   90.0   50.0
200.0   60.0   50.0
200.0   60.0   33.333333333333336
150.0   60.0   50.0
200.0   90.0   50.0
200.0   60.0   33.333333333333336
150.0   90.0   33.333333333333336
150.0   90.0   0.0
200.0   90.0   0.0
150.0   120.0   0.0
150.0   90.0   16.666666666666668
200.0   90.0   0.0
200.0   120.0   0.0
150.0   120.0   0.0
200.0   120.0   16.666666666666668
150.0   90.0   16.666666666666668
150.0   120.0   16.666666666666668
200.0   120.0   16.666666666666668
150.0   120.0   0.0
150.0   90.0   16.666666666666668
200.0   120.0   16.666666666666668
200.0   90.0   16.666666666666668
200.0   90.0   0.0
150.0   90.0   16.666666666666668
200.0   120.0   16.666666666666668
200.0   90.0   0.0
150.0   120.0   0.0
150.0   90.0   16.666666666666668
200.0   90.0   16.666666666666668
150.0   120.0   16.666666666666668
150.0   90.0   33.333333333333336
200.0   90.0   16.666666666666668
200.0   120.0   16.666666666666668
150.0   120.0   16.666666666666668
200.0   120.0   33.333333333333336
150.0   90.0   33.333333333333336
150.0   120.0   33.333333333333336
200.0   120.0   33.333333333333336
150.0   120.0   16.666666666666668
150.0   90.0   33.333333333333336
200.0   120.0   33.333333333333336
200.0   90.0   33.333333333333336
200.0   90.0   16.666666666666668
150.0   90.0   33.333333333333336
200.0   120.0   33.333333333333336
200.0   90.0   16.666666666666668
150.0   120.0   16.666666666666668
150.0   90.0   33.333333333333336
200.0   90.0   33.333333333333336
150.0   120.0   33.333333333333336
150.0   90.0   50.0
200.0   90.0   33.333333333333336
200.0   120.0   33.333333333333336
150.0   120.0   33.333333333333336
200.0   120.0   50.0
150.0   90.0   50.0
150.0   120.0   50.0
200.0   120.0   50.0
150.0   120.0   33.333333333333336
150.0   90.0   50.0
200.0   120.0   50.0
200.0   90.0   50.0
200.0   90.0   33.333333333333336
150.0   90.0   50.0
200.0   120.0   50.0
200.0   90.0   33.333333333333336
150.0   120.0   33.333333333333336
150.0   120.0   0.0
200.0   120.0   0.0
150.0   150.0   0.0
150.0   120.0   16.666666666666668
200.0   120.0   0.0
200.0   150.0   0.0
150.0   150.0   0.0
200.0   150.0   16.666666666666668
150.0   120.0   16.666666666666668
150.0   150.0   16.666666666666668
200.0   150.0   16.666666666666668
150.0   150.0   0.0
150.0   120.0   16.666666666666668
200.0   150.0   16.666666666666668
200.0   120.0   16.666666666666668
200.0   120.0   0.0
150.0   120.0   16.666666666666668
200.0   150.0   16.666666666666668
200.0   120.0   0.0
150.0   150.0   0.0
150.0   120.0   16.666666666666668
200.0   120.0   16.666666666666668
150.0   150.0   16.666666666666668
150.0   120.0   33.333333333333336
200.0   120.0   16.666666666666668
200.0   150.0   16.666666666666668
150.0   150.0   16.666666666666668
200.0   150.0   33.333333333333336
150.0   120.0   33.333333333333336
150.0   150.0   33.333333333333336
200.0   150.0   33.333333333333336
150.0   150.0   16.666666666666668
150.0   120.0   33.333333333333336
200.0   150.0   33.333333333333336
200.0   120.0   33.333333333333336
200.0   120.0   16.666666666666668
150.0   120.0   33.333333333333336
200.0   150.0   33.333333333333336
200.0   120.0   16.666666666666668
150.0   150.0   16.666666666666668
150.0   120.0   33.333333333333336
200.0   120.0   33.333333333333336
150.0   150.0   33.333333333333336
150.0   120.0   50.0
200.0   120.0   33.333333333333336
200.0   150.0   33.333333333333336
150.0   150.0   33.333333333333336
200.0   150.0   50.0
150.0   120.0   50.0
150.0   150.0   50.0
200.0   150.0   50.0
150.0   150.0   33.333333333333336
150.0   120.0   50.0
200.0   150.0   50.0
200.0   120.0   50.0
200.0   120.0   33.333333333333336
150.0   120.0   50.0
200.0   150.0   50.0
200.0   120.0   33.333333333333336
150.0   150.0   33.333333333333336
200.0   0.0   0.0
250.0   0.0   0.0
200.0   30.0   0.0
200.0   0.0   16.666666666666668
250.0   0.0   0.0
250.0   30.0   0.0
200.0   30.0   0.0
250.0   30.0   16.666666666666668
200.0   0.0   16.666666666666668
200.0   30.0   16.666666666666668
250.0   30.0   16.666666666666668
200.0   30.0   0.0
200.0   0.0   16.666666666666668
250.0   30.0   16.666666666666668
250.0   0.0   16.666666666666668
250.0   0.0   0.0
200.0   0.0   16.666666666666668
250.0   30.0   16.666666666666668
250.0   0.0   0.0
200.0   30.0   0.0
200.0   0.0   16.666666666666668
250.0   0.0   16.666666666666668
200.0   30.0   16.666666666666668
200.0   0.0   33.333333333333336
250.0   0.0   16.666666666666668
250.0   30.0   16.666666666666668
200.0   30.0   16.666666666666668
250.0   30.0   33.333333333333336
200.0   0.0   33.333333333333336
200.0   30.0   33.333333333333336
250.0   30.0   33.333333333333336
200.0   30.0   16.666666666666668
200.0   0.0   33.333333333333336
250.0   30.0   33.333333333333336
250.0   0.0   33.333333333333336
250.0   0.0   16.666666666666668
200.0   0.0   33.333333333333336
250.0   30.0   33.333333333333336
250.0   0.0   16.666666666666668
200.0   30.0   16.666666666666668
200.0   0.0   33.333333333333336
250.0   0.0   33.333333333333336
200.0   30.0   33.333333333333336
200.0   0.0   50.0
250.0   0.0   33.333333333333336
250.0   30.0   33.333333333333336
200.0   30.0   33.333333333333336
250.0   30.0   50.0
200.0   0.0   50.0
200.0   30.0   50.0
250.0   30.0   50.0
200.0   30.0   33.333333333333336
200.0   0.0   50.0
250.0   30.0   50.0
250.0   0.0   50.0
250.0   0.0   33.333333333333336
200.0   0.0   50.0
250.0   30.0   50.0
250.0   0.0   33.333333333333336
200.0   30.0   33.333333333333336
200.0   30.0   0.0
250.0   30.0   0.0
200.0   60.0   0.0
200.0   30.0   16.666666666666668
250.0   30.0   0.0
250.0   60.0   0.0
200.0   60.0   0.0
250.0   60.0   16.666666666666668
200.0   30.0   16.666666666666668
200.0   60.0   16.666666666666668
250.0   60.0   16.666666666666668
200.0   60.0   0.0
200.0   30.0   16.666666666666668
250.0   60.0   16.666666666666668
250.0   30.0   16.666666666666668
250.0   30.0   0.0
200.0   30.0   16.666666666666668
250.0   60.0   16.666666666666668
250.0   30.0   0.0
200.0   60.0   0.0
200.0   30.0   16.666666666666668
250.0   30.0   16.666666666666668
200.0   60.0   16.666666666666668
200.0   30.0   33.333333333333336
250.0   30.0   16.666666666666668
250.0   60.0   16.666666666666668
200.0   60.0   16.666666666666668
250.0   60.0   33.333333333333336
200.0   30.0   33.333333333333336
200.0   60.0   33.333333333333336
250.0   60.0   33.333333333333336
200.0   60.0   16.666666666666668
200.0   30.0   33.333333333333336
250.0   60.0   33.333333333333336
250.0   30.0   33.333333333333336
250.0   30.0   16.666666666666668
200.0   30.0   33.333333333333336
250.0   60.0   33.333333333333336
250.0   30.0   16.666666666666668
200.0   60.0   16.666666666666668
200.0   30.0   33.333333333333336
250.0   30.0   33.333333333333336
200.0   60.0   33.333333333333336
200.0   30.0   50.0
250.0   30.0   33.333333333333336
250.0   60.0   33.333333333333336
200.0   60.0   33.333333333333336
250.0   60.0   50.0
200.0   30.0   50.0
200.0   60.0   50.0
250.0   60.0   50.0
200.0   60.0   33.333333333333336
200.0   30.0   50.0
250.0   60.0   50.0
250.0   30.0   50.0
250.0   30.0   33.333333333333336
200.0   30.0   50.0
250.0   60.0   50.0
250.0   30.0   33.333333333333336
200.0   60.0   33.333333333333336
200.0   60.0   0.0
250.0   60.0   0.0
200.0   90.0   0.0
200.0   60.0   16.666666666666668
250.0   60.0   0.0
250.0   90.0   0.0
200.0   90.0   0.0
250.0   90.0   16.666666666666668
200.0   60.0   16.666666666666668
200.0   90.0   16.666666666666668
250.0   90.0   16.666666666666668
200.0   90.0   0.0
200.0   60.0   16.666666666666668
250.0   90.0   16.666666666666668
250.0   60.0   16.666666666666668
250.0   60.0   0.0
200.0   60.0   16.666666666666668
250.0   90.0   16.666666666666668
250.0   60.0   0.0
200.0   90.0   0.0
200.0   60.0   16.666666666666668
250.0   60.0   16.666666666666668
200.0   90.0   16.666666666666668
200.0   60.0   33.333333333333336
250.0   60.0   16.666666666666668
250.0   90.0   16.666666666666668
200.0   90.0   16.666666666666668
250.0   90.0   33.333333333333336
200.0   60.0   33.333333333333336
200.0   90.0   33.333333333333336
250.0   90.0   33.333333333333336
200.0   90.0   16.666666666666668
200.0   60.0   33.333333333333336
250.0   90.0   33.333333333333336
250.0   60.0   33.333333333333336
250.0   60.0   16.666666666666668
200.0   60.0   33.333333333333336
250.0   90.0   33.333333333333336
250.0   60.0   16.666666666666668
200.0   90.0   16.666666666666668
200.0   60.0   33.333333333333336
250.0   60.0   33.333333333333336
200.0   90.0   33.333333333333336
200.0   60.0   50.0
250.0   60.0   33.333333333333336
250.0   90.0   33.333333333333336
200.0   90.0   33.333333333333336
250.0   90.0   50.0
200.0   60.0   50.0
200.0   90.0   50.0
250.0   90.0   50.0
200.0   90.0   33.333333333333336
200.0   60.0   50.0
250.0   90.0   50.0
250.0   60.0   50.0
250.0   60.0   33.333333333333336
200.0   60.0   50.0
250.0   90.0   50.0
250.0   60.0   33.333333333333336
200.0   90.0   33.333333333333336
200.0   90.0   0.0
250.0   90.0   0.0
200.0   120.0   0.0
200.0   90.0   16.666666666666668
250.0   90.0   0.0
250.0   120.0   0.0
200.0   120.0   0.0
250.0   120.0   16.666666666666668
200.0   90.0   16.666666666666668
200.0   120.0   16.666666666666668
250.0   120.0   16.666666666666668
200.0   120.0   0.0
200.0   90.0   16.666666666666668
250.0   120.0   16.666666666666668
250.0   90.0   16.666666666666668
250.0   90.0   0.0
200.0   90.0   16.666666666666668
250.0   120.0   16.666666666666668
250.0   90.0   0.0
200.0   120.0   0.0
200.0   90.0   16.666666666666668
250.0   90.0   16.666666666666668
200.0   120.0   16.666666666666668
200.0   90.0   33.333333333333336
250.0   90.0   16.666666666666668
250.0   120.0   16.666666666666668
200.0   120.0   16.666666666666668
250.0   120.0   33.333333333333336
200.0   90.0   33.333333333333336
200.0   120.0   33.333333333333336
250.0   120.0   33.333333333333336
200.0   120.0   16.666666666666668
200.0   90.0   33.333333333333336
250.0   120.0   33.333333333333336
250.0   90.0   33.333333333333336
250.0   90.0   16.666666666666668
200.0   90.0   33.333333333333336
250.0   120.0   33.333333333333336
250.0   90.0   16.666666666666668
200.0   120.0   16.666666666666668
200.0   90.0   33.333333333333336
250.0   90.0   33.333333333333336
200.0   120.0   33.333333333333336
200.0   90.0   50.0
250.0   90.0   33.333333333333336
250.0   120.0   33.333333333333336
200.0   120.0   33.333333333333336
250.0   120.0   50.0
200.0   90.0   50.0
200.0   120.0   50.0
250.0   120.0   50.0
200.0   120.0   33.333333333333336
200.0   90.0   50.0
250.0   120.0   50.0
250.0   90.0   50.0
250.0   90.0   33.333333333333336
200.0   90.0   50.0
250.0   120.0   50.0
250.0   90.0   33.333333333333336
200.0   120.0   33.333333333333336
200.0   120.0   0.0
250.0   120.0   0.0
200.0   150.0   0.0
200.0   120.0   16.666666666666668
250.0   120.0   0.0
250.0   150.0   0.0
200.0   150.0   0.0
250.0   150.0   16.666666666666668
200.0   120.0   16.666666666666668
200.0   150.0   16.666666666666668
250.0   150.0   16.666666666666668
200.0   150.0   0.0
200.0   120.0   16.666666666666668
250.0   150.0   16.666666666666668
250.0   120.0   16.666666666666668
250.0   120.0   0.0
200.0   120.0   16.666666666666668
250.0   150.0   16.666666666666668
250.0   120.0   0.0
200.0   150.0   0.0
200.0   120.0   16.666666666666668
250.0   120.0   16.666666666666668
200.0   150.0   16.666666666666668
200.0   120.0   33.333333333333336
250.0   120.0   16.666666666666668
250.0   150.0   16.666666666666668
200.0   150.0   16.666666666666668
250.0   150.0   33.333333333333336
200.0   120.0   33.333333333333336
200.0   150.0   33.333333333333336
250.0   150.0   33.333333333333336
200.0   150.0   16.666666666666668
200.0   120.0   33.333333333333336
250.0   150.0   33.333333333333336
250.0   120.0   33.333333333333336
250.0   120.0   16.666666666666668
200.0   120.0   33.333333333333336
250.0   150.0   33.333333333333336
250.0   120.0   16.666666666666668
200.0   150.0   16.666666666666668
200.0   120.0   33.333333333333336
250.0   120.0   33.333333333333336
200.0   150.0   33.333333333333336
200.0   120.0   50.0
250.0   120.0   33.333333333333336
250.0   150.0   33.333333333333336
200.0   150.0   33.333333333333336
250.0   150.0   50.0
200.0   120.0   50.0
200.0   150.0   50.0
250.0   150.0   50.0
200.0   150.0   33.333333333333336
200.0   120.0   50.0
250.0   150.0   50.0
250.0   120.0   50.0
250.0   120.0   33.333333333333336
200.0   120.0   50.0
250.0   150.0   50.0
250.0   120.0   33.333333333333336
200.0   150.0   33.333333333333336
250.0   0.0   0.0
300.0   0.0   0.0
250.0   30.0   0.0
250.0   0.0   16.666666666666668
300.0   0.0   0.0
300.0   30.0   0.0
250.0   30.0   0.0
300.0   30.0   16.666666666666668
250.0   0.0   16.666666666666668
250.0   30.0   16.666666666666668
300.0   30.0   16.666666666666668
250.0   30.0   0.0
250.0   0.0   16.666666666666668
300.0   30.0   16.666666666666668
300.0   0.0   16.666666666666668
300.0   0.0   0.0
250.0   0.0   16.666666666666668
300.0   30.0   16.666666666666668
300.0   0.0   0.0
250.0   30.0   0.0
250.0   0.0   16.666666666666668
300.0   0.0   16.666666666666668
250.0   30.0   16.666666666666668
250.0   0.0   33.333333333333336
300.0   0.0   16.666666666666668
300.0   30.0   16.666666666666668
250.0   30.0   16.666666666666668
300.0   30.0   33.333333333333336
250.0   0.0   33.333333333333336
250.0   30.0   33.333333333333336
300.0   30.0   33.333333333333336
250.0   30.0   16.666666666666668
250.0   0.0   33.333333333333336
300.0   30.0   33.333333333333336
300.0   0.0   33.333333333333336
300.0   0.0   16.666666666666668
250.0   0.0   33.333333333333336
300.0   30.0   33.333333333333336
300.0   0.0   16.666666666666668
250.0   30.0   16.666666666666668
250.0   0.0   33.333333333333336
300.0   0.0   33.333333333333336
250.0   30.0   33.333333333333336
250.0   0.0   50.0
300.0   0.0   33.333333333333336
300.0   30.0   33.333333333333336
250.0   30.0   33.333333333333336
300.0   30.0   50.0
250.0   0.0   50.0
250.0   30.0   50.0
300.0   30.0   50.0
250.0   30.0   33.333333333333336
250.0   0.0   50.0
300.0   30.0   50.0
300.0   0.0   50.0
300.0   0.0   33.333333333333336
250.0   0.0   50.0
300.0   30.0   50.0
300.0   0.0   33.333333333333336
250.0   30.0   33.333333333333336
250.0   30.0   0.0
300.0   30.0   0.0
250.0   60.0   0.0
250.0   30.0   16.666666666666668
300.0   30.0   0.0
300.0   60.0   0.0
250.0   60.0   0.0
300.0   60.0   16.666666666666668
250.0   30.0   16.666666666666668
250.0   60.0   16.666666666666668
300.0   60.0   16.666666666666668
250.0   60.0   0.0
250.0   30.0   16.666666666666668
300.0   60.0   16.666666666666668
300.0   30.0   16.666666666666668
300.0   30.0   0.0
250.0   30.0   16.666666666666668
300.0   60.0   16.666666666666668
300.0   30.0   0.0
250.0   60.0   0.0
250.0   30.0   16.666666666666668
300.0   30.0   16.666666666666668
250.0   60.0   16.666666666666668
250.0   30.0   33.333333333333336
300.0   30.0   16.666666666666668
300.0   60.0   16.666666666666668
250.0   60.0   16.666666666666668
300.0   60.0   33.333333333333336
250.0   30.0   33.333333333333336
250.0   60.0   33.333333333333336
300.0   60.0   33.333333333333336
250.0   60.0   16.666666666666668
250.0   30.0   33.333333333333336
300.0   60.0   33.333333333333336
300.0   30.0   33.333333333333336
300.0   30.0   16.666666666666668
250.0   30.0   33.333333333333336
300.0   60.0   33.333333333333336
300.0   30.0   16.666666666666668
250.0   60.0   16.666666666666668
250.0   30.0   33.333333333333336
300.0   30.0   33.333333333333336
250.0   60.0   33.333333333333336
250.0   30.0   50.0
300.0   30.0   33.333333333333336
300.0   60.0   33.333333333333336
250.0   60.0   33.333333333333336
300.0   60.0   50.0
250.0   30.0   50.0
250.0   60.0   50.0
300.0   60.0   50.0
250.0   60.0   33.333333333333336
250.0   30.0   50.0
300.0   60.0   50.0
300.0   30.0   50.0
300.0   30.0   33.333333333333336
250.0   30.0   50.0
300.0   60.0   50.0
300.0   30.0   33.333333333333336
250.0   60.0   33.333333333333336
250.0   60.0   0.0
300.0   60.0   0.0
250.0   90.0   0.0
250.0   60.0   16.666666666666668
300.0   60.0   0.0
300.0   90.0   0.0
250.0   90.0   0.0
300.0   90.0   16.666666666666668
250.0   60.0   16.666666666666668
250.0   90.0   16.666666666666668
300.0   90.0   16.666666666666668
250.0   90.0   0.0
250.0   60.0   16.666666666666668
300.0   90.0   16.666666666666668
300.0   60.0   16.666666666666668
300.0   60.0   0.0
250.0   60.0   16.666666666666668
300.0   90.0   16.666666666666668
300.0   60.0   0.0
250.0   90.0   0.0
250.0   60.0   16.666666666666668
300.0   60.0   16.666666666666668
250.0   90.0   16.666666666666668
250.0   60.0   33.333333333333336
300.0   60.0   16.666666666666668
300.0   90.0   16.666666666666668
250.0   90.0   16.666666666666668
300.0   90.0   33.333333333333336
250.0   60.0   33.333333333333336
250.0   90.0   33.333333333333336
300.0   90.0   33.333333333333336
250.0   90.0   16.666666666666668
250.0   60.0   33.333333333333336
300.0   90.0   33.333333333333336
300.0   60.0   33.333333333333336
300.0   60.0   16.666666666666668
250.0   60.0   33.333333333333336
300.0   90.0   33.333333333333336
300.0   60.0   16.666666666666668
250.0   90.0   16.666666666666668
250.0   60.0   33.333333333333336
300.0   60.0   33.333333333333336
250.0   90.0   33.333333333333336
250.0   60.0   50.0
300.0   60.0   33.333333333333336
300.0   90.0   33.333333333333336
250.0   90.0   33.333333333333336
300.0   90.0   50.0
250.0   60.0   50.0
250.0   90.0   50.0
300.0   90.0   50.0
250.0   90.0   33.333333333333336
250.0   60.0   50.0
300.0   90.0   50.0
300.0   60.0   50.0
300.0   60.0   33.333333333333336
250.0   60.0   50.0
300.0   90.0   50.0
300.0   60.0   33.333333333333336
250.0   90.0   33.333333333333336
250.0   90.0   0.0
300.0   90.0   0.0
250.0   120.0   0.0
250.0   90.0   16.666666666666668
300.0   90.0   0.0
300.0   120.0   0.0
250.0   120.0   0.0
300.0   120.0   16.666666666666668
250.0   90.0   16.666666666666668
250.0   120.0   16.666666666666668
300.0   120.0   16.666666666666668
250.0   120.0   0.0
250.0   90.0   16.666666666666668
300.0   120.0   16.666666666666668
300.0   90.0   16.666666666666668
300.0   90.0   0.0
250.0   90.0   16.666666666666668
300.0   120.0   16.666666666666668
300.0   90.0   0.0
250.0   120.0   0.0
250.0   90.0   16.666666666666668
300.0   90.0   16.666666666666668
250.0   120.0   16.666666666666668
250.0   90.0   33.333333333333336
300.0   90.0   16.666666666666668
300.0   120.0   16.666666666666668
250.0   120.0   16.666666666666668
300.0   120.0   33.333333333333336
250.0   90.0   33.333333333333336
250.0   120.0   33.333333333333336
300.0   120.0   33.333333333333336
250.0   120.0   16.666666666666668
250.0   90.0   33.333333333333336
300.0   120.0   33.333333333333336
300.0   90.0   33.333333333333336
300.0   90.0   16.666666666666668
250.0   90.0   33.333333333333336
300.0   120.0   33.333333333333336
300.0   90.0   16.666666666666668
250.0   120.0   16.666666666666668
250.0   90.0   33.333333333333336
300.0   90.0   33.333333333333336
250.0   120.0   33.333333333333336
250.0   90.0   50.0
300.0   90.0   33.333333333333336
300.0   120.0   33.333333333333336
250.0   120.0   33.333333333333336
300.0   120.0   50.0
250.0   90.0   50.0
250.0   120.0   50.0
300.0   120.0   50.0
250.0   120.0   33.333333333333336
250.0   90.0   50.0
300.0   120.0   50.0
300.0   90.0   50.0
300.0   90.0   33.333333333333336
250.0   90.0   50.0
300.0   120.0   50.0
300.0   90.0   33.333333333333336
250.0   120.0   33.333333333333336
250.0   120.0   0.0
300.0   120.0   0.0
250.0   150.0   0.0
250.0   120.0   16.666666666666668
300.0   120.0   0.0
300.0   150.0   0.0
250.0   150.0   0.0
300.0   150.0   16.666666666666668
250.0   120.0   16.666666666666668
250.0   150.0   16.666666666666668
300.0   150.0   16.666666666666668
250.0   150.0   0.0
250.0   120.0   16.666666666666668
300.0   150.0   16.666666666666668
300.0   120.0   16.666666666666668
300.0   120.0   0.0
250.0   120.0   16.666666666666668
300.0   150.0   16.666666666666668
300.0   120.0   0.0
250.0   150.0   0.0
250.0   120.0   16.666666666666668
300.0   120.0   16.666666666666668
250.0   150.0   16.666666666666668
250.0   120.0   33.333333333333336
300.0   120.0   16.666666666666668
300.0   150.0   16.666666666666668
250.0   150.0   16.666666666666668
300.0   150.0   33.333333333333336
250.0   120.0   33.333333333333336
250.0   150.0   33.333333333333336
300.0   150.0   33.333333333333336
250.0   150.0   16.666666666666668
250.0   120.0   33.333333333333336
300.0   150.0   33.333333333333336
300.0   120.0   33.333333333333336
300.0   120.0   16.666666666666668
250.0   120.0   33.333333333333336
300.0   150.0   33.333333333333336
300.0   120.0   16.666666666666668
250.0   150.0   16.666666666666668
250.0   120.0   33.333333333333336
300.0   120.0   33.333333333333336
250.0   150.0   33.333333333333336
250.0   120.0   50.0
300.0   120.0   33.333333333333336
300.0   150.0   33.333333333333336
250.0   150.0   33.333333333333336
300.0   150.0   50.0
250.0   120.0   50.0
250.0   150.0   50.0
300.0   150.0   50.0
250.0   150.0   33.333333333333336
250.0   120.0   50.0
300.0   150.0   50.0
300.0   120.0   50.0
300.0   120.0   33.333333333333336
250.0   120.0   50.0
300.0   150.0   50.0
300.0   120.0   33.333333333333336
250.0   150.0   33.333333333333336
300.0   0.0   0.0
350.0   0.0   0.0
300.0   30.0   0.0
300.0   0.0   16.666666666666668
350.0   0.0   0.0
350.0   30.0   0.0
300.0   30.0   0.0
350.0   30.0   16.666666666666668
300.0   0.0   16.666666666666668
300.0   30.0   16.666666666666668
350.0   30.0   16.666666666666668
300.0   30.0   0.0
300.0   0.0   16.666666666666668
350.0   30.0   16.666666666666668
350.0   0.0   16.666666666666668
350.0   0.0   0.0
300.0   0.0   16.666666666666668
350.0   30.0   16.666666666666668
350.0   0.0   0.0
300.0   30.0   0.0
300.0   0.0   16.666666666666668
350.0   0.0   16.666666666666668
300.0   30.0   16.666666666666668
300.0   0.0   33.333333333333336
350.0   0.0   16.666666666666668
350.0   30.0   16.666666666666668
300.0   30.0   16.666666666666668
350.0   30.0   33.333333333333336
300.0   0.0   33.333333333333336
300.0   30.0   33.333333333333336
350.0   30.0   33.333333333333336
300.0   30.0   16.666666666666668
300.0   0.0   33.333333333333336
350.0   30.0   33.333333333333336
350.0   0.0   33.333333333333336
350.0   0.0   16.666666666666668
300.0   0.0   33.333333333333336
350.0   30.0   33.333333333333336
350.0   0.0   16.666666666666668
300.0   30.0   16.666666666666668
300.0   0.0   33.333333333333336
350.0   0.0   33.333333333333336
300.0   30.0   33.333333333333336
300.0   0.0   50.0
350.0   0.0   33.333333333333336
350.0   30.0   33.333333333333336
300.0   30.0   33.333333333333336
350.0   30.0   50.0
300.0   0.0   50.0
300.0   30.0   50.0
350.0   30.0   50.0
300.0   30.0   33.333333333333336
300.0   0.0   50.0
350.0   30.0   50.0
350.0   0.0   50.0
350.0   0.0   33.333333333333336
300.0   0.0   50.0
350.0   30.0   50.0
350.0   0.0   33.333333333333336
300.0   30.0   33.333333333333336
300.0   30.0   0.0
350.0   30.0   0.0
300.0   60.0   0.0
300.0   30.0   16.666666666666668
350.0   30.0   0.0
350.0   60.0   0.0
300.0   60.0   0.0
350.0   60.0   16.666666666666668
300.0   30.0   16.666666666666668
300.0   60.0   16.666666666666668
350.0   60.0   16.666666666666668
300.0   60.0   0.0
300.0   30.0   16.666666666666668
350.0   60.0   16.666666666666668
350.0   30.0   16.666666666666668
350.0   30.0   0.0
300.0   30.0   16.666666666666668
350.0   60.0   16.666666666666668
350.0   30.0   0.0
300.0   60.0   0.0
300.0   30.0   16.666666666666668
350.0   30.0   16.666666666666668
300.0   60.0   16.666666666666668
300.0   30.0   33.333333333333336
350.0   30.0   16.666666666666668
350.0   60.0   16.666666666666668
300.0   60.0   16.666666666666668
350.0   60.0   33.333333333333336
300.0   30.0   33.333333333333336
300.0   60.0   33.333333333333336
350.0   60.0   33.333333333333336
300.0   60.0   16.666666666666668
300.0   30.0   33.333333333333336
350.0   60.0   33.333333333333336
350.0   30.0   33.333333333333336
350.0   30.0   16.666666666666668
300.0   30.0   33.333333333333336
350.0   60.0   33.333333333333336
350.0   30.0   16.666666666666668
300.0   60.0   16.666666666666668
300.0   30.0   33.333333333333336
350.0   30.0   33.333333333333336
300.0   60.0   33.333333333333336
300.0   30.0   50.0
350.0   30.0   33.333333333333336
350.0   60.0   33.333333333333336
300.0   60.0   33.333333333333336
350.0   60.0   50.0
300.0   30.0   50.0
300.0   60.0   50.0
350.0   60.0   50.0
300.0   60.0   33.333333333333336
300.0   30.0   50.0
350.0   60.0   50.0
350.0   30.0   50.0
350.0   30.0   33.333333333333336
300.0   30.0   50.0
350.0   60.0   50.0
350.0   30.0   33.333333333333336
300.0   60.0   33.333333333333336
300.0   60.0   0.0
350.0   60.0   0.0
300.0   90.0   0.0
300.0   60.0   16.666666666666668
350.0   60.0   0.0
350.0   90.0   0.0
300.0   90.0   0.0
350.0   90.0   16.666666666666668
300.0   60.0   16.666666666666668
300.0   90.0   16.666666666666668
350.0   90.0   16.666666666666668
300.0   90.0   0.0
300.0   60.0   16.666666666666668
350.0   90.0   16.666666666666668
350.0   60.0   16.666666666666668
350.0   60.0   0.0
300.0   60.0   16.666666666666668
350.0   90.0   16.666666666666668
350.0   60.0   0.0
300.0   90.0   0.0
300.0   60.0   16.666666666666668
350.0   60.0   16.666666666666668
300.0   90.0   16.666666666666668
300.0   60.0   33.333333333333336
350.0   60.0   16.666666666666668
350.0   90.0   16.666666666666668
300.0   90.0   16.666666666666668
350.0   90.0   33.333333333333336
300.0   60.0   33.333333333333336
300.0   90.0   33.333333333333336
350.0   90.0   33.333333333333336
300.0   90.0   16.666666666666668
300.0   60.0   33.333333333333336
350.0   90.0   33.333333333333336
350.0   60.0   33.333333333333336
350.0   60.0   16.666666666666668
300.0   60.0   33.333333333333336
350.0   90.0   33.333333333333336
350.0   60.0   16.666666666666668
300.0   90.0   16.666666666666668
300.0   60.0   33.333333333333336
350.0   60.0   33.333333333333336
300.0   90.0   33.333333333333336
300.0   60.0   50.0
350.0   60.0   33.333333333333336
350.0   90.0   33.333333333333336
300.0   90.0   33.333333333333336
350.0   90.0   50.0
300.0   60.0   50.0
300.0   90.0   50.0
350.0   90.0   50.0
300.0   90.0   33.333333333333336
300.0   60.0   50.0
350.0   90.0   50.0
350.0   60.0   50.0
350.0   60.0   33.333333333333336
300.0   60.0   50.0
350.0   90.0   50.0
350.0   60.0   33.333333333333336
300.0   90.0   33.333333333333336
300.0   90.0   0.0
350.0   90.0   0.0
300.0   120.0   0.0
300.0   90.0   16.666666666666668
350.0   90.0   0.0
350.0   120.0   0.0
300.0   120.0   0.0
350.0   120.0   16.666666666666668
300.0   90.0   16.666666666666668
300.0   120.0   16.666666666666668
350.0   120.0   16.666666666666668
300.0   120.0   0.0
300.0   90.0   16.666666666666668
350.0   120.0   16.666666666666668
350.0   90.0   16.666666666666668
350.0   90.0   0.0
300.0   90.0   16.666666666666668
350.0   120.0   16.666666666666668
350.0   90.0   0.0
300.0   120.0   0.0
300.0   90.0   16.666666666666668
350.0   90.0   16.666666666666668
300.0   120.0   16.666666666666668
300.0   90.0   33.333333333333336
350.0   90.0   16.666666666666668
350.0   120.0   16.666666666666668
300.0   120.0   16.666666666666668
350.0   120.0   33.333333333333336
300.0   90.0   33.333333333333336
300.0   120.0   33.333333333333336
350.0   120.0   33.333333333333336
300.0   120.0   16.666666666666668
300.0   90.0   33.333333333333336
350.0   120.0   33.333333333333336
350.0   90.0   33.333333333333336
350.0   90.0   16.666666666666668
300.0   90.0   33.333333333333336
350.0   120.0   33.333333333333336
350.0   90.0   16.666666666666668
300.0   120.0   16.666666666666668
300.0   90.0   33.333333333333336
350.0   90.0   33.333333333333336
300.0   120.0   33.333333333333336
300.0   90.0   50.0
350.0   90.0   33.333333333333336
350.0   120.0   33.333333333333336
300.0   120.0   33.333333333333336
350.0   120.0   50.0
300.0   90.0   50.0
300.0   120.0   50.0
350.0   120.0   50.0
300.0   120.0   33.333333333333336
300.0   90.0   50.0
350.0   120.0   50.0
350.0   90.0   50.0
350.0   90.0   33.333333333333336
300.0   90.0   50.0
350.0   120.0   50.0
350.0   90.0   33.333333333333336
300.0   120.0   33.333333333333336
300.0   120.0   0.0
350.0   120.0   0.0
300.0   150.0   0.0
300.0   120.0   16.666666666666668
350.0   120.0   0.0
350.0   150.0   0.0
300.0   150.0   0.0
350.0   150.0   16.666666666666668
300.0   120.0   16.666666666666668
300.0   150.0   16.666666666666668
350.0   150.0   16.666666666666668
300.0   150.0   0.0
300.0   120.0   16.666666666666668
350.0   150.0   16.666666666666668
350.0   120.0   16.666666666666668
350.0   120.0   0.0
300.0   120.0   16.666666666666668
350.0   150.0   16.666666666666668
350.0   120.0   0.0
300.0   150.0   0.0
300.0   120.0   16.666666666666668
350.0   120.0   16.666666666666668
300.0   150.0   16.666666666666668
300.0   120.0   33.333333333333336
350.0   120.0   16.666666666666668
350.0   150.0   16.666666666666668
300.0   150.0   16.666666666666668
350.0   150.0   33.333333333333336
300.0   120.0   33.333333333333336
300.0   150.0   33.333333333333336
350.0   150.0   33.333333333333336
300.0   150.0   16.666666666666668
300.0   120.0   33.333333333333336
350.0   150.0   33.333333333333336
350.0   120.0   33.333333333333336
350.0   120.0   16.666666666666668
300.0   120.0   33.333333333333336
350.0   150.0   33.333333333333336
350.0   120.0   16.666666666666668
300.0   150.0   16.666666666666668
300.0   120.0   33.333333333333336
350.0   120.0   33.333333333333336
300.0   150.0   33.333333333333336
300.0   120.0   50.0
350.0   120.0   33.333333333333336
350.0   150.0   33.333333333333336
300.0   150.0   33.333333333333336
350.0   150.0   50.0
300.0   120.0   50.0
300.0   150.0   50.0
350.0   150.0   50.0
300.0   150.0   33.333333333333336
300.0   120.0   50.0
350.0   150.0   50.0
350.0   120.0   50.0
350.0   120.0   33.333333333333336
300.0   120.0   50.0
350.0   150.0   50.0
350.0   120.0   33.333333333333336
300.0   150.0   33.333333333333336
350.0   0.0   0.0
400.0   0.0   0.0
350.0   30.0   0.0
350.0   0.0   16.666666666666668
400.0   0.0   0.0
400.0   30.0   0.0
350.0   30.0   0.0
400.0   30.0   16.666666666666668
350.0   0.0   16.666666666666668
350.0   30.0   16.666666666666668
400.0   30.0   16.666666666666668
350.0   30.0   0.0
350.0   0.0   16.666666666666668
400.0   30.0   16.666666666666668
400.0   0.0   16.666666666666668
400.0   0.0   0.0
350.0   0.0   16.666666666666668
400.0   30.0   16.666666666666668
400.0   0.0   0.0
350.0   30.0   0.0
350.0   0.0   16.666666666666668
400.0   0.0   16.666666666666668
350.0   30.0   16.666666666666668
350.0   0.0   33.333333333333336
400.0   0.0   16.666666666666668
400.0   30.0   16.666666666666668
350.0   30.0   16.666666666666668
400.0   30.0   33.333333333333336
350.0   0.0   33.333333333333336
350.0   30.0   33.333333333333336
400.0   30.0   33.333333333333336
350.0   30.0   16.666666666666668
350.0   0.0   33.333333333333336
400.0   30.0   33.333333333333336
400.0   0.0   33.333333333333336
400.0   0.0   16.666666666666668
350.0   0.0   33.333333333333336
400.0   30.0   33.333333333333336
400.0   0.0   16.666666666666668
350.0   30.0   16.666666666666668
350.0   0.0   33.333333333333336
400.0   0.0   33.333333333333336
350.0   30.0   33.333333333333336
350.0   0.0   50.0
400.0   0.0   33.333333333333336
400.0   30.0   33.333333333333336
350.0   30.0   33.333333333333336
400.0   30.0   50.0
350.0   0.0   50.0
350.0   30.0   50.0
400.0   30.0   50.0
350.0   30.0   33.333333333333336
350.0   0.0   50.0
400.0   30.0   50.0
400.0   0.0   50.0
400.0   0.0   33.333333333333336
350.0   0.0   50.0
400.0   30.0   50.0
400.0   0.0   33.333333333333336
350.0   30.0   33.333333333333336
350.0   30.0   0.0
400.0   30.0   0.0
350.0   60.0   0.0
350.0   30.0   16.666666666666668
400.0   30.0   0.0
400.0   60.0   0.0
350.0   60.0   0.0
400.0   60.0   16.666666666666668
350.0   30.0   16.666666666666668
350.0   60.0   16.666666666666668
400.0   60.0   16.666666666666668
350.0   60.0   0.0
350.0   30.0   16.666666666666668
400.0   60.0   16.666666666666668
400.0   30.0   16.666666666666668
400.0   30.0   0.0
350.0   30.0   16.666666666666668
400.0   60.0   16.666666666666668
400.0   30.0   0.0
350.0   60.0   0.0
350.0   30.0   16.666666666666668
400.0   30.0   16.666666666666668
350.0   60.0   16.666666666666668
350.0   30.0   33.333333333333336
400.0   30.0   16.666666666666668
400.0   60.0   16.666666666666668
350.0   60.0   16.666666666666668
400.0   60.0   33.333333333333336
350.0   30.0   33.333333333333336
350.0   60.0   33.333333333333336
400.0   60.0   33.333333333333336
350.0   60.0   16.666666666666668
350.0   30.0   33.333333333333336
400.0   60.0   33.333333333333336
400.0   30.0   33.333333333333336
400.0   30.0   16.666666666666668
350.0   30.0   33.333333333333336
400.0   60.0   33.333333333333336
400.0   30.0   16.666666666666668
350.0   60.0   16.666666666666668
350.0   30.0   33.333333333333336
400.0   30.0   33.333333333333336
350.0   60.0   33.333333333333336
350.0   30.0   50.0
400.0   30.0   33.333333333333336
400.0   60.0   33.333333333333336
350.0   60.0   33.333333333333336
400.0   60.0   50.0
350.0   30.0   50.0
350.0   60.0   50.0
400.0   60.0   50.0
350.0   60.0   33.333333333333336
350.0   30.0   50.0
400.0   60.0   50.0
400.0   30.0   50.0
400.0   30.0   33.333333333333336
350.0   30.0   50.0
400.0   60.0   50.0
400.0   30.0   33.333333333333336
350.0   60.0   33.333333333333336
350.0   60.0   0.0
400.0   60.0   0.0
350.0   90.0   0.0
350.0   60.0   16.666666666666668
400.0   60.0   0.0
400.0   90.0   0.0
350.0   90.0   0.0
400.0   90.0   16.666666666666668
350.0   60.0   16.666666666666668
350.0   90.0   16.666666666666668
400.0   90.0   16.666666666666668
350.0   90.0   0.0
350.0   60.0   16.666666666666668
400.0   90.0   16.666666666666668
400.0   60.0   16.666666666666668
400.0   60.0   0.0
350.0   60.0   16.666666666666668
400.0   90.0   16.666666666666668
400.0   60.0   0.0
350.0   90.0   0.0
350.0   60.0   16.666666666666668
400.0   60.0   16.666666666666668
350.0   90.0   16.666666666666668
350.0   60.0   33.333333333333336
400.0   60.0   16.666666666666668
400.0   90.0   16.666666666666668
350.0   90.0   16.666666666666668
400.0   90.0   33.333333333333336
350.0   60.0   33.333333333333336
350.0   90.0   33.333333333333336
400.0   90.0   33.333333333333336
350.0   90.0   16.666666666666668
350.0   60.0   33.333333333333336
400.0   90.0   33.333333333333336
400.0   60.0   33.333333333333336
400.0   60.0   16.666666666666668
350.0   60.0   33.333333333333336
400.0   90.0   33.333333333333336
400.0   60.0   16.666666666666668
350.0   90.0   16.666666666666668
350.0   60.0   33.333333333333336
400.0   60.0   33.333333333333336
350.0   90.0   33.333333333333336
350.0   60.0   50.0
400.0   60.0   33.333333333333336
400.0   90.0   33.333333333333336
350.0   90.0   33.333333333333336
400.0   90.0   50.0
350.0   60.0   50.0
350.0   90.0   50.0
400.0   90.0   50.0
350.0   90.0   33.333333333333336
350.0   60.0   50.0
400.0   90.0   50.0
400.0   60.0   50.0
400.0   60.0   33.333333333333336
350.0   60.0   50.0
400.0   90.0   50.0
400.0   60.0   33.333333333333336
350.0   90.0   33.333333333333336
350.0   90.0   0.0
400.0   90.0   0.0
350.0   120.0   0.0
350.0   90.0   16.666666666666668
400.0   90.0   0.0
400.0   120.0   0.0
350.0   120.0   0.0
400.0   120.0   16.666666666666668
350.0   90.0   16.666666666666668
350.0   120.0   16.666666666666668
400.0   120.0   16.666666666666668
350.0   120.0   0.0
350.0   90.0   16.666666666666668
400.0   120.0   16.666666666666668
400.0   90.0   16.666666666666668
400.0   90.0   0.0
350.0   90.0   16.666666666666668
400.0   120.0   16.666666666666668
400.0   90.0   0.0
350.0   120.0   0.0
350.0   90.0   16.666666666666668
400.0   90.0   16.666666666666668
350.0   120.0   16.666666666666668
350.0   90.0   33.333333333333336
400.0   90.0   16.666666666666668
400.0   120.0   16.666666666666668
350.0   120.0   16.666666666666668
400.0   120.0   33.333333333333336
350.0   90.0   33.333333333333336
350.0   120.0   33.333333333333336
400.0   120.0   33.333333333333336
350.0   120.0   16.666666666666668
350.0   90.0   33.333333333333336
400.0   120.0   33.333333333333336
400.0   90.0   33.333333333333336
400.0   90.0   16.666666666666668
350.0   90.0   33.333333333333336
400.0   120.0   33.333333333333336
400.0   90.0   16.666666666666668
350.0   120.0   16.666666666666668
350.0   90.0   33.333333333333336
400.0   90.0   33.333333333333336
350.0   120.0   33.333333333333336
350.0   90.0   50.0
400.0   90.0   33.333333333333336
400.0   120.0   33.333333333333336
350.0   120.0   33.333333333333336
400.0   120.0   50.0
350.0   90.0   50.0
350.0   120.0   50.0
400.0   120.0   50.0
350.0   120.0   33.333333333333336
350.0   90.0   50.0
400.0   120.0   50.0
400.0   90.0   50.0
400.0   90.0   33.333333333333336
350.0   90.0   50.0
400.0   120.0   50.0
400.0   90.0   33.333333333333336
350.0   120.0   33.333333333333336
350.0   120.0   0.0
400.0   120.0   0.0
350.0   150.0   0.0
350.0   120.0   16.666666666666668
400.0   120.0   0.0
400.0   150.0   0.0
350.0   150.0   0.0
400.0   150.0   16.666666666666668
350.0   120.0   16.666666666666668
350.0   150.0   16.666666666666668
400.0   150.0   16.666666666666668
350.0   150.0   0.0
350.0   120.0   16.666666666666668
400.0   150.0   16.666666666666668
400.0   120.0   16.666666666666668
400.0   120.0   0.0
350.0   120.0   16.666666666666668
400.0   150.0   16.666666666666668
400.0   120.0   0.0
350.0   150.0   0.0
350.0   120.0   16.666666666666668
400.0   120.0   16.666666666666668
350.0   150.0   16.666666666666668
350.0   120.0   33.333333333333336
400.0   120.0   16.666666666666668
400.0   150.0   16.666666666666668
350.0   150.0   16.666666666666668
400.0   150.0   33.333333333333336
350.0   120.0   33.333333333333336
350.0   150.0   33.333333333333336
400.0   150.0   33.333333333333336
350.0   150.0   16.666666666666668
350.0   120.0   33.333333333333336
400.0   150.0   33.333333333333336
400.0   120.0   33.333333333333336
400.0   120.0   16.666666666666668
350.0   120.0   33.333333333333336
400.0   150.0   33.333333333333336
400.0   120.0   16.666666666666668
350.0   150.0   16.666666666666668
350.0   120.0   33.333333333333336
400.0   120.0   33.333333333333336
350.0   150.0   33.333333333333336
350.0   120.0   50.0
400.0   120.0   33.333333333333336
400.0   150.0   33.333333333333336
350.0   150.0   33.333333333333336
400.0   150.0   50.0
350.0   120.0   50.0
350.0   150.0   50.0
400.0   150.0   50.0
350.0   150.0   33.333333333333336
350.0   120.0   50.0
400.0   150.0   50.0
400.0   120.0   50.0
400.0   120.0   33.333333333333336
350.0   120.0   50.0
400.0   150.0   50.0
400.0   120.0   33.333333333333336
350.0   150.0   33.333333333333336
400.0   0.0   0.0
450.0   0.0   0.0
400.0   30.0   0.0
400.0   0.0   16.666666666666668
450.0   0.0   0.0
450.0   30.0   0.0
400.0   30.0   0.0
450.0   30.0   16.666666666666668
400.0   0.0   16.666666666666668
400.0   30.0   16.666666666666668
450.0   30.0   16.666666666666668
400.0   30.0   0.0
400.0   0.0   16.666666666666668
450.0   30.0   16.666666666666668
450.0   0.0   16.666666666666668
450.0   0.0   0.0
400.0   0.0   16.666666666666668
450.0   30.0   16.666666666666668
450.0   0.0   0.0
400.0   30.0   0.0
400.0   0.0   16.666666666666668
450.0   0.0   16.666666666666668
400.0   30.0   16.666666666666668
400.0   0.0   33.333333333333336
450.0   0.0   16.666666666666668
450.0   30.0   16.666666666666668
400.0   30.0   16.666666666666668
450.0   30.0   33.333333333333336
400.0   0.0   33.333333333333336
400.0   30.0   33.333333333333336
450.0   30.0   33.333333333333336
400.0   30.0   16.666666666666668
400.0   0.0   33.333333333333336
450.0   30.0   33.333333333333336
450.0   0.0   33.333333333333336
450.0   0.0   16.666666666666668
400.0   0.0   33.333333333333336
450.0   30.0   33.333333333333336
450.0   0.0   16.666666666666668
400.0   30.0   16.666666666666668
400.0   0.0   33.333333333333336
450.0   0.0   33.333333333333336
400.0   30.0   33.333333333333336
400.0   0.0   50.0
450.0   0.0   33.333333333333336
450.0   30.0   33.333333333333336
400.0   30.0   33.333333333333336
450.0   30.0   50.0
400.0   0.0   50.0
400.0   30.0   50.0
450.0   30.0   50.0
400.0   30.0   33.333333333333336
400.0   0.0   50.0
450.0   30.0   50.0
450.0   0.0   50.0
450.0   0.0   33.333333333333336
400.0   0.0   50.0
450.0   30.0   50.0
450.0   0.0   33.333333333333336
400.0   30.0   33.333333333333336
400.0   30.0   0.0
450.0   30.0   0.0
400.0   60.0   0.0
400.0   30.0   16.666666666666668
450.0   30.0   0.0
450.0   60.0   0.0
400.0   60.0   0.0
450.0   60.0   16.666666666666668
400.0   30.0   16.666666666666668
400.0   60.0   16.666666666666668
450.0   60.0   16.666666666666668
400.0   60.0   0.0
400.0   30.0   16.666666666666668
450.0   60.0   16.666666666666668
450.0   30.0   16.666666666666668
450.0   30.0   0.0
400.0   30.0   16.666666666666668
450.0   60.0   16.666666666666668
450.0   30.0   0.0
400.0   60.0   0.0
400.0   30.0   16.666666666666668
450.0   30.0   16.666666666666668
400.0   60.0   16.666666666666668
400.0   30.0   33.333333333333336
450.0   30.0   16.666666666666668
450.0   60.0   16.666666666666668
400.0   60.0   16.666666666666668
450.0   60.0   33.333333333333336
400.0   30.0   33.333333333333336
400.0   60.0   33.333333333333336
450.0   60.0   33.333333333333336
400.0   60.0   16.666666666666668
400.0   30.0   33.333333333333336
450.0   60.0   33.333333333333336
450.0   30.0   33.333333333333336
450.0   30.0   16.666666666666668
400.0   30.0   33.333333333333336
450.0   60.0   33.333333333333336
450.0   30.0   16.666666666666668
400.0   60.0   16.666666666666668
400.0   30.0   33.333333333333336
450.0   30.0   33.333333333333336
400.0   60.0   33.333333333333336
400.0   30.0   50.0
450.0   30.0   33.333333333333336
450.0   60.0   33.333333333333336
400.0   60.0   33.333333333333336
450.0   60.0   50.0
400.0   30.0   50.0
400.0   60.0   50.0
450.0   60.0   50.0
400.0   60.0   33.333333333333336
400.0   30.0   50.0
450.0   60.0   50.0
450.0   30.0   50.0
450.0   30.0   33.333333333333336
400.0   30.0   50.0
450.0   60.0   50.0
450.0   30.0   33.333333333333336
400.0   60.0   33.333333333333336
400.0   60.0   0.0
450.0   60.0   0.0
400.0   90.0   0.0
400.0   60.0   16.666666666666668
450.0   60.0   0.0
450.0   90.0   0.0
400.0   90.0   0.0
450.0   90.0   16.666666666666668
400.0   60.0   16.666666666666668
400.0   90.0   16.666666666666668
450.0   90.0   16.666666666666668
400.0   90.0   0.0
400.0   60.0   16.666666666666668
450.0   90.0   16.666666666666668
450.0   60.0   16.666666666666668
450.0   60.0   0.0
400.0   60.0   16.666666666666668
450.0   90.0   16.666666666666668
450.0   60.0   0.0
400.0   90.0   0.0
400.0   60.0   16.666666666666668
450.0   60.0   16.666666666666668
400.0   90.0   16.666666666666668
400.0   60.0   33.333333333333336
450.0   60.0   16.666666666666668
450.0   90.0   16.666666666666668
400.0   90.0   16.666666666666668
450.0   90.0   33.333333333333336
400.0   60.0   33.333333333333336
400.0   90.0   33.333333333333336
450.0   90.0   33.333333333333336
400.0   90.0   16.666666666666668
400.0   60.0   33.333333333333336
450.0   90.0   33.333333333333336
450.0   60.0   33.333333333333336
450.0   60.0   16.666666666666668
400.0   60.0   33.333333333333336
450.0   90.0   33.333333333333336
450.0   60.0   16.666666666666668
400.0   90.0   16.666666666666668
400.0   60.0   33.333333333333336
450.0   60.0   33.333333333333336
400.0   90.0   33.333333333333336
400.0   60.0   50.0
450.0   60.0   33.333333333333336
450.0   90.0   33.333333333333336
400.0   90.0   33.333333333333336
450.0   90.0   50.0
400.0   60.0   50.0
400.0   90.0   50.0
450.0   90.0   50.0
400.0   90.0   33.333333333333336
400.0   60.0   50.0
450.0   90.0   50.0
450.0   60.0   50.0
450.0   60.0   33.333333333333336
400.0   60.0   50.0
450.0   90.0   50.0
450.0   60.0   33.333333333333336
400.0   90.0   33.333333333333336
400.0   90.0   0.0
450.0   90.0   0.0
400.0   120.0   0.0
400.0   90.0   16.666666666666668
450.0   90.0   0.0
450.0   120.0   0.0
400.0   120.0   0.0
450.0   120.0   16.666666666666668
400.0   90.0   16.666666666666668
400.0   120.0   16.666666666666668
450.0   120.0   16.666666666666668
400.0   120.0   0.0
400.0   90.0   16.666666666666668
450.0   120.0   16.666666666666668
450.0   90.0   16.666666666666668
450.0   90.0   0.0
400.0   90.0   16.666666666666668
450.0   120.0   16.666666666666668
450.0   90.0   0.0
400.0   120.0   0.0
400.0   90.0   16.666666666666668
450.0   90.0   16.666666666666668
400.0   120.0   16.666666666666668
400.0   90.0   33.333333333333336
450.0   90.0   16.666666666666668
450.0   120.0   16.666666666666668
400.0   120.0   16.666666666666668
450.0   120.0   33.333333333333336
400.0   90.0   33.333333333333336
400.0   120.0   33.333333333333336
450.0   120.0   33.333333333333336
400.0   120.0   16.666666666666668
400.0   90.0   33.333333333333336
450.0   120.0   33.333333333333336
450.0   90.0   33.333333333333336
450.0   90.0   16.666666666666668
400.0   90.0   33.333333333333336
450.0   120.0   33.333333333333336
450.0   90.0   16.666666666666668
400.0   120.0   16.666666666666668
400.0   90.0   33.333333333333336
450.0   90.0   33.333333333333336
400.0   120.0   33.333333333333336
400.0   90.0   50.0
450.0   90.0   33.333333333333336
450.0   120.0   33.333333333333336
400.0   120.0   33.333333333333336
450.0   120.0   50.0
400.0   90.0   50.0
400.0   120.0   50.0
450.0   120.0   50.0
400.0   120.0   33.333333333333336
400.0   90.0   50.0
450.0   120.0   50.0
450.0   90.0   50.0
450.0   90.0   33.333333333333336
400.0   90.0   50.0
450.0   120.0   50.0
450.0   90.0   33.333333333333336
400.0   120.0   33.333333333333336
400.0   120.0   0.0
450.0   120.0   0.0
400.0   150.0   0.0
400.0   120.0   16.666666666666668
450.0   120.0   0.0
450.0   150.0   0.0
400.0   150.0   0.0
450.0   150.0   16.666666666666668
400.0   120.0   16.666666666666668
400.0   150.0   16.666666666666668
450.0   150.0   16.666666666666668
400.0   150.0   0.0
400.0   120.0   16.666666666666668
450.0   150.0   16.666666666666668
450.0   120.0   16.666666666666668
450.0   120.0   0.0
400.0   120.0   16.666666666666668
450.0   150.0   16.666666666666668
450.0   120.0   0.0
400.0   150.0   0.0
400.0   120.0   16.666666666666668
450.0   120.0   16.666666666666668
400.0   150.0   16.666666666666668
400.0   120.0   33.333333333333336
450.0   120.0   16.666666666666668
450.0   150.0   16.666666666666668
400.0   150.0   16.666666666666668
450.0   150.0   33.333333333333336
400.0   120.0   33.333333333333336
400.0   150.0   33.333333333333336
450.0   150.0   33.333333333333336
400.0   150.0   16.666666666666668
400.0   120.0   33.333333333333336
450.0   150.0   33.333333333333336
450.0   120.0   33.333333333333336
450.0   120.0   16.666666666666668
400.0   120.0   33.333333333333336
450.0   150.0   33.333333333333336
450.0   120.0   16.666666666666668
400.0   150.0   16.666666666666668
400.0   120.0   33.333333333333336
450.0   120.0   33.333333333333336
400.0   150.0   33.333333333333336
400.0   120.0   50.0
450.0   120.0   33.333333333333336
450.0   150.0   33.333333333333336
400.0   150.0   33.333333333333336
450.0   150.0   50.0
400.0   120.0   50.0
400.0   150.0   50.0
450.0   150.0   50.0
400.0   150.0   33.333333333333336
400.0   120.0   50.0
450.0   150.0   50.0
450.0   120.0   50.0
450.0   120.0   33.333333333333336
400.0   120.0   50.0
450.0   150.0   50.0
450.0   120.0   33.333333333333336
400.0   150.0   33.333333333333336
450.0   0.0   0.0
500.0   0.0   0.0
450.0   30.0   0.0
450.0   0.0   16.666666666666668
500.0   0.0   0.0
500.0   30.0   0.0
450.0   30.0   0.0
500.0   30.0   16.666666666666668
450.0   0.0   16.666666666666668
450.0   30.0   16.666666666666668
500.0   30.0   16.666666666666668
450.0   30.0   0.0
450.0   0.0   16.666666666666668
500.0   30.0   16.666666666666668
500.0   0.0   16.666666666666668
500.0   0.0   0.0
450.0   0.0   16.666666666666668
500.0   30.0   16.666666666666668
500.0   0.0   0.0
450.0   30.0   0.0
450.0   0.0   16.666666666666668
500.0   0.0   16.666666666666668
450.0   30.0   16.666666666666668
450.0   0.0   33.333333333333336
500.0   0.0   16.666666666666668
500.0   30.0   16.666666666666668
450.0   30.0   16.666666666666668
500.0   30.0   33.333333333333336
450.0   0.0   33.333333333333336
450.0   30.0   33.333333333333336
500.0   30.0   33.333333333333336
450.0   30.0   16.666666666666668
450.0   0.0   33.333333333333336
500.0   30.0   33.333333333333336
500.0   0.0   33.333333333333336
500.0   0.0   16.666666666666668
450.0   0.0   33.333333333333336
500.0   30.0   33.333333333333336
500.0   0.0   16.666666666666668
450.0   30.0   16.666666666666668
450.0   0.0   33.333333333333336
500.0   0.0   33.333333333333336
450.0   30.0   33.333333333333336
450.0   0.0   50.0
500.0   0.0   33.333333333333336
500.0   30.0   33.333333333333336
450.0   30.0   33.333333333333336
500.0   30.0   50.0
450.0   0.0   50.0
450.0   30.0   50.0
500.0   30.0   50.0
450.0   30.0   33.333333333333336
450.0   0.0   50.0
500.0   30.0   50.0
500.0   0.0   50.0
500.0   0.0   33.333333333333336
450.0   0.0   50.0
500.0   30.0   50.0
500.0   0.0   33.333333333333336
450.0   30.0   33.333333333333336
450.0   30.0   0.0
500.0   30.0   0.0
450.0   60.0   0.0
450.0   30.0   16.666666666666668
500.0   30.0   0.0
500.0   60.0   0.0
450.0   60.0   0.0
500.0   60.0   16.666666666666668
450.0   30.0   16.666666666666668
450.0   60.0   16.666666666666668
500.0   60.0   16.666666666666668
450.0   60.0   0.0
450.0   30.0   16.666666666666668
500.0   60.0   16.666666666666668
500.0   30.0   16.666666666666668
500.0   30.0   0.0
450.0   30.0   16.666666666666668
500.0   60.0   16.666666666666668
500.0   30.0   0.0
450.0   60.0   0.0
450.0   30.0   16.666666666666668
500.0   30.0   16.666666666666668
450.0   60.0   16.666666666666668
450.0   30.0   33.333333333333336
500.0   30.0   16.666666666666668
500.0   60.0   16.666666666666668
450.0   60.0   16.666666666666668
500.0   60.0   33.333333333333336
450.0   30.0   33.333333333333336
450.0   60.0   33.333333333333336
500.0   60.0   33.333333333333336
450.0   60.0   16.666666666666668
450.0   30.0   33.333333333333336
500.0   60.0   33.333333333333336
500.0   30.0   33.333333333333336
500.0   30.0   16.666666666666668
450.0   30.0   33.333333333333336
500.0   60.0   33.333333333333336
500.0   30.0   16.666666666666668
450.0   60.0   16.666666666666668
450.0   30.0   33.333333333333336
500.0   30.0   33.333333333333336
450.0   60.0   33.333333333333336
450.0   30.0   50.0
500.0   30.0   33.333333333333336
500.0   60.0   33.333333333333336
450.0   60.0   33.333333333333336
500.0   60.0   50.0
450.0   30.0   50.0
450.0   60.0   50.0
500.0   60.0   50.0
450.0   60.0   33.333333333333336
450.0   30.0   50.0
500.0   60.0   50.0
500.0   30.0   50.0
500.0   30.0   33.333333333333336
450.0   30.0   50.0
500.0   60.0   50.0
500.0   30.0   33.333333333333336
450.0   60.0   33.333333333333336
450.0   60.0   0.0
500.0   60.0   0.0
450.0   90.0   0.0
450.0   60.0   16.666666666666668
500.0   60.0   0.0
500.0   90.0   0.0
450.0   90.0   0.0
500.0   90.0   16.666666666666668
450.0   60.0   16.666666666666668
450.0   90.0   16.666666666666668
500.0   90.0   16.666666666666668
450.0   90.0   0.0
450.0   60.0   16.666666666666668
500.0   90.0   16.666666666666668
500.0   60.0   16.666666666666668
500.0   60.0   0.0
450.0   60.0   16.666666666666668
500.0   90.0   16.666666666666668
500.0   60.0   0.0
450.0   90.0   0.0
450.0   60.0   16.666666666666668
500.0   60.0   16.666666666666668
450.0   90.0   16.666666666666668
450.0   60.0   33.333333333333336
500.0   60.0   16.666666666666668
500.0   90.0   16.666666666666668
450.0   90.0   16.666666666666668
500.0   90.0   33.333333333333336
450.0   60.0   33.333333333333336
450.0   90.0   33.333333333333336
500.0   90.0   33.333333333333336
450.0   90.0   16.666666666666668
450.0   60.0   33.333333333333336
500.0   90.0   33.333333333333336
500.0   60.0   33.333333333333336
500.0   60.0   16.666666666666668
450.0   60.0   33.333333333333336
500.0   90.0   33.333333333333336
500.0   60.0   16.666666666666668
450.0   90.0   16.666666666666668
450.0   60.0   33.333333333333336
500.0   60.0   33.333333333333336
450.0   90.0   33.333333333333336
450.0   60.0   50.0
500.0   60.0   33.333333333333336
500.0   90.0   33.333333333333336
450.0   90.0   33.333333333333336
500.0   90.0   50.0
450.0   60.0   50.0
450.0   90.0   50.0
500.0   90.0   50.0
450.0   90.0   33.333333333333336
450.0   60.0   50.0
500.0   90.0   50.0
500.0   60.0   50.0
500.0   60.0   33.333333333333336
450.0   60.0   50.0
500.0   90.0   50.0
500.0   60.0   33.333333333333336
450.0   90.0   33.333333333333336
450.0   90.0   0.0
500.0   90.0   0.0
450.0   120.0   0.0
450.0   90.0   16.666666666666668
500.0   90.0   0.0
500.0   120.0   0.0
450.0   120.0   0.0
500.0   120.0   16.666666666666668
450.0   90.0   16.666666666666668
450.0   120.0   16.666666666666668
500.0   120.0   16.666666666666668
450.0   120.0   0.0
450.0   90.0   16.666666666666668
500.0   120.0   16.666666666666668
500.0   90.0   16.666666666666668
500.0   90.0   0.0
450.0   90.0   16.666666666666668
500.0   120.0   16.666666666666668
500.0   90.0   0.0
450.0   120.0   0.0
450.0   90.0   16.666666666666668
500.0   90.0   16.666666666666668
450.0   120.0   16.666666666666668
450.0   90.0   33.333333333333336
500.0   90.0   16.666666666666668
500.0   120.0   16.666666666666668
450.0   120.0   16.666666666666668
500.0   120.0   33.333333333333336
450.0   90.0   33.333333333333336
450.0   120.0   33.333333333333336
500.0   120.0   33.333333333333336
450.0   120.0   16.666666666666668
450.0   90.0   33.333333333333336
500.0   120.0   33.333333333333336
500.0   90.0   33.333333333333336
500.0   90.0   16.666666666666668
450.0   90.0   33.333333333333336
500.0   120.0   33.333333333333336
500.0   90.0   16.666666666666668
450.0   120.0   16.666666666666668
450.0   90.0   33.333333333333336
500.0   90.0   33.333333333333336
450.0   120.0   33.333333333333336
450.0   90.0   50.0
500.0   90.0   33.333333333333336
500.0   120.0   33.333333333333336
450.0   120.0   33.333333333333336
500.0   120.0   50.0
450.0   90.0   50.0
450.0   120.0   50.0
500.0   120.0   50.0
450.0   120.0   33.333333333333336
450.0   90.0   50.0
500.0   120.0   50.0
500.0   90.0   50.0
500.0   90.0   33.333333333333336
450.0   90.0   50.0
500.0   120.0   50.0
500.0   90.0   33.333333333333336
450.0   120.0   33.333333333333336
450.0   120.0   0.0
500.0   120.0   0.0
450.0   150.0   0.0
450.0   120.0   16.666666666666668
500.0   120.0   0.0
500.0   150.0   0.0
450.0   150.0   0.0
500.0   150.0   16.666666666666668
450.0   120.0   16.666666666666668
450.0   150.0   16.666666666666668
500.0   150.0   16.666666666666668
450.0   150.0   0.0
450.0   120.0   16.666666666666668
500.0   150.0   16.666666666666668
500.0   120.0   16.666666666666668
500.0   120.0   0.0
450.0   120.0   16.666666666666668
500.0   150.0   16.666666666666668
500.0   120.0   0.0
450.0   150.0   0.0
450.0   120.0   16.666666666666668
500.0   120.0   16.666666666666668
450.0   150.0   16.666666666666668
450.0   120.0   33.333333333333336
500.0   120.0   16.666666666666668
500.0   150.0   16.666666666666668
450.0   150.0   16.666666666666668
500.0   150.0   33.333333333333336
450.0   120.0   33.333333333333336
450.0   150.0   33.333333333333336
500.0   150.0   33.333333333333336
450.0   150.0   16.666666666666668
450.0   120.0   33.333333333333336
500.0   150.0   33.333333333333336
500.0   120.0   33.333333333333336
500.0   120.0   16.666666666666668
450.0   120.0   33.333333333333336
500.0   150.0   33.333333333333336
500.0   120.0   16.666666666666668
450.0   150.0   16.666666666666668
450.0   120.0   33.333333333333336
500.0   120.0   33.333333333333336
450.0   150.0   33.333333333333336
450.0   120.0   50.0
500.0   120.0   33.333333333333336
500.0   150.0   33.333333333333336
450.0   150.0   33.333333333333336
500.0   150.0   50.0
450.0   120.0   50.0
450.0   150.0   50.0
500.0   150.0   50.0
450.0   150.0   33.333333333333336
450.0   120.0   50.0
500.0   150.0   50.0
500.0   120.0   50.0
500.0   120.0   33.333333333333336
450.0   120.0   50.0
500.0   150.0   50.0
500.0   120.0   33.333333333333336
450.0   150.0   33.333333333333336
             </DataArray>   
          </Points>  
          <Cells>  
             <DataArray type="Int32" Name="connectivity" format="ascii">   
0   1   2   3
4   5   6   7
8   9   10   11
12   13   14   15
16   17   18   19
20   21   22   23
24   25   26   27
28   29   30   31
32   33   34   35
36   37   38   39
40   41   42   43
44   45   46   47
48   49   50   51
52   53   54   55
56   57   58   59
60   61   62   63
64   65   66   67
68   69   70   71
72   73   74   75
76   77   78   79
80   81   82   83
84   85   86   87
88   89   90   91
92   93   94   95
96   97   98   99
100   101   102   103
104   105   106   107
108   109   110   111
112   113   114   115
116   117   118   119
120   121   122   123
124   125   126   127
128   129   130   131
132   133   134   135
136   137   138   139
140   141   142   143
144   145   146   147
148   149   150   151
152   153   154   155
156   157   158   159
160   161   162   163
164   165   166   167
168   169   170   171
172   173   174   175
176   177   178   179
180   181   182   183
184   185   186   187
188   189   190   191
192   193   194   195
196   197   198   199
200   201   202   203
204   205   206   207
208   209   210   211
212   213   214   215
216   217   218   219
220   221   222   223
224   225   226   227
228   229   230   231
232   233   234   235
236   237   238   239
240   241   242   243
244   245   246   247
248   249   250   251
252   253   254   255
256   257   258   259
260   261   262   263
264   265   266   267
268   269   270   271
272   273   274   275
276   277   278   279
280   281   282   283
284   285   286   287
288   289   290   291
292   293   294   295
296   297   298   299
300   301   302   303
304   305   306   307
308   309   310   311
312   313   314   315
316   317   318   319
320   321   322   323
324   325   326   327
328   329   330   331
332   333   334   335
336   337   338   339
340   341   342   343
344   345   346   347
348   349   350   351
352   353   354   355
356   357   358   359
360   361   362   363
364   365   366   367
368   369   370   371
372   373   374   375
376   377   378   379
380   381   382   383
384   385   386   387
388   389   390   391
392   393   394   395
396   397   398   399
400   401   402   403
404   405   406   407
408   409   410   411
412   413   414   415
416   417   418   419
420   421   422   423
424   425   426   427
428   429   430   431
432   433   434   435
436   437   438   439
440   441   442   443
444   445   446   447
448   449   450   451
452   453   454   455
456   457   458   459
460   461   462   463
464   465   466   467
468   469   470   471
472   473   474   475
476   477   478   479
480   481   482   483
484   485   486   487
488   489   490   491
492   493   494   495
496   497   498   499
500   501   502   503
504   505   506   507
508   509   510   511
512   513   514   515
516   517   518   519
520   521   522   523
524   525   526   527
528   529   530   531
532   533   534   535
536   537   538   539
540   541   542   543
544   545   546   547
548   549   550   551
552   553   554   555
556   557   558   559
560   561   562   563
564   565   566   567
568   569   570   571
572   573   574   575
576   577   578   579
580   581   582   583
584   585   586   587
588   589   590   591
592   593   594   595
596   597   598   599
600   601   602   603
604   605   606   607
608   609   610   611
612   613   614   615
616   617   618   619
620   621   622   623
624   625   626   627
628   629   630   631
632   633   634   635
636   637   638   639
640   641   642   643
644   645   646   647
648   649   650   651
652   653   654   655
656   657   658   659
660   661   662   663
664   665   666   667
668   669   670   671
672   673   674   675
676   677   678   679
680   681   682   683
684   685   686   687
688   689   690   691
692   693   694   695
696   697   698   699
700   701   702   703
704   705   706   707
708   709   710   711
712   713   714   715
716   717   718   719
720   721   722   723
724   725   726   727
728   729   730   731
732   733   734   735
736   737   738   739
740   741   742   743
744   745   746   747
748   749   750   751
752   753   754   755
756   757   758   759
760   761   762   763
764   765   766   767
768   769   770   771
772   773   774   775
776   777   778   779
780   781   782   783
784   785   786   787
788   789   790   791
792   793   794   795
796   797   798   799
800   801   802   803
804   805   806   807
808   809   810   811
812   813   814   815
816   817   818   819
820   821   822   823
824   825   826   827
828   829   830   831
832   833   834   835
836   837   838   839
840   841   842   843
844   845   846   847
848   849   850   851
852   853   854   855
856   857   858   859
860   861   862   863
864   865   866   867
868   869   870   871
872   873   874   875
876   877   878   879
880   881   882   883
884   885   886   887
888   889   890   891
892   893   894   895
896   897   898   899
900   901   902   903
904   905   906   907
908   909   910   911
912   913   914   915
916   917   918   919
920   921   922   923
924   925   926   927
928   929   930   931
932   933   934   935
936   937   938   939
940   941   942   943
944   945   946   947
948   949   950   951
952   953   954   955
956   957   958   959
960   961   962   963
964   965   966   967
968   969   970   971
972   973   974   975
976   977   978   979
980   981   982   983
984   985   986   987
988   989   990   991
992   993   994   995
996   997   998   999
1000   1001   1002   1003
1004   1005   1006   1007
1008   1009   1010   1011
1012   1013   1014   1015
1016   1017   1018   1019
1020   1021   1022   1023
1024   1025   1026   1027
1028   1029   1030   1031
1032   1033   1034   1035
1036   1037   1038   1039
1040   1041   1042   1043
1044   1045   1046   1047
1048   1049   1050   1051
1052   1053   1054   1055
1056   1057   1058   1059
1060   1061   1062   1063
1064   1065   1066   1067
1068   1069   1070   1071
1072   1073   1074   1075
1076   1077   1078   1079
1080   1081   1082   1083
1084   1085   1086   1087
1088   1089   1090   1091
1092   1093   1094   1095
1096   1097   1098   1099
1100   1101   1102   1103
1104   1105   1106   1107
1108   1109   1110   1111
1112   1113   1114   1115
1116   1117   1118   1119
1120   1121   1122   1123
1124   1125   1126   1127
1128   1129   1130   1131
1132   1133   1134   1135
1136   1137   1138   1139
1140   1141   1142   1143
1144   1145   1146   1147
1148   1149   1150   1151
1152   1153   1154   1155
1156   1157   1158   1159
1160   1161   1162   1163
1164   1165   1166   1167
1168   1169   1170   1171
1172   1173   1174   1175
1176   1177   1178   1179
1180   1181   1182   1183
1184   1185   1186   1187
1188   1189   1190   1191
1192   1193   1194   1195
1196   1197   1198   1199
1200   1201   1202   1203
1204   1205   1206   1207
1208   1209   1210   1211
1212   1213   1214   1215
1216   1217   1218   1219
1220   1221   1222   1223
1224   1225   1226   1227
1228   1229   1230   1231
1232   1233   1234   1235
1236   1237   1238   1239
1240   1241   1242   1243
1244   1245   1246   1247
1248   1249   1250   1251
1252   1253   1254   1255
1256   1257   1258   1259
1260   1261   1262   1263
1264   1265   1266   1267
1268   1269   1270   1271
1272   1273   1274   1275
1276   1277   1278   1279
1280   1281   1282   1283
1284   1285   1286   1287
1288   1289   1290   1291
1292   1293   1294   1295
1296   1297   1298   1299
1300   1301   1302   1303
1304   1305   1306   1307
1308   1309   1310   1311
1312   1313   1314   1315
1316   1317   1318   1319
1320   1321   1322   1323
1324   1325   1326   1327
1328   1329   1330   1331
1332   1333   1334   1335
1336   1337   1338   1339
1340   1341   1342   1343
1344   1345   1346   1347
1348   1349   1350   1351
1352   1353   1354   1355
1356   1357   1358   1359
1360   1361   1362   1363
1364   1365   1366   1367
1368   1369   1370   1371
1372   1373   1374   1375
1376   1377   1378   1379
1380   1381   1382   1383
1384   1385   1386   1387
1388   1389   1390   1391
1392   1393   1394   1395
1396   1397   1398   1399
1400   1401   1402   1403
1404   1405   1406   1407
1408   1409   1410   1411
1412   1413   1414   1415
1416   1417   1418   1419
1420   1421   1422   1423
1424   1425   1426   1427
1428   1429   1430   1431
1432   1433   1434   1435
1436   1437   1438   1439
1440   1441   1442   1443
1444   1445   1446   1447
1448   1449   1450   1451
1452   1453   1454   1455
1456   1457   1458   1459
1460   1461   1462   1463
1464   1465   1466   1467
1468   1469   1470   1471
1472   1473   1474   1475
1476   1477   1478   1479
1480   1481   1482   1483
1484   1485   1486   1487
1488   1489   1490   1491
1492   1493   1494   1495
1496   1497   1498   1499
1500   1501   1502   1503
1504   1505   1506   1507
1508   1509   1510   1511
1512   1513   1514   1515
1516   1517   1518   1519
1520   1521   1522   1523
1524   1525   1526   1527
1528   1529   1530   1531
1532   1533   1534   1535
1536   1537   1538   1539
1540   1541   1542   1543
1544   1545   1546   1547
1548   1549   1550   1551
1552   1553   1554   1555
1556   1557   1558   1559
1560   1561   1562   1563
1564   1565   1566   1567
1568   1569   1570   1571
1572   1573   1574   1575
1576   1577   1578   1579
1580   1581   1582   1583
1584   1585   1586   1587
1588   1589   1590   1591
1592   1593   1594   1595
1596   1597   1598   1599
1600   1601   1602   1603
1604   1605   1606   1607
1608   1609   1610   1611
1612   1613   1614   1615
1616   1617   1618   1619
1620   1621   1622   1623
1624   1625   1626   1627
1628   1629   1630   1631
1632   1633   1634   1635
1636   1637   1638   1639
1640   1641   1642   1643
1644   1645   1646   1647
1648   1649   1650   1651
1652   1653   1654   1655
1656   1657   1658   1659
1660   1661   1662   1663
1664   1665   1666   1667
1668   1669   1670   1671
1672   1673   1674   1675
1676   1677   1678   1679
1680   1681   1682   1683
1684   1685   1686   1687
1688   1689   1690   1691
1692   1693   1694   1695
1696   1697   1698   1699
1700   1701   1702   1703
1704   1705   1706   1707
1708   1709   1710   1711
1712   1713   1714   1715
1716   1717   1718   1719
1720   1721   1722   1723
1724   1725   1726   1727
1728   1729   1730   1731
1732   1733   1734   1735
1736   1737   1738   1739
1740   1741   1742   1743
1744   1745   1746   1747
1748   1749   1750   1751
1752   1753   1754   1755
1756   1757   1758   1759
1760   1761   1762   1763
1764   1765   1766   1767
1768   1769   1770   1771
1772   1773   1774   1775
1776   1777   1778   1779
1780   1781   1782   1783
1784   1785   1786   1787
1788   1789   1790   1791
1792   1793   1794   1795
1796   1797   1798   1799
1800   1801   1802   1803
1804   1805   1806   1807
1808   1809   1810   1811
1812   1813   1814   1815
1816   1817   1818   1819
1820   1821   1822   1823
1824   1825   1826   1827
1828   1829   1830   1831
1832   1833   1834   1835
1836   1837   1838   1839
1840   1841   1842   1843
1844   1845   1846   1847
1848   1849   1850   1851
1852   1853   1854   1855
1856   1857   1858   1859
1860   1861   1862   1863
1864   1865   1866   1867
1868   1869   1870   1871
1872   1873   1874   1875
1876   1877   1878   1879
1880   1881   1882   1883
1884   1885   1886   1887
1888   1889   1890   1891
1892   1893   1894   1895
1896   1897   1898   1899
1900   1901   1902   1903
1904   1905   1906   1907
1908   1909   1910   1911
1912   1913   1914   1915
1916   1917   1918   1919
1920   1921   1922   1923
1924   1925   1926   1927
1928   1929   1930   1931
1932   1933   1934   1935
1936   1937   1938   1939
1940   1941   1942   1943
1944   1945   1946   1947
1948   1949   1950   1951
1952   1953   1954   1955
1956   1957   1958   1959
1960   1961   1962   1963
1964   1965   1966   1967
1968   1969   1970   1971
1972   1973   1974   1975
1976   1977   1978   1979
1980   1981   1982   1983
1984   1985   1986   1987
1988   1989   1990   1991
1992   1993   1994   1995
1996   1997   1998   1999
2000   2001   2002   2003
2004   2005   2006   2007
2008   2009   2010   2011
2012   2013   2014   2015
2016   2017   2018   2019
2020   2021   2022   2023
2024   2025   2026   2027
2028   2029   2030   2031
2032   2033   2034   2035
2036   2037   2038   2039
2040   2041   2042   2043
2044   2045   2046   2047
2048   2049   2050   2051
2052   2053   2054   2055
2056   2057   2058   2059
2060   2061   2062   2063
2064   2065   2066   2067
2068   2069   2070   2071
2072   2073   2074   2075
2076   2077   2078   2079
2080   2081   2082   2083
2084   2085   2086   2087
2088   2089   2090   2091
2092   2093   2094   2095
2096   2097   2098   2099
2100   2101   2102   2103
2104   2105   2106   2107
2108   2109   2110   2111
2112   2113   2114   2115
2116   2117   2118   2119
2120   2121   2122   2123
2124   2125   2126   2127
2128   2129   2130   2131
2132   2133   2134   2135
2136   2137   2138   2139
2140   2141   2142   2143
2144   2145   2146   2147
2148   2149   2150   2151
2152   2153   2154   2155
2156   2157   2158   2159
2160   2161   2162   2163
2164   2165   2166   2167
2168   2169   2170   2171
2172   2173   2174   2175
2176   2177   2178   2179
2180   2181   2182   2183
2184   2185   2186   2187
2188   2189   2190   2191
2192   2193   2194   2195
2196   2197   2198   2199
2200   2201   2202   2203
2204   2205   2206   2207
2208   2209   2210   2211
2212   2213   2214   2215
2216   2217   2218   2219
2220   2221   2222   2223
2224   2225   2226   2227
2228   2229   2230   2231
2232   2233   2234   2235
2236   2237   2238   2239
2240   2241   2242   2243
2244   2245   2246   2247
2248   2249   2250   2251
2252   2253   2254   2255
2256   2257   2258   2259
2260   2261   2262   2263
2264   2265   2266   2267
2268   2269   2270   2271
2272   2273   2274   2275
2276   2277   2278   2279
2280   2281   2282   2283
2284   2285   2286   2287
2288   2289   2290   2291
2292   2293   2294   2295
2296   2297   2298   2299
2300   2301   2302   2303
2304   2305   2306   2307
2308   2309   2310   2311
2312   2313   2314   2315
2316   2317   2318   2319
2320   2321   2322   2323
2324   2325   2326   2327
2328   2329   2330   2331
2332   2333   2334   2335
2336   2337   2338   2339
2340   2341   2342   2343
2344   2345   2346   2347
2348   2349   2350   2351
2352   2353   2354   2355
2356   2357   2358   2359
2360   2361   2362   2363
2364   2365   2366   2367
2368   2369   2370   2371
2372   2373   2374   2375
2376   2377   2378   2379
2380   2381   2382   2383
2384   2385   2386   2387
2388   2389   2390   2391
2392   2393   2394   2395
2396   2397   2398   2399
2400   2401   2402   2403
2404   2405   2406   2407
2408   2409   2410   2411
2412   2413   2414   2415
2416   2417   2418   2419
2420   2421   2422   2423
2424   2425   2426   2427
2428   2429   2430   2431
2432   2433   2434   2435
2436   2437   2438   2439
2440   2441   2442   2443
2444   2445   2446   2447
2448   2449   2450   2451
2452   2453   2454   2455
2456   2457   2458   2459
2460   2461   2462   2463
2464   2465   2466   2467
2468   2469   2470   2471
2472   2473   2474   2475
2476   2477   2478   2479
2480   2481   2482   2483
2484   2485   2486   2487
2488   2489   2490   2491
2492   2493   2494   2495
2496   2497   2498   2499
2500   2501   2502   2503
2504   2505   2506   2507
2508   2509   2510   2511
2512   2513   2514   2515
2516   2517   2518   2519
2520   2521   2522   2523
2524   2525   2526   2527
2528   2529   2530   2531
2532   2533   2534   2535
2536   2537   2538   2539
2540   2541   2542   2543
2544   2545   2546   2547
2548   2549   2550   2551
2552   2553   2554   2555
2556   2557   2558   2559
2560   2561   2562   2563
2564   2565   2566   2567
2568   2569   2570   2571
2572   2573   2574   2575
2576   2577   2578   2579
2580   2581   2582   2583
2584   2585   2586   2587
2588   2589   2590   2591
2592   2593   2594   2595
2596   2597   2598   2599
2600   2601   2602   2603
2604   2605   2606   2607
2608   2609   2610   2611
2612   2613   2614   2615
2616   2617   2618   2619
2620   2621   2622   2623
2624   2625   2626   2627
2628   2629   2630   2631
2632   2633   2634   2635
2636   2637   2638   2639
2640   2641   2642   2643
2644   2645   2646   2647
2648   2649   2650   2651
2652   2653   2654   2655
2656   2657   2658   2659
2660   2661   2662   2663
2664   2665   2666   2667
2668   2669   2670   2671
2672   2673   2674   2675
2676   2677   2678   2679
2680   2681   2682   2683
2684   2685   2686   2687
2688   2689   2690   2691
2692   2693   2694   2695
2696   2697   2698   2699
2700   2701   2702   2703
2704   2705   2706   2707
2708   2709   2710   2711
2712   2713   2714   2715
2716   2717   2718   2719
2720   2721   2722   2723
2724   2725   2726   2727
2728   2729   2730   2731
2732   2733   2734   2735
2736   2737   2738   2739
2740   2741   2742   2743
2744   2745   2746   2747
2748   2749   2750   2751
2752   2753   2754   2755
2756   2757   2758   2759
2760   2761   2762   2763
2764   2765   2766   2767
2768   2769   2770   2771
2772   2773   2774   2775
2776   2777   2778   2779
2780   2781   2782   2783
2784   2785   2786   2787
2788   2789   2790   2791
2792   2793   2794   2795
2796   2797   2798   2799
2800   2801   2802   2803
2804   2805   2806   2807
2808   2809   2810   2811
2812   2813   2814   2815
2816   2817   2818   2819
2820   2821   2822   2823
2824   2825   2826   2827
2828   2829   2830   2831
2832   2833   2834   2835
2836   2837   2838   2839
2840   2841   2842   2843
2844   2845   2846   2847
2848   2849   2850   2851
2852   2853   2854   2855
2856   2857   2858   2859
2860   2861   2862   2863
2864   2865   2866   2867
2868   2869   2870   2871
2872   2873   2874   2875
2876   2877   2878   2879
2880   2881   2882   2883
2884   2885   2886   2887
2888   2889   2890   2891
2892   2893   2894   2895
2896   2897   2898   2899
2900   2901   2902   2903
2904   2905   2906   2907
2908   2909   2910   2911
2912   2913   2914   2915
2916   2917   2918   2919
2920   2921   2922   2923
2924   2925   2926   2927
2928   2929   2930   2931
2932   2933   2934   2935
2936   2937   2938   2939
2940   2941   2942   2943
2944   2945   2946   2947
2948   2949   2950   2951
2952   2953   2954   2955
2956   2957   2958   2959
2960   2961   2962   2963
2964   2965   2966   2967
2968   2969   2970   2971
2972   2973   2974   2975
2976   2977   2978   2979
2980   2981   2982   2983
2984   2985   2986   2987
2988   2989   2990   2991
2992   2993   2994   2995
2996   2997   2998   2999
3000   3001   3002   3003
3004   3005   3006   3007
3008   3009   3010   3011
3012   3013   3014   3015
3016   3017   3018   3019
3020   3021   3022   3023
3024   3025   3026   3027
3028   3029   3030   3031
3032   3033   3034   3035
3036   3037   3038   3039
3040   3041   3042   3043
3044   3045   3046   3047
3048   3049   3050   3051
3052   3053   3054   3055
3056   3057   3058   3059
3060   3061   3062   3063
3064   3065   3066   3067
3068   3069   3070   3071
3072   3073   3074   3075
3076   3077   3078   3079
3080   3081   3082   3083
3084   3085   3086   3087
3088   3089   3090   3091
3092   3093   3094   3095
3096   3097   3098   3099
3100   3101   3102   3103
3104   3105   3106   3107
3108   3109   3110   3111
3112   3113   3114   3115
3116   3117   3118   3119
3120   3121   3122   3123
3124   3125   3126   3127
3128   3129   3130   3131
3132   3133   3134   3135
3136   3137   3138   3139
3140   3141   3142   3143
3144   3145   3146   3147
3148   3149   3150   3151
3152   3153   3154   3155
3156   3157   3158   3159
3160   3161   3162   3163
3164   3165   3166   3167
3168   3169   3170   3171
3172   3173   3174   3175
3176   3177   3178   3179
3180   3181   3182   3183
3184   3185   3186   3187
3188   3189   3190   3191
3192   3193   3194   3195
3196   3197   3198   3199
3200   3201   3202   3203
3204   3205   3206   3207
3208   3209   3210   3211
3212   3213   3214   3215
3216   3217   3218   3219
3220   3221   3222   3223
3224   3225   3226   3227
3228   3229   3230   3231
3232   3233   3234   3235
3236   3237   3238   3239
3240   3241   3242   3243
3244   3245   3246   3247
3248   3249   3250   3251
3252   3253   3254   3255
3256   3257   3258   3259
3260   3261   3262   3263
3264   3265   3266   3267
3268   3269   3270   3271
3272   3273   3274   3275
3276   3277   3278   3279
3280   3281   3282   3283
3284   3285   3286   3287
3288   3289   3290   3291
3292   3293   3294   3295
3296   3297   3298   3299
3300   3301   3302   3303
3304   3305   3306   3307
3308   3309   3310   3311
3312   3313   3314   3315
3316   3317   3318   3319
3320   3321   3322   3323
3324   3325   3326   3327
3328   3329   3330   3331
3332   3333   3334   3335
3336   3337   3338   3339
3340   3341   3342   3343
3344   3345   3346   3347
3348   3349   3350   3351
3352   3353   3354   3355
3356   3357   3358   3359
3360   3361   3362   3363
3364   3365   3366   3367
3368   3369   3370   3371
3372   3373   3374   3375
3376   3377   3378   3379
3380   3381   3382   3383
3384   3385   3386   3387
3388   3389   3390   3391
3392   3393   3394   3395
3396   3397   3398   3399
3400   3401   3402   3403
3404   3405   3406   3407
3408   3409   3410   3411
3412   3413   3414   3415
3416   3417   3418   3419
3420   3421   3422   3423
3424   3425   3426   3427
3428   3429   3430   3431
3432   3433   3434   3435
3436   3437   3438   3439
3440   3441   3442   3443
3444   3445   3446   3447
3448   3449   3450   3451
3452   3453   3454   3455
3456   3457   3458   3459
3460   3461   3462   3463
3464   3465   3466   3467
3468   3469   3470   3471
3472   3473   3474   3475
3476   3477   3478   3479
3480   3481   3482   3483
3484   3485   3486   3487
3488   3489   3490   3491
3492   3493   3494   3495
3496   3497   3498   3499
3500   3501   3502   3503
3504   3505   3506   3507
3508   3509   3510   3511
3512   3513   3514   3515
3516   3517   3518   3519
3520   3521   3522   3523
3524   3525   3526   3527
3528   3529   3530   3531
3532   3533   3534   3535
3536   3537   3538   3539
3540   3541   3542   3543
3544   3545   3546   3547
3548   3549   3550   3551
3552   3553   3554   3555
3556   3557   3558   3559
3560   3561   3562   3563
3564   3565   3566   3567
3568   3569   3570   3571
3572   3573   3574   3575
3576   3577   3578   3579
3580   3581   3582   3583
3584   3585   3586   3587
3588   3589   3590   3591
3592   3593   3594   3595
3596   3597   3598   3599
3600   3601   3602   3603
3604   3605   3606   3607
3608   3609   3610   3611
3612   3613   3614   3615
3616   3617   3618   3619
3620   3621   3622   3623
3624   3625   3626   3627
3628   3629   3630   3631
3632   3633   3634   3635
3636   3637   3638   3639
3640   3641   3642   3643
3644   3645   3646   3647
3648   3649   3650   3651
3652   3653   3654   3655
3656   3657   3658   3659
3660   3661   3662   3663
3664   3665   3666   3667
3668   3669   3670   3671
3672   3673   3674   3675
3676   3677   3678   3679
3680   3681   3682   3683
3684   3685   3686   3687
3688   3689   3690   3691
3692   3693   3694   3695
3696   3697   3698   3699
3700   3701   3702   3703
3704   3705   3706   3707
3708   3709   3710   3711
3712   3713   3714   3715
3716   3717   3718   3719
3720   3721   3722   3723
3724   3725   3726   3727
3728   3729   3730   3731
3732   3733   3734   3735
3736   3737   3738   3739
3740   3741   3742   3743
3744   3745   3746   3747
3748   3749   3750   3751
3752   3753   3754   3755
3756   3757   3758   3759
3760   3761   3762   3763
3764   3765   3766   3767
3768   3769   3770   3771
3772   3773   3774   3775
3776   3777   3778   3779
3780   3781   3782   3783
3784   3785   3786   3787
3788   3789   3790   3791
3792   3793   3794   3795
3796   3797   3798   3799
3800   3801   3802   3803
3804   3805   3806   3807
3808   3809   3810   3811
3812   3813   3814   3815
3816   3817   3818   3819
3820   3821   3822   3823
3824   3825   3826   3827
3828   3829   3830   3831
3832   3833   3834   3835
3836   3837   3838   3839
3840   3841   3842   3843
3844   3845   3846   3847
3848   3849   3850   3851
3852   3853   3854   3855
3856   3857   3858   3859
3860   3861   3862   3863
3864   3865   3866   3867
3868   3869   3870   3871
3872   3873   3874   3875
3876   3877   3878   3879
3880   3881   3882   3883
3884   3885   3886   3887
3888   3889   3890   3891
3892   3893   3894   3895
3896   3897   3898   3899
3900   3901   3902   3903
3904   3905   3906   3907
3908   3909   3910   3911
3912   3913   3914   3915
3916   3917   3918   3919
3920   3921   3922   3923
3924   3925   3926   3927
3928   3929   3930   3931
3932   3933   3934   3935
3936   3937   3938   3939
3940   3941   3942   3943
3944   3945   3946   3947
3948   3949   3950   3951
3952   3953   3954   3955
3956   3957   3958   3959
3960   3961   3962   3963
3964   3965   3966   3967
3968   3969   3970   3971
3972   3973   3974   3975
3976   3977   3978   3979
3980   3981   3982   3983
3984   3985   3986   3987
3988   3989   3990   3991
3992   3993   3994   3995
3996   3997   3998   3999
4000   4001   4002   4003
4004   4005   4006   4007
4008   4009   4010   4011
4012   4013   4014   4015
4016   4017   4018   4019
4020   4021   4022   4023
4024   4025   4026   4027
4028   4029   4030   4031
4032   4033   4034   4035
4036   4037   4038   4039
4040   4041   4042   4043
4044   4045   4046   4047
4048   4049   4050   4051
4052   4053   4054   4055
4056   4057   4058   4059
4060   4061   4062   4063
4064   4065   4066   4067
4068   4069   4070   4071
4072   4073   4074   4075
4076   4077   4078   4079
4080   4081   4082   4083
4084   4085   4086   4087
4088   4089   4090   4091
4092   4093   4094   4095
4096   4097   4098   4099
4100   4101   4102   4103
4104   4105   4106   4107
4108   4109   4110   4111
4112   4113   4114   4115
4116   4117   4118   4119
4120   4121   4122   4123
4124   4125   4126   4127
4128   4129   4130   4131
4132   4133   4134   4135
4136   4137   4138   4139
4140   4141   4142   4143
4144   4145   4146   4147
4148   4149   4150   4151
4152   4153   4154   4155
4156   4157   4158   4159
4160   4161   4162   4163
4164   4165   4166   4167
4168   4169   4170   4171
4172   4173   4174   4175
4176   4177   4178   4179
4180   4181   4182   4183
4184   4185   4186   4187
4188   4189   4190   4191
4192   4193   4194   4195
4196   4197   4198   4199
4200   4201   4202   4203
4204   4205   4206   4207
4208   4209   4210   4211
4212   4213   4214   4215
4216   4217   4218   4219
4220   4221   4222   4223
4224   4225   4226   4227
4228   4229   4230   4231
4232   4233   4234   4235
4236   4237   4238   4239
4240   4241   4242   4243
4244   4245   4246   4247
4248   4249   4250   4251
4252   4253   4254   4255
4256   4257   4258   4259
4260   4261   4262   4263
4264   4265   4266   4267
4268   4269   4270   4271
4272   4273   4274   4275
4276   4277   4278   4279
4280   4281   4282   4283
4284   4285   4286   4287
4288   4289   4290   4291
4292   4293   4294   4295
4296   4297   4298   4299
4300   4301   4302   4303
4304   4305   4306   4307
4308   4309   4310   4311
4312   4313   4314   4315
4316   4317   4318   4319
4320   4321   4322   4323
4324   4325   4326   4327
4328   4329   4330   4331
4332   4333   4334   4335
4336   4337   4338   4339
4340   4341   4342   4343
4344   4345   4346   4347
4348   4349   4350   4351
4352   4353   4354   4355
4356   4357   4358   4359
4360   4361   4362   4363
4364   4365   4366   4367
4368   4369   4370   4371
4372   4373   4374   4375
4376   4377   4378   4379
4380   4381   4382   4383
4384   4385   4386   4387
4388   4389   4390   4391
4392   4393   4394   4395
4396   4397   4398   4399
4400   4401   4402   4403
4404   4405   4406   4407
4408   4409   4410   4411
4412   4413   4414   4415
4416   4417   4418   4419
4420   4421   4422   4423
4424   4425   4426   4427
4428   4429   4430   4431
4432   4433   4434   4435
4436   4437   4438   4439
4440   4441   4442   4443
4444   4445   4446   4447
4448   4449   4450   4451
4452   4453   4454   4455
4456   4457   4458   4459
4460   4461   4462   4463
4464   4465   4466   4467
4468   4469   4470   4471
4472   4473   4474   4475
4476   4477   4478   4479
4480   4481   4482   4483
4484   4485   4486   4487
4488   4489   4490   4491
4492   4493   4494   4495
4496   4497   4498   4499
4500   4501   4502   4503
4504   4505   4506   4507
4508   4509   4510   4511
4512   4513   4514   4515
4516   4517   4518   4519
4520   4521   4522   4523
4524   4525   4526   4527
4528   4529   4530   4531
4532   4533   4534   4535
4536   4537   4538   4539
4540   4541   4542   4543
4544   4545   4546   4547
4548   4549   4550   4551
4552   4553   4554   4555
4556   4557   4558   4559
4560   4561   4562   4563
4564   4565   4566   4567
4568   4569   4570   4571
4572   4573   4574   4575
4576   4577   4578   4579
4580   4581   4582   4583
4584   4585   4586   4587
4588   4589   4590   4591
4592   4593   4594   4595
4596   4597   4598   4599
4600   4601   4602   4603
4604   4605   4606   4607
4608   4609   4610   4611
4612   4613   4614   4615
4616   4617   4618   4619
4620   4621   4622   4623
4624   4625   4626   4627
4628   4629   4630   4631
4632   4633   4634   4635
4636   4637   4638   4639
4640   4641   4642   4643
4644   4645   4646   4647
4648   4649   4650   4651
4652   4653   4654   4655
4656   4657   4658   4659
4660   4661   4662   4663
4664   4665   4666   4667
4668   4669   4670   4671
4672   4673   4674   4675
4676   4677   4678   4679
4680   4681   4682   4683
4684   4685   4686   4687
4688   4689   4690   4691
4692   4693   4694   4695
4696   4697   4698   4699
4700   4701   4702   4703
4704   4705   4706   4707
4708   4709   4710   4711
4712   4713   4714   4715
4716   4717   4718   4719
4720   4721   4722   4723
4724   4725   4726   4727
4728   4729   4730   4731
4732   4733   4734   4735
4736   4737   4738   4739
4740   4741   4742   4743
4744   4745   4746   4747
4748   4749   4750   4751
4752   4753   4754   4755
4756   4757   4758   4759
4760   4761   4762   4763
4764   4765   4766   4767
4768   4769   4770   4771
4772   4773   4774   4775
4776   4777   4778   4779
4780   4781   4782   4783
4784   4785   4786   4787
4788   4789   4790   4791
4792   4793   4794   4795
4796   4797   4798   4799
4800   4801   4802   4803
4804   4805   4806   4807
4808   4809   4810   4811
4812   4813   4814   4815
4816   4817   4818   4819
4820   4821   4822   4823
4824   4825   4826   4827
4828   4829   4830   4831
4832   4833   4834   4835
4836   4837   4838   4839
4840   4841   4842   4843
4844   4845   4846   4847
4848   4849   4850   4851
4852   4853   4854   4855
4856   4857   4858   4859
4860   4861   4862   4863
4864   4865   4866   4867
4868   4869   4870   4871
4872   4873   4874   4875
4876   4877   4878   4879
4880   4881   4882   4883
4884   4885   4886   4887
4888   4889   4890   4891
4892   4893   4894   4895
4896   4897   4898   4899
4900   4901   4902   4903
4904   4905   4906   4907
4908   4909   4910   4911
4912   4913   4914   4915
4916   4917   4918   4919
4920   4921   4922   4923
4924   4925   4926   4927
4928   4929   4930   4931
4932   4933   4934   4935
4936   4937   4938   4939
4940   4941   4942   4943
4944   4945   4946   4947
4948   4949   4950   4951
4952   4953   4954   4955
4956   4957   4958   4959
4960   4961   4962   4963
4964   4965   4966   4967
4968   4969   4970   4971
4972   4973   4974   4975
4976   4977   4978   4979
4980   4981   4982   4983
4984   4985   4986   4987
4988   4989   4990   4991
4992   4993   4994   4995
4996   4997   4998   4999
5000   5001   5002   5003
5004   5005   5006   5007
5008   5009   5010   5011
5012   5013   5014   5015
5016   5017   5018   5019
5020   5021   5022   5023
5024   5025   5026   5027
5028   5029   5030   5031
5032   5033   5034   5035
5036   5037   5038   5039
5040   5041   5042   5043
5044   5045   5046   5047
5048   5049   5050   5051
5052   5053   5054   5055
5056   5057   5058   5059
5060   5061   5062   5063
5064   5065   5066   5067
5068   5069   5070   5071
5072   5073   5074   5075
5076   5077   5078   5079
5080   5081   5082   5083
5084   5085   5086   5087
5088   5089   5090   5091
5092   5093   5094   5095
5096   5097   5098   5099
5100   5101   5102   5103
5104   5105   5106   5107
5108   5109   5110   5111
5112   5113   5114   5115
5116   5117   5118   5119
5120   5121   5122   5123
5124   5125   5126   5127
5128   5129   5130   5131
5132   5133   5134   5135
5136   5137   5138   5139
5140   5141   5142   5143
5144   5145   5146   5147
5148   5149   5150   5151
5152   5153   5154   5155
5156   5157   5158   5159
5160   5161   5162   5163
5164   5165   5166   5167
5168   5169   5170   5171
5172   5173   5174   5175
5176   5177   5178   5179
5180   5181   5182   5183
5184   5185   5186   5187
5188   5189   5190   5191
5192   5193   5194   5195
5196   5197   5198   5199
5200   5201   5202   5203
5204   5205   5206   5207
5208   5209   5210   5211
5212   5213   5214   5215
5216   5217   5218   5219
5220   5221   5222   5223
5224   5225   5226   5227
5228   5229   5230   5231
5232   5233   5234   5235
5236   5237   5238   5239
5240   5241   5242   5243
5244   5245   5246   5247
5248   5249   5250   5251
5252   5253   5254   5255
5256   5257   5258   5259
5260   5261   5262   5263
5264   5265   5266   5267
5268   5269   5270   5271
5272   5273   5274   5275
5276   5277   5278   5279
5280   5281   5282   5283
5284   5285   5286   5287
5288   5289   5290   5291
5292   5293   5294   5295
5296   5297   5298   5299
5300   5301   5302   5303
5304   5305   5306   5307
5308   5309   5310   5311
5312   5313   5314   5315
5316   5317   5318   5319
5320   5321   5322   5323
5324   5325   5326   5327
5328   5329   5330   5331
5332   5333   5334   5335
5336   5337   5338   5339
5340   5341   5342   5343
5344   5345   5346   5347
5348   5349   5350   5351
5352   5353   5354   5355
5356   5357   5358   5359
5360   5361   5362   5363
5364   5365   5366   5367
5368   5369   5370   5371
5372   5373   5374   5375
5376   5377   5378   5379
5380   5381   5382   5383
5384   5385   5386   5387
5388   5389   5390   5391
5392   5393   5394   5395
5396   5397   5398   5399
5400   5401   5402   5403
5404   5405   5406   5407
5408   5409   5410   5411
5412   5413   5414   5415
5416   5417   5418   5419
5420   5421   5422   5423
5424   5425   5426   5427
5428   5429   5430   5431
5432   5433   5434   5435
5436   5437   5438   5439
5440   5441   5442   5443
5444   5445   5446   5447
5448   5449   5450   5451
5452   5453   5454   5455
5456   5457   5458   5459
5460   5461   5462   5463
5464   5465   5466   5467
5468   5469   5470   5471
5472   5473   5474   5475
5476   5477   5478   5479
5480   5481   5482   5483
5484   5485   5486   5487
5488   5489   5490   5491
5492   5493   5494   5495
5496   5497   5498   5499
5500   5501   5502   5503
5504   5505   5506   5507
5508   5509   5510   5511
5512   5513   5514   5515
5516   5517   5518   5519
5520   5521   5522   5523
5524   5525   5526   5527
5528   5529   5530   5531
5532   5533   5534   5535
5536   5537   5538   5539
5540   5541   5542   5543
5544   5545   5546   5547
5548   5549   5550   5551
5552   5553   5554   5555
5556   5557   5558   5559
5560   5561   5562   5563
5564   5565   5566   5567
5568   5569   5570   5571
5572   5573   5574   5575
5576   5577   5578   5579
5580   5581   5582   5583
5584   5585   5586   5587
5588   5589   5590   5591
5592   5593   5594   5595
5596   5597   5598   5599
5600   5601   5602   5603
5604   5605   5606   5607
5608   5609   5610   5611
5612   5613   5614   5615
5616   5617   5618   5619
5620   5621   5622   5623
5624   5625   5626   5627
5628   5629   5630   5631
5632   5633   5634   5635
5636   5637   5638   5639
5640   5641   5642   5643
5644   5645   5646   5647
5648   5649   5650   5651
5652   5653   5654   5655
5656   5657   5658   5659
5660   5661   5662   5663
5664   5665   5666   5667
5668   5669   5670   5671
5672   5673   5674   5675
5676   5677   5678   5679
5680   5681   5682   5683
5684   5685   5686   5687
5688   5689   5690   5691
5692   5693   5694   5695
5696   5697   5698   5699
5700   5701   5702   5703
5704   5705   5706   5707
5708   5709   5710   5711
5712   5713   5714   5715
5716   5717   5718   5719
5720   5721   5722   5723
5724   5725   5726   5727
5728   5729   5730   5731
5732   5733   5734   5735
5736   5737   5738   5739
5740   5741   5742   5743
5744   5745   5746   5747
5748   5749   5750   5751
5752   5753   5754   5755
5756   5757   5758   5759
5760   5761   5762   5763
5764   5765   5766   5767
5768   5769   5770   5771
5772   5773   5774   5775
5776   5777   5778   5779
5780   5781   5782   5783
5784   5785   5786   5787
5788   5789   5790   5791
5792   5793   5794   5795
5796   5797   5798   5799
5800   5801   5802   5803
5804   5805   5806   5807
5808   5809   5810   5811
5812   5813   5814   5815
5816   5817   5818   5819
5820   5821   5822   5823
5824   5825   5826   5827
5828   5829   5830   5831
5832   5833   5834   5835
5836   5837   5838   5839
5840   5841   5842   5843
5844   5845   5846   5847
5848   5849   5850   5851
5852   5853   5854   5855
5856   5857   5858   5859
5860   5861   5862   5863
5864   5865   5866   5867
5868   5869   5870   5871
5872   5873   5874   5875
5876   5877   5878   5879
5880   5881   5882   5883
5884   5885   5886   5887
5888   5889   5890   5891
5892   5893   5894   5895
5896   5897   5898   5899
5900   5901   5902   5903
5904   5905   5906   5907
5908   5909   5910   5911
5912   5913   5914   5915
5916   5917   5918   5919
5920   5921   5922   5923
5924   5925   5926   5927
5928   5929   5930   5931
5932   5933   5934   5935
5936   5937   5938   5939
5940   5941   5942   5943
5944   5945   5946   5947
5948   5949   5950   5951
5952   5953   5954   5955
5956   5957   5958   5959
5960   5961   5962   5963
5964   5965   5966   5967
5968   5969   5970   5971
5972   5973   5974   5975
5976   5977   5978   5979
5980   5981   5982   5983
5984   5985   5986   5987
5988   5989   5990   5991
5992   5993   5994   5995
5996   5997   5998   5999
              </DataArray>   
              <DataArray type="Int32" Name="offsets" format="ascii">   
4
8
12
16
20
24
28
32
36
40
44
48
52
56
60
64
68
72
76
80
84
88
92
96
100
104
108
112
116
120
124
128
132
136
140
144
148
152
156
160
164
168
172
176
180
184
188
192
196
200
204
208
212
216
220
224
228
232
236
240
244
248
252
256
260
264
268
272
276
280
284
288
292
296
300
304
308
312
316
320
324
328
332
336
340
344
348
352
356
360
364
368
372
376
380
384
388
392
396
400
404
408
412
416
420
424
428
432
436
440
444
448
452
456
460
464
468
472
476
480
484
488
492
496
500
504
508
512
516
520
524
528
532
536
540
544
548
552
556
560
564
568
572
576
580
584
588
592
596
600
604
608
612
616
620
624
628
632
636
640
644
648
652
656
660
664
668
672
676
680
684
688
692
696
700
704
708
712
716
720
724
728
732
736
740
744
748
752
756
760
764
768
772
776
780
784
788
792
796
800
804
808
812
816
820
824
828
832
836
840
844
848
852
856
860
864
868
872
876
880
884
888
892
896
900
904
908
912
916
920
924
928
932
936
940
944
948
952
956
960
964
968
972
976
980
984
988
992
996
1000
1004
1008
1012
1016
1020
1024
1028
1032
1036
1040
1044
1048
1052
1056
1060
1064
1068
1072
1076
1080
1084
1088
1092
1096
1100
1104
1108
1112
1116
1120
1124
1128
1132
1136
1140
1144
1148
1152
1156
1160
1164
1168
1172
1176
1180
1184
1188
1192
1196
1200
1204
1208
1212
1216
1220
1224
1228
1232
1236
1240
1244
1248
1252
1256
1260
1264
1268
1272
1276
1280
1284
1288
1292
1296
1300
1304
1308
1312
1316
1320
1324
1328
1332
1336
1340
1344
1348
1352
1356
1360
1364
1368
1372
1376
1380
1384
1388
1392
1396
1400
1404
1408
1412
1416
1420
1424
1428
1432
1436
1440
1444
1448
1452
1456
1460
1464
1468
1472
1476
1480
1484
1488
1492
1496
1500
1504
1508
1512
1516
1520
1524
1528
1532
1536
1540
1544
1548
1552
1556
1560
1564
1568
1572
1576
1580
1584
1588
1592
1596
1600
1604
1608
1612
1616
1620
1624
1628
1632
1636
1640
1644
1648
1652
1656
1660
1664
1668
1672
1676
1680
1684
1688
1692
1696
1700
1704
1708
1712
1716
1720
1724
1728
1732
1736
1740
1744
1748
1752
1756
1760
1764
1768
1772
1776
1780
1784
1788
1792
1796
1800
1804
1808
1812
1816
1820
1824
1828
1832
1836
1840
1844
1848
1852
1856
1860
1864
1868
1872
1876
1880
1884
1888
1892
1896
1900
1904
1908
1912
1916
1920
1924
1928
1932
1936
1940
1944
1948
1952
1956
1960
1964
1968
1972
1976
1980
1984
1988
1992
1996
2000
2004
2008
2012
2016
2020
2024
2028
2032
2036
2040
2044
2048
2052
2056
2060
2064
2068
2072
2076
2080
2084
2088
2092
2096
2100
2104
2108
2112
2116
2120
2124
2128
2132
2136
2140
2144
2148
2152
2156
2160
2164
2168
2172
2176
2180
2184
2188
2192
2196
2200
2204
2208
2212
2216
2220
2224
2228
2232
2236
2240
2244
2248
2252
2256
2260
2264
2268
2272
2276
2280
2284
2288
2292
2296
2300
2304
2308
2312
2316
2320
2324
2328
2332
2336
2340
2344
2348
2352
2356
2360
2364
2368
2372
2376
2380
2384
2388
2392
2396
2400
2404
2408
2412
2416
2420
2424
2428
2432
2436
2440
2444
2448
2452
2456
2460
2464
2468
2472
2476
2480
2484
2488
2492
2496
2500
2504
2508
2512
2516
2520
2524
2528
2532
2536
2540
2544
2548
2552
2556
2560
2564
2568
2572
2576
2580
2584
2588
2592
2596
2600
2604
2608
2612
2616
2620
2624
2628
2632
2636
2640
2644
2648
2652
2656
2660
2664
2668
2672
2676
2680
2684
2688
2692
2696
2700
2704
2708
2712
2716
2720
2724
2728
2732
2736
2740
2744
2748
2752
2756
2760
2764
2768
2772
2776
2780
2784
2788
2792
2796
2800
2804
2808
2812
2816
2820
2824
2828
2832
2836
2840
2844
2848
2852
2856
2860
2864
2868
2872
2876
2880
2884
2888
2892
2896
2900
2904
2908
2912
2916
2920
2924
2928
2932
2936
2940
2944
2948
2952
2956
2960
2964
2968
2972
2976
2980
2984
2988
2992
2996
3000
3004
3008
3012
3016
3020
3024
3028
3032
3036
3040
3044
3048
3052
3056
3060
3064
3068
3072
3076
3080
3084
3088
3092
3096
3100
3104
3108
3112
3116
3120
3124
3128
3132
3136
3140
3144
3148
3152
3156
3160
3164
3168
3172
3176
3180
3184
3188
3192
3196
3200
3204
3208
3212
3216
3220
3224
3228
3232
3236
3240
3244
3248
3252
3256
3260
3264
3268
3272
3276
3280
3284
3288
3292
3296
3300
3304
3308
3312
3316
3320
3324
3328
3332
3336
3340
3344
3348
3352
3356
3360
3364
3368
3372
3376
3380
3384
3388
3392
3396
3400
3404
3408
3412
3416
3420
3424
3428
3432
3436
3440
3444
3448
3452
3456
3460
3464
3468
3472
3476
3480
3484
3488
3492
3496
3500
3504
3508
3512
3516
3520
3524
3528
3532
3536
3540
3544
3548
3552
3556
3560
3564
3568
3572
3576
3580
3584
3588
3592
3596
3600
3604
3608
3612
3616
3620
3624
3628
3632
3636
3640
3644
3648
3652
3656
3660
3664
3668
3672
3676
3680
3684
3688
3692
3696
3700
3704
3708
3712
3716
3720
3724
3728
3732
3736
3740
3744
3748
3752
3756
3760
3764
3768
3772
3776
3780
3784
3788
3792
3796
3800
3804
3808
3812
3816
3820
3824
3828
3832
3836
3840
3844
3848
3852
3856
3860
3864
3868
3872
3876
3880
3884
3888
3892
3896
3900
3904
3908
3912
3916
3920
3924
3928
3932
3936
3940
3944
3948
3952
3956
3960
3964
3968
3972
3976
3980
3984
3988
3992
3996
4000
4004
4008
4012
4016
4020
4024
4028
4032
4036
4040
4044
4048
4052
4056
4060
4064
4068
4072
4076
4080
4084
4088
4092
4096
4100
4104
4108
4112
4116
4120
4124
4128
4132
4136
4140
4144
4148
4152
4156
4160
4164
4168
4172
4176
4180
4184
4188
4192
4196
4200
4204
4208
4212
4216
4220
4224
4228
4232
4236
4240
4244
4248
4252
4256
4260
4264
4268
4272
4276
4280
4284
4288
4292
4296
4300
4304
4308
4312
4316
4320
4324
4328
4332
4336
4340
4344
4348
4352
4356
4360
4364
4368
4372
4376
4380
4384
4388
4392
4396
4400
4404
4408
4412
4416
4420
4424
4428
4432
4436
4440
4444
4448
4452
4456
4460
4464
4468
4472
4476
4480
4484
4488
4492
4496
4500
4504
4508
4512
4516
4520
4524
4528
4532
4536
4540
4544
4548
4552
4556
4560
4564
4568
4572
4576
4580
4584
4588
4592
4596
4600
4604
4608
4612
4616
4620
4624
4628
4632
4636
4640
4644
4648
4652
4656
4660
4664
4668
4672
4676
4680
4684
4688
4692
4696
4700
4704
4708
4712
4716
4720
4724
4728
4732
4736
4740
4744
4748
4752
4756
4760
4764
4768
4772
4776
4780
4784
4788
4792
4796
4800
4804
4808
4812
4816
4820
4824
4828
4832
4836
4840
4844
4848
4852
4856
4860
4864
4868
4872
4876
4880
4884
4888
4892
4896
4900
4904
4908
4912
4916
4920
4924
4928
4932
4936
4940
4944
4948
4952
4956
4960
4964
4968
4972
4976
4980
4984
4988
4992
4996
5000
5004
5008
5012
5016
5020
5024
5028
5032
5036
5040
5044
5048
5052
5056
5060
5064
5068
5072
5076
5080
5084
5088
5092
5096
5100
5104
5108
5112
5116
5120
5124
5128
5132
5136
5140
5144
5148
5152
5156
5160
5164
5168
5172
5176
5180
5184
5188
5192
5196
5200
5204
5208
5212
5216
5220
5224
5228
5232
5236
5240
5244
5248
5252
5256
5260
5264
5268
5272
5276
5280
5284
5288
5292
5296
5300
5304
5308
5312
5316
5320
5324
5328
5332
5336
5340
5344
5348
5352
5356
5360
5364
5368
5372
5376
5380
5384
5388
5392
5396
5400
5404
5408
5412
5416
5420
5424
5428
5432
5436
5440
5444
5448
5452
5456
5460
5464
5468
5472
5476
5480
5484
5488
5492
5496
5500
5504
5508
5512
5516
5520
5524
5528
5532
5536
5540
5544
5548
5552
5556
5560
5564
5568
5572
5576
5580
5584
5588
5592
5596
5600
5604
5608
5612
5616
5620
5624
5628
5632
5636
5640
5644
5648
5652
5656
5660
5664
5668
5672
5676
5680
5684
5688
5692
5696
5700
5704
5708
5712
5716
5720
5724
5728
5732
5736
5740
5744
5748
5752
5756
5760
5764
5768
5772
5776
5780
5784
5788
5792
5796
5800
5804
5808
5812
5816
5820
5824
5828
5832
5836
5840
5844
5848
5852
5856
5860
5864
5868
5872
5876
5880
5884
5888
5892
5896
5900
5904
5908
5912
5916
5920
5924
5928
5932
5936
5940
5944
5948
5952
5956
5960
5964
5968
5972
5976
5980
5984
5988
5992
5996
6000
              </DataArray>   
              <DataArray type="UInt8" Name="types" format="ascii">   
10
10
10
10
10
10
10
10
10
10
10
10
10
10
10
10
10
10
10
10
10
10
10
10
10
10
10
10
10
10
10
10
10
10
10
10
10
10
10
10
10
10
10
10
10
10
10
10
10
10
10
10
10
10
10
10
10
10
10
10
10
10
10
10
10
10
10
10
10
10
10
10
10
10
10
10
10
10
10
10
10
10
10
10
10
10
10
10
10
10
10
10
10
10
10
10
10
10
10
10
10
10
10
10
10
10
10
10
10
10
10
10
10
10
10
10
10
10
10
10
10
10
10
10
10
10
10
10
10
10
10
10
10
10
10
10
10
10
10
10
10
10
10
10
10
10
10
10
10
10
10
10
10
10
10
10
10
10
10
10
10
10
10
10
10
10
10
10
10
10
10
10
10
10
10
10
10
10
10
10
10
10
10
10
10
10
10
10
10
10
10
10
10
10
10
10
10
10
10
10
10
10
10
10
10
10
10
10
10
10
10
10
10
10
10
10
10
10
10
10
10
10
10
10
10
10
10
10
10
10
10
10
10
10
10
10
10
10
10
10
10
10
10
10
10
10
10
10
10
10
10
10
10
10
10
10
10
10
10
10
10
10
10
10
10
10
10
10
10
10
10
10
10
10
10
10
10
10
10
10
10
10
10
10
10
10
10
10
10
10
10
10
10
10
10
10
10
10
10
10
10
10
10
10
10
10
10
10
10
10
10
10
10
10
10
10
10
10
10
10
10
10
10
10
10
10
10
10
10
10
10
10
10
10
10
10
10
10
10
10
10
10
10
10
10
10
10
10
10
10
10
10
10
10
10
10
10
10
10
10
10
10
10
10
10
10
10
10
10
10
10
10
10
10
10
10
10
10
10
10
10
10
10
10
10
10
10
10
10
10
10
10
10
10
10
10
10
10
10
10
10
10
10
10
10
10
10
10
10
10
10
10
10
10
10
10
10
10
10
10
10
10
10
10
10
10
10
10
10
10
10
10
10
10
10
10
10
10
10
10
10
10
10
10
10
10
10
10
10
10
10
10
10
10
10
10
10
10
10
10
10
10
10
10
10
10
10
10
10
10
10
10
10
10
10
10
10
10
10
10
10
10
10
10
10
10
10
10
10
10
10
10
10
10
10
10
10
10
10
10
10
10
10
10
10
10
10
10
10
10
10
10
10
10
10
10
10
10
10
10
10
10
10
10
10
10
10
10
10
10
10
10
10
10
10
10
10
10
10
10
10
10
10
10
10
10
10
10
10
10
10
10
10
10
10
10
10
10
10
10
10
10
10
10
10
10
10
10
10
10
10
10
10
10
10
10
10
10
10
10
10
10
10
10
10
10
10
10
10
10
10
10
10
10
10
10
10
10
10
10
10
10
10
10
10
10
10
10
10
10
10
10
10
10
10
10
10
10
10
10
10
10
10
10
10
10
10
10
10
10
10
10
10
10
10
10
10
10
10
10
10
10
10
10
10
10
10
10
10
10
10
10
10
10
10
10
10
10
10
10
10
10
10
10
10
10
10
10
10
10
10
10
10
10
10
10
10
10
10
10
10
10
10
10
10
10
10
10
10
10
10
10
10
10
10
10
10
10
10
10
10
10
10
10
10
10
10
10
10
10
10
10
10
10
10
10
10
10
10
10
10
10
10
10
10
10
10
10
10
10
10
10
10
10
10
10
10
10
10
10
10
10
10
10
10
10
10
10
10
10
10
10
10
10
10
10
10
10
10
10
10
10
10
10
10
10
10
10
10
10
10
10
10
10
10
10
10
10
10
10
10
10
10
10
10
10
10
10
10
10
10
10
10
10
10
10
10
10
10
10
10
10
10
10
10
10
10
10
10
10
10
10
10
10
10
10
10
10
10
10
10
10
10
10
10
10
10
10
10
10
10
10
10
10
10
10
10
10
10
10
10
10
10
10
10
10
10
10
10
10
10
10
10
10
10
10
10
10
10
10
10
10
10
10
10
10
10
10
10
10
10
10
10
10
10
10
10
10
10
10
10
10
10
10
10
10
10
10
10
10
10
10
10
10
10
10
10
10
10
10
10
10
10
10
10
10
10
10
10
10
10
10
10
10
10
10
10
10
10
10
10
10
10
10
10
10
10
10
10
10
10
10
10
10
10
10
10
10
10
10
10
10
10
10
10
10
10
10
10
10
10
10
10
10
10
10
10
10
10
10
10
10
10
10
10
10
10
10
10
10
10
10
10
10
10
10
10
10
10
10
10
10
10
10
10
10
10
10
10
10
10
10
10
10
10
10
10
10
10
10
10
10
10
10
10
10
10
10
10
10
10
10
10
10
10
10
10
10
10
10
10
10
10
10
10
10
10
10
10
10
10
10
10
10
10
10
10
10
10
10
10
10
10
10
10
10
10
10
10
10
10
10
10
10
10
10
10
10
10
10
10
10
10
10
10
10
10
10
10
10
10
10
10
10
10
10
10
10
10
10
10
10
10
10
10
10
10
10
10
10
10
10
10
10
10
10
10
10
10
10
10
10
10
10
10
10
10
10
10
10
10
10
10
10
10
10
10
10
10
10
10
10
10
10
10
10
10
10
10
10
10
10
10
10
10
10
10
10
10
10
10
10
10
10
10
10
10
10
10
10
10
10
10
10
10
10
10
10
10
10
10
10
10
10
10
10
10
10
10
10
10
10
10
10
10
10
10
10
10
10
10
10
10
10
10
10
10
10
10
10
10
10
10
10
10
10
10
10
10
10
10
10
10
10
10
10
10
10
10
10
10
10
10
10
10
10
10
10
10
10
10
10
10
10
10
10
10
10
10
10
10
10
10
10
10
10
10
10
10
10
10
10
10
10
10
10
10
10
10
10
10
10
10
10
10
10
10
10
10
10
10
10
10
10
10
10
10
10
10
10
10
10
10
10
10
10
10
10
10
10
10
10
10
10
10
10
10
10
10
10
10
10
10
10
10
10
10
10
10
10
10
10
10
10
10
10
10
10
10
10
10
10
10
10
10
10
10
10
10
10
10
10
10
10
10
10
10
10
10
10
10
10
10
10
10
10
10
10
10
10
10
10
10
10
10
10
10
10
10
10
10
10
10
10
10
10
10
10
10
10
10
10
10
10
10
10
10
10
10
10
10
10
10
10
10
10
10
10
10
10
10
10
10
10
10
10
10
10
10
10
10
10
10
10
10
10
10
10
10
10
10
10
10
10
10
10
10
10
10
10
10
10
10
10
10
10
10
10
10
10
10
10
10
10
10
10
10
10
10
10
10
10
10
10
10
10
10
10
10
10
10
10
10
10
10
10
10
10
10
10
10
10
10
10
10
10
10
10
10
10
10
10
10
10
10
10
10
10
10
10
10
10
10
10
10
10
10
10
10
10
10
10
10
10
10
10
10
10
10
10
10
10
10
10
10
10
10
10
10
10
              </DataArray>   
          </Cells>  
          <PointData>  
             <DataArray type="Float64" NumberOfComponents="3" Name="Strains" format="ascii">   
-3.804594846542265e-05   0.0   -2.5126140459846726e-05
-3.804594846542265e-05   0.0   -2.5126140459846726e-05
-3.804594846542265e-05   0.0   -2.5126140459846726e-05
-3.804594846542265e-05   0.0   -2.5126140459846726e-05
-2.419389159319347e-05   4.1939932969488415e-06   4.770169720378251e-07
-2.419389159319347e-05   4.1939932969488415e-06   4.770169720378251e-07
-2.419389159319347e-05   4.1939932969488415e-06   4.770169720378251e-07
-2.419389159319347e-05   4.1939932969488415e-06   4.770169720378251e-07
-2.370477280359978e-05   0.0   -2.3734733555815348e-05
-2.370477280359978e-05   0.0   -2.3734733555815348e-05
-2.370477280359978e-05   0.0   -2.3734733555815348e-05
-2.370477280359978e-05   0.0   -2.3734733555815348e-05
-3.9803725816603134e-05   5.0429144266388645e-06   7.110614320703687e-08
-3.9803725816603134e-05   5.0429144266388645e-06   7.110614320703687e-08
-3.9803725816603134e-05   5.0429144266388645e-06   7.110614320703687e-08
-3.9803725816603134e-05   5.0429144266388645e-06   7.110614320703687e-08
-3.0875360634511164e-05   1.1595057533594804e-06   -1.2479457289645285e-05
-3.0875360634511164e-05   1.1595057533594804e-06   -1.2479457289645285e-05
-3.0875360634511164e-05   1.1595057533594804e-06   -1.2479457289645285e-05
-3.0875360634511164e-05   1.1595057533594804e-06   -1.2479457289645285e-05
-3.98037258166032e-05   0.0   -2.676048221179867e-05
-3.98037258166032e-05   0.0   -2.676048221179867e-05
-3.98037258166032e-05   0.0   -2.676048221179867e-05
-3.98037258166032e-05   0.0   -2.676048221179867e-05
-2.370477280359978e-05   5.042914426638871e-06   3.096854799190353e-06
-2.370477280359978e-05   5.042914426638871e-06   3.096854799190353e-06
-2.370477280359978e-05   5.042914426638871e-06   3.096854799190353e-06
-2.370477280359978e-05   5.042914426638871e-06   3.096854799190353e-06
-2.3760117061588145e-05   0.0   -2.431257908917859e-05
-2.3760117061588145e-05   0.0   -2.431257908917859e-05
-2.3760117061588145e-05   0.0   -2.431257908917859e-05
-2.3760117061588145e-05   0.0   -2.431257908917859e-05
-4.103291281029405e-05   5.405421547778658e-06   1.2321608966641605e-06
-4.103291281029405e-05   5.405421547778658e-06   1.2321608966641605e-06
-4.103291281029405e-05   5.405421547778658e-06   1.2321608966641605e-06
-4.103291281029405e-05   5.405421547778658e-06   1.2321608966641605e-06
-3.178192143909562e-05   2.039919268850066e-06   -1.2166856687976047e-05
-3.178192143909562e-05   2.039919268850066e-06   -1.2166856687976047e-05
-3.178192143909562e-05   2.039919268850066e-06   -1.2166856687976047e-05
-3.178192143909562e-05   2.039919268850066e-06   -1.2166856687976047e-05
-4.1032912810294124e-05   0.0   -2.7555832017845794e-05
-4.1032912810294124e-05   0.0   -2.7555832017845794e-05
-4.1032912810294124e-05   0.0   -2.7555832017845794e-05
-4.1032912810294124e-05   0.0   -2.7555832017845794e-05
-2.3760117061588145e-05   5.405421547778672e-06   4.475413825331377e-06
-2.3760117061588145e-05   5.405421547778672e-06   4.475413825331377e-06
-2.3760117061588145e-05   5.405421547778672e-06   4.475413825331377e-06
-2.3760117061588145e-05   5.405421547778672e-06   4.475413825331377e-06
-2.373465617000495e-05   0.0   -2.4462876940899783e-05
-2.373465617000495e-05   0.0   -2.4462876940899783e-05
-2.373465617000495e-05   0.0   -2.4462876940899783e-05
-2.373465617000495e-05   0.0   -2.4462876940899783e-05
-4.36923400600631e-05   6.166310537511119e-06   5.100143220023909e-06
-4.36923400600631e-05   6.166310537511119e-06   5.100143220023909e-06
-4.36923400600631e-05   6.166310537511119e-06   5.100143220023909e-06
-4.36923400600631e-05   6.166310537511119e-06   5.100143220023909e-06
-3.238378449014948e-05   2.5774625641216725e-06   -1.159414061246511e-05
-3.238378449014948e-05   2.5774625641216725e-06   -1.159414061246511e-05
-3.238378449014948e-05   2.5774625641216725e-06   -1.159414061246511e-05
-3.238378449014948e-05   2.5774625641216725e-06   -1.159414061246511e-05
-2.419389159319351e-05   0.0   -2.2609744481677417e-05
-2.419389159319351e-05   0.0   -2.2609744481677417e-05
-2.419389159319351e-05   0.0   -2.2609744481677417e-05
-2.419389159319351e-05   0.0   -2.2609744481677417e-05
-1.103133652661681e-05   1.5341847438444248e-06   2.483581422570601e-07
-1.103133652661681e-05   1.5341847438444248e-06   2.483581422570601e-07
-1.103133652661681e-05   1.5341847438444248e-06   2.483581422570601e-07
-1.103133652661681e-05   1.5341847438444248e-06   2.483581422570601e-07
-1.0598567858864309e-05   0.0   -2.2420106294876135e-05
-1.0598567858864309e-05   0.0   -2.2420106294876135e-05
-1.0598567858864309e-05   0.0   -2.2420106294876135e-05
-1.0598567858864309e-05   0.0   -2.2420106294876135e-05
-2.370477280359978e-05   2.1910454348986818e-06   -1.8910586479228958e-06
-2.370477280359978e-05   2.1910454348986818e-06   -1.8910586479228958e-06
-2.370477280359978e-05   2.1910454348986818e-06   -1.8910586479228958e-06
-2.370477280359978e-05   2.1910454348986818e-06   -1.8910586479228958e-06
-1.739622972602888e-05   1.580318223344006e-07   -1.1185488943002414e-05
-1.739622972602888e-05   1.580318223344006e-07   -1.1185488943002414e-05
-1.739622972602888e-05   1.580318223344006e-07   -1.1185488943002414e-05
-1.739622972602888e-05   1.580318223344006e-07   -1.1185488943002414e-05
-2.370477280359976e-05   0.0   -2.3734733555815327e-05
-2.370477280359976e-05   0.0   -2.3734733555815327e-05
-2.370477280359976e-05   0.0   -2.3734733555815327e-05
-2.370477280359976e-05   0.0   -2.3734733555815327e-05
-1.0598567858864309e-05   2.1910454348986818e-06   -5.764313869836833e-07
-1.0598567858864309e-05   2.1910454348986818e-06   -5.764313869836833e-07
-1.0598567858864309e-05   2.1910454348986818e-06   -5.764313869836833e-07
-1.0598567858864309e-05   2.1910454348986818e-06   -5.764313869836833e-07
-1.0350807716189034e-05   0.0   -2.269915936769534e-05
-1.0350807716189034e-05   0.0   -2.269915936769534e-05
-1.0350807716189034e-05   0.0   -2.269915936769534e-05
-1.0350807716189034e-05   0.0   -2.269915936769534e-05
-2.3760117061588145e-05   2.689032869138747e-06   -1.9637301801800743e-06
-2.3760117061588145e-05   2.689032869138747e-06   -1.9637301801800743e-06
-2.3760117061588145e-05   2.689032869138747e-06   -1.9637301801800743e-06
-2.3760117061588145e-05   2.689032869138747e-06   -1.9637301801800743e-06
-1.7027790259894373e-05   8.629784901000038e-07   -1.2088642222246346e-05
-1.7027790259894373e-05   8.629784901000038e-07   -1.2088642222246346e-05
-1.7027790259894373e-05   8.629784901000038e-07   -1.2088642222246346e-05
-1.7027790259894373e-05   8.629784901000038e-07   -1.2088642222246346e-05
-2.3760117061588145e-05   0.0   -2.431257908917859e-05
-2.3760117061588145e-05   0.0   -2.431257908917859e-05
-2.3760117061588145e-05   0.0   -2.431257908917859e-05
-2.3760117061588145e-05   0.0   -2.431257908917859e-05
-1.0350807716189034e-05   2.689032869138747e-06   -3.5031045869682466e-07
-1.0350807716189034e-05   2.689032869138747e-06   -3.5031045869682466e-07
-1.0350807716189034e-05   2.689032869138747e-06   -3.5031045869682466e-07
-1.0350807716189034e-05   2.689032869138747e-06   -3.5031045869682466e-07
-1.012330174257028e-05   0.0   -2.2583837067843023e-05
-1.012330174257028e-05   0.0   -2.2583837067843023e-05
-1.012330174257028e-05   0.0   -2.2583837067843023e-05
-1.012330174257028e-05   0.0   -2.2583837067843023e-05
-2.3734656170004887e-05   3.1317331217612296e-06   -1.7772862285086614e-06
-2.3734656170004887e-05   3.1317331217612296e-06   -1.7772862285086614e-06
-2.3734656170004887e-05   3.1317331217612296e-06   -1.7772862285086614e-06
-2.3734656170004887e-05   3.1317331217612296e-06   -1.7772862285086614e-06
-1.6941709402079207e-05   1.4406183511129582e-06   -1.2084195312662585e-05
-1.6941709402079207e-05   1.4406183511129582e-06   -1.2084195312662585e-05
-1.6941709402079207e-05   1.4406183511129582e-06   -1.2084195312662585e-05
-1.6941709402079207e-05   1.4406183511129582e-06   -1.2084195312662585e-05
-1.1031336526616828e-05   0.0   -2.168923363537076e-05
-1.1031336526616828e-05   0.0   -2.168923363537076e-05
-1.1031336526616828e-05   0.0   -2.168923363537076e-05
-1.1031336526616828e-05   0.0   -2.168923363537076e-05
1.3949707477912241e-06   -1.9956753938009825e-07   -1.0984620349853783e-06
1.3949707477912241e-06   -1.9956753938009825e-07   -1.0984620349853783e-06
1.3949707477912241e-06   -1.9956753938009825e-07   -1.0984620349853783e-06
1.3949707477912241e-06   -1.9956753938009825e-07   -1.0984620349853783e-06
1.6765405963479281e-06   0.0   -2.218624733319293e-05
1.6765405963479281e-06   0.0   -2.218624733319293e-05
1.6765405963479281e-06   0.0   -2.218624733319293e-05
1.6765405963479281e-06   0.0   -2.218624733319293e-05
-1.0598567858864309e-05   3.897649361385525e-07   -1.961592202855734e-06
-1.0598567858864309e-05   3.897649361385525e-07   -1.961592202855734e-06
-1.0598567858864309e-05   3.897649361385525e-07   -1.961592202855734e-06
-1.0598567858864309e-05   3.897649361385525e-07   -1.961592202855734e-06
-4.677397965134439e-06   -4.1417808151853556e-07   -1.1347842881811219e-05
-4.677397965134439e-06   -4.1417808151853556e-07   -1.1347842881811219e-05
-4.677397965134439e-06   -4.1417808151853556e-07   -1.1347842881811219e-05
-4.677397965134439e-06   -4.1417808151853556e-07   -1.1347842881811219e-05
-1.0598567858864309e-05   0.0   -2.2420106294876135e-05
-1.0598567858864309e-05   0.0   -2.2420106294876135e-05
-1.0598567858864309e-05   0.0   -2.2420106294876135e-05
-1.0598567858864309e-05   0.0   -2.2420106294876135e-05
1.6765405963479311e-06   3.897649361385525e-07   -1.7277332411725997e-06
1.6765405963479311e-06   3.897649361385525e-07   -1.7277332411725997e-06
1.6765405963479311e-06   3.897649361385525e-07   -1.7277332411725997e-06
1.6765405963479311e-06   3.897649361385525e-07   -1.7277332411725997e-06
1.9002943516375528e-06   0.0   -2.2153622868980893e-05
1.9002943516375528e-06   0.0   -2.2153622868980893e-05
1.9002943516375528e-06   0.0   -2.2153622868980893e-05
1.9002943516375528e-06   0.0   -2.2153622868980893e-05
-1.0350807716189015e-05   9.092274978573386e-07   -2.280655921317686e-06
-1.0350807716189015e-05   9.092274978573386e-07   -2.280655921317686e-06
-1.0350807716189015e-05   9.092274978573386e-07   -2.280655921317686e-06
-1.0350807716189015e-05   9.092274978573386e-07   -2.280655921317686e-06
-4.349136753613377e-06   2.2206952157933563e-07   -1.1871146073176973e-05
-4.349136753613377e-06   2.2206952157933563e-07   -1.1871146073176973e-05
-4.349136753613377e-06   2.2206952157933563e-07   -1.1871146073176973e-05
-4.349136753613377e-06   2.2206952157933563e-07   -1.1871146073176973e-05
-1.0350807716189034e-05   0.0   -2.269915936769534e-05
-1.0350807716189034e-05   0.0   -2.269915936769534e-05
-1.0350807716189034e-05   0.0   -2.269915936769534e-05
-1.0350807716189034e-05   0.0   -2.269915936769534e-05
1.9002943516375562e-06   9.092274978573454e-07   -1.7351194226032878e-06
1.9002943516375562e-06   9.092274978573454e-07   -1.7351194226032878e-06
1.9002943516375562e-06   9.092274978573454e-07   -1.7351194226032878e-06
1.9002943516375562e-06   9.092274978573454e-07   -1.7351194226032878e-06
2.1975361480572514e-06   0.0   -2.16777090600486e-05
2.1975361480572514e-06   0.0   -2.16777090600486e-05
2.1975361480572514e-06   0.0   -2.16777090600486e-05
2.1975361480572514e-06   0.0   -2.16777090600486e-05
-1.0123301742570269e-05   1.5102133463240031e-06   -2.0491072501304687e-06
-1.0123301742570269e-05   1.5102133463240031e-06   -2.0491072501304687e-06
-1.0123301742570269e-05   1.5102133463240031e-06   -2.0491072501304687e-06
-1.0123301742570269e-05   1.5102133463240031e-06   -2.0491072501304687e-06
-4.076635784065882e-06   8.512085897055828e-07   -1.173148099366672e-05
-4.076635784065882e-06   8.512085897055828e-07   -1.173148099366672e-05
-4.076635784065882e-06   8.512085897055828e-07   -1.173148099366672e-05
-4.076635784065882e-06   8.512085897055828e-07   -1.173148099366672e-05
1.3949707477912267e-06   0.0   -2.180897415899882e-05
1.3949707477912267e-06   0.0   -2.180897415899882e-05
1.3949707477912267e-06   0.0   -2.180897415899882e-05
1.3949707477912267e-06   0.0   -2.180897415899882e-05
1.4893329481920826e-05   -1.7468960589475343e-06   -3.5984723748465835e-07
1.4893329481920826e-05   -1.7468960589475343e-06   -3.5984723748465835e-07
1.4893329481920826e-05   -1.7468960589475343e-06   -3.5984723748465835e-07
1.4893329481920826e-05   -1.7468960589475343e-06   -3.5984723748465835e-07
1.493404020612299e-05   0.0   -2.297445824724845e-05
1.493404020612299e-05   0.0   -2.297445824724845e-05
1.493404020612299e-05   0.0   -2.297445824724845e-05
1.493404020612299e-05   0.0   -2.297445824724845e-05
1.676540596347934e-06   -1.313684856759071e-06   -9.04146502345824e-08
1.676540596347934e-06   -1.313684856759071e-06   -9.04146502345824e-08
1.676540596347934e-06   -1.313684856759071e-06   -9.04146502345824e-08
1.676540596347934e-06   -1.313684856759071e-06   -9.04146502345824e-08
8.164505476957109e-06   -9.712367402080253e-07   -1.1109158321180493e-05
8.164505476957109e-06   -9.712367402080253e-07   -1.1109158321180493e-05
8.164505476957109e-06   -9.712367402080253e-07   -1.1109158321180493e-05
8.164505476957109e-06   -9.712367402080253e-07   -1.1109158321180493e-05
1.676540596347934e-06   0.0   -2.2186247333193007e-05
1.676540596347934e-06   0.0   -2.2186247333193007e-05
1.676540596347934e-06   0.0   -2.2186247333193007e-05
1.676540596347934e-06   0.0   -2.2186247333193007e-05
1.493404020612299e-05   -1.313684856759071e-06   -8.786255642900261e-07
1.493404020612299e-05   -1.313684856759071e-06   -8.786255642900261e-07
1.493404020612299e-05   -1.313684856759071e-06   -8.786255642900261e-07
1.493404020612299e-05   -1.313684856759071e-06   -8.786255642900261e-07
1.4882341193301704e-05   0.0   -2.264649358834917e-05
1.4882341193301704e-05   0.0   -2.264649358834917e-05
1.4882341193301704e-05   0.0   -2.264649358834917e-05
1.4882341193301704e-05   0.0   -2.264649358834917e-05
1.9002943516375562e-06   -8.214511989470649e-07   -5.168781328740219e-07
1.9002943516375562e-06   -8.214511989470649e-07   -5.168781328740219e-07
1.9002943516375562e-06   -8.214511989470649e-07   -5.168781328740219e-07
1.9002943516375562e-06   -8.214511989470649e-07   -5.168781328740219e-07
8.27944089482482e-06   -3.8353854596347644e-07   -1.1411536629976273e-05
8.27944089482482e-06   -3.8353854596347644e-07   -1.1411536629976273e-05
8.27944089482482e-06   -3.8353854596347644e-07   -1.1411536629976273e-05
8.27944089482482e-06   -3.8353854596347644e-07   -1.1411536629976273e-05
1.9002943516375545e-06   0.0   -2.2153622868980914e-05
1.9002943516375545e-06   0.0   -2.2153622868980914e-05
1.9002943516375545e-06   0.0   -2.2153622868980914e-05
1.9002943516375545e-06   0.0   -2.2153622868980914e-05
1.4882341193301704e-05   -8.214511989470649e-07   -1.0097488522422637e-06
1.4882341193301704e-05   -8.214511989470649e-07   -1.0097488522422637e-06
1.4882341193301704e-05   -8.214511989470649e-07   -1.0097488522422637e-06
1.4882341193301704e-05   -8.214511989470649e-07   -1.0097488522422637e-06
1.5182348856750456e-05   0.0   -2.1774156812795203e-05
1.5182348856750456e-05   0.0   -2.1774156812795203e-05
1.5182348856750456e-05   0.0   -2.1774156812795203e-05
1.5182348856750456e-05   0.0   -2.1774156812795203e-05
2.197536148057255e-06   -1.6074625457760815e-07   -3.635454555997216e-08
2.197536148057255e-06   -1.6074625457760815e-07   -3.635454555997216e-08
2.197536148057255e-06   -1.6074625457760815e-07   -3.635454555997216e-08
2.197536148057255e-06   -1.6074625457760815e-07   -3.635454555997216e-08
8.541321604194e-06   3.1622171348810605e-07   -1.0895511086627302e-05
8.541321604194e-06   3.1622171348810605e-07   -1.0895511086627302e-05
8.541321604194e-06   3.1622171348810605e-07   -1.0895511086627302e-05
8.541321604194e-06   3.1622171348810605e-07   -1.0895511086627302e-05
1.4893329481920826e-05   0.0   -2.285711179436734e-05
1.4893329481920826e-05   0.0   -2.285711179436734e-05
1.4893329481920826e-05   0.0   -2.285711179436734e-05
1.4893329481920826e-05   0.0   -2.285711179436734e-05
3.369904635580671e-05   -4.437945085597169e-06   5.822982610751019e-06
3.369904635580671e-05   -4.437945085597169e-06   5.822982610751019e-06
3.369904635580671e-05   -4.437945085597169e-06   5.822982610751019e-06
3.369904635580671e-05   -4.437945085597169e-06   5.822982610751019e-06
3.1667323812465015e-05   0.0   -2.523554041305325e-05
3.1667323812465015e-05   0.0   -2.523554041305325e-05
3.1667323812465015e-05   0.0   -2.523554041305325e-05
3.1667323812465015e-05   0.0   -2.523554041305325e-05
1.493404020612299e-05   -3.7684702763413354e-06   4.914347763321582e-06
1.493404020612299e-05   -3.7684702763413354e-06   4.914347763321582e-06
1.493404020612299e-05   -3.7684702763413354e-06   4.914347763321582e-06
1.493404020612299e-05   -3.7684702763413354e-06   4.914347763321582e-06
2.328032664719292e-05   -1.982023848904926e-06   -1.0067997494923461e-05
2.328032664719292e-05   -1.982023848904926e-06   -1.0067997494923461e-05
2.328032664719292e-05   -1.982023848904926e-06   -1.0067997494923461e-05
2.328032664719292e-05   -1.982023848904926e-06   -1.0067997494923461e-05
1.4934040206122977e-05   0.0   -2.297445824724843e-05
1.4934040206122977e-05   0.0   -2.297445824724843e-05
1.4934040206122977e-05   0.0   -2.297445824724843e-05
1.4934040206122977e-05   0.0   -2.297445824724843e-05
3.1667323812464906e-05   -3.768470276341322e-06   2.653265597516775e-06
3.1667323812464906e-05   -3.768470276341322e-06   2.653265597516775e-06
3.1667323812464906e-05   -3.768470276341322e-06   2.653265597516775e-06
3.1667323812464906e-05   -3.768470276341322e-06   2.653265597516775e-06
3.073595362254952e-05   0.0   -2.4711014126057804e-05
3.073595362254952e-05   0.0   -2.4711014126057804e-05
3.073595362254952e-05   0.0   -2.4711014126057804e-05
3.073595362254952e-05   0.0   -2.4711014126057804e-05
1.4882341193301704e-05   -3.440867562847721e-06   3.7761937937305127e-06
1.4882341193301704e-05   -3.440867562847721e-06   3.7761937937305127e-06
1.4882341193301704e-05   -3.440867562847721e-06   3.7761937937305127e-06
1.4882341193301704e-05   -3.440867562847721e-06   3.7761937937305127e-06
2.2834996914336244e-05   -1.447129899007798e-06   -1.0674475006297669e-05
2.2834996914336244e-05   -1.447129899007798e-06   -1.0674475006297669e-05
2.2834996914336244e-05   -1.447129899007798e-06   -1.0674475006297669e-05
2.2834996914336244e-05   -1.447129899007798e-06   -1.0674475006297669e-05
1.4882341193301704e-05   0.0   -2.264649358834917e-05
1.4882341193301704e-05   0.0   -2.264649358834917e-05
1.4882341193301704e-05   0.0   -2.264649358834917e-05
1.4882341193301704e-05   0.0   -2.264649358834917e-05
3.073595362254941e-05   -3.4408675628477074e-06   1.7116732560218666e-06
3.073595362254941e-05   -3.4408675628477074e-06   1.7116732560218666e-06
3.073595362254941e-05   -3.4408675628477074e-06   1.7116732560218666e-06
3.073595362254941e-05   -3.4408675628477074e-06   1.7116732560218666e-06
2.934083541868139e-05   0.0   -2.33734521971864e-05
2.934083541868139e-05   0.0   -2.33734521971864e-05
2.934083541868139e-05   0.0   -2.33734521971864e-05
2.934083541868139e-05   0.0   -2.33734521971864e-05
1.5182348856750456e-05   -2.6654923073187337e-06   1.8233207904230974e-06
1.5182348856750456e-05   -2.6654923073187337e-06   1.8233207904230974e-06
1.5182348856750456e-05   -2.6654923073187337e-06   1.8233207904230974e-06
1.5182348856750456e-05   -2.6654923073187337e-06   1.8233207904230974e-06
2.2111588305991574e-05   -6.05798840697725e-07   -1.0961227704951351e-05
2.2111588305991574e-05   -6.05798840697725e-07   -1.0961227704951351e-05
2.2111588305991574e-05   -6.05798840697725e-07   -1.0961227704951351e-05
2.2111588305991574e-05   -6.05798840697725e-07   -1.0961227704951351e-05
-3.2894396921760515e-05   4.1939932969488415e-06   -2.168706439975276e-05
-3.2894396921760515e-05   4.1939932969488415e-06   -2.168706439975276e-05
-3.2894396921760515e-05   4.1939932969488415e-06   -2.168706439975276e-05
-3.2894396921760515e-05   4.1939932969488415e-06   -2.168706439975276e-05
-2.1079011729705494e-05   3.764570913296117e-06   -2.252409176519339e-06
-2.1079011729705494e-05   3.764570913296117e-06   -2.252409176519339e-06
-2.1079011729705494e-05   3.764570913296117e-06   -2.252409176519339e-06
-2.1079011729705494e-05   3.764570913296117e-06   -2.252409176519339e-06
-2.1603227561004968e-05   5.0429144266388645e-06   -1.8223529849103033e-05
-2.1603227561004968e-05   5.0429144266388645e-06   -1.8223529849103033e-05
-2.1603227561004968e-05   5.0429144266388645e-06   -1.8223529849103033e-05
-2.1603227561004968e-05   5.0429144266388645e-06   -1.8223529849103033e-05
-3.323762112828697e-05   4.524724351154374e-06   1.478040141657727e-06
-3.323762112828697e-05   4.524724351154374e-06   1.478040141657727e-06
-3.323762112828697e-05   4.524724351154374e-06   1.478040141657727e-06
-3.323762112828697e-05   4.524724351154374e-06   1.478040141657727e-06
-2.6125364170995644e-05   4.384043569593223e-06   -1.0291312984891287e-05
-2.6125364170995644e-05   4.384043569593223e-06   -1.0291312984891287e-05
-2.6125364170995644e-05   4.384043569593223e-06   -1.0291312984891287e-05
-2.6125364170995644e-05   4.384043569593223e-06   -1.0291312984891287e-05
-3.323762112828697e-05   5.0429144266388645e-06   -1.791261580381234e-05
-3.323762112828697e-05   5.0429144266388645e-06   -1.791261580381234e-05
-3.323762112828697e-05   5.0429144266388645e-06   -1.791261580381234e-05
-3.323762112828697e-05   5.0429144266388645e-06   -1.791261580381234e-05
-2.1603227561005043e-05   4.524724351154388e-06   1.1671260963670287e-06
-2.1603227561005043e-05   4.524724351154388e-06   1.1671260963670287e-06
-2.1603227561005043e-05   4.524724351154388e-06   1.1671260963670287e-06
-2.1603227561005043e-05   4.524724351154388e-06   1.1671260963670287e-06
-2.1706561520420654e-05   5.405421547778651e-06   -1.6391182826013334e-05
-2.1706561520420654e-05   5.405421547778651e-06   -1.6391182826013334e-05
-2.1706561520420654e-05   5.405421547778651e-06   -1.6391182826013334e-05
-2.1706561520420654e-05   5.405421547778651e-06   -1.6391182826013334e-05
-3.346043395757496e-05   4.868049398795108e-06   3.521027858633839e-06
-3.346043395757496e-05   4.868049398795108e-06   3.521027858633839e-06
-3.346043395757496e-05   4.868049398795108e-06   3.521027858633839e-06
-3.346043395757496e-05   4.868049398795108e-06   3.521027858633839e-06
-2.688516995650258e-05   4.8616916691210865e-06   -7.433930838682265e-06
-2.688516995650258e-05   4.8616916691210865e-06   -7.433930838682265e-06
-2.688516995650258e-05   4.8616916691210865e-06   -7.433930838682265e-06
-2.688516995650258e-05   4.8616916691210865e-06   -7.433930838682265e-06
-3.346043395757491e-05   5.405421547778651e-06   -1.6068759536623204e-05
-3.346043395757491e-05   5.405421547778651e-06   -1.6068759536623204e-05
-3.346043395757491e-05   5.405421547778651e-06   -1.6068759536623204e-05
-3.346043395757491e-05   5.405421547778651e-06   -1.6068759536623204e-05
-2.170656152042069e-05   4.868049398795108e-06   3.1986045692437127e-06
-2.170656152042069e-05   4.868049398795108e-06   3.1986045692437127e-06
-2.170656152042069e-05   4.868049398795108e-06   3.1986045692437127e-06
-2.170656152042069e-05   4.868049398795108e-06   3.1986045692437127e-06
-2.157606391525379e-05   6.1663105375111125e-06   -1.2133120622788207e-05
-2.157606391525379e-05   6.1663105375111125e-06   -1.2133120622788207e-05
-2.157606391525379e-05   6.1663105375111125e-06   -1.2133120622788207e-05
-2.157606391525379e-05   6.1663105375111125e-06   -1.2133120622788207e-05
-3.2516370089249304e-05   5.144477269567322e-06   6.713822961303801e-06
-3.2516370089249304e-05   5.144477269567322e-06   6.713822961303801e-06
-3.2516370089249304e-05   5.144477269567322e-06   6.713822961303801e-06
-3.2516370089249304e-05   5.144477269567322e-06   6.713822961303801e-06
-2.6175804865738273e-05   5.336553830073725e-06   -3.969031680851724e-06
-2.6175804865738273e-05   5.336553830073725e-06   -3.969031680851724e-06
-2.6175804865738273e-05   5.336553830073725e-06   -3.969031680851724e-06
-2.6175804865738273e-05   5.336553830073725e-06   -3.969031680851724e-06
-2.1079011729705494e-05   1.534184743844418e-06   -2.3093887506031795e-05
-2.1079011729705494e-05   1.534184743844418e-06   -2.3093887506031795e-05
-2.1079011729705494e-05   1.534184743844418e-06   -2.3093887506031795e-05
-2.1079011729705494e-05   1.534184743844418e-06   -2.3093887506031795e-05
-1.0007024254990207e-05   1.7519329842284256e-06   -4.509926103942549e-06
-1.0007024254990207e-05   1.7519329842284256e-06   -4.509926103942549e-06
-1.0007024254990207e-05   1.7519329842284256e-06   -4.509926103942549e-06
-1.0007024254990207e-05   1.7519329842284256e-06   -4.509926103942549e-06
-1.0239569656391211e-05   2.191045434898675e-06   -2.305559459460664e-05
-1.0239569656391211e-05   2.191045434898675e-06   -2.305559459460664e-05
-1.0239569656391211e-05   2.191045434898675e-06   -2.305559459460664e-05
-1.0239569656391211e-05   2.191045434898675e-06   -2.305559459460664e-05
-2.1603227561004968e-05   2.450793270914714e-06   -4.272013455193288e-06
-2.1603227561004968e-05   2.450793270914714e-06   -4.272013455193288e-06
-2.1603227561004968e-05   2.450793270914714e-06   -4.272013455193288e-06
-2.1603227561004968e-05   2.450793270914714e-06   -4.272013455193288e-06
-1.5687465753968983e-05   1.972789907005298e-06   -1.3844814448574397e-05
-1.5687465753968983e-05   1.972789907005298e-06   -1.3844814448574397e-05
-1.5687465753968983e-05   1.972789907005298e-06   -1.3844814448574397e-05
-1.5687465753968983e-05   1.972789907005298e-06   -1.3844814448574397e-05
-2.1603227561004948e-05   2.191045434898675e-06   -2.3211443296216224e-05
-2.1603227561004948e-05   2.191045434898675e-06   -2.3211443296216224e-05
-2.1603227561004948e-05   2.191045434898675e-06   -2.3211443296216224e-05
-2.1603227561004948e-05   2.191045434898675e-06   -2.3211443296216224e-05
-1.023956965639123e-05   2.4507932709147277e-06   -4.116164753583678e-06
-1.023956965639123e-05   2.4507932709147277e-06   -4.116164753583678e-06
-1.023956965639123e-05   2.4507932709147277e-06   -4.116164753583678e-06
-1.023956965639123e-05   2.4507932709147277e-06   -4.116164753583678e-06
-1.0307791239139067e-05   2.6890328691387403e-06   -2.2625722759450048e-05
-1.0307791239139067e-05   2.6890328691387403e-06   -2.2625722759450048e-05
-1.0307791239139067e-05   2.6890328691387403e-06   -2.2625722759450048e-05
-1.0307791239139067e-05   2.6890328691387403e-06   -2.2625722759450048e-05
-2.1706561520420654e-05   3.0300396559299238e-06   -3.832376362722156e-06
-2.1706561520420654e-05   3.0300396559299238e-06   -3.832376362722156e-06
-2.1706561520420654e-05   3.0300396559299238e-06   -3.832376362722156e-06
-2.1706561520420654e-05   3.0300396559299238e-06   -3.832376362722156e-06
-1.5803957199740217e-05   2.5071612650688798e-06   -1.3356323196006184e-05
-1.5803957199740217e-05   2.5071612650688798e-06   -1.3356323196006184e-05
-1.5803957199740217e-05   2.5071612650688798e-06   -1.3356323196006184e-05
-1.5803957199740217e-05   2.5071612650688798e-06   -1.3356323196006184e-05
-2.1706561520420654e-05   2.6890328691387403e-06   -2.2830326831524765e-05
-2.1706561520420654e-05   2.6890328691387403e-06   -2.2830326831524765e-05
-2.1706561520420654e-05   2.6890328691387403e-06   -2.2830326831524765e-05
-2.1706561520420654e-05   2.6890328691387403e-06   -2.2830326831524765e-05
-1.0307791239139106e-05   3.0300396559299373e-06   -3.627772290647446e-06
-1.0307791239139106e-05   3.0300396559299373e-06   -3.627772290647446e-06
-1.0307791239139106e-05   3.0300396559299373e-06   -3.627772290647446e-06
-1.0307791239139106e-05   3.0300396559299373e-06   -3.627772290647446e-06
-1.0276104382108696e-05   3.1317331217612296e-06   -2.239701164390059e-05
-1.0276104382108696e-05   3.1317331217612296e-06   -2.239701164390059e-05
-1.0276104382108696e-05   3.1317331217612296e-06   -2.239701164390059e-05
-1.0276104382108696e-05   3.1317331217612296e-06   -2.239701164390059e-05
-2.1576063915253774e-05   3.653941038305928e-06   -3.877070505252302e-06
-2.1576063915253774e-05   3.653941038305928e-06   -3.877070505252302e-06
-2.1576063915253774e-05   3.653941038305928e-06   -3.877070505252302e-06
-2.1576063915253774e-05   3.653941038305928e-06   -3.877070505252302e-06
-1.5890310410246916e-05   2.990860815642939e-06   -1.2955478213332656e-05
-1.5890310410246916e-05   2.990860815642939e-06   -1.2955478213332656e-05
-1.5890310410246916e-05   2.990860815642939e-06   -1.2955478213332656e-05
-1.5890310410246916e-05   2.990860815642939e-06   -1.2955478213332656e-05
-1.000702425499019e-05   -1.9956753938009825e-07   -2.419031821541577e-05
-1.000702425499019e-05   -1.9956753938009825e-07   -2.419031821541577e-05
-1.000702425499019e-05   -1.9956753938009825e-07   -2.419031821541577e-05
-1.000702425499019e-05   -1.9956753938009825e-07   -2.419031821541577e-05
9.241771778895729e-07   -5.403324592312788e-08   -5.8843285845419775e-06
9.241771778895729e-07   -5.403324592312788e-08   -5.8843285845419775e-06
9.241771778895729e-07   -5.403324592312788e-08   -5.8843285845419775e-06
9.241771778895729e-07   -5.403324592312788e-08   -5.8843285845419775e-06
8.854545084455552e-07   3.897649361385525e-07   -2.4320481189543727e-05
8.854545084455552e-07   3.897649361385525e-07   -2.4320481189543727e-05
8.854545084455552e-07   3.897649361385525e-07   -2.4320481189543727e-05
8.854545084455552e-07   3.897649361385525e-07   -2.4320481189543727e-05
-1.0239569656391211e-05   5.902219710302264e-07   -5.899048469084031e-06
-1.0239569656391211e-05   5.902219710302264e-07   -5.899048469084031e-06
-1.0239569656391211e-05   5.902219710302264e-07   -5.899048469084031e-06
-1.0239569656391211e-05   5.902219710302264e-07   -5.899048469084031e-06
-4.6363842828702244e-06   1.9662791326678815e-07   -1.5001534323627682e-05
-4.6363842828702244e-06   1.9662791326678815e-07   -1.5001534323627682e-05
-4.6363842828702244e-06   1.9662791326678815e-07   -1.5001534323627682e-05
-4.6363842828702244e-06   1.9662791326678815e-07   -1.5001534323627682e-05
-1.0239569656391211e-05   3.897649361385525e-07   -2.4440755410478687e-05
-1.0239569656391211e-05   3.897649361385525e-07   -2.4440755410478687e-05
-1.0239569656391211e-05   3.897649361385525e-07   -2.4440755410478687e-05
-1.0239569656391211e-05   3.897649361385525e-07   -2.4440755410478687e-05
8.854545084455552e-07   5.902219710302264e-07   -5.778774248149037e-06
8.854545084455552e-07   5.902219710302264e-07   -5.778774248149037e-06
8.854545084455552e-07   5.902219710302264e-07   -5.778774248149037e-06
8.854545084455552e-07   5.902219710302264e-07   -5.778774248149037e-06
8.310446671932668e-07   9.092274978573454e-07   -2.4369642994646347e-05
8.310446671932668e-07   9.092274978573454e-07   -2.4369642994646347e-05
8.310446671932668e-07   9.092274978573454e-07   -2.4369642994646347e-05
8.310446671932668e-07   9.092274978573454e-07   -2.4369642994646347e-05
-1.0307791239139067e-05   1.2199362102316159e-06   -5.991341711517044e-06
-1.0307791239139067e-05   1.2199362102316159e-06   -5.991341711517044e-06
-1.0307791239139067e-05   1.2199362102316159e-06   -5.991341711517044e-06
-1.0307791239139067e-05   1.2199362102316159e-06   -5.991341711517044e-06
-4.716265688291798e-06   7.420987682272266e-07   -1.5023848497726471e-05
-4.716265688291798e-06   7.420987682272266e-07   -1.5023848497726471e-05
-4.716265688291798e-06   7.420987682272266e-07   -1.5023848497726471e-05
-4.716265688291798e-06   7.420987682272266e-07   -1.5023848497726471e-05
-1.0307791239139067e-05   9.092274978573454e-07   -2.455606822207092e-05
-1.0307791239139067e-05   9.092274978573454e-07   -2.455606822207092e-05
-1.0307791239139067e-05   9.092274978573454e-07   -2.455606822207092e-05
-1.0307791239139067e-05   9.092274978573454e-07   -2.455606822207092e-05
8.310446671932687e-07   1.2199362102316294e-06   -5.804916484092478e-06
8.310446671932687e-07   1.2199362102316294e-06   -5.804916484092478e-06
8.310446671932687e-07   1.2199362102316294e-06   -5.804916484092478e-06
8.310446671932687e-07   1.2199362102316294e-06   -5.804916484092478e-06
7.140887859660957e-07   1.5102133463239963e-06   -2.4328540785473397e-05
7.140887859660957e-07   1.5102133463239963e-06   -2.4328540785473397e-05
7.140887859660957e-07   1.5102133463239963e-06   -2.4328540785473397e-05
7.140887859660957e-07   1.5102133463239963e-06   -2.4328540785473397e-05
-1.0276104382108705e-05   1.8757662681669383e-06   -6.230883925121181e-06
-1.0276104382108705e-05   1.8757662681669383e-06   -6.230883925121181e-06
-1.0276104382108705e-05   1.8757662681669383e-06   -6.230883925121181e-06
-1.0276104382108705e-05   1.8757662681669383e-06   -6.230883925121181e-06
-4.761983315186009e-06   1.3024713098095075e-06   -1.5077108728311197e-05
-4.761983315186009e-06   1.3024713098095075e-06   -1.5077108728311197e-05
-4.761983315186009e-06   1.3024713098095075e-06   -1.5077108728311197e-05
-4.761983315186009e-06   1.3024713098095075e-06   -1.5077108728311197e-05
9.241771778895729e-07   -1.7468960589475275e-06   -2.2316245206472356e-05
9.241771778895729e-07   -1.7468960589475275e-06   -2.2316245206472356e-05
9.241771778895729e-07   -1.7468960589475275e-06   -2.2316245206472356e-05
9.241771778895729e-07   -1.7468960589475275e-06   -2.2316245206472356e-05
1.2188634722007938e-05   -1.795420981697587e-06   -3.5712642532584457e-06
1.2188634722007938e-05   -1.795420981697587e-06   -3.5712642532584457e-06
1.2188634722007938e-05   -1.795420981697587e-06   -3.5712642532584457e-06
1.2188634722007938e-05   -1.795420981697587e-06   -3.5712642532584457e-06
1.22961003751593e-05   -1.313684856759071e-06   -2.2620204912603968e-05
1.22961003751593e-05   -1.313684856759071e-06   -2.2620204912603968e-05
1.22961003751593e-05   -1.313684856759071e-06   -2.2620204912603968e-05
1.22961003751593e-05   -1.313684856759071e-06   -2.2620204912603968e-05
8.854545084455552e-07   -1.208755380089648e-06   -3.6654194874160064e-06
8.854545084455552e-07   -1.208755380089648e-06   -3.6654194874160064e-06
8.854545084455552e-07   -1.208755380089648e-06   -3.6654194874160064e-06
8.854545084455552e-07   -1.208755380089648e-06   -3.6654194874160064e-06
6.489709214347176e-06   -1.4490636513594983e-06   -1.2861659034490172e-05
6.489709214347176e-06   -1.4490636513594983e-06   -1.2861659034490172e-05
6.489709214347176e-06   -1.4490636513594983e-06   -1.2861659034490172e-05
6.489709214347176e-06   -1.4490636513594983e-06   -1.2861659034490172e-05
8.854545084455535e-07   -1.313684856759071e-06   -2.2683162598605668e-05
8.854545084455535e-07   -1.313684856759071e-06   -2.2683162598605668e-05
8.854545084455535e-07   -1.313684856759071e-06   -2.2683162598605668e-05
8.854545084455535e-07   -1.313684856759071e-06   -2.2683162598605668e-05
1.2296100375159323e-05   -1.208755380089648e-06   -3.6024618014143393e-06
1.2296100375159323e-05   -1.208755380089648e-06   -3.6024618014143393e-06
1.2296100375159323e-05   -1.208755380089648e-06   -3.6024618014143393e-06
1.2296100375159323e-05   -1.208755380089648e-06   -3.6024618014143393e-06
1.224324970330603e-05   -8.214511989470649e-07   -2.303946961136008e-05
1.224324970330603e-05   -8.214511989470649e-07   -2.303946961136008e-05
1.224324970330603e-05   -8.214511989470649e-07   -2.303946961136008e-05
1.224324970330603e-05   -8.214511989470649e-07   -2.303946961136008e-05
8.310446671932668e-07   -6.348977096854586e-07   -4.131059978062469e-06
8.310446671932668e-07   -6.348977096854586e-07   -4.131059978062469e-06
8.310446671932668e-07   -6.348977096854586e-07   -4.131059978062469e-06
8.310446671932668e-07   -6.348977096854586e-07   -4.131059978062469e-06
6.42662572182035e-06   -9.819172494388207e-07   -1.3248816678588887e-05
6.42662572182035e-06   -9.819172494388207e-07   -1.3248816678588887e-05
6.42662572182035e-06   -9.819172494388207e-07   -1.3248816678588887e-05
6.42662572182035e-06   -9.819172494388207e-07   -1.3248816678588887e-05
8.310446671932663e-07   -8.214511989470649e-07   -2.315140170491704e-05
8.310446671932663e-07   -8.214511989470649e-07   -2.315140170491704e-05
8.310446671932663e-07   -8.214511989470649e-07   -2.315140170491704e-05
8.310446671932663e-07   -8.214511989470649e-07   -2.315140170491704e-05
1.2243249703306073e-05   -6.348977096854586e-07   -4.019127884505506e-06
1.2243249703306073e-05   -6.348977096854586e-07   -4.019127884505506e-06
1.2243249703306073e-05   -6.348977096854586e-07   -4.019127884505506e-06
1.2243249703306073e-05   -6.348977096854586e-07   -4.019127884505506e-06
1.1891047303060669e-05   -1.6074625457760815e-07   -2.308113924793007e-05
1.1891047303060669e-05   -1.6074625457760815e-07   -2.308113924793007e-05
1.1891047303060669e-05   -1.6074625457760815e-07   -2.308113924793007e-05
1.1891047303060669e-05   -1.6074625457760815e-07   -2.308113924793007e-05
7.140887859660957e-07   7.388181336771165e-08   -4.5936518935396655e-06
7.140887859660957e-07   7.388181336771165e-08   -4.5936518935396655e-06
7.140887859660957e-07   7.388181336771165e-08   -4.5936518935396655e-06
7.140887859660957e-07   7.388181336771165e-08   -4.5936518935396655e-06
6.362428918641505e-06   -4.363881612579854e-07   -1.3701390129889905e-05
6.362428918641505e-06   -4.363881612579854e-07   -1.3701390129889905e-05
6.362428918641505e-06   -4.363881612579854e-07   -1.3701390129889905e-05
6.362428918641505e-06   -4.363881612579854e-07   -1.3701390129889905e-05
1.2188634722007938e-05   -4.437945085597169e-06   -1.3499763260528423e-05
1.2188634722007938e-05   -4.437945085597169e-06   -1.3499763260528423e-05
1.2188634722007938e-05   -4.437945085597169e-06   -1.3499763260528423e-05
1.2188634722007938e-05   -4.437945085597169e-06   -1.3499763260528423e-05
2.3292190497197443e-05   -3.3309657599764765e-06   5.670350626826474e-06
2.3292190497197443e-05   -3.3309657599764765e-06   5.670350626826474e-06
2.3292190497197443e-05   -3.3309657599764765e-06   5.670350626826474e-06
2.3292190497197443e-05   -3.3309657599764765e-06   5.670350626826474e-06
2.4195963950267245e-05   -3.7684702763413286e-06   -1.6375612454601223e-05
2.4195963950267245e-05   -3.7684702763413286e-06   -1.6375612454601223e-05
2.4195963950267245e-05   -3.7684702763413286e-06   -1.6375612454601223e-05
2.4195963950267245e-05   -3.7684702763413286e-06   -1.6375612454601223e-05
1.2296100375159345e-05   -3.015771725689304e-06   3.0058743735207876e-06
1.2296100375159345e-05   -3.015771725689304e-06   3.0058743735207876e-06
1.2296100375159345e-05   -3.015771725689304e-06   3.0058743735207876e-06
1.2296100375159345e-05   -3.015771725689304e-06   3.0058743735207876e-06
1.7156082702365616e-05   -3.6213691377743956e-06   -4.730737724571973e-06
1.7156082702365616e-05   -3.6213691377743956e-06   -4.730737724571973e-06
1.7156082702365616e-05   -3.6213691377743956e-06   -4.730737724571973e-06
1.7156082702365616e-05   -3.6213691377743956e-06   -4.730737724571973e-06
1.2296100375159313e-05   -3.768470276341322e-06   -1.682723158499237e-05
1.2296100375159313e-05   -3.768470276341322e-06   -1.682723158499237e-05
1.2296100375159313e-05   -3.768470276341322e-06   -1.682723158499237e-05
1.2296100375159313e-05   -3.768470276341322e-06   -1.682723158499237e-05
2.4195963950267245e-05   -3.015771725689304e-06   3.457493503912016e-06
2.4195963950267245e-05   -3.015771725689304e-06   3.457493503912016e-06
2.4195963950267245e-05   -3.015771725689304e-06   3.457493503912016e-06
2.4195963950267245e-05   -3.015771725689304e-06   3.457493503912016e-06
2.4116616214784532e-05   -3.440867562847721e-06   -1.780042517124181e-05
2.4116616214784532e-05   -3.440867562847721e-06   -1.780042517124181e-05
2.4116616214784532e-05   -3.440867562847721e-06   -1.780042517124181e-05
2.4116616214784532e-05   -3.440867562847721e-06   -1.780042517124181e-05
1.2243249703306073e-05   -2.6856979059384226e-06   1.5354172204100198e-06
1.2243249703306073e-05   -2.6856979059384226e-06   1.5354172204100198e-06
1.2243249703306073e-05   -2.6856979059384226e-06   1.5354172204100198e-06
1.2243249703306073e-05   -2.6856979059384226e-06   1.5354172204100198e-06
1.776652270642481e-05   -3.19389805106035e-06   -7.365117697714708e-06
1.776652270642481e-05   -3.19389805106035e-06   -7.365117697714708e-06
1.776652270642481e-05   -3.19389805106035e-06   -7.365117697714708e-06
1.776652270642481e-05   -3.19389805106035e-06   -7.365117697714708e-06
1.2243249703306053e-05   -3.4408675628477074e-06   -1.825352696538736e-05
1.2243249703306053e-05   -3.4408675628477074e-06   -1.825352696538736e-05
1.2243249703306053e-05   -3.4408675628477074e-06   -1.825352696538736e-05
1.2243249703306053e-05   -3.4408675628477074e-06   -1.825352696538736e-05
2.4116616214784532e-05   -2.6856979059384226e-06   1.988519014555599e-06
2.4116616214784532e-05   -2.6856979059384226e-06   1.988519014555599e-06
2.4116616214784532e-05   -2.6856979059384226e-06   1.988519014555599e-06
2.4116616214784532e-05   -2.6856979059384226e-06   1.988519014555599e-06
2.3983801731723488e-05   -2.665492307318727e-06   -2.071128762150431e-05
2.3983801731723488e-05   -2.665492307318727e-06   -2.071128762150431e-05
2.3983801731723488e-05   -2.665492307318727e-06   -2.071128762150431e-05
2.3983801731723488e-05   -2.665492307318727e-06   -2.071128762150431e-05
1.1891047303060711e-05   -1.9759447444917243e-06   -9.70425444762569e-07
1.1891047303060711e-05   -1.9759447444917243e-06   -9.70425444762569e-07
1.1891047303060711e-05   -1.9759447444917243e-06   -9.70425444762569e-07
1.1891047303060711e-05   -1.9759447444917243e-06   -9.70425444762569e-07
1.7265962783856368e-05   -2.746972332796178e-06   -9.466001359772647e-06
1.7265962783856368e-05   -2.746972332796178e-06   -9.466001359772647e-06
1.7265962783856368e-05   -2.746972332796178e-06   -9.466001359772647e-06
1.7265962783856368e-05   -2.746972332796178e-06   -9.466001359772647e-06
-2.610805420939365e-05   3.7645709132961305e-06   -1.8092068795356445e-05
-2.610805420939365e-05   3.7645709132961305e-06   -1.8092068795356445e-05
-2.610805420939365e-05   3.7645709132961305e-06   -1.8092068795356445e-05
-2.610805420939365e-05   3.7645709132961305e-06   -1.8092068795356445e-05
-1.7139233360422782e-05   2.8682404880483938e-06   -3.681832302220302e-06
-1.7139233360422782e-05   2.8682404880483938e-06   -3.681832302220302e-06
-1.7139233360422782e-05   2.8682404880483938e-06   -3.681832302220302e-06
-1.7139233360422782e-05   2.8682404880483938e-06   -3.681832302220302e-06
-1.7218473440518503e-05   4.524724351154374e-06   -1.5026164879253386e-05
-1.7218473440518503e-05   4.524724351154374e-06   -1.5026164879253386e-05
-1.7218473440518503e-05   4.524724351154374e-06   -1.5026164879253386e-05
-1.7218473440518503e-05   4.524724351154374e-06   -1.5026164879253386e-05
-2.5701860159814676e-05   3.4742287647014647e-06   -2.568896618880155e-07
-2.5701860159814676e-05   3.4742287647014647e-06   -2.568896618880155e-07
-2.5701860159814676e-05   3.4742287647014647e-06   -2.568896618880155e-07
-2.5701860159814676e-05   3.4742287647014647e-06   -2.568896618880155e-07
-2.063031156695548e-05   3.83025573453161e-06   -8.923086831884858e-06
-2.063031156695548e-05   3.83025573453161e-06   -8.923086831884858e-06
-2.063031156695548e-05   3.83025573453161e-06   -8.923086831884858e-06
-2.063031156695548e-05   3.83025573453161e-06   -8.923086831884858e-06
-2.5701860159814676e-05   4.524724351154374e-06   -1.4395867527381651e-05
-2.5701860159814676e-05   4.524724351154374e-06   -1.4395867527381651e-05
-2.5701860159814676e-05   4.524724351154374e-06   -1.4395867527381651e-05
-2.5701860159814676e-05   4.524724351154374e-06   -1.4395867527381651e-05
-1.7218473440518503e-05   3.4742287647014647e-06   -8.871870137596962e-07
-1.7218473440518503e-05   3.4742287647014647e-06   -8.871870137596962e-07
-1.7218473440518503e-05   3.4742287647014647e-06   -8.871870137596962e-07
-1.7218473440518503e-05   3.4742287647014647e-06   -8.871870137596962e-07
-1.71971809953488e-05   4.868049398795108e-06   -1.2858216686844172e-05
-1.71971809953488e-05   4.868049398795108e-06   -1.2858216686844172e-05
-1.71971809953488e-05   4.868049398795108e-06   -1.2858216686844172e-05
-1.71971809953488e-05   4.868049398795108e-06   -1.2858216686844172e-05
-2.5307961588695233e-05   3.7412563237469265e-06   1.335826813762082e-06
-2.5307961588695233e-05   3.7412563237469265e-06   1.335826813762082e-06
-2.5307961588695233e-05   3.7412563237469265e-06   1.335826813762082e-06
-2.5307961588695233e-05   3.7412563237469265e-06   1.335826813762082e-06
-2.0802859774794337e-05   4.181482567679982e-06   -6.436811955765688e-06
-2.0802859774794337e-05   4.181482567679982e-06   -6.436811955765688e-06
-2.0802859774794337e-05   4.181482567679982e-06   -6.436811955765688e-06
-2.0802859774794337e-05   4.181482567679982e-06   -6.436811955765688e-06
-2.5307961588695233e-05   4.868049398795108e-06   -1.218214084181526e-05
-2.5307961588695233e-05   4.868049398795108e-06   -1.218214084181526e-05
-2.5307961588695233e-05   4.868049398795108e-06   -1.218214084181526e-05
-2.5307961588695233e-05   4.868049398795108e-06   -1.218214084181526e-05
-1.7197180995348834e-05   3.7412563237468994e-06   6.597509687332858e-07
-1.7197180995348834e-05   3.7412563237468994e-06   6.597509687332858e-07
-1.7197180995348834e-05   3.7412563237468994e-06   6.597509687332858e-07
-1.7197180995348834e-05   3.7412563237468994e-06   6.597509687332858e-07
-1.7211867293749014e-05   5.144477269567322e-06   -9.828770158066391e-06
-1.7211867293749014e-05   5.144477269567322e-06   -9.828770158066391e-06
-1.7211867293749014e-05   5.144477269567322e-06   -9.828770158066391e-06
-1.7211867293749014e-05   5.144477269567322e-06   -9.828770158066391e-06
-2.479648506885151e-05   4.006662203705338e-06   3.4949485066215432e-06
-2.479648506885151e-05   4.006662203705338e-06   3.4949485066215432e-06
-2.479648506885151e-05   4.006662203705338e-06   3.4949485066215432e-06
-2.479648506885151e-05   4.006662203705338e-06   3.4949485066215432e-06
-2.0324253502125396e-05   4.368347406481169e-06   -4.175781892920547e-06
-2.0324253502125396e-05   4.368347406481169e-06   -4.175781892920547e-06
-2.0324253502125396e-05   4.368347406481169e-06   -4.175781892920547e-06
-2.0324253502125396e-05   4.368347406481169e-06   -4.175781892920547e-06
-1.7139233360422782e-05   1.7519329842284256e-06   -2.1018032922158687e-05
-1.7139233360422782e-05   1.7519329842284256e-06   -2.1018032922158687e-05
-1.7139233360422782e-05   1.7519329842284256e-06   -2.1018032922158687e-05
-1.7139233360422782e-05   1.7519329842284256e-06   -2.1018032922158687e-05
-8.748273147818449e-06   1.4333208550924793e-06   -7.224266511966383e-06
-8.748273147818449e-06   1.4333208550924793e-06   -7.224266511966383e-06
-8.748273147818449e-06   1.4333208550924793e-06   -7.224266511966383e-06
-8.748273147818449e-06   1.4333208550924793e-06   -7.224266511966383e-06
-8.851563345373423e-06   2.450793270914714e-06   -2.0717797215547224e-05
-8.851563345373423e-06   2.450793270914714e-06   -2.0717797215547224e-05
-8.851563345373423e-06   2.450793270914714e-06   -2.0717797215547224e-05
-8.851563345373423e-06   2.450793270914714e-06   -2.0717797215547224e-05
-1.721847344051847e-05   2.029971963025517e-06   -6.520454272238585e-06
-1.721847344051847e-05   2.029971963025517e-06   -6.520454272238585e-06
-1.721847344051847e-05   2.029971963025517e-06   -6.520454272238585e-06
-1.721847344051847e-05   2.029971963025517e-06   -6.520454272238585e-06
-1.287773819886948e-05   2.024725788557177e-06   -1.3751865303639286e-05
-1.287773819886948e-05   2.024725788557177e-06   -1.3751865303639286e-05
-1.287773819886948e-05   2.024725788557177e-06   -1.3751865303639286e-05
-1.287773819886948e-05   2.024725788557177e-06   -1.3751865303639286e-05
-1.721847344051849e-05   2.450793270914714e-06   -2.0465304430813662e-05
-1.721847344051849e-05   2.450793270914714e-06   -2.0465304430813662e-05
-1.721847344051849e-05   2.450793270914714e-06   -2.0465304430813662e-05
-1.721847344051849e-05   2.450793270914714e-06   -2.0465304430813662e-05
-8.851563345373436e-06   2.029971963025517e-06   -6.772947056972066e-06
-8.851563345373436e-06   2.029971963025517e-06   -6.772947056972066e-06
-8.851563345373436e-06   2.029971963025517e-06   -6.772947056972066e-06
-8.851563345373436e-06   2.029971963025517e-06   -6.772947056972066e-06
-8.917522736034007e-06   3.0300396559299238e-06   -2.01705985903124e-05
-8.917522736034007e-06   3.0300396559299238e-06   -2.01705985903124e-05
-8.917522736034007e-06   3.0300396559299238e-06   -2.01705985903124e-05
-8.917522736034007e-06   3.0300396559299238e-06   -2.01705985903124e-05
-1.71971809953488e-05   2.5610380367592804e-06   -6.089767186618814e-06
-1.71971809953488e-05   2.5610380367592804e-06   -6.089767186618814e-06
-1.71971809953488e-05   2.5610380367592804e-06   -6.089767186618814e-06
-1.71971809953488e-05   2.5610380367592804e-06   -6.089767186618814e-06
-1.2898889699610515e-05   2.5162591397686587e-06   -1.3226718674654664e-05
-1.2898889699610515e-05   2.5162591397686587e-06   -1.3226718674654664e-05
-1.2898889699610515e-05   2.5162591397686587e-06   -1.3226718674654664e-05
-1.2898889699610515e-05   2.5162591397686587e-06   -1.3226718674654664e-05
-1.71971809953488e-05   3.0300396559299238e-06   -1.9889197618810055e-05
-1.71971809953488e-05   3.0300396559299238e-06   -1.9889197618810055e-05
-1.71971809953488e-05   3.0300396559299238e-06   -1.9889197618810055e-05
-1.71971809953488e-05   3.0300396559299238e-06   -1.9889197618810055e-05
-8.917522736034037e-06   2.5610380367593075e-06   -6.371168158121099e-06
-8.917522736034037e-06   2.5610380367593075e-06   -6.371168158121099e-06
-8.917522736034037e-06   2.5610380367593075e-06   -6.371168158121099e-06
-8.917522736034037e-06   2.5610380367593075e-06   -6.371168158121099e-06
-9.00397306739194e-06   3.6539410383059414e-06   -2.0122722977448465e-05
-9.00397306739194e-06   3.6539410383059414e-06   -2.0122722977448465e-05
-9.00397306739194e-06   3.6539410383059414e-06   -2.0122722977448465e-05
-9.00397306739194e-06   3.6539410383059414e-06   -2.0122722977448465e-05
-1.7211867293748993e-05   3.127008848985576e-06   -6.1267399532611145e-06
-1.7211867293748993e-05   3.127008848985576e-06   -6.1267399532611145e-06
-1.7211867293748993e-05   3.127008848985576e-06   -6.1267399532611145e-06
-1.7211867293748993e-05   3.127008848985576e-06   -6.1267399532611145e-06
-1.3048959864420822e-05   3.0040048622817744e-06   -1.299111661011898e-05
-1.3048959864420822e-05   3.0040048622817744e-06   -1.299111661011898e-05
-1.3048959864420822e-05   3.0040048622817744e-06   -1.299111661011898e-05
-1.3048959864420822e-05   3.0040048622817744e-06   -1.299111661011898e-05
-8.748273147818432e-06   -5.403324592312788e-08   -2.2670923256313887e-05
-8.748273147818432e-06   -5.403324592312788e-08   -2.2670923256313887e-05
-8.748273147818432e-06   -5.403324592312788e-08   -2.2670923256313887e-05
-8.748273147818432e-06   -5.403324592312788e-08   -2.2670923256313887e-05
-4.480038625063671e-07   7.692367204510404e-08   -8.758566963346171e-06
-4.480038625063671e-07   7.692367204510404e-08   -8.758566963346171e-06
-4.480038625063671e-07   7.692367204510404e-08   -8.758566963346171e-06
-4.480038625063671e-07   7.692367204510404e-08   -8.758566963346171e-06
-5.305059067060247e-07   5.902219710302264e-07   -2.2455724696860113e-05
-5.305059067060247e-07   5.902219710302264e-07   -2.2455724696860113e-05
-5.305059067060247e-07   5.902219710302264e-07   -2.2455724696860113e-05
-5.305059067060247e-07   5.902219710302264e-07   -2.2455724696860113e-05
-8.851563345373423e-06   6.651490280092608e-07   -8.632251866601937e-06
-8.851563345373423e-06   6.651490280092608e-07   -8.632251866601937e-06
-8.851563345373423e-06   6.651490280092608e-07   -8.632251866601937e-06
-8.851563345373423e-06   6.651490280092608e-07   -8.632251866601937e-06
-4.618077570881634e-06   3.8822661659667365e-07   -1.5521908043907342e-05
-4.618077570881634e-06   3.8822661659667365e-07   -1.5521908043907342e-05
-4.618077570881634e-06   3.8822661659667365e-07   -1.5521908043907342e-05
-4.618077570881634e-06   3.8822661659667365e-07   -1.5521908043907342e-05
-8.851563345373423e-06   5.902219710302264e-07   -2.2500680931047596e-05
-8.851563345373423e-06   5.902219710302264e-07   -2.2500680931047596e-05
-8.851563345373423e-06   5.902219710302264e-07   -2.2500680931047596e-05
-8.851563345373423e-06   5.902219710302264e-07   -2.2500680931047596e-05
-5.305059067060255e-07   6.651490280092879e-07   -8.587295632414468e-06
-5.305059067060255e-07   6.651490280092879e-07   -8.587295632414468e-06
-5.305059067060255e-07   6.651490280092879e-07   -8.587295632414468e-06
-5.305059067060255e-07   6.651490280092879e-07   -8.587295632414468e-06
-5.890892548630128e-07   1.2199362102316159e-06   -2.2515101006977966e-05
-5.890892548630128e-07   1.2199362102316159e-06   -2.2515101006977966e-05
-5.890892548630128e-07   1.2199362102316159e-06   -2.2515101006977966e-05
-5.890892548630128e-07   1.2199362102316159e-06   -2.2515101006977966e-05
-8.917522736034024e-06   1.2517145505716988e-06   -8.65344554256376e-06
-8.917522736034024e-06   1.2517145505716988e-06   -8.65344554256376e-06
-8.917522736034024e-06   1.2517145505716988e-06   -8.65344554256376e-06
-8.917522736034024e-06   1.2517145505716988e-06   -8.65344554256376e-06
-4.725423623063259e-06   9.072215910919078e-07   -1.543358162182702e-05
-4.725423623063259e-06   9.072215910919078e-07   -1.543358162182702e-05
-4.725423623063259e-06   9.072215910919078e-07   -1.543358162182702e-05
-4.725423623063259e-06   9.072215910919078e-07   -1.543358162182702e-05
-8.917522736034024e-06   1.2199362102316294e-06   -2.2534168011182045e-05
-8.917522736034024e-06   1.2199362102316294e-06   -2.2534168011182045e-05
-8.917522736034024e-06   1.2199362102316294e-06   -2.2534168011182045e-05
-8.917522736034024e-06   1.2199362102316294e-06   -2.2534168011182045e-05
-5.890892548630141e-07   1.2517145505716988e-06   -8.634378538359592e-06
-5.890892548630141e-07   1.2517145505716988e-06   -8.634378538359592e-06
-5.890892548630141e-07   1.2517145505716988e-06   -8.634378538359592e-06
-5.890892548630141e-07   1.2517145505716988e-06   -8.634378538359592e-06
-6.828247736696274e-07   1.8757662681669383e-06   -2.2804231826958245e-05
-6.828247736696274e-07   1.8757662681669383e-06   -2.2804231826958245e-05
-6.828247736696274e-07   1.8757662681669383e-06   -2.2804231826958245e-05
-6.828247736696274e-07   1.8757662681669383e-06   -2.2804231826958245e-05
-9.00397306739193e-06   1.8518151353100329e-06   -8.92128065770704e-06
-9.00397306739193e-06   1.8518151353100329e-06   -8.92128065770704e-06
-9.00397306739193e-06   1.8518151353100329e-06   -8.92128065770704e-06
-9.00397306739193e-06   1.8518151353100329e-06   -8.92128065770704e-06
-4.839627212580119e-06   1.4323909975200015e-06   -1.5610202599719222e-05
-4.839627212580119e-06   1.4323909975200015e-06   -1.5610202599719222e-05
-4.839627212580119e-06   1.4323909975200015e-06   -1.5610202599719222e-05
-4.839627212580119e-06   1.4323909975200015e-06   -1.5610202599719222e-05
-4.480038625063682e-07   -1.7954209816976006e-06   -2.0250169820599387e-05
-4.480038625063682e-07   -1.7954209816976006e-06   -2.0250169820599387e-05
-4.480038625063682e-07   -1.7954209816976006e-06   -2.0250169820599387e-05
-4.480038625063682e-07   -1.7954209816976006e-06   -2.0250169820599387e-05
7.804461048304422e-06   -1.1985105409102997e-06   -6.137915371442408e-06
7.804461048304422e-06   -1.1985105409102997e-06   -6.137915371442408e-06
7.804461048304422e-06   -1.1985105409102997e-06   -6.137915371442408e-06
7.804461048304422e-06   -1.1985105409102997e-06   -6.137915371442408e-06
7.80142039745402e-06   -1.208755380089648e-06   -2.001193673188334e-05
7.80142039745402e-06   -1.208755380089648e-06   -2.001193673188334e-05
7.80142039745402e-06   -1.208755380089648e-06   -2.001193673188334e-05
7.80142039745402e-06   -1.208755380089648e-06   -2.001193673188334e-05
-5.305059067060255e-07   -6.58033373016569e-07   -6.455826095860404e-06
-5.305059067060255e-07   -6.58033373016569e-07   -6.455826095860404e-06
-5.305059067060255e-07   -6.58033373016569e-07   -6.455826095860404e-06
-5.305059067060255e-07   -6.58033373016569e-07   -6.455826095860404e-06
3.6293728665942495e-06   -1.1720733822980628e-06   -1.3080533379125301e-05
3.6293728665942495e-06   -1.1720733822980628e-06   -1.3080533379125301e-05
3.6293728665942495e-06   -1.1720733822980628e-06   -1.3080533379125301e-05
3.6293728665942495e-06   -1.1720733822980628e-06   -1.3080533379125301e-05
-5.305059067060255e-07   -1.208755380089648e-06   -2.034236993612713e-05
-5.305059067060255e-07   -1.208755380089648e-06   -2.034236993612713e-05
-5.305059067060255e-07   -1.208755380089648e-06   -2.034236993612713e-05
-5.305059067060255e-07   -1.208755380089648e-06   -2.034236993612713e-05
7.80142039745402e-06   -6.58033373016596e-07   -6.125392891616566e-06
7.80142039745402e-06   -6.58033373016596e-07   -6.125392891616566e-06
7.80142039745402e-06   -6.58033373016596e-07   -6.125392891616566e-06
7.80142039745402e-06   -6.58033373016596e-07   -6.125392891616566e-06
7.84272457142637e-06   -6.348977096854586e-07   -2.0537137037902995e-05
7.84272457142637e-06   -6.348977096854586e-07   -2.0537137037902995e-05
7.84272457142637e-06   -6.348977096854586e-07   -2.0537137037902995e-05
7.84272457142637e-06   -6.348977096854586e-07   -2.0537137037902995e-05
-5.89089254863015e-07   -1.2805193794375577e-07   -6.788221457132426e-06
-5.89089254863015e-07   -1.2805193794375577e-07   -6.788221457132426e-06
-5.89089254863015e-07   -1.2805193794375577e-07   -6.788221457132426e-06
-5.89089254863015e-07   -1.2805193794375577e-07   -6.788221457132426e-06
3.5191625330042204e-06   -7.037246870452189e-07   -1.3289904120783497e-05
3.5191625330042204e-06   -7.037246870452189e-07   -1.3289904120783497e-05
3.5191625330042204e-06   -7.037246870452189e-07   -1.3289904120783497e-05
3.5191625330042204e-06   -7.037246870452189e-07   -1.3289904120783497e-05
-5.890892548630133e-07   -6.348977096854586e-07   -2.084124450094793e-05
-5.890892548630133e-07   -6.348977096854586e-07   -2.084124450094793e-05
-5.890892548630133e-07   -6.348977096854586e-07   -2.084124450094793e-05
-5.890892548630133e-07   -6.348977096854586e-07   -2.084124450094793e-05
7.84272457142637e-06   -1.2805193794375577e-07   -6.484113994087296e-06
7.84272457142637e-06   -1.2805193794375577e-07   -6.484113994087296e-06
7.84272457142637e-06   -1.2805193794375577e-07   -6.484113994087296e-06
7.84272457142637e-06   -1.2805193794375577e-07   -6.484113994087296e-06
7.78588643006836e-06   7.388181336771165e-08   -2.1136386471599388e-05
7.78588643006836e-06   7.388181336771165e-08   -2.1136386471599388e-05
7.78588643006836e-06   7.388181336771165e-08   -2.1136386471599388e-05
7.78588643006836e-06   7.388181336771165e-08   -2.1136386471599388e-05
-6.828247736696287e-07   4.904569415063243e-07   -7.271812875585947e-06
-6.828247736696287e-07   4.904569415063243e-07   -7.271812875585947e-06
-6.828247736696287e-07   4.904569415063243e-07   -7.271812875585947e-06
-6.828247736696287e-07   4.904569415063243e-07   -7.271812875585947e-06
3.482158261608087e-06   -2.0356979593889098e-07   -1.3797035225248252e-05
3.482158261608087e-06   -2.0356979593889098e-07   -1.3797035225248252e-05
3.482158261608087e-06   -2.0356979593889098e-07   -1.3797035225248252e-05
3.482158261608087e-06   -2.0356979593889098e-07   -1.3797035225248252e-05
7.804461048304405e-06   -3.3309657599764765e-06   -1.131459627141452e-05
7.804461048304405e-06   -3.3309657599764765e-06   -1.131459627141452e-05
7.804461048304405e-06   -3.3309657599764765e-06   -1.131459627141452e-05
7.804461048304405e-06   -3.3309657599764765e-06   -1.131459627141452e-05
1.550786945110011e-05   -2.16543687355734e-06   2.223735065096501e-06
1.550786945110011e-05   -2.16543687355734e-06   2.223735065096501e-06
1.550786945110011e-05   -2.16543687355734e-06   2.223735065096501e-06
1.550786945110011e-05   -2.16543687355734e-06   2.223735065096501e-06
1.604252769303944e-05   -3.015771725689304e-06   -1.2705301982419947e-05
1.604252769303944e-05   -3.015771725689304e-06   -1.2705301982419947e-05
1.604252769303944e-05   -3.015771725689304e-06   -1.2705301982419947e-05
1.604252769303944e-05   -3.015771725689304e-06   -1.2705301982419947e-05
7.801420397454006e-06   -1.8519407681422953e-06   3.3157826902759313e-07
7.801420397454006e-06   -1.8519407681422953e-06   3.3157826902759313e-07
7.801420397454006e-06   -1.8519407681422953e-06   3.3157826902759313e-07
7.801420397454006e-06   -1.8519407681422953e-06   3.3157826902759313e-07
1.1285431636859137e-05   -2.5598936858574816e-06   -5.050335379351868e-06
1.1285431636859137e-05   -2.5598936858574816e-06   -5.050335379351868e-06
1.1285431636859137e-05   -2.5598936858574816e-06   -5.050335379351868e-06
1.1285431636859137e-05   -2.5598936858574816e-06   -5.050335379351868e-06
7.801420397454003e-06   -3.015771725689304e-06   -1.3403600556948118e-05
7.801420397454003e-06   -3.015771725689304e-06   -1.3403600556948118e-05
7.801420397454003e-06   -3.015771725689304e-06   -1.3403600556948118e-05
7.801420397454003e-06   -3.015771725689304e-06   -1.3403600556948118e-05
1.604252769303944e-05   -1.8519407681422953e-06   1.029876843555846e-06
1.604252769303944e-05   -1.8519407681422953e-06   1.029876843555846e-06
1.604252769303944e-05   -1.8519407681422953e-06   1.029876843555846e-06
1.604252769303944e-05   -1.8519407681422953e-06   1.029876843555846e-06
1.6455759753014466e-05   -2.6856979059384226e-06   -1.4322426272916223e-05
1.6455759753014466e-05   -2.6856979059384226e-06   -1.4322426272916223e-05
1.6455759753014466e-05   -2.6856979059384226e-06   -1.4322426272916223e-05
1.6455759753014466e-05   -2.6856979059384226e-06   -1.4322426272916223e-05
7.842724571426344e-06   -1.58542180581973e-06   -6.275332970073229e-07
7.842724571426344e-06   -1.58542180581973e-06   -6.275332970073229e-07
7.842724571426344e-06   -1.58542180581973e-06   -6.275332970073229e-07
7.842724571426344e-06   -1.58542180581973e-06   -6.275332970073229e-07
1.1675505954872377e-05   -2.3578559114487087e-06   -6.5520418060399e-06
1.1675505954872377e-05   -2.3578559114487087e-06   -6.5520418060399e-06
1.1675505954872377e-05   -2.3578559114487087e-06   -6.5520418060399e-06
1.1675505954872377e-05   -2.3578559114487087e-06   -6.5520418060399e-06
7.842724571426357e-06   -2.6856979059384226e-06   -1.4982591932987435e-05
7.842724571426357e-06   -2.6856979059384226e-06   -1.4982591932987435e-05
7.842724571426357e-06   -2.6856979059384226e-06   -1.4982591932987435e-05
7.842724571426357e-06   -2.6856979059384226e-06   -1.4982591932987435e-05
1.6455759753014425e-05   -1.58542180581973e-06   3.263236306400106e-08
1.6455759753014425e-05   -1.58542180581973e-06   3.263236306400106e-08
1.6455759753014425e-05   -1.58542180581973e-06   3.263236306400106e-08
1.6455759753014425e-05   -1.58542180581973e-06   3.263236306400106e-08
1.689806297507274e-05   -1.9759447444917243e-06   -1.7079166695732637e-05
1.689806297507274e-05   -1.9759447444917243e-06   -1.7079166695732637e-05
1.689806297507274e-05   -1.9759447444917243e-06   -1.7079166695732637e-05
1.689806297507274e-05   -1.9759447444917243e-06   -1.7079166695732637e-05
7.785886430068332e-06   -1.0179944647303928e-06   -2.46697595524884e-06
7.785886430068332e-06   -1.0179944647303928e-06   -2.46697595524884e-06
7.785886430068332e-06   -1.0179944647303928e-06   -2.46697595524884e-06
7.785886430068332e-06   -1.0179944647303928e-06   -2.46697595524884e-06
1.1632524798183293e-05   -2.0283309189852766e-06   -8.271838029554106e-06
1.1632524798183293e-05   -2.0283309189852766e-06   -8.271838029554106e-06
1.1632524798183293e-05   -2.0283309189852766e-06   -8.271838029554106e-06
1.1632524798183293e-05   -2.0283309189852766e-06   -8.271838029554106e-06
-1.8679939304086797e-05   2.8682404880483938e-06   -1.4264668543859972e-05
-1.8679939304086797e-05   2.8682404880483938e-06   -1.4264668543859972e-05
-1.8679939304086797e-05   2.8682404880483938e-06   -1.4264668543859972e-05
-1.8679939304086797e-05   2.8682404880483938e-06   -1.4264668543859972e-05
-1.2750987170686692e-05   1.8167793007110096e-06   -5.013958367262178e-06
-1.2750987170686692e-05   1.8167793007110096e-06   -5.013958367262178e-06
-1.2750987170686692e-05   1.8167793007110096e-06   -5.013958367262178e-06
-1.2750987170686692e-05   1.8167793007110096e-06   -5.013958367262178e-06
-1.2703945435909347e-05   3.4742287647014647e-06   -1.2119961989622778e-05
-1.2703945435909347e-05   3.4742287647014647e-06   -1.2119961989622778e-05
-1.2703945435909347e-05   3.4742287647014647e-06   -1.2119961989622778e-05
-1.2703945435909347e-05   3.4742287647014647e-06   -1.2119961989622778e-05
-1.8113617767800546e-05   2.316604436781804e-06   -2.409266839718951e-06
-1.8113617767800546e-05   2.316604436781804e-06   -2.409266839718951e-06
-1.8113617767800546e-05   2.316604436781804e-06   -2.409266839718951e-06
-1.8113617767800546e-05   2.316604436781804e-06   -2.409266839718951e-06
-1.490170717683479e-05   2.7633923294523733e-06   -8.030523893597547e-06
-1.490170717683479e-05   2.7633923294523733e-06   -8.030523893597547e-06
-1.490170717683479e-05   2.7633923294523733e-06   -8.030523893597547e-06
-1.490170717683479e-05   2.7633923294523733e-06   -8.030523893597547e-06
-1.8113617767800546e-05   3.4742287647014647e-06   -1.1425387392870949e-05
-1.8113617767800546e-05   3.4742287647014647e-06   -1.1425387392870949e-05
-1.8113617767800546e-05   3.4742287647014647e-06   -1.1425387392870949e-05
-1.8113617767800546e-05   3.4742287647014647e-06   -1.1425387392870949e-05
-1.270394543590936e-05   2.3166044367818584e-06   -3.103841436470767e-06
-1.270394543590936e-05   2.3166044367818584e-06   -3.103841436470767e-06
-1.270394543590936e-05   2.3166044367818584e-06   -3.103841436470767e-06
-1.270394543590936e-05   2.3166044367818584e-06   -3.103841436470767e-06
-1.2607177823784909e-05   3.7412563237468994e-06   -1.0569127939521594e-05
-1.2607177823784909e-05   3.7412563237468994e-06   -1.0569127939521594e-05
-1.2607177823784909e-05   3.7412563237468994e-06   -1.0569127939521594e-05
-1.2607177823784909e-05   3.7412563237468994e-06   -1.0569127939521594e-05
-1.7691620336504513e-05   2.5505921377176914e-06   -1.3806585733714186e-06
-1.7691620336504513e-05   2.5505921377176914e-06   -1.3806585733714186e-06
-1.7691620336504513e-05   2.5505921377176914e-06   -1.3806585733714186e-06
-1.7691620336504513e-05   2.5505921377176914e-06   -1.3806585733714186e-06
-1.4900040055980224e-05   3.0425205892027434e-06   -6.328449445136298e-06
-1.4900040055980224e-05   3.0425205892027434e-06   -6.328449445136298e-06
-1.4900040055980224e-05   3.0425205892027434e-06   -6.328449445136298e-06
-1.4900040055980224e-05   3.0425205892027434e-06   -6.328449445136298e-06
-1.7691620336504513e-05   3.7412563237468994e-06   -9.854729427904069e-06
-1.7691620336504513e-05   3.7412563237468994e-06   -9.854729427904069e-06
-1.7691620336504513e-05   3.7412563237468994e-06   -9.854729427904069e-06
-1.7691620336504513e-05   3.7412563237468994e-06   -9.854729427904069e-06
-1.2607177823784936e-05   2.5505921377176914e-06   -2.0950570849888883e-06
-1.2607177823784936e-05   2.5505921377176914e-06   -2.0950570849888883e-06
-1.2607177823784936e-05   2.5505921377176914e-06   -2.0950570849888883e-06
-1.2607177823784936e-05   2.5505921377176914e-06   -2.0950570849888883e-06
-1.2569318564309407e-05   4.006662203705338e-06   -8.426498102298574e-06
-1.2569318564309407e-05   4.006662203705338e-06   -8.426498102298574e-06
-1.2569318564309407e-05   4.006662203705338e-06   -8.426498102298574e-06
-1.2569318564309407e-05   4.006662203705338e-06   -8.426498102298574e-06
-1.7141032965624673e-05   2.846527743046454e-06   -1.1089342371101347e-07
-1.7141032965624673e-05   2.846527743046454e-06   -1.1089342371101347e-07
-1.7141032965624673e-05   2.846527743046454e-06   -1.1089342371101347e-07
-1.7141032965624673e-05   2.846527743046454e-06   -1.1089342371101347e-07
-1.445788992043222e-05   3.195875562911994e-06   -4.792407190951195e-06
-1.445788992043222e-05   3.195875562911994e-06   -4.792407190951195e-06
-1.445788992043222e-05   3.195875562911994e-06   -4.792407190951195e-06
-1.445788992043222e-05   3.195875562911994e-06   -4.792407190951195e-06
-1.2750987170686664e-05   1.4333208550924522e-06   -1.824681218852691e-05
-1.2750987170686664e-05   1.4333208550924522e-06   -1.824681218852691e-05
-1.2750987170686664e-05   1.4333208550924522e-06   -1.824681218852691e-05
-1.2750987170686664e-05   1.4333208550924522e-06   -1.824681218852691e-05
-7.367023954275113e-06   9.445185882564944e-07   -9.566821521275875e-06
-7.367023954275113e-06   9.445185882564944e-07   -9.566821521275875e-06
-7.367023954275113e-06   9.445185882564944e-07   -9.566821521275875e-06
-7.367023954275113e-06   9.445185882564944e-07   -9.566821521275875e-06
-7.370910250658077e-06   2.029971963025544e-06   -1.8087437688190614e-05
-7.370910250658077e-06   2.029971963025544e-06   -1.8087437688190614e-05
-7.370910250658077e-06   2.029971963025544e-06   -1.8087437688190614e-05
-7.370910250658077e-06   2.029971963025544e-06   -1.8087437688190614e-05
-1.2703945435909347e-05   1.4729578962105147e-06   -8.864837272682774e-06
-1.2703945435909347e-05   1.4729578962105147e-06   -8.864837272682774e-06
-1.2703945435909347e-05   1.4729578962105147e-06   -8.864837272682774e-06
-1.2703945435909347e-05   1.4729578962105147e-06   -8.864837272682774e-06
-9.955313615373395e-06   1.5710276723975925e-06   -1.3504732172621683e-05
-9.955313615373395e-06   1.5710276723975925e-06   -1.3504732172621683e-05
-9.955313615373395e-06   1.5710276723975925e-06   -1.3504732172621683e-05
-9.955313615373395e-06   1.5710276723975925e-06   -1.3504732172621683e-05
-1.2703945435909333e-05   2.029971963025517e-06   -1.7753229248101477e-05
-1.2703945435909333e-05   2.029971963025517e-06   -1.7753229248101477e-05
-1.2703945435909333e-05   2.029971963025517e-06   -1.7753229248101477e-05
-1.2703945435909333e-05   2.029971963025517e-06   -1.7753229248101477e-05
-7.370910250658077e-06   1.4729578962104604e-06   -9.199045712771789e-06
-7.370910250658077e-06   1.4729578962104604e-06   -9.199045712771789e-06
-7.370910250658077e-06   1.4729578962104604e-06   -9.199045712771789e-06
-7.370910250658077e-06   1.4729578962104604e-06   -9.199045712771789e-06
-7.365909596686984e-06   2.5610380367593075e-06   -1.76823242728415e-05
-7.365909596686984e-06   2.5610380367593075e-06   -1.76823242728415e-05
-7.365909596686984e-06   2.5610380367593075e-06   -1.76823242728415e-05
-7.365909596686984e-06   2.5610380367593075e-06   -1.76823242728415e-05
-1.2607177823784909e-05   1.9549077401461e-06   -8.58319904971033e-06
-1.2607177823784909e-05   1.9549077401461e-06   -8.58319904971033e-06
-1.2607177823784909e-05   1.9549077401461e-06   -8.58319904971033e-06
-1.2607177823784909e-05   1.9549077401461e-06   -8.58319904971033e-06
-9.909445045547565e-06   2.0060300605242e-06   -1.3110093738999352e-05
-9.909445045547565e-06   2.0060300605242e-06   -1.3110093738999352e-05
-9.909445045547565e-06   2.0060300605242e-06   -1.3110093738999352e-05
-9.909445045547565e-06   2.0060300605242e-06   -1.3110093738999352e-05
-1.2607177823784909e-05   2.5610380367593075e-06   -1.7318646094873565e-05
-1.2607177823784909e-05   2.5610380367593075e-06   -1.7318646094873565e-05
-1.2607177823784909e-05   2.5610380367593075e-06   -1.7318646094873565e-05
-1.2607177823784909e-05   2.5610380367593075e-06   -1.7318646094873565e-05
-7.365909596686994e-06   1.9549077401461e-06   -8.946877227678253e-06
-7.365909596686994e-06   1.9549077401461e-06   -8.946877227678253e-06
-7.365909596686994e-06   1.9549077401461e-06   -8.946877227678253e-06
-7.365909596686994e-06   1.9549077401461e-06   -8.946877227678253e-06
-7.372467509236927e-06   3.127008848985576e-06   -1.775398049965631e-05
-7.372467509236927e-06   3.127008848985576e-06   -1.775398049965631e-05
-7.372467509236927e-06   3.127008848985576e-06   -1.775398049965631e-05
-7.372467509236927e-06   3.127008848985576e-06   -1.775398049965631e-05
-1.2569318564309407e-05   2.479537220665144e-06   -8.704079097543135e-06
-1.2569318564309407e-05   2.479537220665144e-06   -8.704079097543135e-06
-1.2569318564309407e-05   2.479537220665144e-06   -8.704079097543135e-06
-1.2569318564309407e-05   2.479537220665144e-06   -8.704079097543135e-06
-9.97408751604022e-06   2.437536020912705e-06   -1.300426345814034e-05
-9.97408751604022e-06   2.437536020912705e-06   -1.300426345814034e-05
-9.97408751604022e-06   2.437536020912705e-06   -1.300426345814034e-05
-9.97408751604022e-06   2.437536020912705e-06   -1.300426345814034e-05
-7.3670239542751e-06   7.692367204507693e-08   -2.01529681507892e-05
-7.3670239542751e-06   7.692367204507693e-08   -2.01529681507892e-05
-7.3670239542751e-06   7.692367204507693e-08   -2.01529681507892e-05
-7.3670239542751e-06   7.692367204507693e-08   -2.01529681507892e-05
-2.053053160734643e-06   1.6587724094513714e-07   -1.124297802021512e-05
-2.053053160734643e-06   1.6587724094513714e-07   -1.124297802021512e-05
-2.053053160734643e-06   1.6587724094513714e-07   -1.124297802021512e-05
-2.053053160734643e-06   1.6587724094513714e-07   -1.124297802021512e-05
-2.0574703487318684e-06   6.651490280092608e-07   -1.9926828055546195e-05
-2.0574703487318684e-06   6.651490280092608e-07   -1.9926828055546195e-05
-2.0574703487318684e-06   6.651490280092608e-07   -1.9926828055546195e-05
-2.0574703487318684e-06   6.651490280092608e-07   -1.9926828055546195e-05
-7.3709102506580605e-06   6.983397651329519e-07   -1.1091009327943426e-05
-7.3709102506580605e-06   6.983397651329519e-07   -1.1091009327943426e-05
-7.3709102506580605e-06   6.983397651329519e-07   -1.1091009327943426e-05
-7.3709102506580605e-06   6.983397651329519e-07   -1.1091009327943426e-05
-4.680541118445222e-06   4.714141153456283e-07   -1.543880249175909e-05
-4.680541118445222e-06   4.714141153456283e-07   -1.543880249175909e-05
-4.680541118445222e-06   4.714141153456283e-07   -1.543880249175909e-05
-4.680541118445222e-06   4.714141153456283e-07   -1.543880249175909e-05
-7.3709102506580605e-06   6.651490280092608e-07   -1.9946742497820404e-05
-7.3709102506580605e-06   6.651490280092608e-07   -1.9946742497820404e-05
-7.3709102506580605e-06   6.651490280092608e-07   -1.9946742497820404e-05
-7.3709102506580605e-06   6.651490280092608e-07   -1.9946742497820404e-05
-2.0574703487318684e-06   6.983397651329519e-07   -1.107109488566923e-05
-2.0574703487318684e-06   6.983397651329519e-07   -1.107109488566923e-05
-2.0574703487318684e-06   6.983397651329519e-07   -1.107109488566923e-05
-2.0574703487318684e-06   6.983397651329519e-07   -1.107109488566923e-05
-2.0508026669969024e-06   1.2517145505716988e-06   -1.9976116769558e-05
-2.0508026669969024e-06   1.2517145505716988e-06   -1.9976116769558e-05
-2.0508026669969024e-06   1.2517145505716988e-06   -1.9976116769558e-05
-2.0508026669969024e-06   1.2517145505716988e-06   -1.9976116769558e-05
-7.365909596686984e-06   1.2325226967817358e-06   -1.11060901078006e-05
-7.365909596686984e-06   1.2325226967817358e-06   -1.11060901078006e-05
-7.365909596686984e-06   1.2325226967817358e-06   -1.11060901078006e-05
-7.365909596686984e-06   1.2325226967817358e-06   -1.11060901078006e-05
-4.712265760520718e-06   9.378679564348144e-07   -1.5352036990536175e-05
-4.712265760520718e-06   9.378679564348144e-07   -1.5352036990536175e-05
-4.712265760520718e-06   9.378679564348144e-07   -1.5352036990536175e-05
-4.712265760520718e-06   9.378679564348144e-07   -1.5352036990536175e-05
-7.365909596686984e-06   1.2517145505716988e-06   -1.9964601657284053e-05
-7.365909596686984e-06   1.2517145505716988e-06   -1.9964601657284053e-05
-7.365909596686984e-06   1.2517145505716988e-06   -1.9964601657284053e-05
-7.365909596686984e-06   1.2517145505716988e-06   -1.9964601657284053e-05
-2.0508026669969057e-06   1.23252269678179e-06   -1.1117605220074519e-05
-2.0508026669969057e-06   1.23252269678179e-06   -1.1117605220074519e-05
-2.0508026669969057e-06   1.23252269678179e-06   -1.1117605220074519e-05
-2.0508026669969057e-06   1.23252269678179e-06   -1.1117605220074519e-05
-2.054199121697366e-06   1.85181513531006e-06   -2.0277824194679813e-05
-2.054199121697366e-06   1.85181513531006e-06   -2.0277824194679813e-05
-2.054199121697366e-06   1.85181513531006e-06   -2.0277824194679813e-05
-2.054199121697366e-06   1.85181513531006e-06   -2.0277824194679813e-05
-7.372467509236927e-06   1.7760446283604059e-06   -1.1368581244610646e-05
-7.372467509236927e-06   1.7760446283604059e-06   -1.1368581244610646e-05
-7.372467509236927e-06   1.7760446283604059e-06   -1.1368581244610646e-05
-7.372467509236927e-06   1.7760446283604059e-06   -1.1368581244610646e-05
-4.75315041064482e-06   1.4104573158128515e-06   -1.5514757354735703e-05
-4.75315041064482e-06   1.4104573158128515e-06   -1.5514757354735703e-05
-4.75315041064482e-06   1.4104573158128515e-06   -1.5514757354735703e-05
-4.75315041064482e-06   1.4104573158128515e-06   -1.5514757354735703e-05
-2.0530531607346395e-06   -1.1985105409102997e-06   -1.783709068201776e-05
-2.0530531607346395e-06   -1.1985105409102997e-06   -1.783709068201776e-05
-2.0530531607346395e-06   -1.1985105409102997e-06   -1.783709068201776e-05
-2.0530531607346395e-06   -1.1985105409102997e-06   -1.783709068201776e-05
3.1761158859637396e-06   -5.453094396373954e-07   -8.729888276756746e-06
3.1761158859637396e-06   -5.453094396373954e-07   -8.729888276756746e-06
3.1761158859637396e-06   -5.453094396373954e-07   -8.729888276756746e-06
3.1761158859637396e-06   -5.453094396373954e-07   -8.729888276756746e-06
3.218543690397603e-06   -6.58033373016569e-07   -1.7426107698558614e-05
3.218543690397603e-06   -6.58033373016569e-07   -1.7426107698558614e-05
3.218543690397603e-06   -6.58033373016569e-07   -1.7426107698558614e-05
3.218543690397603e-06   -6.58033373016569e-07   -1.7426107698558614e-05
-2.0574703487318684e-06   -4.261533896078584e-08   -9.002001787109685e-06
-2.0574703487318684e-06   -4.261533896078584e-08   -9.002001787109685e-06
-2.0574703487318684e-06   -4.261533896078584e-08   -9.002001787109685e-06
-2.0574703487318684e-06   -4.261533896078584e-08   -9.002001787109685e-06
5.751405606265413e-07   -5.646619590670863e-07   -1.3076458663976558e-05
5.751405606265413e-07   -5.646619590670863e-07   -1.3076458663976558e-05
5.751405606265413e-07   -5.646619590670863e-07   -1.3076458663976558e-05
5.751405606265413e-07   -5.646619590670863e-07   -1.3076458663976558e-05
-2.0574703487318684e-06   -6.58033373016569e-07   -1.7795358518992138e-05
-2.0574703487318684e-06   -6.58033373016569e-07   -1.7795358518992138e-05
-2.0574703487318684e-06   -6.58033373016569e-07   -1.7795358518992138e-05
-2.0574703487318684e-06   -6.58033373016569e-07   -1.7795358518992138e-05
3.2185436903976096e-06   -4.261533896078584e-08   -8.632750966676195e-06
3.2185436903976096e-06   -4.261533896078584e-08   -8.632750966676195e-06
3.2185436903976096e-06   -4.261533896078584e-08   -8.632750966676195e-06
3.2185436903976096e-06   -4.261533896078584e-08   -8.632750966676195e-06
3.320419317492365e-06   -1.2805193794375577e-07   -1.7789180389800525e-05
3.320419317492365e-06   -1.2805193794375577e-07   -1.7789180389800525e-05
3.320419317492365e-06   -1.2805193794375577e-07   -1.7789180389800525e-05
3.320419317492365e-06   -1.2805193794375577e-07   -1.7789180389800525e-05
-2.0508026669969057e-06   4.399135596065717e-07   -9.177923047515293e-06
-2.0508026669969057e-06   4.399135596065717e-07   -9.177923047515293e-06
-2.0508026669969057e-06   4.399135596065717e-07   -9.177923047515293e-06
-2.0508026669969057e-06   4.399135596065717e-07   -9.177923047515293e-06
5.444714460889728e-07   -1.462191081225638e-07   -1.315170030202096e-05
5.444714460889728e-07   -1.462191081225638e-07   -1.315170030202096e-05
5.444714460889728e-07   -1.462191081225638e-07   -1.315170030202096e-05
5.444714460889728e-07   -1.462191081225638e-07   -1.315170030202096e-05
-2.050802666996904e-06   -1.2805193794375577e-07   -1.812995968833065e-05
-2.050802666996904e-06   -1.2805193794375577e-07   -1.812995968833065e-05
-2.050802666996904e-06   -1.2805193794375577e-07   -1.812995968833065e-05
-2.050802666996904e-06   -1.2805193794375577e-07   -1.812995968833065e-05
3.320419317492372e-06   4.399135596065175e-07   -8.837143748985056e-06
3.320419317492372e-06   4.399135596065175e-07   -8.837143748985056e-06
3.320419317492372e-06   4.399135596065175e-07   -8.837143748985056e-06
3.320419317492372e-06   4.399135596065175e-07   -8.837143748985056e-06
3.3707574235665577e-06   4.904569415063243e-07   -1.83132097109195e-05
3.3707574235665577e-06   4.904569415063243e-07   -1.83132097109195e-05
3.3707574235665577e-06   4.904569415063243e-07   -1.83132097109195e-05
3.3707574235665577e-06   4.904569415063243e-07   -1.83132097109195e-05
-2.0541991216973625e-06   9.91750311381376e-07   -9.572391490737957e-06
-2.0541991216973625e-06   9.91750311381376e-07   -9.572391490737957e-06
-2.0541991216973625e-06   9.91750311381376e-07   -9.572391490737957e-06
-2.0541991216973625e-06   9.91750311381376e-07   -9.572391490737957e-06
5.621857410145458e-07   3.001375864858315e-07   -1.3518065293653773e-05
5.621857410145458e-07   3.001375864858315e-07   -1.3518065293653773e-05
5.621857410145458e-07   3.001375864858315e-07   -1.3518065293653773e-05
5.621857410145458e-07   3.001375864858315e-07   -1.3518065293653773e-05
3.176115885963733e-06   -2.16543687355734e-06   -9.782836916566576e-06
3.176115885963733e-06   -2.16543687355734e-06   -9.782836916566576e-06
3.176115885963733e-06   -2.16543687355734e-06   -9.782836916566576e-06
3.176115885963733e-06   -2.16543687355734e-06   -9.782836916566576e-06
7.792328514125404e-06   -9.953626342393686e-07   -1.3871046593730112e-06
7.792328514125404e-06   -9.953626342393686e-07   -1.3871046593730112e-06
7.792328514125404e-06   -9.953626342393686e-07   -1.3871046593730112e-06
7.792328514125404e-06   -9.953626342393686e-07   -1.3871046593730112e-06
8.350610024940406e-06   -1.8519407681422953e-06   -1.0249992269418327e-05
8.350610024940406e-06   -1.8519407681422953e-06   -1.0249992269418327e-05
8.350610024940406e-06   -1.8519407681422953e-06   -1.0249992269418327e-05
8.350610024940406e-06   -1.8519407681422953e-06   -1.0249992269418327e-05
3.218543690397603e-06   -6.533669873153556e-07   -2.4156926470098532e-06
3.218543690397603e-06   -6.533669873153556e-07   -2.4156926470098532e-06
3.218543690397603e-06   -6.533669873153556e-07   -2.4156926470098532e-06
3.218543690397603e-06   -6.533669873153556e-07   -2.4156926470098532e-06
5.394149668034147e-06   -1.3723924831765197e-06   -5.610287312220763e-06
5.394149668034147e-06   -1.3723924831765197e-06   -5.610287312220763e-06
5.394149668034147e-06   -1.3723924831765197e-06   -5.610287312220763e-06
5.394149668034147e-06   -1.3723924831765197e-06   -5.610287312220763e-06
3.218543690397596e-06   -1.8519407681422953e-06   -1.0969136537914407e-05
3.218543690397596e-06   -1.8519407681422953e-06   -1.0969136537914407e-05
3.218543690397596e-06   -1.8519407681422953e-06   -1.0969136537914407e-05
3.218543690397596e-06   -1.8519407681422953e-06   -1.0969136537914407e-05
8.350610024940379e-06   -6.533669873153556e-07   -1.6965483785136922e-06
8.350610024940379e-06   -6.533669873153556e-07   -1.6965483785136922e-06
8.350610024940379e-06   -6.533669873153556e-07   -1.6965483785136922e-06
8.350610024940379e-06   -6.533669873153556e-07   -1.6965483785136922e-06
8.781549454814745e-06   -1.5854218058197571e-06   -1.1232512539971812e-05
8.781549454814745e-06   -1.5854218058197571e-06   -1.1232512539971812e-05
8.781549454814745e-06   -1.5854218058197571e-06   -1.1232512539971812e-05
8.781549454814745e-06   -1.5854218058197571e-06   -1.1232512539971812e-05
3.320419317492372e-06   -4.186098845720119e-07   -2.8307161305165255e-06
3.320419317492372e-06   -4.186098845720119e-07   -2.8307161305165255e-06
3.320419317492372e-06   -4.186098845720119e-07   -2.8307161305165255e-06
3.320419317492372e-06   -4.186098845720119e-07   -2.8307161305165255e-06
5.732926395245626e-06   -1.1961607960273924e-06   -6.385030713231994e-06
5.732926395245626e-06   -1.1961607960273924e-06   -6.385030713231994e-06
5.732926395245626e-06   -1.1961607960273924e-06   -6.385030713231994e-06
5.732926395245626e-06   -1.1961607960273924e-06   -6.385030713231994e-06
3.320419317492365e-06   -1.58542180581973e-06   -1.1932599692720457e-05
3.320419317492365e-06   -1.58542180581973e-06   -1.1932599692720457e-05
3.320419317492365e-06   -1.58542180581973e-06   -1.1932599692720457e-05
3.320419317492365e-06   -1.58542180581973e-06   -1.1932599692720457e-05
8.781549454814718e-06   -4.186098845719577e-07   -2.1306289777677997e-06
8.781549454814718e-06   -4.186098845719577e-07   -2.1306289777677997e-06
8.781549454814718e-06   -4.186098845719577e-07   -2.1306289777677997e-06
8.781549454814718e-06   -4.186098845719577e-07   -2.1306289777677997e-06
9.355975267188738e-06   -1.0179944647303928e-06   -1.3123318738875167e-05
9.355975267188738e-06   -1.0179944647303928e-06   -1.3123318738875167e-05
9.355975267188738e-06   -1.0179944647303928e-06   -1.3123318738875167e-05
9.355975267188738e-06   -1.0179944647303928e-06   -1.3123318738875167e-05
3.3707574235665645e-06   4.033741625366228e-08   -3.7829547947619156e-06
3.3707574235665645e-06   4.033741625366228e-08   -3.7829547947619156e-06
3.3707574235665645e-06   4.033741625366228e-08   -3.7829547947619156e-06
3.3707574235665645e-06   4.033741625366228e-08   -3.7829547947619156e-06
5.849898998982443e-06   -9.375898588536639e-07   -7.328101055390681e-06
5.849898998982443e-06   -9.375898588536639e-07   -7.328101055390681e-06
5.849898998982443e-06   -9.375898588536639e-07   -7.328101055390681e-06
5.849898998982443e-06   -9.375898588536639e-07   -7.328101055390681e-06
-1.123477402348644e-05   1.8167793007110096e-06   -1.0577367066939836e-05
-1.123477402348644e-05   1.8167793007110096e-06   -1.0577367066939836e-05
-1.123477402348644e-05   1.8167793007110096e-06   -1.0577367066939836e-05
-1.123477402348644e-05   1.8167793007110096e-06   -1.0577367066939836e-05
-8.338612008374955e-06   7.330160932478768e-07   -6.400688299565191e-06
-8.338612008374955e-06   7.330160932478768e-07   -6.400688299565191e-06
-8.338612008374955e-06   7.330160932478768e-07   -6.400688299565191e-06
-8.338612008374955e-06   7.330160932478768e-07   -6.400688299565191e-06
-8.218359153081998e-06   2.316604436781804e-06   -9.331427546150023e-06
-8.218359153081998e-06   2.316604436781804e-06   -9.331427546150023e-06
-8.218359153081998e-06   2.316604436781804e-06   -9.331427546150023e-06
-8.218359153081998e-06   2.316604436781804e-06   -9.331427546150023e-06
-1.0618992661520893e-05   1.1473808059983418e-06   -4.628837520281653e-06
-1.0618992661520893e-05   1.1473808059983418e-06   -4.628837520281653e-06
-1.0618992661520893e-05   1.1473808059983418e-06   -4.628837520281653e-06
-1.0618992661520893e-05   1.1473808059983418e-06   -4.628837520281653e-06
-9.195971295875417e-06   1.6310989904908652e-06   -7.290770707053454e-06
-9.195971295875417e-06   1.6310989904908652e-06   -7.290770707053454e-06
-9.195971295875417e-06   1.6310989904908652e-06   -7.290770707053454e-06
-9.195971295875417e-06   1.6310989904908652e-06   -7.290770707053454e-06
-1.0618992661520893e-05   2.316604436781804e-06   -8.629893367679951e-06
-1.0618992661520893e-05   2.316604436781804e-06   -8.629893367679951e-06
-1.0618992661520893e-05   2.316604436781804e-06   -8.629893367679951e-06
-1.0618992661520893e-05   2.316604436781804e-06   -8.629893367679951e-06
-8.218359153082012e-06   1.1473808059983418e-06   -5.330371698751806e-06
-8.218359153082012e-06   1.1473808059983418e-06   -5.330371698751806e-06
-8.218359153082012e-06   1.1473808059983418e-06   -5.330371698751806e-06
-8.218359153082012e-06   1.1473808059983418e-06   -5.330371698751806e-06
-8.045995481696948e-06   2.5505921377176914e-06   -8.331450295111676e-06
-8.045995481696948e-06   2.5505921377176914e-06   -8.331450295111676e-06
-8.045995481696948e-06   2.5505921377176914e-06   -8.331450295111676e-06
-8.045995481696948e-06   2.5505921377176914e-06   -8.331450295111676e-06
-1.0129950265014623e-05   1.3580872244477941e-06   -4.14268937495369e-06
-1.0129950265014623e-05   1.3580872244477941e-06   -4.14268937495369e-06
-1.0129950265014623e-05   1.3580872244477941e-06   -4.14268937495369e-06
-1.0129950265014623e-05   1.3580872244477941e-06   -4.14268937495369e-06
-9.0347512413822e-06   1.8552374304267615e-06   -6.266311204595104e-06
-9.0347512413822e-06   1.8552374304267615e-06   -6.266311204595104e-06
-9.0347512413822e-06   1.8552374304267615e-06   -6.266311204595104e-06
-9.0347512413822e-06   1.8552374304267615e-06   -6.266311204595104e-06
-1.012995026501461e-05   2.5505921377176914e-06   -7.615947347149824e-06
-1.012995026501461e-05   2.5505921377176914e-06   -7.615947347149824e-06
-1.012995026501461e-05   2.5505921377176914e-06   -7.615947347149824e-06
-1.012995026501461e-05   2.5505921377176914e-06   -7.615947347149824e-06
-8.045995481696961e-06   1.3580872244477941e-06   -4.858192322915582e-06
-8.045995481696961e-06   1.3580872244477941e-06   -4.858192322915582e-06
-8.045995481696961e-06   1.3580872244477941e-06   -4.858192322915582e-06
-8.045995481696961e-06   1.3580872244477941e-06   -4.858192322915582e-06
-7.930493081636923e-06   2.8465277430463998e-06   -7.05152693031573e-06
-7.930493081636923e-06   2.8465277430463998e-06   -7.05152693031573e-06
-7.930493081636923e-06   2.8465277430463998e-06   -7.05152693031573e-06
-7.930493081636923e-06   2.8465277430463998e-06   -7.05152693031573e-06
-9.507748238394477e-06   1.692519003951439e-06   -3.730363092262711e-06
-9.507748238394477e-06   1.692519003951439e-06   -3.730363092262711e-06
-9.507748238394477e-06   1.692519003951439e-06   -3.730363092262711e-06
-9.507748238394477e-06   1.692519003951439e-06   -3.730363092262711e-06
-8.614006199053209e-06   2.01275619254209e-06   -5.412075470986118e-06
-8.614006199053209e-06   2.01275619254209e-06   -5.412075470986118e-06
-8.614006199053209e-06   2.01275619254209e-06   -5.412075470986118e-06
-8.614006199053209e-06   2.01275619254209e-06   -5.412075470986118e-06
-8.338612008374955e-06   9.445185882564944e-07   -1.548720678532978e-05
-8.338612008374955e-06   9.445185882564944e-07   -1.548720678532978e-05
-8.338612008374955e-06   9.445185882564944e-07   -1.548720678532978e-05
-8.338612008374955e-06   9.445185882564944e-07   -1.548720678532978e-05
-5.980151804556468e-06   4.281130493991232e-07   -1.1866283102280115e-05
-5.980151804556468e-06   4.281130493991232e-07   -1.1866283102280115e-05
-5.980151804556468e-06   4.281130493991232e-07   -1.1866283102280115e-05
-5.980151804556468e-06   4.281130493991232e-07   -1.1866283102280115e-05
-5.903063305265592e-06   1.4729578962104604e-06   -1.543380805765044e-05
-5.903063305265592e-06   1.4729578962104604e-06   -1.543380805765044e-05
-5.903063305265592e-06   1.4729578962104604e-06   -1.543380805765044e-05
-5.903063305265592e-06   1.4729578962104604e-06   -1.543380805765044e-05
-8.218359153082025e-06   9.039834373963658e-07   -1.123359696933454e-05
-8.218359153082025e-06   9.039834373963658e-07   -1.123359696933454e-05
-8.218359153082025e-06   9.039834373963658e-07   -1.123359696933454e-05
-8.218359153082025e-06   9.039834373963658e-07   -1.123359696933454e-05
-7.040666577101432e-06   1.030539738302509e-06   -1.3272351709846215e-05
-7.040666577101432e-06   1.030539738302509e-06   -1.3272351709846215e-05
-7.040666577101432e-06   1.030539738302509e-06   -1.3272351709846215e-05
-7.040666577101432e-06   1.030539738302509e-06   -1.3272351709846215e-05
-8.218359153081998e-06   1.4729578962105147e-06   -1.5092423382361963e-05
-8.218359153081998e-06   1.4729578962105147e-06   -1.5092423382361963e-05
-8.218359153081998e-06   1.4729578962105147e-06   -1.5092423382361963e-05
-8.218359153081998e-06   1.4729578962105147e-06   -1.5092423382361963e-05
-5.903063305265592e-06   9.0398343739642e-07   -1.1574981644623045e-05
-5.903063305265592e-06   9.0398343739642e-07   -1.1574981644623045e-05
-5.903063305265592e-06   9.0398343739642e-07   -1.1574981644623045e-05
-5.903063305265592e-06   9.0398343739642e-07   -1.1574981644623045e-05
-5.817700695562887e-06   1.9549077401461e-06   -1.5183976483849827e-05
-5.817700695562887e-06   1.9549077401461e-06   -1.5183976483849827e-05
-5.817700695562887e-06   1.9549077401461e-06   -1.5183976483849827e-05
-5.817700695562887e-06   1.9549077401461e-06   -1.5183976483849827e-05
-8.045995481696975e-06   1.3476007001183492e-06   -1.1105767616276311e-05
-8.045995481696975e-06   1.3476007001183492e-06   -1.1105767616276311e-05
-8.045995481696975e-06   1.3476007001183492e-06   -1.1105767616276311e-05
-8.045995481696975e-06   1.3476007001183492e-06   -1.1105767616276311e-05
-6.9384309326485235e-06   1.4165302567331227e-06   -1.2993066265325816e-05
-6.9384309326485235e-06   1.4165302567331227e-06   -1.2993066265325816e-05
-6.9384309326485235e-06   1.4165302567331227e-06   -1.2993066265325816e-05
-6.9384309326485235e-06   1.4165302567331227e-06   -1.2993066265325816e-05
-8.045995481696948e-06   1.9549077401460457e-06   -1.4819592259833145e-05
-8.045995481696948e-06   1.9549077401460457e-06   -1.4819592259833145e-05
-8.045995481696948e-06   1.9549077401460457e-06   -1.4819592259833145e-05
-8.045995481696948e-06   1.9549077401460457e-06   -1.4819592259833145e-05
-5.817700695562874e-06   1.3476007001183492e-06   -1.1470151840292913e-05
-5.817700695562874e-06   1.3476007001183492e-06   -1.1470151840292913e-05
-5.817700695562874e-06   1.3476007001183492e-06   -1.1470151840292913e-05
-5.817700695562874e-06   1.3476007001183492e-06   -1.1470151840292913e-05
-5.742428651134756e-06   2.479537220665144e-06   -1.533136767259191e-05
-5.742428651134756e-06   2.479537220665144e-06   -1.533136767259191e-05
-5.742428651134756e-06   2.479537220665144e-06   -1.533136767259191e-05
-5.742428651134756e-06   2.479537220665144e-06   -1.533136767259191e-05
-7.93049308163695e-06   1.8416443125995148e-06   -1.1301857876915412e-05
-7.93049308163695e-06   1.8416443125995148e-06   -1.1301857876915412e-05
-7.93049308163695e-06   1.8416443125995148e-06   -1.1301857876915412e-05
-7.93049308163695e-06   1.8416443125995148e-06   -1.1301857876915412e-05
-6.900685501957883e-06   1.8087247351676649e-06   -1.2998452096588275e-05
-6.900685501957883e-06   1.8087247351676649e-06   -1.2998452096588275e-05
-6.900685501957883e-06   1.8087247351676649e-06   -1.2998452096588275e-05
-6.900685501957883e-06   1.8087247351676649e-06   -1.2998452096588275e-05
-5.980151804556447e-06   1.6587724094513714e-07   -1.7526578748923454e-05
-5.980151804556447e-06   1.6587724094513714e-07   -1.7526578748923454e-05
-5.980151804556447e-06   1.6587724094513714e-07   -1.7526578748923454e-05
-5.980151804556447e-06   1.6587724094513714e-07   -1.7526578748923454e-05
-3.6774438025732956e-06   2.501845893801099e-07   -1.3638147669890564e-05
-3.6774438025732956e-06   2.501845893801099e-07   -1.3638147669890564e-05
-3.6774438025732956e-06   2.501845893801099e-07   -1.3638147669890564e-05
-3.6774438025732956e-06   2.501845893801099e-07   -1.3638147669890564e-05
-3.6027101111434524e-06   6.983397651329519e-07   -1.7303092442180843e-05
-3.6027101111434524e-06   6.983397651329519e-07   -1.7303092442180843e-05
-3.6027101111434524e-06   6.983397651329519e-07   -1.7303092442180843e-05
-3.6027101111434524e-06   6.983397651329519e-07   -1.7303092442180843e-05
-5.903063305265592e-06   7.361384828683893e-07   -1.3491849682618464e-05
-5.903063305265592e-06   7.361384828683893e-07   -1.3491849682618464e-05
-5.903063305265592e-06   7.361384828683893e-07   -1.3491849682618464e-05
-5.903063305265592e-06   7.361384828683893e-07   -1.3491849682618464e-05
-4.759990370598832e-06   5.310121274044533e-07   -1.527389542711836e-05
-4.759990370598832e-06   5.310121274044533e-07   -1.527389542711836e-05
-4.759990370598832e-06   5.310121274044533e-07   -1.527389542711836e-05
-4.759990370598832e-06   5.310121274044533e-07   -1.527389542711836e-05
-5.903063305265578e-06   6.983397651328977e-07   -1.7325771672822106e-05
-5.903063305265578e-06   6.983397651328977e-07   -1.7325771672822106e-05
-5.903063305265578e-06   6.983397651328977e-07   -1.7325771672822106e-05
-5.903063305265578e-06   6.983397651328977e-07   -1.7325771672822106e-05
-3.6027101111434524e-06   7.361384828683893e-07   -1.3469170451977242e-05
-3.6027101111434524e-06   7.361384828683893e-07   -1.3469170451977242e-05
-3.6027101111434524e-06   7.361384828683893e-07   -1.3469170451977242e-05
-3.6027101111434524e-06   7.361384828683893e-07   -1.3469170451977242e-05
-3.517911199895582e-06   1.23252269678179e-06   -1.734692815713655e-05
-3.517911199895582e-06   1.23252269678179e-06   -1.734692815713655e-05
-3.517911199895582e-06   1.23252269678179e-06   -1.734692815713655e-05
-3.517911199895582e-06   1.23252269678179e-06   -1.734692815713655e-05
-5.817700695562874e-06   1.226291374841035e-06   -1.3510206871193228e-05
-5.817700695562874e-06   1.226291374841035e-06   -1.3510206871193228e-05
-5.817700695562874e-06   1.226291374841035e-06   -1.3510206871193228e-05
-5.817700695562874e-06   1.226291374841035e-06   -1.3510206871193228e-05
-4.711063040391878e-06   9.494002379489374e-07   -1.518846828100965e-05
-4.711063040391878e-06   9.494002379489374e-07   -1.518846828100965e-05
-4.711063040391878e-06   9.494002379489374e-07   -1.518846828100965e-05
-4.711063040391878e-06   9.494002379489374e-07   -1.518846828100965e-05
-5.817700695562867e-06   1.23252269678179e-06   -1.734318936397208e-05
-5.817700695562867e-06   1.23252269678179e-06   -1.734318936397208e-05
-5.817700695562867e-06   1.23252269678179e-06   -1.734318936397208e-05
-5.817700695562867e-06   1.23252269678179e-06   -1.734318936397208e-05
-3.5179111998955877e-06   1.226291374841035e-06   -1.3513945664357711e-05
-3.5179111998955877e-06   1.226291374841035e-06   -1.3513945664357711e-05
-3.5179111998955877e-06   1.226291374841035e-06   -1.3513945664357711e-05
-3.5179111998955877e-06   1.226291374841035e-06   -1.3513945664357711e-05
-3.4419327670328725e-06   1.7760446283603517e-06   -1.763866825876066e-05
-3.4419327670328725e-06   1.7760446283603517e-06   -1.763866825876066e-05
-3.4419327670328725e-06   1.7760446283603517e-06   -1.763866825876066e-05
-3.4419327670328725e-06   1.7760446283603517e-06   -1.763866825876066e-05
-5.742428651134763e-06   1.7239089348711862e-06   -1.3773227035830557e-05
-5.742428651134763e-06   1.7239089348711862e-06   -1.3773227035830557e-05
-5.742428651134763e-06   1.7239089348711862e-06   -1.3773227035830557e-05
-5.742428651134763e-06   1.7239089348711862e-06   -1.3773227035830557e-05
-4.671332053825774e-06   1.3733715906025148e-06   -1.5348065624784418e-05
-4.671332053825774e-06   1.3733715906025148e-06   -1.5348065624784418e-05
-4.671332053825774e-06   1.3733715906025148e-06   -1.5348065624784418e-05
-4.671332053825774e-06   1.3733715906025148e-06   -1.5348065624784418e-05
-3.677443802573283e-06   -5.453094396373954e-07   -1.5354825257167808e-05
-3.677443802573283e-06   -5.453094396373954e-07   -1.5354825257167808e-05
-3.677443802573283e-06   -5.453094396373954e-07   -1.5354825257167808e-05
-3.677443802573283e-06   -5.453094396373954e-07   -1.5354825257167808e-05
-1.4530554405530624e-06   1.1561617296418185e-07   -1.1250955952906544e-05
-1.4530554405530624e-06   1.1561617296418185e-07   -1.1250955952906544e-05
-1.4530554405530624e-06   1.1561617296418185e-07   -1.1250955952906544e-05
-1.4530554405530624e-06   1.1561617296418185e-07   -1.1250955952906544e-05
-1.3396708990726132e-06   -4.261533896078584e-08   -1.4856035212809876e-05
-1.3396708990726132e-06   -4.261533896078584e-08   -1.4856035212809876e-05
-1.3396708990726132e-06   -4.261533896078584e-08   -1.4856035212809876e-05
-1.3396708990726132e-06   -4.261533896078584e-08   -1.4856035212809876e-05
-3.602710111143446e-06   5.873248790582526e-07   -1.1462267323503123e-05
-3.602710111143446e-06   5.873248790582526e-07   -1.1462267323503123e-05
-3.602710111143446e-06   5.873248790582526e-07   -1.1462267323503123e-05
-3.602710111143446e-06   5.873248790582526e-07   -1.1462267323503123e-05
-2.4927395588123423e-06   7.775766985829678e-08   -1.3006477918535263e-05
-2.4927395588123423e-06   7.775766985829678e-08   -1.3006477918535263e-05
-2.4927395588123423e-06   7.775766985829678e-08   -1.3006477918535263e-05
-2.4927395588123423e-06   7.775766985829678e-08   -1.3006477918535263e-05
-3.60271011114344e-06   -4.261533896078584e-08   -1.523399934362125e-05
-3.60271011114344e-06   -4.261533896078584e-08   -1.523399934362125e-05
-3.60271011114344e-06   -4.261533896078584e-08   -1.523399934362125e-05
-3.60271011114344e-06   -4.261533896078584e-08   -1.523399934362125e-05
-1.3396708990726132e-06   5.873248790582526e-07   -1.1084303192691782e-05
-1.3396708990726132e-06   5.873248790582526e-07   -1.1084303192691782e-05
-1.3396708990726132e-06   5.873248790582526e-07   -1.1084303192691782e-05
-1.3396708990726132e-06   5.873248790582526e-07   -1.1084303192691782e-05
-1.1685308222674211e-06   4.399135596065717e-07   -1.5052674533924231e-05
-1.1685308222674211e-06   4.399135596065717e-07   -1.5052674533924231e-05
-1.1685308222674211e-06   4.399135596065717e-07   -1.5052674533924231e-05
-1.1685308222674211e-06   4.399135596065717e-07   -1.5052674533924231e-05
-3.517911199895582e-06   1.0308659773616054e-06   -1.1491612021863606e-05
-3.517911199895582e-06   1.0308659773616054e-06   -1.1491612021863606e-05
-3.517911199895582e-06   1.0308659773616054e-06   -1.1491612021863606e-05
-3.517911199895582e-06   1.0308659773616054e-06   -1.1491612021863606e-05
-2.425019532316806e-06   4.591949673242034e-07   -1.2970095528472522e-05
-2.425019532316806e-06   4.591949673242034e-07   -1.2970095528472522e-05
-2.425019532316806e-06   4.591949673242034e-07   -1.2970095528472522e-05
-2.425019532316806e-06   4.591949673242034e-07   -1.2970095528472522e-05
-3.5179111998955725e-06   4.399135596065717e-07   -1.5407245984577214e-05
-3.5179111998955725e-06   4.399135596065717e-07   -1.5407245984577214e-05
-3.5179111998955725e-06   4.399135596065717e-07   -1.5407245984577214e-05
-3.5179111998955725e-06   4.399135596065717e-07   -1.5407245984577214e-05
-1.1685308222674211e-06   1.0308659773616054e-06   -1.1137040571210656e-05
-1.1685308222674211e-06   1.0308659773616054e-06   -1.1137040571210656e-05
-1.1685308222674211e-06   1.0308659773616054e-06   -1.1137040571210656e-05
-1.1685308222674211e-06   1.0308659773616054e-06   -1.1137040571210656e-05
-1.0495157361162241e-06   9.91750311381376e-07   -1.5473374826630297e-05
-1.0495157361162241e-06   9.91750311381376e-07   -1.5473374826630297e-05
-1.0495157361162241e-06   9.91750311381376e-07   -1.5473374826630297e-05
-1.0495157361162241e-06   9.91750311381376e-07   -1.5473374826630297e-05
-3.4419327670328725e-06   1.5311526015276966e-06   -1.1809654482523627e-05
-3.4419327670328725e-06   1.5311526015276966e-06   -1.1809654482523627e-05
-3.4419327670328725e-06   1.5311526015276966e-06   -1.1809654482523627e-05
-3.4419327670328725e-06   1.5311526015276966e-06   -1.1809654482523627e-05
-2.354637824888862e-06   8.577366695689285e-07   -1.3217763160255048e-05
-2.354637824888862e-06   8.577366695689285e-07   -1.3217763160255048e-05
-2.354637824888862e-06   8.577366695689285e-07   -1.3217763160255048e-05
-2.354637824888862e-06   8.577366695689285e-07   -1.3217763160255048e-05
-1.4530554405530556e-06   -9.953626342393686e-07   -8.317530815813974e-06
-1.4530554405530556e-06   -9.953626342393686e-07   -8.317530815813974e-06
-1.4530554405530556e-06   -9.953626342393686e-07   -8.317530815813974e-06
-1.4530554405530556e-06   -9.953626342393686e-07   -8.317530815813974e-06
1.5646751842978898e-07   1.7001734062391163e-07   -4.9357645659245885e-06
1.5646751842978898e-07   1.7001734062391163e-07   -4.9357645659245885e-06
1.5646751842978898e-07   1.7001734062391163e-07   -4.9357645659245885e-06
1.5646751842978898e-07   1.7001734062391163e-07   -4.9357645659245885e-06
7.72877755761628e-07   -6.533669873153556e-07   -7.920511630002327e-06
7.72877755761628e-07   -6.533669873153556e-07   -7.920511630002327e-06
7.72877755761628e-07   -6.533669873153556e-07   -7.920511630002327e-06
7.72877755761628e-07   -6.533669873153556e-07   -7.920511630002327e-06
-1.3396708990726132e-06   5.440751179199683e-07   -5.118062468419652e-06
-1.3396708990726132e-06   5.440751179199683e-07   -5.118062468419652e-06
-1.3396708990726132e-06   5.440751179199683e-07   -5.118062468419652e-06
-1.3396708990726132e-06   5.440751179199683e-07   -5.118062468419652e-06
-4.513752766230801e-07   -1.8438650530310137e-07   -6.1614781985685905e-06
-4.513752766230801e-07   -1.8438650530310137e-07   -6.1614781985685905e-06
-4.513752766230801e-07   -1.8438650530310137e-07   -6.1614781985685905e-06
-4.513752766230801e-07   -1.8438650530310137e-07   -6.1614781985685905e-06
-1.3396708990726132e-06   -6.533669873153556e-07   -8.638976893143413e-06
-1.3396708990726132e-06   -6.533669873153556e-07   -8.638976893143413e-06
-1.3396708990726132e-06   -6.533669873153556e-07   -8.638976893143413e-06
-1.3396708990726132e-06   -6.533669873153556e-07   -8.638976893143413e-06
7.72877755761628e-07   5.44075117919914e-07   -4.399597205278539e-06
7.72877755761628e-07   5.44075117919914e-07   -4.399597205278539e-06
7.72877755761628e-07   5.44075117919914e-07   -4.399597205278539e-06
7.72877755761628e-07   5.44075117919914e-07   -4.399597205278539e-06
1.2600127891122695e-06   -4.186098845719577e-07   -8.342793772979525e-06
1.2600127891122695e-06   -4.186098845719577e-07   -8.342793772979525e-06
1.2600127891122695e-06   -4.186098845719577e-07   -8.342793772979525e-06
1.2600127891122695e-06   -4.186098845719577e-07   -8.342793772979525e-06
-1.1685308222674143e-06   7.538120195549878e-07   -4.998674229822833e-06
-1.1685308222674143e-06   7.538120195549878e-07   -4.998674229822833e-06
-1.1685308222674143e-06   7.538120195549878e-07   -4.998674229822833e-06
-1.1685308222674143e-06   7.538120195549878e-07   -4.998674229822833e-06
-1.4241733095092459e-07   -4.201735888311343e-09   -6.254055128750955e-06
-1.4241733095092459e-07   -4.201735888311343e-09   -6.254055128750955e-06
-1.4241733095092459e-07   -4.201735888311343e-09   -6.254055128750955e-06
-1.4241733095092459e-07   -4.201735888311343e-09   -6.254055128750955e-06
-1.1685308222674211e-06   -4.186098845719577e-07   -9.046246915455687e-06
-1.1685308222674211e-06   -4.186098845719577e-07   -9.046246915455687e-06
-1.1685308222674211e-06   -4.186098845719577e-07   -9.046246915455687e-06
-1.1685308222674211e-06   -4.186098845719577e-07   -9.046246915455687e-06
1.2600127891122695e-06   7.538120195549878e-07   -4.295221087346698e-06
1.2600127891122695e-06   7.538120195549878e-07   -4.295221087346698e-06
1.2600127891122695e-06   7.538120195549878e-07   -4.295221087346698e-06
1.2600127891122695e-06   7.538120195549878e-07   -4.295221087346698e-06
1.877240846249461e-06   4.033741625366228e-08   -9.33523597098363e-06
1.877240846249461e-06   4.033741625366228e-08   -9.33523597098363e-06
1.877240846249461e-06   4.033741625366228e-08   -9.33523597098363e-06
1.877240846249461e-06   4.033741625366228e-08   -9.33523597098363e-06
-1.049515736116231e-06   1.1228010522465015e-06   -5.106786515303083e-06
-1.049515736116231e-06   1.1228010522465015e-06   -5.106786515303083e-06
-1.049515736116231e-06   1.1228010522465015e-06   -5.106786515303083e-06
-1.049515736116231e-06   1.1228010522465015e-06   -5.106786515303083e-06
1.2810057178280768e-07   1.985241090346826e-07   -6.514914195874518e-06
1.2810057178280768e-07   1.985241090346826e-07   -6.514914195874518e-06
1.2810057178280768e-07   1.985241090346826e-07   -6.514914195874518e-06
1.2810057178280768e-07   1.985241090346826e-07   -6.514914195874518e-06
-3.836019702666888e-06   7.330160932478768e-07   -6.990767814447668e-06
-3.836019702666888e-06   7.330160932478768e-07   -6.990767814447668e-06
-3.836019702666888e-06   7.330160932478768e-07   -6.990767814447668e-06
-3.836019702666888e-06   7.330160932478768e-07   -6.990767814447668e-06
-3.962668383629612e-06   -3.5234881966446363e-07   -7.853067897132978e-06
-3.962668383629612e-06   -3.5234881966446363e-07   -7.853067897132978e-06
-3.962668383629612e-06   -3.5234881966446363e-07   -7.853067897132978e-06
-3.962668383629612e-06   -3.5234881966446363e-07   -7.853067897132978e-06
-3.768555725676111e-06   1.147380805998396e-06   -6.570181364099425e-06
-3.768555725676111e-06   1.147380805998396e-06   -6.570181364099425e-06
-3.768555725676111e-06   1.147380805998396e-06   -6.570181364099425e-06
-3.768555725676111e-06   1.147380805998396e-06   -6.570181364099425e-06
-3.1526621912968047e-06   -1.8620380017497946e-08   -6.89706987645541e-06
-3.1526621912968047e-06   -1.8620380017497946e-08   -6.89706987645541e-06
-3.1526621912968047e-06   -1.8620380017497946e-08   -6.89706987645541e-06
-3.1526621912968047e-06   -1.8620380017497946e-08   -6.89706987645541e-06
-3.519456675098993e-06   5.050453830449065e-07   -6.599945194622883e-06
-3.519456675098993e-06   5.050453830449065e-07   -6.599945194622883e-06
-3.519456675098993e-06   5.050453830449065e-07   -6.599945194622883e-06
-3.519456675098993e-06   5.050453830449065e-07   -6.599945194622883e-06
-3.1526621912967775e-06   1.147380805998396e-06   -5.870580652490008e-06
-3.1526621912967775e-06   1.147380805998396e-06   -5.870580652490008e-06
-3.1526621912967775e-06   1.147380805998396e-06   -5.870580652490008e-06
-3.1526621912967775e-06   1.147380805998396e-06   -5.870580652490008e-06
-3.768555725676111e-06   -1.8620380017497946e-08   -7.596670588065044e-06
-3.768555725676111e-06   -1.8620380017497946e-08   -7.596670588065044e-06
-3.768555725676111e-06   -1.8620380017497946e-08   -7.596670588065044e-06
-3.768555725676111e-06   -1.8620380017497946e-08   -7.596670588065044e-06
-3.5227866393383828e-06   1.3580872244478483e-06   -6.0964887868133555e-06
-3.5227866393383828e-06   1.3580872244478483e-06   -6.0964887868133555e-06
-3.5227866393383828e-06   1.3580872244478483e-06   -6.0964887868133555e-06
-3.5227866393383828e-06   1.3580872244478483e-06   -6.0964887868133555e-06
-2.590103110331485e-06   1.7171977742156622e-07   -6.939140866942293e-06
-2.590103110331485e-06   1.7171977742156622e-07   -6.939140866942293e-06
-2.590103110331485e-06   1.7171977742156622e-07   -6.939140866942293e-06
-2.590103110331485e-06   1.7171977742156622e-07   -6.939140866942293e-06
-3.1983209476514838e-06   6.772453819919953e-07   -6.228759834151512e-06
-3.1983209476514838e-06   6.772453819919953e-07   -6.228759834151512e-06
-3.1983209476514838e-06   6.772453819919953e-07   -6.228759834151512e-06
-3.1983209476514838e-06   6.772453819919953e-07   -6.228759834151512e-06
-2.590103110331485e-06   1.3580872244478483e-06   -5.384668318597445e-06
-2.590103110331485e-06   1.3580872244478483e-06   -5.384668318597445e-06
-2.590103110331485e-06   1.3580872244478483e-06   -5.384668318597445e-06
-2.590103110331485e-06   1.3580872244478483e-06   -5.384668318597445e-06
-3.5227866393383963e-06   1.7171977742156622e-07   -7.650961335158013e-06
-3.5227866393383963e-06   1.7171977742156622e-07   -7.650961335158013e-06
-3.5227866393383963e-06   1.7171977742156622e-07   -7.650961335158013e-06
-3.5227866393383963e-06   1.7171977742156622e-07   -7.650961335158013e-06
-3.3332018389151867e-06   1.692519003951439e-06   -5.659069273073044e-06
-3.3332018389151867e-06   1.692519003951439e-06   -5.659069273073044e-06
-3.3332018389151867e-06   1.692519003951439e-06   -5.659069273073044e-06
-3.3332018389151867e-06   1.692519003951439e-06   -5.659069273073044e-06
-1.8955199032484312e-06   5.50801673032523e-07   -7.370175433966242e-06
-1.8955199032484312e-06   5.50801673032523e-07   -7.370175433966242e-06
-1.8955199032484312e-06   5.50801673032523e-07   -7.370175433966242e-06
-1.8955199032484312e-06   5.50801673032523e-07   -7.370175433966242e-06
-2.7987868136308393e-06   8.44231038268548e-07   -6.040788202470594e-06
-2.7987868136308393e-06   8.44231038268548e-07   -6.040788202470594e-06
-2.7987868136308393e-06   8.44231038268548e-07   -6.040788202470594e-06
-2.7987868136308393e-06   8.44231038268548e-07   -6.040788202470594e-06
-3.962668383629585e-06   4.281130493991232e-07   -1.2797738241595452e-05
-3.962668383629585e-06   4.281130493991232e-07   -1.2797738241595452e-05
-3.962668383629585e-06   4.281130493991232e-07   -1.2797738241595452e-05
-3.962668383629585e-06   4.281130493991232e-07   -1.2797738241595452e-05
-4.623960202988497e-06   -7.125131295713204e-08   -1.4199509891274091e-05
-4.623960202988497e-06   -7.125131295713204e-08   -1.4199509891274091e-05
-4.623960202988497e-06   -7.125131295713204e-08   -1.4199509891274091e-05
-4.623960202988497e-06   -7.125131295713204e-08   -1.4199509891274091e-05
-4.468800376236728e-06   9.0398343739642e-07   -1.2805291951991185e-05
-4.468800376236728e-06   9.0398343739642e-07   -1.2805291951991185e-05
-4.468800376236728e-06   9.0398343739642e-07   -1.2805291951991185e-05
-4.468800376236728e-06   9.0398343739642e-07   -1.2805291951991185e-05
-3.7685557256761246e-06   3.508412418815835e-07   -1.3640481052283252e-05
-3.7685557256761246e-06   3.508412418815835e-07   -1.3640481052283252e-05
-3.7685557256761246e-06   3.508412418815835e-07   -1.3640481052283252e-05
-3.7685557256761246e-06   3.508412418815835e-07   -1.3640481052283252e-05
-4.157145478215365e-06   4.970065355183479e-07   -1.3080530640900134e-05
-4.157145478215365e-06   4.970065355183479e-07   -1.3080530640900134e-05
-4.157145478215365e-06   4.970065355183479e-07   -1.3080530640900134e-05
-4.157145478215365e-06   4.970065355183479e-07   -1.3080530640900134e-05
-3.768555725676111e-06   9.039834373963658e-07   -1.2473406634682185e-05
-3.768555725676111e-06   9.039834373963658e-07   -1.2473406634682185e-05
-3.768555725676111e-06   9.039834373963658e-07   -1.2473406634682185e-05
-3.768555725676111e-06   9.039834373963658e-07   -1.2473406634682185e-05
-4.468800376236721e-06   3.508412418815835e-07   -1.397236636959217e-05
-4.468800376236721e-06   3.508412418815835e-07   -1.397236636959217e-05
-4.468800376236721e-06   3.508412418815835e-07   -1.397236636959217e-05
-4.468800376236721e-06   3.508412418815835e-07   -1.397236636959217e-05
-4.307278949148351e-06   1.3476007001183492e-06   -1.2697676141946242e-05
-4.307278949148351e-06   1.3476007001183492e-06   -1.2697676141946242e-05
-4.307278949148351e-06   1.3476007001183492e-06   -1.2697676141946242e-05
-4.307278949148351e-06   1.3476007001183492e-06   -1.2697676141946242e-05
-3.5227866393383963e-06   7.58247263831272e-07   -1.3651551263190527e-05
-3.5227866393383963e-06   7.58247263831272e-07   -1.3651551263190527e-05
-3.5227866393383963e-06   7.58247263831272e-07   -1.3651551263190527e-05
-3.5227866393383963e-06   7.58247263831272e-07   -1.3651551263190527e-05
-4.0018188765794745e-06   8.386273103906661e-07   -1.2901392229057763e-05
-4.0018188765794745e-06   8.386273103906661e-07   -1.2901392229057763e-05
-4.0018188765794745e-06   8.386273103906661e-07   -1.2901392229057763e-05
-4.0018188765794745e-06   8.386273103906661e-07   -1.2901392229057763e-05
-3.5227866393383828e-06   1.347600700118295e-06   -1.2344064080173963e-05
-3.5227866393383828e-06   1.347600700118295e-06   -1.2344064080173963e-05
-3.5227866393383828e-06   1.347600700118295e-06   -1.2344064080173963e-05
-3.5227866393383828e-06   1.347600700118295e-06   -1.2344064080173963e-05
-4.3072789491483375e-06   7.58247263831272e-07   -1.4005163324962698e-05
-4.3072789491483375e-06   7.58247263831272e-07   -1.4005163324962698e-05
-4.3072789491483375e-06   7.58247263831272e-07   -1.4005163324962698e-05
-4.3072789491483375e-06   7.58247263831272e-07   -1.4005163324962698e-05
-4.155741788857359e-06   1.8416443125995148e-06   -1.290843666973911e-05
-4.155741788857359e-06   1.8416443125995148e-06   -1.290843666973911e-05
-4.155741788857359e-06   1.8416443125995148e-06   -1.290843666973911e-05
-4.155741788857359e-06   1.8416443125995148e-06   -1.290843666973911e-05
-3.3332018389152003e-06   1.2245145534823696e-06   -1.3909058730839004e-05
-3.3332018389152003e-06   1.2245145534823696e-06   -1.3909058730839004e-05
-3.3332018389152003e-06   1.2245145534823696e-06   -1.3909058730839004e-05
-3.3332018389152003e-06   1.2245145534823696e-06   -1.3909058730839004e-05
-3.865852827455866e-06   1.1981692743823777e-06   -1.3005499915811264e-05
-3.865852827455866e-06   1.1981692743823777e-06   -1.3005499915811264e-05
-3.865852827455866e-06   1.1981692743823777e-06   -1.3005499915811264e-05
-3.865852827455866e-06   1.1981692743823777e-06   -1.3005499915811264e-05
-4.623960202988477e-06   2.501845893801641e-07   -1.4919805835680693e-05
-4.623960202988477e-06   2.501845893801641e-07   -1.4919805835680693e-05
-4.623960202988477e-06   2.501845893801641e-07   -1.4919805835680693e-05
-4.623960202988477e-06   2.501845893801641e-07   -1.4919805835680693e-05
-5.312378662411495e-06   3.5708468159873896e-07   -1.6003029879387975e-05
-5.312378662411495e-06   3.5708468159873896e-07   -1.6003029879387975e-05
-5.312378662411495e-06   3.5708468159873896e-07   -1.6003029879387975e-05
-5.312378662411495e-06   3.5708468159873896e-07   -1.6003029879387975e-05
-5.16029028484916e-06   7.361384828684435e-07   -1.4687038017920453e-05
-5.16029028484916e-06   7.361384828684435e-07   -1.4687038017920453e-05
-5.16029028484916e-06   7.361384828684435e-07   -1.4687038017920453e-05
-5.16029028484916e-06   7.361384828684435e-07   -1.4687038017920453e-05
-4.468800376236728e-06   7.946751029786533e-07   -1.5874643171007302e-05
-4.468800376236728e-06   7.946751029786533e-07   -1.5874643171007302e-05
-4.468800376236728e-06   7.946751029786533e-07   -1.5874643171007302e-05
-4.468800376236728e-06   7.946751029786533e-07   -1.5874643171007302e-05
-4.86186206059821e-06   6.030703194780584e-07   -1.5104577493638003e-05
-4.86186206059821e-06   6.030703194780584e-07   -1.5104577493638003e-05
-4.86186206059821e-06   6.030703194780584e-07   -1.5104577493638003e-05
-4.86186206059821e-06   6.030703194780584e-07   -1.5104577493638003e-05
-4.468800376236714e-06   7.361384828684435e-07   -1.472215998998659e-05
-4.468800376236714e-06   7.361384828684435e-07   -1.472215998998659e-05
-4.468800376236714e-06   7.361384828684435e-07   -1.472215998998659e-05
-4.468800376236714e-06   7.361384828684435e-07   -1.472215998998659e-05
-5.160290284849169e-06   7.946751029786533e-07   -1.5839521198941233e-05
-5.160290284849169e-06   7.946751029786533e-07   -1.5839521198941233e-05
-5.160290284849169e-06   7.946751029786533e-07   -1.5839521198941233e-05
-5.160290284849169e-06   7.946751029786533e-07   -1.5839521198941233e-05
-4.999728106869992e-06   1.226291374841035e-06   -1.4728500758118821e-05
-4.999728106869992e-06   1.226291374841035e-06   -1.4728500758118821e-05
-4.999728106869992e-06   1.226291374841035e-06   -1.4728500758118821e-05
-4.999728106869992e-06   1.226291374841035e-06   -1.4728500758118821e-05
-4.307278949148351e-06   1.2416753993872666e-06   -1.5891813102382544e-05
-4.307278949148351e-06   1.2416753993872666e-06   -1.5891813102382544e-05
-4.307278949148351e-06   1.2416753993872666e-06   -1.5891813102382544e-05
-4.307278949148351e-06   1.2416753993872666e-06   -1.5891813102382544e-05
-4.735121878592078e-06   9.783132805185005e-07   -1.5020724281988661e-05
-4.735121878592078e-06   9.783132805185005e-07   -1.5020724281988661e-05
-4.735121878592078e-06   9.783132805185005e-07   -1.5020724281988661e-05
-4.735121878592078e-06   9.783132805185005e-07   -1.5020724281988661e-05
-4.3072789491483375e-06   1.226291374841035e-06   -1.4737731172846462e-05
-4.3072789491483375e-06   1.226291374841035e-06   -1.4737731172846462e-05
-4.3072789491483375e-06   1.226291374841035e-06   -1.4737731172846462e-05
-4.3072789491483375e-06   1.226291374841035e-06   -1.4737731172846462e-05
-4.999728106869992e-06   1.2416753993872666e-06   -1.588258268765485e-05
-4.999728106869992e-06   1.2416753993872666e-06   -1.588258268765485e-05
-4.999728106869992e-06   1.2416753993872666e-06   -1.588258268765485e-05
-4.999728106869992e-06   1.2416753993872666e-06   -1.588258268765485e-05
-4.848452679503254e-06   1.7239089348711862e-06   -1.5014437219896236e-05
-4.848452679503254e-06   1.7239089348711862e-06   -1.5014437219896236e-05
-4.848452679503254e-06   1.7239089348711862e-06   -1.5014437219896236e-05
-4.848452679503254e-06   1.7239089348711862e-06   -1.5014437219896236e-05
-4.155741788857359e-06   1.694963708068751e-06   -1.615158823489126e-05
-4.155741788857359e-06   1.694963708068751e-06   -1.615158823489126e-05
-4.155741788857359e-06   1.694963708068751e-06   -1.615158823489126e-05
-4.155741788857359e-06   1.694963708068751e-06   -1.615158823489126e-05
-4.61902794263641e-06   1.3588510276218773e-06   -1.5177777036991399e-05
-4.61902794263641e-06   1.3588510276218773e-06   -1.5177777036991399e-05
-4.61902794263641e-06   1.3588510276218773e-06   -1.5177777036991399e-05
-4.61902794263641e-06   1.3588510276218773e-06   -1.5177777036991399e-05
-5.312378662411476e-06   1.1561617296418185e-07   -1.2865029430926534e-05
-5.312378662411476e-06   1.1561617296418185e-07   -1.2865029430926534e-05
-5.312378662411476e-06   1.1561617296418185e-07   -1.2865029430926534e-05
-5.312378662411476e-06   1.1561617296418185e-07   -1.2865029430926534e-05
-6.044905377966078e-06   7.90836284226301e-07   -1.3680775223426974e-05
-6.044905377966078e-06   7.90836284226301e-07   -1.3680775223426974e-05
-6.044905377966078e-06   7.90836284226301e-07   -1.3680775223426974e-05
-6.044905377966078e-06   7.90836284226301e-07   -1.3680775223426974e-05
-5.859706736272775e-06   5.873248790582526e-07   -1.2294167642846641e-05
-5.859706736272775e-06   5.873248790582526e-07   -1.2294167642846641e-05
-5.859706736272775e-06   5.873248790582526e-07   -1.2294167642846641e-05
-5.859706736272775e-06   5.873248790582526e-07   -1.2294167642846641e-05
-5.16029028484916e-06   1.2306036233913561e-06   -1.384582897515238e-05
-5.16029028484916e-06   1.2306036233913561e-06   -1.384582897515238e-05
-5.16029028484916e-06   1.2306036233913561e-06   -1.384582897515238e-05
-5.16029028484916e-06   1.2306036233913561e-06   -1.384582897515238e-05
-5.550899482306223e-06   7.295686354222633e-07   -1.2894192653276093e-05
-5.550899482306223e-06   7.295686354222633e-07   -1.2894192653276093e-05
-5.550899482306223e-06   7.295686354222633e-07   -1.2894192653276093e-05
-5.550899482306223e-06   7.295686354222633e-07   -1.2894192653276093e-05
-5.160290284849151e-06   5.873248790582526e-07   -1.2680134889446449e-05
-5.160290284849151e-06   5.873248790582526e-07   -1.2680134889446449e-05
-5.160290284849151e-06   5.873248790582526e-07   -1.2680134889446449e-05
-5.160290284849151e-06   5.873248790582526e-07   -1.2680134889446449e-05
-5.859706736272775e-06   1.2306036233912477e-06   -1.3459861728552672e-05
-5.859706736272775e-06   1.2306036233912477e-06   -1.3459861728552672e-05
-5.859706736272775e-06   1.2306036233912477e-06   -1.3459861728552672e-05
-5.859706736272775e-06   1.2306036233912477e-06   -1.3459861728552672e-05
-5.617674349669655e-06   1.0308659773616054e-06   -1.2343417559029129e-05
-5.617674349669655e-06   1.0308659773616054e-06   -1.2343417559029129e-05
-5.617674349669655e-06   1.0308659773616054e-06   -1.2343417559029129e-05
-5.617674349669655e-06   1.0308659773616054e-06   -1.2343417559029129e-05
-4.999728106869982e-06   1.635448571687655e-06   -1.3736077520290812e-05
-4.999728106869982e-06   1.635448571687655e-06   -1.3736077520290812e-05
-4.999728106869982e-06   1.635448571687655e-06   -1.3736077520290812e-05
-4.999728106869982e-06   1.635448571687655e-06   -1.3736077520290812e-05
-5.385210800092116e-06   1.0792167669815018e-06   -1.2759867282097177e-05
-5.385210800092116e-06   1.0792167669815018e-06   -1.2759867282097177e-05
-5.385210800092116e-06   1.0792167669815018e-06   -1.2759867282097177e-05
-5.385210800092116e-06   1.0792167669815018e-06   -1.2759867282097177e-05
-4.99972810686997e-06   1.0308659773616054e-06   -1.2706167115624693e-05
-4.99972810686997e-06   1.0308659773616054e-06   -1.2706167115624693e-05
-4.99972810686997e-06   1.0308659773616054e-06   -1.2706167115624693e-05
-4.99972810686997e-06   1.0308659773616054e-06   -1.2706167115624693e-05
-5.617674349669662e-06   1.635448571687655e-06   -1.3373327963695219e-05
-5.617674349669662e-06   1.635448571687655e-06   -1.3373327963695219e-05
-5.617674349669662e-06   1.635448571687655e-06   -1.3373327963695219e-05
-5.617674349669662e-06   1.635448571687655e-06   -1.3373327963695219e-05
-5.428219327143066e-06   1.5311526015276966e-06   -1.2685581052556294e-05
-5.428219327143066e-06   1.5311526015276966e-06   -1.2685581052556294e-05
-5.428219327143066e-06   1.5311526015276966e-06   -1.2685581052556294e-05
-5.428219327143066e-06   1.5311526015276966e-06   -1.2685581052556294e-05
-4.848452679503254e-06   2.0878229314270046e-06   -1.398586099656214e-05
-4.848452679503254e-06   2.0878229314270046e-06   -1.398586099656214e-05
-4.848452679503254e-06   2.0878229314270046e-06   -1.398586099656214e-05
-4.848452679503254e-06   2.0878229314270046e-06   -1.398586099656214e-05
-5.263379747245235e-06   1.435403314886956e-06   -1.2902864113734688e-05
-5.263379747245235e-06   1.435403314886956e-06   -1.2902864113734688e-05
-5.263379747245235e-06   1.435403314886956e-06   -1.2902864113734688e-05
-5.263379747245235e-06   1.435403314886956e-06   -1.2902864113734688e-05
-6.044905377966058e-06   1.7001734062391163e-07   -6.843933962105274e-06
-6.044905377966058e-06   1.7001734062391163e-07   -6.843933962105274e-06
-6.044905377966058e-06   1.7001734062391163e-07   -6.843933962105274e-06
-6.044905377966058e-06   1.7001734062391163e-07   -6.843933962105274e-06
-7.371342621955947e-06   1.3341726538710968e-06   -8.356169514140083e-06
-7.371342621955947e-06   1.3341726538710968e-06   -8.356169514140083e-06
-7.371342621955947e-06   1.3341726538710968e-06   -8.356169514140083e-06
-7.371342621955947e-06   1.3341726538710968e-06   -8.356169514140083e-06
-6.696223893651996e-06   5.440751179199683e-07   -5.613950140188602e-06
-6.696223893651996e-06   5.440751179199683e-07   -5.613950140188602e-06
-6.696223893651996e-06   5.440751179199683e-07   -5.613950140188602e-06
-6.696223893651996e-06   5.440751179199683e-07   -5.613950140188602e-06
-5.859706736272755e-06   1.7340364152298613e-06   -7.722122180873253e-06
-5.859706736272755e-06   1.7340364152298613e-06   -7.722122180873253e-06
-5.859706736272755e-06   1.7340364152298613e-06   -7.722122180873253e-06
-5.859706736272755e-06   1.7340364152298613e-06   -7.722122180873253e-06
-6.230338222110705e-06   9.925149317069814e-07   -6.659490147696361e-06
-6.230338222110705e-06   9.925149317069814e-07   -6.659490147696361e-06
-6.230338222110705e-06   9.925149317069814e-07   -6.659490147696361e-06
-6.230338222110705e-06   9.925149317069814e-07   -6.659490147696361e-06
-5.859706736272741e-06   5.44075117919914e-07   -6.327926918574484e-06
-5.859706736272741e-06   5.44075117919914e-07   -6.327926918574484e-06
-5.859706736272741e-06   5.44075117919914e-07   -6.327926918574484e-06
-5.859706736272741e-06   5.44075117919914e-07   -6.327926918574484e-06
-6.696223893651982e-06   1.734036415229753e-06   -7.00814540248733e-06
-6.696223893651982e-06   1.734036415229753e-06   -7.00814540248733e-06
-6.696223893651982e-06   1.734036415229753e-06   -7.00814540248733e-06
-6.696223893651982e-06   1.734036415229753e-06   -7.00814540248733e-06
-6.147111144029805e-06   7.538120195549878e-07   -5.507129143897182e-06
-6.147111144029805e-06   7.538120195549878e-07   -5.507129143897182e-06
-6.147111144029805e-06   7.538120195549878e-07   -5.507129143897182e-06
-6.147111144029805e-06   7.538120195549878e-07   -5.507129143897182e-06
-5.617674349669655e-06   1.9170154757952758e-06   -7.0874458749082856e-06
-5.617674349669655e-06   1.9170154757952758e-06   -7.0874458749082856e-06
-5.617674349669655e-06   1.9170154757952758e-06   -7.0874458749082856e-06
-5.617674349669655e-06   1.9170154757952758e-06   -7.0874458749082856e-06
-5.947999737849311e-06   1.1790272634627785e-06   -6.094110633876016e-06
-5.947999737849311e-06   1.1790272634627785e-06   -6.094110633876016e-06
-5.947999737849311e-06   1.1790272634627785e-06   -6.094110633876016e-06
-5.947999737849311e-06   1.1790272634627785e-06   -6.094110633876016e-06
-5.617674349669642e-06   7.538120195549878e-07   -6.2050512176414145e-06
-5.617674349669642e-06   7.538120195549878e-07   -6.2050512176414145e-06
-5.617674349669642e-06   7.538120195549878e-07   -6.2050512176414145e-06
-5.617674349669642e-06   7.538120195549878e-07   -6.2050512176414145e-06
-6.147111144029805e-06   1.9170154757952758e-06   -6.389523801164101e-06
-6.147111144029805e-06   1.9170154757952758e-06   -6.389523801164101e-06
-6.147111144029805e-06   1.9170154757952758e-06   -6.389523801164101e-06
-6.147111144029805e-06   1.9170154757952758e-06   -6.389523801164101e-06
-5.472591079502459e-06   1.1228010522465015e-06   -5.661660831542549e-06
-5.472591079502459e-06   1.1228010522465015e-06   -5.661660831542549e-06
-5.472591079502459e-06   1.1228010522465015e-06   -5.661660831542549e-06
-5.472591079502459e-06   1.1228010522465015e-06   -5.661660831542549e-06
-5.428219327143052e-06   2.197290432048209e-06   -6.380307380022453e-06
-5.428219327143052e-06   2.197290432048209e-06   -6.380307380022453e-06
-5.428219327143052e-06   2.197290432048209e-06   -6.380307380022453e-06
-5.428219327143052e-06   2.197290432048209e-06   -6.380307380022453e-06
-5.522280669301262e-06   1.3276539540810683e-06   -5.701756589645147e-06
-5.522280669301262e-06   1.3276539540810683e-06   -5.701756589645147e-06
-5.522280669301262e-06   1.3276539540810683e-06   -5.701756589645147e-06
-5.522280669301262e-06   1.3276539540810683e-06   -5.701756589645147e-06
3.577491242146675e-06   -3.5234881966446363e-07   -3.4696691818055393e-06
3.577491242146675e-06   -3.5234881966446363e-07   -3.4696691818055393e-06
3.577491242146675e-06   -3.5234881966446363e-07   -3.4696691818055393e-06
3.577491242146675e-06   -3.5234881966446363e-07   -3.4696691818055393e-06
3.80908326260405e-07   -1.450123276449224e-06   -9.455972049020144e-06
3.80908326260405e-07   -1.450123276449224e-06   -9.455972049020144e-06
3.80908326260405e-07   -1.450123276449224e-06   -9.455972049020144e-06
3.80908326260405e-07   -1.450123276449224e-06   -9.455972049020144e-06
6.459904524625909e-07   -1.8620380017497946e-08   -3.849713833167052e-06
6.459904524625909e-07   -1.8620380017497946e-08   -3.849713833167052e-06
6.459904524625909e-07   -1.8620380017497946e-08   -3.849713833167052e-06
6.459904524625909e-07   -1.8620380017497946e-08   -3.849713833167052e-06
4.332318317221416e-06   -1.193539718210364e-06   -9.288642004849358e-06
4.332318317221416e-06   -1.193539718210364e-06   -9.288642004849358e-06
4.332318317221416e-06   -1.193539718210364e-06   -9.288642004849358e-06
4.332318317221416e-06   -1.193539718210364e-06   -9.288642004849358e-06
2.1499494596688413e-06   -6.083235103206694e-07   -6.002490300328943e-06
2.1499494596688413e-06   -6.083235103206694e-07   -6.002490300328943e-06
2.1499494596688413e-06   -6.083235103206694e-07   -6.002490300328943e-06
2.1499494596688413e-06   -6.083235103206694e-07   -6.002490300328943e-06
4.332318317221416e-06   -1.8620380017497946e-08   -3.144762230251365e-06
4.332318317221416e-06   -1.8620380017497946e-08   -3.144762230251365e-06
4.332318317221416e-06   -1.8620380017497946e-08   -3.144762230251365e-06
4.332318317221416e-06   -1.8620380017497946e-08   -3.144762230251365e-06
6.459904524625909e-07   -1.193539718210364e-06   -9.993593607765208e-06
6.459904524625909e-07   -1.193539718210364e-06   -9.993593607765208e-06
6.459904524625909e-07   -1.193539718210364e-06   -9.993593607765208e-06
6.459904524625909e-07   -1.193539718210364e-06   -9.993593607765208e-06
9.592821219737746e-07   1.7171977742156622e-07   -3.884699515216265e-06
9.592821219737746e-07   1.7171977742156622e-07   -3.884699515216265e-06
9.592821219737746e-07   1.7171977742156622e-07   -3.884699515216265e-06
9.592821219737746e-07   1.7171977742156622e-07   -3.884699515216265e-06
4.967662537536018e-06   -1.0206775708163085e-06   -9.849895132210684e-06
4.967662537536018e-06   -1.0206775708163085e-06   -9.849895132210684e-06
4.967662537536018e-06   -1.0206775708163085e-06   -9.849895132210684e-06
4.967662537536018e-06   -1.0206775708163085e-06   -9.849895132210684e-06
2.6268086899499234e-06   -4.873104564144526e-07   -6.268492321541934e-06
2.6268086899499234e-06   -4.873104564144526e-07   -6.268492321541934e-06
2.6268086899499234e-06   -4.873104564144526e-07   -6.268492321541934e-06
2.6268086899499234e-06   -4.873104564144526e-07   -6.268492321541934e-06
4.967662537536018e-06   1.7171977742156622e-07   -3.16926110627367e-06
4.967662537536018e-06   1.7171977742156622e-07   -3.16926110627367e-06
4.967662537536018e-06   1.7171977742156622e-07   -3.16926110627367e-06
4.967662537536018e-06   1.7171977742156622e-07   -3.16926110627367e-06
9.592821219737746e-07   -1.0206775708163085e-06   -1.0565333541153469e-05
9.592821219737746e-07   -1.0206775708163085e-06   -1.0565333541153469e-05
9.592821219737746e-07   -1.0206775708163085e-06   -1.0565333541153469e-05
9.592821219737746e-07   -1.0206775708163085e-06   -1.0565333541153469e-05
1.215116392310904e-06   5.50801673032523e-07   -4.271184024145992e-06
1.215116392310904e-06   5.50801673032523e-07   -4.271184024145992e-06
1.215116392310904e-06   5.50801673032523e-07   -4.271184024145992e-06
1.215116392310904e-06   5.50801673032523e-07   -4.271184024145992e-06
5.7311024070156235e-06   -5.868674175918669e-07   -1.1115225927612574e-05
5.7311024070156235e-06   -5.868674175918669e-07   -1.1115225927612574e-05
5.7311024070156235e-06   -5.868674175918669e-07   -1.1115225927612574e-05
5.7311024070156235e-06   -5.868674175918669e-07   -1.1115225927612574e-05
3.0017559225860424e-06   -3.0802631095186873e-07   -6.733619784214271e-06
3.0017559225860424e-06   -3.0802631095186873e-07   -6.733619784214271e-06
3.0017559225860424e-06   -3.0802631095186873e-07   -6.733619784214271e-06
3.0017559225860424e-06   -3.0802631095186873e-07   -6.733619784214271e-06
3.80908326260405e-07   -7.125131295702362e-08   -1.0175157232603798e-05
3.80908326260405e-07   -7.125131295702362e-08   -1.0175157232603798e-05
3.80908326260405e-07   -7.125131295702362e-08   -1.0175157232603798e-05
3.80908326260405e-07   -7.125131295702362e-08   -1.0175157232603798e-05
-3.316118700432174e-06   -5.661840277432608e-07   -1.6633828572629726e-05
-3.316118700432174e-06   -5.661840277432608e-07   -1.6633828572629726e-05
-3.316118700432174e-06   -5.661840277432608e-07   -1.6633828572629726e-05
-3.316118700432174e-06   -5.661840277432608e-07   -1.6633828572629726e-05
-3.0851488743870428e-06   3.508412418815835e-07   -1.0231490008847711e-05
-3.0851488743870428e-06   3.508412418815835e-07   -1.0231490008847711e-05
-3.0851488743870428e-06   3.508412418815835e-07   -1.0231490008847711e-05
-3.0851488743870428e-06   3.508412418815835e-07   -1.0231490008847711e-05
6.459904524625909e-07   -2.1243494388893322e-07   -1.61120898421348e-05
6.459904524625909e-07   -2.1243494388893322e-07   -1.61120898421348e-05
6.459904524625909e-07   -2.1243494388893322e-07   -1.61120898421348e-05
6.459904524625909e-07   -2.1243494388893322e-07   -1.61120898421348e-05
-1.3130077879463733e-06   -1.579481051028689e-08   -1.29650768548137e-05
-1.3130077879463733e-06   -1.579481051028689e-08   -1.29650768548137e-05
-1.3130077879463733e-06   -1.579481051028689e-08   -1.29650768548137e-05
-1.3130077879463733e-06   -1.579481051028689e-08   -1.29650768548137e-05
6.459904524626044e-07   3.508412418815835e-07   -9.893524297385368e-06
6.459904524626044e-07   3.508412418815835e-07   -9.893524297385368e-06
6.459904524626044e-07   3.508412418815835e-07   -9.893524297385368e-06
6.459904524626044e-07   3.508412418815835e-07   -9.893524297385368e-06
-3.0851488743870428e-06   -2.1243494388893322e-07   -1.6450055553597197e-05
-3.0851488743870428e-06   -2.1243494388893322e-07   -1.6450055553597197e-05
-3.0851488743870428e-06   -2.1243494388893322e-07   -1.6450055553597197e-05
-3.0851488743870428e-06   -2.1243494388893322e-07   -1.6450055553597197e-05
-2.852796400730674e-06   7.58247263831272e-07   -1.0247848073127795e-05
-2.852796400730674e-06   7.58247263831272e-07   -1.0247848073127795e-05
-2.852796400730674e-06   7.58247263831272e-07   -1.0247848073127795e-05
-2.852796400730674e-06   7.58247263831272e-07   -1.0247848073127795e-05
9.592821219737746e-07   1.5398288069959614e-07   -1.623875364775628e-05
9.592821219737746e-07   1.5398288069959614e-07   -1.623875364775628e-05
9.592821219737746e-07   1.5398288069959614e-07   -1.623875364775628e-05
9.592821219737746e-07   1.5398288069959614e-07   -1.623875364775628e-05
-1.109428342925954e-06   2.760115752704819e-07   -1.2864120089665985e-05
-1.109428342925954e-06   2.760115752704819e-07   -1.2864120089665985e-05
-1.109428342925954e-06   2.760115752704819e-07   -1.2864120089665985e-05
-1.109428342925954e-06   2.760115752704819e-07   -1.2864120089665985e-05
9.592821219737746e-07   7.58247263831272e-07   -9.885289443248833e-06
9.592821219737746e-07   7.58247263831272e-07   -9.885289443248833e-06
9.592821219737746e-07   7.58247263831272e-07   -9.885289443248833e-06
9.592821219737746e-07   7.58247263831272e-07   -9.885289443248833e-06
-2.852796400730674e-06   1.5398288069959614e-07   -1.6601312277635322e-05
-2.852796400730674e-06   1.5398288069959614e-07   -1.6601312277635322e-05
-2.852796400730674e-06   1.5398288069959614e-07   -1.6601312277635322e-05
-2.852796400730674e-06   1.5398288069959614e-07   -1.6601312277635322e-05
-2.6313357477812505e-06   1.2245145534823696e-06   -1.0506412501775763e-05
-2.6313357477812505e-06   1.2245145534823696e-06   -1.0506412501775763e-05
-2.6313357477812505e-06   1.2245145534823696e-06   -1.0506412501775763e-05
-2.6313357477812505e-06   1.2245145534823696e-06   -1.0506412501775763e-05
1.2151163923108905e-06   5.888885879684396e-07   -1.653579048928772e-05
1.2151163923108905e-06   5.888885879684396e-07   -1.653579048928772e-05
1.2151163923108905e-06   5.888885879684396e-07   -1.653579048928772e-05
1.2151163923108905e-06   5.888885879684396e-07   -1.653579048928772e-05
-8.816392463278251e-07   6.004795638399341e-07   -1.3048152343746302e-05
-8.816392463278251e-07   6.004795638399341e-07   -1.3048152343746302e-05
-8.816392463278251e-07   6.004795638399341e-07   -1.3048152343746302e-05
-8.816392463278251e-07   6.004795638399341e-07   -1.3048152343746302e-05
-3.3161187004321807e-06   3.5708468159863054e-07   -1.2339776904920488e-05
-3.3161187004321807e-06   3.5708468159863054e-07   -1.2339776904920488e-05
-3.3161187004321807e-06   3.5708468159863054e-07   -1.2339776904920488e-05
-3.3161187004321807e-06   3.5708468159863054e-07   -1.2339776904920488e-05
-6.978178843980898e-06   4.496773894245229e-07   -1.838765485280623e-05
-6.978178843980898e-06   4.496773894245229e-07   -1.838765485280623e-05
-6.978178843980898e-06   4.496773894245229e-07   -1.838765485280623e-05
-6.978178843980898e-06   4.496773894245229e-07   -1.838765485280623e-05
-6.7459170280160034e-06   7.946751029786533e-07   -1.211544098646104e-05
-6.7459170280160034e-06   7.946751029786533e-07   -1.211544098646104e-05
-6.7459170280160034e-06   7.946751029786533e-07   -1.211544098646104e-05
-6.7459170280160034e-06   7.946751029786533e-07   -1.211544098646104e-05
-3.0851488743870495e-06   8.252181426482387e-07   -1.8235047066311153e-05
-3.0851488743870495e-06   8.252181426482387e-07   -1.8235047066311153e-05
-3.0851488743870495e-06   8.252181426482387e-07   -1.8235047066311153e-05
-3.0851488743870495e-06   8.252181426482387e-07   -1.8235047066311153e-05
-5.002290405498205e-06   6.830279945439863e-07   -1.4954497092263313e-05
-5.002290405498205e-06   6.830279945439863e-07   -1.4954497092263313e-05
-5.002290405498205e-06   6.830279945439863e-07   -1.4954497092263313e-05
-5.002290405498205e-06   6.830279945439863e-07   -1.4954497092263313e-05
-3.0851488743870495e-06   7.946751029786533e-07   -1.2133766810262857e-05
-3.0851488743870495e-06   7.946751029786533e-07   -1.2133766810262857e-05
-3.0851488743870495e-06   7.946751029786533e-07   -1.2133766810262857e-05
-3.0851488743870495e-06   7.946751029786533e-07   -1.2133766810262857e-05
-6.7459170280160034e-06   8.252181426482387e-07   -1.821672124250939e-05
-6.7459170280160034e-06   8.252181426482387e-07   -1.821672124250939e-05
-6.7459170280160034e-06   8.252181426482387e-07   -1.821672124250939e-05
-6.7459170280160034e-06   8.252181426482387e-07   -1.821672124250939e-05
-6.5094268603011764e-06   1.2416753993872666e-06   -1.2146162199727108e-05
-6.5094268603011764e-06   1.2416753993872666e-06   -1.2146162199727108e-05
-6.5094268603011764e-06   1.2416753993872666e-06   -1.2146162199727108e-05
-6.5094268603011764e-06   1.2416753993872666e-06   -1.2146162199727108e-05
-2.852796400730681e-06   1.222234817421417e-06   -1.8228881949831826e-05
-2.852796400730681e-06   1.222234817421417e-06   -1.8228881949831826e-05
-2.852796400730681e-06   1.222234817421417e-06   -1.8228881949831826e-05
-2.852796400730681e-06   1.222234817421417e-06   -1.8228881949831826e-05
-4.7986251289374315e-06   1.0115603754993477e-06   -1.4859429404334208e-05
-4.7986251289374315e-06   1.0115603754993477e-06   -1.4859429404334208e-05
-4.7986251289374315e-06   1.0115603754993477e-06   -1.4859429404334208e-05
-4.7986251289374315e-06   1.0115603754993477e-06   -1.4859429404334208e-05
-2.852796400730681e-06   1.2416753993872666e-06   -1.2134497850547642e-05
-2.852796400730681e-06   1.2416753993872666e-06   -1.2134497850547642e-05
-2.852796400730681e-06   1.2416753993872666e-06   -1.2134497850547642e-05
-2.852796400730681e-06   1.2416753993872666e-06   -1.2134497850547642e-05
-6.509426860301166e-06   1.222234817421417e-06   -1.8240546299011333e-05
-6.509426860301166e-06   1.222234817421417e-06   -1.8240546299011333e-05
-6.509426860301166e-06   1.222234817421417e-06   -1.8240546299011333e-05
-6.509426860301166e-06   1.222234817421417e-06   -1.8240546299011333e-05
-6.2840140180805835e-06   1.694963708068751e-06   -1.2419935282881908e-05
-6.2840140180805835e-06   1.694963708068751e-06   -1.2419935282881908e-05
-6.2840140180805835e-06   1.694963708068751e-06   -1.2419935282881908e-05
-6.2840140180805835e-06   1.694963708068751e-06   -1.2419935282881908e-05
-2.6313357477812573e-06   1.626178487195199e-06   -1.846646126752329e-05
-2.6313357477812573e-06   1.626178487195199e-06   -1.846646126752329e-05
-2.6313357477812573e-06   1.626178487195199e-06   -1.846646126752329e-05
-2.6313357477812573e-06   1.626178487195199e-06   -1.846646126752329e-05
-4.6096982041783664e-06   1.345157790039967e-06   -1.5000578088568618e-05
-4.6096982041783664e-06   1.345157790039967e-06   -1.5000578088568618e-05
-4.6096982041783664e-06   1.345157790039967e-06   -1.5000578088568618e-05
-4.6096982041783664e-06   1.345157790039967e-06   -1.5000578088568618e-05
-6.978178843980908e-06   7.90836284226301e-07   -1.0367098691021288e-05
-6.978178843980908e-06   7.90836284226301e-07   -1.0367098691021288e-05
-6.978178843980908e-06   7.90836284226301e-07   -1.0367098691021288e-05
-6.978178843980908e-06   7.90836284226301e-07   -1.0367098691021288e-05
-1.0607758233204944e-05   1.4388787726071816e-06   -1.6027572180032847e-05
-1.0607758233204944e-05   1.4388787726071816e-06   -1.6027572180032847e-05
-1.0607758233204944e-05   1.4388787726071816e-06   -1.6027572180032847e-05
-1.0607758233204944e-05   1.4388787726071816e-06   -1.6027572180032847e-05
-1.0341503158742388e-05   1.2306036233913561e-06   -9.756210995619339e-06
-1.0341503158742388e-05   1.2306036233913561e-06   -9.756210995619339e-06
-1.0341503158742388e-05   1.2306036233913561e-06   -9.756210995619339e-06
-1.0341503158742388e-05   1.2306036233913561e-06   -9.756210995619339e-06
-6.7459170280160034e-06   1.8398332351463606e-06   -1.6114392313882903e-05
-6.7459170280160034e-06   1.8398332351463606e-06   -1.6114392313882903e-05
-6.7459170280160034e-06   1.8398332351463606e-06   -1.6114392313882903e-05
-6.7459170280160034e-06   1.8398332351463606e-06   -1.6114392313882903e-05
-8.608142652260238e-06   1.376186508028729e-06   -1.2732494903872006e-05
-8.608142652260238e-06   1.376186508028729e-06   -1.2732494903872006e-05
-8.608142652260238e-06   1.376186508028729e-06   -1.2732494903872006e-05
-8.608142652260238e-06   1.376186508028729e-06   -1.2732494903872006e-05
-6.745917028016015e-06   1.2306036233912477e-06   -1.0121748762672341e-05
-6.745917028016015e-06   1.2306036233912477e-06   -1.0121748762672341e-05
-6.745917028016015e-06   1.2306036233912477e-06   -1.0121748762672341e-05
-6.745917028016015e-06   1.2306036233912477e-06   -1.0121748762672341e-05
-1.0341503158742401e-05   1.8398332351463606e-06   -1.5748854546830053e-05
-1.0341503158742401e-05   1.8398332351463606e-06   -1.5748854546830053e-05
-1.0341503158742401e-05   1.8398332351463606e-06   -1.5748854546830053e-05
-1.0341503158742401e-05   1.8398332351463606e-06   -1.5748854546830053e-05
-1.0020268672771428e-05   1.635448571687655e-06   -9.660738081787297e-06
-1.0020268672771428e-05   1.635448571687655e-06   -9.660738081787297e-06
-1.0020268672771428e-05   1.635448571687655e-06   -9.660738081787297e-06
-1.0020268672771428e-05   1.635448571687655e-06   -9.660738081787297e-06
-6.5094268603011764e-06   2.200313489314097e-06   -1.5851060053146837e-05
-6.5094268603011764e-06   2.200313489314097e-06   -1.5851060053146837e-05
-6.5094268603011764e-06   2.200313489314097e-06   -1.5851060053146837e-05
-6.5094268603011764e-06   2.200313489314097e-06   -1.5851060053146837e-05
-8.338586228914466e-06   1.6935721608343215e-06   -1.24984163083704e-05
-8.338586228914466e-06   1.6935721608343215e-06   -1.24984163083704e-05
-8.338586228914466e-06   1.6935721608343215e-06   -1.24984163083704e-05
-8.338586228914466e-06   1.6935721608343215e-06   -1.24984163083704e-05
-6.509426860301171e-06   1.635448571687655e-06   -9.999657032363043e-06
-6.509426860301171e-06   1.635448571687655e-06   -9.999657032363043e-06
-6.509426860301171e-06   1.635448571687655e-06   -9.999657032363043e-06
-6.509426860301171e-06   1.635448571687655e-06   -9.999657032363043e-06
-1.0020268672771428e-05   2.2003134893139884e-06   -1.5512141102571057e-05
-1.0020268672771428e-05   2.2003134893139884e-06   -1.5512141102571057e-05
-1.0020268672771428e-05   2.2003134893139884e-06   -1.5512141102571057e-05
-1.0020268672771428e-05   2.2003134893139884e-06   -1.5512141102571057e-05
-9.753269091868803e-06   2.0878229314270046e-06   -9.928244541498193e-06
-9.753269091868803e-06   2.0878229314270046e-06   -9.928244541498193e-06
-9.753269091868803e-06   2.0878229314270046e-06   -9.928244541498193e-06
-9.753269091868803e-06   2.0878229314270046e-06   -9.928244541498193e-06
-6.2840140180805835e-06   2.602150209715529e-06   -1.6018932698118393e-05
-6.2840140180805835e-06   2.602150209715529e-06   -1.6018932698118393e-05
-6.2840140180805835e-06   2.602150209715529e-06   -1.6018932698118393e-05
-6.2840140180805835e-06   2.602150209715529e-06   -1.6018932698118393e-05
-8.161664208743758e-06   2.0053579179965834e-06   -1.2531440338648308e-05
-8.161664208743758e-06   2.0053579179965834e-06   -1.2531440338648308e-05
-8.161664208743758e-06   2.0053579179965834e-06   -1.2531440338648308e-05
-8.161664208743758e-06   2.0053579179965834e-06   -1.2531440338648308e-05
-1.0607758233204944e-05   1.3341726538710968e-06   -5.352160676654245e-06
-1.0607758233204944e-05   1.3341726538710968e-06   -5.352160676654245e-06
-1.0607758233204944e-05   1.3341726538710968e-06   -5.352160676654245e-06
-1.0607758233204944e-05   1.3341726538710968e-06   -5.352160676654245e-06
-1.4756486925835324e-05   2.4759015906387818e-06   -1.1581671135644383e-05
-1.4756486925835324e-05   2.4759015906387818e-06   -1.1581671135644383e-05
-1.4756486925835324e-05   2.4759015906387818e-06   -1.1581671135644383e-05
-1.4756486925835324e-05   2.4759015906387818e-06   -1.1581671135644383e-05
-1.4009506054940005e-05   1.7340364152298613e-06   -3.322859961548525e-06
-1.4009506054940005e-05   1.7340364152298613e-06   -3.322859961548525e-06
-1.4009506054940005e-05   1.7340364152298613e-06   -3.322859961548525e-06
-1.4009506054940005e-05   1.7340364152298613e-06   -3.322859961548525e-06
-1.0341503158742388e-05   2.893388892548929e-06   -1.013180960826933e-05
-1.0341503158742388e-05   2.893388892548929e-06   -1.013180960826933e-05
-1.0341503158742388e-05   2.893388892548929e-06   -1.013180960826933e-05
-1.0341503158742388e-05   2.893388892548929e-06   -1.013180960826933e-05
-1.1923445687068812e-05   2.1552260832395816e-06   -7.0523410421396645e-06
-1.1923445687068812e-05   2.1552260832395816e-06   -7.0523410421396645e-06
-1.1923445687068812e-05   2.1552260832395816e-06   -7.0523410421396645e-06
-1.1923445687068812e-05   2.1552260832395816e-06   -7.0523410421396645e-06
-1.0341503158742391e-05   1.7340364152298613e-06   -4.018471447939933e-06
-1.0341503158742391e-05   1.7340364152298613e-06   -4.018471447939933e-06
-1.0341503158742391e-05   1.7340364152298613e-06   -4.018471447939933e-06
-1.0341503158742391e-05   1.7340364152298613e-06   -4.018471447939933e-06
-1.4009506054939958e-05   2.893388892548929e-06   -9.436198121877935e-06
-1.4009506054939958e-05   2.893388892548929e-06   -9.436198121877935e-06
-1.4009506054939958e-05   2.893388892548929e-06   -9.436198121877935e-06
-1.4009506054939958e-05   2.893388892548929e-06   -9.436198121877935e-06
-1.3392220997742279e-05   1.9170154757952758e-06   -2.6990387430650127e-06
-1.3392220997742279e-05   1.9170154757952758e-06   -2.6990387430650127e-06
-1.3392220997742279e-05   1.9170154757952758e-06   -2.6990387430650127e-06
-1.3392220997742279e-05   1.9170154757952758e-06   -2.6990387430650127e-06
-1.0020268672771411e-05   3.0433775590208226e-06   -8.994776534618402e-06
-1.0020268672771411e-05   3.0433775590208226e-06   -8.994776534618402e-06
-1.0020268672771411e-05   3.0433775590208226e-06   -8.994776534618402e-06
-1.0020268672771411e-05   3.0433775590208226e-06   -8.994776534618402e-06
-1.1657912694430819e-05   2.344638244542764e-06   -5.8461262431658485e-06
-1.1657912694430819e-05   2.344638244542764e-06   -5.8461262431658485e-06
-1.1657912694430819e-05   2.344638244542764e-06   -5.8461262431658485e-06
-1.1657912694430819e-05   2.344638244542764e-06   -5.8461262431658485e-06
-1.0020268672771428e-05   1.9170154757952758e-06   -3.3748559930002757e-06
-1.0020268672771428e-05   1.9170154757952758e-06   -3.3748559930002757e-06
-1.0020268672771428e-05   1.9170154757952758e-06   -3.3748559930002757e-06
-1.0020268672771428e-05   1.9170154757952758e-06   -3.3748559930002757e-06
-1.3392220997742265e-05   3.0433775590208226e-06   -8.318959284683153e-06
-1.3392220997742265e-05   3.0433775590208226e-06   -8.318959284683153e-06
-1.3392220997742265e-05   3.0433775590208226e-06   -8.318959284683153e-06
-1.3392220997742265e-05   3.0433775590208226e-06   -8.318959284683153e-06
-1.2659045406885854e-05   2.197290432048209e-06   -2.037025485010025e-06
-1.2659045406885854e-05   2.197290432048209e-06   -2.037025485010025e-06
-1.2659045406885854e-05   2.197290432048209e-06   -2.037025485010025e-06
-1.2659045406885854e-05   2.197290432048209e-06   -2.037025485010025e-06
-9.753269091868803e-06   3.230069828528276e-06   -7.499653647926533e-06
-9.753269091868803e-06   3.230069828528276e-06   -7.499653647926533e-06
-9.753269091868803e-06   3.230069828528276e-06   -7.499653647926533e-06
-9.753269091868803e-06   3.230069828528276e-06   -7.499653647926533e-06
-1.1074272473543446e-05   2.434832359787917e-06   -4.820838863891299e-06
-1.1074272473543446e-05   2.434832359787917e-06   -4.820838863891299e-06
-1.1074272473543446e-05   2.434832359787917e-06   -4.820838863891299e-06
-1.1074272473543446e-05   2.434832359787917e-06   -4.820838863891299e-06
1.1092732990793789e-05   -1.450123276449224e-06   3.602877465282411e-08
1.1092732990793789e-05   -1.450123276449224e-06   3.602877465282411e-08
1.1092732990793789e-05   -1.450123276449224e-06   3.602877465282411e-08
1.1092732990793789e-05   -1.450123276449224e-06   3.602877465282411e-08
4.706639849707118e-06   -2.599933220960083e-06   -1.129734576053149e-05
4.706639849707118e-06   -2.599933220960083e-06   -1.129734576053149e-05
4.706639849707118e-06   -2.599933220960083e-06   -1.129734576053149e-05
4.706639849707118e-06   -2.599933220960083e-06   -1.129734576053149e-05
5.029190515221609e-06   -1.193539718210364e-06   -1.1289297695071332e-06
5.029190515221609e-06   -1.193539718210364e-06   -1.1289297695071332e-06
5.029190515221609e-06   -1.193539718210364e-06   -1.1289297695071332e-06
5.029190515221609e-06   -1.193539718210364e-06   -1.1289297695071332e-06
1.1913070654279484e-05   -2.419775215696464e-06   -1.186632203611194e-05
1.1913070654279484e-05   -2.419775215696464e-06   -1.186632203611194e-05
1.1913070654279484e-05   -2.419775215696464e-06   -1.186632203611194e-05
1.1913070654279484e-05   -2.419775215696464e-06   -1.186632203611194e-05
7.854297890935616e-06   -1.7185640005961712e-06   -5.522427492932349e-06
7.854297890935616e-06   -1.7185640005961712e-06   -5.522427492932349e-06
7.854297890935616e-06   -1.7185640005961712e-06   -5.522427492932349e-06
7.854297890935616e-06   -1.7185640005961712e-06   -5.522427492932349e-06
1.1913070654279512e-05   -1.193539718210364e-06   -3.931884710154949e-07
1.1913070654279512e-05   -1.193539718210364e-06   -3.931884710154949e-07
1.1913070654279512e-05   -1.193539718210364e-06   -3.931884710154949e-07
1.1913070654279512e-05   -1.193539718210364e-06   -3.931884710154949e-07
5.029190515221568e-06   -2.4197752156965725e-06   -1.2602063334603579e-05
5.029190515221568e-06   -2.4197752156965725e-06   -1.2602063334603579e-05
5.029190515221568e-06   -2.4197752156965725e-06   -1.2602063334603579e-05
5.029190515221568e-06   -2.4197752156965725e-06   -1.2602063334603579e-05
5.387098464641017e-06   -1.0206775708163085e-06   -1.642899163325118e-06
5.387098464641017e-06   -1.0206775708163085e-06   -1.642899163325118e-06
5.387098464641017e-06   -1.0206775708163085e-06   -1.642899163325118e-06
5.387098464641017e-06   -1.0206775708163085e-06   -1.642899163325118e-06
1.2599810677729758e-05   -2.2626713857931517e-06   -1.2918889896153539e-05
1.2599810677729758e-05   -2.2626713857931517e-06   -1.2918889896153539e-05
1.2599810677729758e-05   -2.2626713857931517e-06   -1.2918889896153539e-05
1.2599810677729758e-05   -2.2626713857931517e-06   -1.2918889896153539e-05
8.470066754410863e-06   -1.648484762967542e-06   -6.4044953309841575e-06
8.470066754410863e-06   -1.648484762967542e-06   -6.4044953309841575e-06
8.470066754410863e-06   -1.648484762967542e-06   -6.4044953309841575e-06
8.470066754410863e-06   -1.648484762967542e-06   -6.4044953309841575e-06
1.2599810677729786e-05   -1.0206775708163085e-06   -8.977028743390012e-07
1.2599810677729786e-05   -1.0206775708163085e-06   -8.977028743390012e-07
1.2599810677729786e-05   -1.0206775708163085e-06   -8.977028743390012e-07
1.2599810677729786e-05   -1.0206775708163085e-06   -8.977028743390012e-07
5.387098464641003e-06   -2.2626713857931517e-06   -1.3664086185139791e-05
5.387098464641003e-06   -2.2626713857931517e-06   -1.3664086185139791e-05
5.387098464641003e-06   -2.2626713857931517e-06   -1.3664086185139791e-05
5.387098464641003e-06   -2.2626713857931517e-06   -1.3664086185139791e-05
5.6810683040034465e-06   -5.868674175918669e-07   -2.8216722603947777e-06
5.6810683040034465e-06   -5.868674175918669e-07   -2.8216722603947777e-06
5.6810683040034465e-06   -5.868674175918669e-07   -2.8216722603947777e-06
5.6810683040034465e-06   -5.868674175918669e-07   -2.8216722603947777e-06
1.3397532356302304e-05   -1.7684002770456406e-06   -1.4973525965220562e-05
1.3397532356302304e-05   -1.7684002770456406e-06   -1.4973525965220562e-05
1.3397532356302304e-05   -1.7684002770456406e-06   -1.4973525965220562e-05
1.3397532356302304e-05   -1.7684002770456406e-06   -1.4973525965220562e-05
8.797003148957946e-06   -1.4530904772823514e-06   -7.495163166171596e-06
8.797003148957946e-06   -1.4530904772823514e-06   -7.495163166171596e-06
8.797003148957946e-06   -1.4530904772823514e-06   -7.495163166171596e-06
8.797003148957946e-06   -1.4530904772823514e-06   -7.495163166171596e-06
4.706639849707132e-06   -5.661840277432608e-07   -7.534754086791721e-06
4.706639849707132e-06   -5.661840277432608e-07   -7.534754086791721e-06
4.706639849707132e-06   -5.661840277432608e-07   -7.534754086791721e-06
4.706639849707132e-06   -5.661840277432608e-07   -7.534754086791721e-06
-2.0310309990015713e-06   -1.205750798850499e-06   -1.914794556397045e-05
-2.0310309990015713e-06   -1.205750798850499e-06   -1.914794556397045e-05
-2.0310309990015713e-06   -1.205750798850499e-06   -1.914794556397045e-05
-2.0310309990015713e-06   -1.205750798850499e-06   -1.914794556397045e-05
-1.7322621859875708e-06   -2.1243494388893322e-07   -7.691082573518001e-06
-1.7322621859875708e-06   -2.1243494388893322e-07   -7.691082573518001e-06
-1.7322621859875708e-06   -2.1243494388893322e-07   -7.691082573518001e-06
-1.7322621859875708e-06   -2.1243494388893322e-07   -7.691082573518001e-06
5.029190515221595e-06   -9.518625599576076e-07   -1.851651383922537e-05
5.029190515221595e-06   -9.518625599576076e-07   -1.851651383922537e-05
5.029190515221595e-06   -9.518625599576076e-07   -1.851651383922537e-05
5.029190515221595e-06   -9.518625599576076e-07   -1.851651383922537e-05
1.5092451678981954e-06   -5.80850824861436e-07   -1.2872545301410778e-05
1.5092451678981954e-06   -5.80850824861436e-07   -1.2872545301410778e-05
1.5092451678981954e-06   -5.80850824861436e-07   -1.2872545301410778e-05
1.5092451678981954e-06   -5.80850824861436e-07   -1.2872545301410778e-05
5.029190515221595e-06   -2.1243494388893322e-07   -7.2474260038767535e-06
5.029190515221595e-06   -2.1243494388893322e-07   -7.2474260038767535e-06
5.029190515221595e-06   -2.1243494388893322e-07   -7.2474260038767535e-06
5.029190515221595e-06   -2.1243494388893322e-07   -7.2474260038767535e-06
-1.732262185987564e-06   -9.518625599576076e-07   -1.8960170408866537e-05
-1.732262185987564e-06   -9.518625599576076e-07   -1.8960170408866537e-05
-1.732262185987564e-06   -9.518625599576076e-07   -1.8960170408866537e-05
-1.732262185987564e-06   -9.518625599576076e-07   -1.8960170408866537e-05
-1.4470481871916178e-06   1.5398288069959614e-07   -7.793824850917358e-06
-1.4470481871916178e-06   1.5398288069959614e-07   -7.793824850917358e-06
-1.4470481871916178e-06   1.5398288069959614e-07   -7.793824850917358e-06
-1.4470481871916178e-06   1.5398288069959614e-07   -7.793824850917358e-06
5.387098464641003e-06   -6.418597542827507e-07   -1.8706563689649083e-05
5.387098464641003e-06   -6.418597542827507e-07   -1.8706563689649083e-05
5.387098464641003e-06   -6.418597542827507e-07   -1.8706563689649083e-05
5.387098464641003e-06   -6.418597542827507e-07   -1.8706563689649083e-05
1.7445761972956689e-06   -3.5540571879705187e-07   -1.2807565665364634e-05
1.7445761972956689e-06   -3.5540571879705187e-07   -1.2807565665364634e-05
1.7445761972956689e-06   -3.5540571879705187e-07   -1.2807565665364634e-05
1.7445761972956689e-06   -3.5540571879705187e-07   -1.2807565665364634e-05
5.387098464641017e-06   1.5398288069959614e-07   -7.3163192699280365e-06
5.387098464641017e-06   1.5398288069959614e-07   -7.3163192699280365e-06
5.387098464641017e-06   1.5398288069959614e-07   -7.3163192699280365e-06
5.387098464641017e-06   1.5398288069959614e-07   -7.3163192699280365e-06
-1.4470481871916178e-06   -6.418597542826423e-07   -1.918406927063843e-05
-1.4470481871916178e-06   -6.418597542826423e-07   -1.918406927063843e-05
-1.4470481871916178e-06   -6.418597542826423e-07   -1.918406927063843e-05
-1.4470481871916178e-06   -6.418597542826423e-07   -1.918406927063843e-05
-1.1796316770496532e-06   5.888885879684396e-07   -8.063580165917146e-06
-1.1796316770496532e-06   5.888885879684396e-07   -8.063580165917146e-06
-1.1796316770496532e-06   5.888885879684396e-07   -8.063580165917146e-06
-1.1796316770496532e-06   5.888885879684396e-07   -8.063580165917146e-06
5.6810683040034465e-06   -2.5101940906826006e-07   -1.8994135336116975e-05
5.6810683040034465e-06   -2.5101940906826006e-07   -1.8994135336116975e-05
5.6810683040034465e-06   -2.5101940906826006e-07   -1.8994135336116975e-05
5.6810683040034465e-06   -2.5101940906826006e-07   -1.8994135336116975e-05
2.0409341516777383e-06   -7.683933977422827e-08   -1.3031753123817505e-05
2.0409341516777383e-06   -7.683933977422827e-08   -1.3031753123817505e-05
2.0409341516777383e-06   -7.683933977422827e-08   -1.3031753123817505e-05
2.0409341516777383e-06   -7.683933977422827e-08   -1.3031753123817505e-05
-2.031030999001578e-06   4.496773894244145e-07   -9.727876054327887e-06
-2.031030999001578e-06   4.496773894244145e-07   -9.727876054327887e-06
-2.031030999001578e-06   4.496773894244145e-07   -9.727876054327887e-06
-2.031030999001578e-06   4.496773894244145e-07   -9.727876054327887e-06
-8.649934806142723e-06   2.428044545054126e-07   -2.0883506160514567e-05
-8.649934806142723e-06   2.428044545054126e-07   -2.0883506160514567e-05
-8.649934806142723e-06   2.428044545054126e-07   -2.0883506160514567e-05
-8.649934806142723e-06   2.428044545054126e-07   -2.0883506160514567e-05
-8.328529692888888e-06   8.252181426482387e-07   -9.653895791096449e-06
-8.328529692888888e-06   8.252181426482387e-07   -9.653895791096449e-06
-8.328529692888888e-06   8.252181426482387e-07   -9.653895791096449e-06
-8.328529692888888e-06   8.252181426482387e-07   -9.653895791096449e-06
-1.732262185987564e-06   5.288486345408601e-07   -2.046985326440085e-05
-1.732262185987564e-06   5.288486345408601e-07   -2.046985326440085e-05
-1.732262185987564e-06   5.288486345408601e-07   -2.046985326440085e-05
-1.732262185987564e-06   5.288486345408601e-07   -2.046985326440085e-05
-5.150406892259455e-06   6.175050584909716e-07   -1.4826139274984459e-05
-5.150406892259455e-06   6.175050584909716e-07   -1.4826139274984459e-05
-5.150406892259455e-06   6.175050584909716e-07   -1.4826139274984459e-05
-5.150406892259455e-06   6.175050584909716e-07   -1.4826139274984459e-05
-1.7322621859875708e-06   8.252181426482387e-07   -9.476074086232065e-06
-1.7322621859875708e-06   8.252181426482387e-07   -9.476074086232065e-06
-1.7322621859875708e-06   8.252181426482387e-07   -9.476074086232065e-06
-1.7322621859875708e-06   8.252181426482387e-07   -9.476074086232065e-06
-8.328529692888888e-06   5.288486345408601e-07   -2.0647674969265315e-05
-8.328529692888888e-06   5.288486345408601e-07   -2.0647674969265315e-05
-8.328529692888888e-06   5.288486345408601e-07   -2.0647674969265315e-05
-8.328529692888888e-06   5.288486345408601e-07   -2.0647674969265315e-05
-8.018218644173464e-06   1.222234817421417e-06   -9.639459038648219e-06
-8.018218644173464e-06   1.222234817421417e-06   -9.639459038648219e-06
-8.018218644173464e-06   1.222234817421417e-06   -9.639459038648219e-06
-8.018218644173464e-06   1.222234817421417e-06   -9.639459038648219e-06
-1.4470481871916178e-06   8.587939581974294e-07   -2.037334528475034e-05
-1.4470481871916178e-06   8.587939581974294e-07   -2.037334528475034e-05
-1.4470481871916178e-06   8.587939581974294e-07   -2.037334528475034e-05
-1.4470481871916178e-06   8.587939581974294e-07   -2.037334528475034e-05
-4.874508829644598e-06   8.855401712548963e-07   -1.467695860849649e-05
-4.874508829644598e-06   8.855401712548963e-07   -1.467695860849649e-05
-4.874508829644598e-06   8.855401712548963e-07   -1.467695860849649e-05
-4.874508829644598e-06   8.855401712548963e-07   -1.467695860849649e-05
-1.4470481871916178e-06   1.222234817421417e-06   -9.421394523113848e-06
-1.4470481871916178e-06   1.222234817421417e-06   -9.421394523113848e-06
-1.4470481871916178e-06   1.222234817421417e-06   -9.421394523113848e-06
-1.4470481871916178e-06   1.222234817421417e-06   -9.421394523113848e-06
-8.018218644173464e-06   8.587939581974294e-07   -2.0591409800284723e-05
-8.018218644173464e-06   8.587939581974294e-07   -2.0591409800284723e-05
-8.018218644173464e-06   8.587939581974294e-07   -2.0591409800284723e-05
-8.018218644173464e-06   8.587939581974294e-07   -2.0591409800284723e-05
-7.731527693681079e-06   1.626178487195199e-06   -9.868861196096973e-06
-7.731527693681079e-06   1.626178487195199e-06   -9.868861196096973e-06
-7.731527693681079e-06   1.626178487195199e-06   -9.868861196096973e-06
-7.731527693681079e-06   1.626178487195199e-06   -9.868861196096973e-06
-1.1796316770496532e-06   1.1995354351076147e-06   -2.0532702059230195e-05
-1.1796316770496532e-06   1.1995354351076147e-06   -2.0532702059230195e-05
-1.1796316770496532e-06   1.1995354351076147e-06   -2.0532702059230195e-05
-1.1796316770496532e-06   1.1995354351076147e-06   -2.0532702059230195e-05
-4.6286048405734945e-06   1.160531369647443e-06   -1.4761011014081265e-05
-4.6286048405734945e-06   1.160531369647443e-06   -1.4761011014081265e-05
-4.6286048405734945e-06   1.160531369647443e-06   -1.4761011014081265e-05
-4.6286048405734945e-06   1.160531369647443e-06   -1.4761011014081265e-05
-8.649934806142736e-06   1.4388787726071816e-06   -7.880742635534487e-06
-8.649934806142736e-06   1.4388787726071816e-06   -7.880742635534487e-06
-8.649934806142736e-06   1.4388787726071816e-06   -7.880742635534487e-06
-8.649934806142736e-06   1.4388787726071816e-06   -7.880742635534487e-06
-1.5159706895402865e-05   1.7436589620248256e-06   -1.8547494670650684e-05
-1.5159706895402865e-05   1.7436589620248256e-06   -1.8547494670650684e-05
-1.5159706895402865e-05   1.7436589620248256e-06   -1.8547494670650684e-05
-1.5159706895402865e-05   1.7436589620248256e-06   -1.8547494670650684e-05
-1.4771461431372747e-05   1.8398332351463606e-06   -7.392301902812591e-06
-1.4771461431372747e-05   1.8398332351463606e-06   -7.392301902812591e-06
-1.4771461431372747e-05   1.8398332351463606e-06   -7.392301902812591e-06
-1.4771461431372747e-05   1.8398332351463606e-06   -7.392301902812591e-06
-8.328529692888901e-06   2.1052748345754208e-06   -1.8289786426609917e-05
-8.328529692888901e-06   2.1052748345754208e-06   -1.8289786426609917e-05
-8.328529692888901e-06   2.1052748345754208e-06   -1.8289786426609917e-05
-8.328529692888901e-06   2.1052748345754208e-06   -1.8289786426609917e-05
-1.1642003140407528e-05   1.8555705635054471e-06   -1.2617508118103479e-05
-1.1642003140407528e-05   1.8555705635054471e-06   -1.2617508118103479e-05
-1.1642003140407528e-05   1.8555705635054471e-06   -1.2617508118103479e-05
-1.1642003140407528e-05   1.8555705635054471e-06   -1.2617508118103479e-05
-8.328529692888901e-06   1.8398332351463606e-06   -7.5515668624701136e-06
-8.328529692888901e-06   1.8398332351463606e-06   -7.5515668624701136e-06
-8.328529692888901e-06   1.8398332351463606e-06   -7.5515668624701136e-06
-8.328529692888901e-06   1.8398332351463606e-06   -7.5515668624701136e-06
-1.4771461431372771e-05   2.1052748345754208e-06   -1.81305214669524e-05
-1.4771461431372771e-05   2.1052748345754208e-06   -1.81305214669524e-05
-1.4771461431372771e-05   2.1052748345754208e-06   -1.81305214669524e-05
-1.4771461431372771e-05   2.1052748345754208e-06   -1.81305214669524e-05
-1.4339970978683029e-05   2.200313489314097e-06   -7.120290358871061e-06
-1.4339970978683029e-05   2.200313489314097e-06   -7.120290358871061e-06
-1.4339970978683029e-05   2.200313489314097e-06   -7.120290358871061e-06
-1.4339970978683029e-05   2.200313489314097e-06   -7.120290358871061e-06
-8.018218644173479e-06   2.4164508791687297e-06   -1.778622668363315e-05
-8.018218644173479e-06   2.4164508791687297e-06   -1.778622668363315e-05
-8.018218644173479e-06   2.4164508791687297e-06   -1.778622668363315e-05
-8.018218644173479e-06   2.4164508791687297e-06   -1.778622668363315e-05
-1.1247371555178642e-05   2.138140502431357e-06   -1.2237318939248694e-05
-1.1247371555178642e-05   2.138140502431357e-06   -1.2237318939248694e-05
-1.1247371555178642e-05   2.138140502431357e-06   -1.2237318939248694e-05
-1.1247371555178642e-05   2.138140502431357e-06   -1.2237318939248694e-05
-8.01821864417347e-06   2.200313489314097e-06   -7.249972792783797e-06
-8.01821864417347e-06   2.200313489314097e-06   -7.249972792783797e-06
-8.01821864417347e-06   2.200313489314097e-06   -7.249972792783797e-06
-8.01821864417347e-06   2.200313489314097e-06   -7.249972792783797e-06
-1.4339970978683029e-05   2.4164508791687297e-06   -1.7656544249720332e-05
-1.4339970978683029e-05   2.4164508791687297e-06   -1.7656544249720332e-05
-1.4339970978683029e-05   2.4164508791687297e-06   -1.7656544249720332e-05
-1.4339970978683029e-05   2.4164508791687297e-06   -1.7656544249720332e-05
-1.3975856258788055e-05   2.602150209715529e-06   -7.285704498333147e-06
-1.3975856258788055e-05   2.602150209715529e-06   -7.285704498333147e-06
-1.3975856258788055e-05   2.602150209715529e-06   -7.285704498333147e-06
-1.3975856258788055e-05   2.602150209715529e-06   -7.285704498333147e-06
-7.73152769368109e-06   2.7594118694402106e-06   -1.7787275769346246e-05
-7.73152769368109e-06   2.7594118694402106e-06   -1.7787275769346246e-05
-7.73152769368109e-06   2.7594118694402106e-06   -1.7787275769346246e-05
-7.73152769368109e-06   2.7594118694402106e-06   -1.7787275769346246e-05
-1.1006560314798527e-05   2.3979078263282284e-06   -1.211198564161667e-05
-1.1006560314798527e-05   2.3979078263282284e-06   -1.211198564161667e-05
-1.1006560314798527e-05   2.3979078263282284e-06   -1.211198564161667e-05
-1.1006560314798527e-05   2.3979078263282284e-06   -1.211198564161667e-05
-1.5159706895402865e-05   2.4759015906387818e-06   -3.937010839555951e-06
-1.5159706895402865e-05   2.4759015906387818e-06   -3.937010839555951e-06
-1.5159706895402865e-05   2.4759015906387818e-06   -3.937010839555951e-06
-1.5159706895402865e-05   2.4759015906387818e-06   -3.937010839555951e-06
-2.2035010893620067e-05   3.4080953152243465e-06   -1.4836534601833347e-05
-2.2035010893620067e-05   3.4080953152243465e-06   -1.4836534601833347e-05
-2.2035010893620067e-05   3.4080953152243465e-06   -1.4836534601833347e-05
-2.2035010893620067e-05   3.4080953152243465e-06   -1.4836534601833347e-05
-2.1130128332787006e-05   2.893388892548929e-06   -1.1780048385877633e-06
-2.1130128332787006e-05   2.893388892548929e-06   -1.1780048385877633e-06
-2.1130128332787006e-05   2.893388892548929e-06   -1.1780048385877633e-06
-2.1130128332787006e-05   2.893388892548929e-06   -1.1780048385877633e-06
-1.4771461431372747e-05   3.888809101989252e-06   -1.237303513327575e-05
-1.4771461431372747e-05   3.888809101989252e-06   -1.237303513327575e-05
-1.4771461431372747e-05   3.888809101989252e-06   -1.237303513327575e-05
-1.4771461431372747e-05   3.888809101989252e-06   -1.237303513327575e-05
-1.7519368258874844e-05   3.246179811233871e-06   -7.407612846318959e-06
-1.7519368258874844e-05   3.246179811233871e-06   -7.407612846318959e-06
-1.7519368258874844e-05   3.246179811233871e-06   -7.407612846318959e-06
-1.7519368258874844e-05   3.246179811233871e-06   -7.407612846318959e-06
-1.4771461431372758e-05   2.893388892548929e-06   -1.7752569642518813e-06
-1.4771461431372758e-05   2.893388892548929e-06   -1.7752569642518813e-06
-1.4771461431372758e-05   2.893388892548929e-06   -1.7752569642518813e-06
-1.4771461431372758e-05   2.893388892548929e-06   -1.7752569642518813e-06
-2.1130128332786966e-05   3.888809101989252e-06   -1.1775783007611442e-05
-2.1130128332786966e-05   3.888809101989252e-06   -1.1775783007611442e-05
-2.1130128332786966e-05   3.888809101989252e-06   -1.1775783007611442e-05
-2.1130128332786966e-05   3.888809101989252e-06   -1.1775783007611442e-05
-2.038577198482718e-05   3.0433775590208226e-06   -1.9357564664970826e-08
-2.038577198482718e-05   3.0433775590208226e-06   -1.9357564664970826e-08
-2.038577198482718e-05   3.0433775590208226e-06   -1.9357564664970826e-08
-2.038577198482718e-05   3.0433775590208226e-06   -1.9357564664970826e-08
-1.4339970978683029e-05   4.015991269443273e-06   -1.0679260801158703e-05
-1.4339970978683029e-05   4.015991269443273e-06   -1.0679260801158703e-05
-1.4339970978683029e-05   4.015991269443273e-06   -1.0679260801158703e-05
-1.4339970978683029e-05   4.015991269443273e-06   -1.0679260801158703e-05
-1.7221642038675097e-05   3.440036421482537e-06   -5.530902792395375e-06
-1.7221642038675097e-05   3.440036421482537e-06   -5.530902792395375e-06
-1.7221642038675097e-05   3.440036421482537e-06   -5.530902792395375e-06
-1.7221642038675097e-05   3.440036421482537e-06   -5.530902792395375e-06
-1.4339970978683029e-05   3.0433775590208226e-06   -6.029257909184195e-07
-1.4339970978683029e-05   3.0433775590208226e-06   -6.029257909184195e-07
-1.4339970978683029e-05   3.0433775590208226e-06   -6.029257909184195e-07
-1.4339970978683029e-05   3.0433775590208226e-06   -6.029257909184195e-07
-2.0385771984827106e-05   4.015991269443382e-06   -1.0095692574905307e-05
-2.0385771984827106e-05   4.015991269443382e-06   -1.0095692574905307e-05
-2.0385771984827106e-05   4.015991269443382e-06   -1.0095692574905307e-05
-2.0385771984827106e-05   4.015991269443382e-06   -1.0095692574905307e-05
-1.957941380735915e-05   3.230069828528276e-06   1.4598864093017948e-06
-1.957941380735915e-05   3.230069828528276e-06   1.4598864093017948e-06
-1.957941380735915e-05   3.230069828528276e-06   1.4598864093017948e-06
-1.957941380735915e-05   3.230069828528276e-06   1.4598864093017948e-06
-1.3975856258788055e-05   4.121583535888714e-06   -8.414284396066234e-06
-1.3975856258788055e-05   4.121583535888714e-06   -8.414284396066234e-06
-1.3975856258788055e-05   4.121583535888714e-06   -8.414284396066234e-06
-1.3975856258788055e-05   4.121583535888714e-06   -8.414284396066234e-06
-1.646121982175897e-05   3.4710878293408133e-06   -3.881714367186213e-06
-1.646121982175897e-05   3.4710878293408133e-06   -3.881714367186213e-06
-1.646121982175897e-05   3.4710878293408133e-06   -3.881714367186213e-06
-1.646121982175897e-05   3.4710878293408133e-06   -3.881714367186213e-06
1.8694689850843178e-05   -2.5999332209601916e-06   3.824488905912644e-06
1.8694689850843178e-05   -2.5999332209601916e-06   3.824488905912644e-06
1.8694689850843178e-05   -2.5999332209601916e-06   3.824488905912644e-06
1.8694689850843178e-05   -2.5999332209601916e-06   3.824488905912644e-06
8.982803147202827e-06   -3.831867923229093e-06   -1.3101149754849318e-05
8.982803147202827e-06   -3.831867923229093e-06   -1.3101149754849318e-05
8.982803147202827e-06   -3.831867923229093e-06   -1.3101149754849318e-05
8.982803147202827e-06   -3.831867923229093e-06   -1.3101149754849318e-05
9.339540018073823e-06   -2.4197752156965725e-06   1.9065136607644e-06
9.339540018073823e-06   -2.4197752156965725e-06   1.9065136607644e-06
9.339540018073823e-06   -2.4197752156965725e-06   1.9065136607644e-06
9.339540018073823e-06   -2.4197752156965725e-06   1.9065136607644e-06
1.953334578302643e-05   -3.744485808179353e-06   -1.4288336258666822e-05
1.953334578302643e-05   -3.744485808179353e-06   -1.4288336258666822e-05
1.953334578302643e-05   -3.744485808179353e-06   -1.4288336258666822e-05
1.953334578302643e-05   -3.744485808179353e-06   -1.4288336258666822e-05
1.3561557573400781e-05   -2.842729808569342e-06   -4.876409509056858e-06
1.3561557573400781e-05   -2.842729808569342e-06   -4.876409509056858e-06
1.3561557573400781e-05   -2.842729808569342e-06   -4.876409509056858e-06
1.3561557573400781e-05   -2.842729808569342e-06   -4.876409509056858e-06
1.9533345783026457e-05   -2.4197752156965725e-06   2.70134001625422e-06
1.9533345783026457e-05   -2.4197752156965725e-06   2.70134001625422e-06
1.9533345783026457e-05   -2.4197752156965725e-06   2.70134001625422e-06
1.9533345783026457e-05   -2.4197752156965725e-06   2.70134001625422e-06
9.33954001807381e-06   -3.744485808179353e-06   -1.5083162614156615e-05
9.33954001807381e-06   -3.744485808179353e-06   -1.5083162614156615e-05
9.33954001807381e-06   -3.744485808179353e-06   -1.5083162614156615e-05
9.33954001807381e-06   -3.744485808179353e-06   -1.5083162614156615e-05
9.694700467250994e-06   -2.26267138579326e-06   9.632345830175998e-07
9.694700467250994e-06   -2.26267138579326e-06   9.632345830175998e-07
9.694700467250994e-06   -2.26267138579326e-06   9.632345830175998e-07
9.694700467250994e-06   -2.26267138579326e-06   9.632345830175998e-07
2.0175474761164412e-05   -3.6137789711604374e-06   -1.5694058022284476e-05
2.0175474761164412e-05   -3.6137789711604374e-06   -1.5694058022284476e-05
2.0175474761164412e-05   -3.6137789711604374e-06   -1.5694058022284476e-05
2.0175474761164412e-05   -3.6137789711604374e-06   -1.5694058022284476e-05
1.4269589283073911e-05   -2.8328838227064572e-06   -6.31945264787268e-06
1.4269589283073911e-05   -2.8328838227064572e-06   -6.31945264787268e-06
1.4269589283073911e-05   -2.8328838227064572e-06   -6.31945264787268e-06
1.4269589283073911e-05   -2.8328838227064572e-06   -6.31945264787268e-06
2.0175474761164412e-05   -2.26267138579326e-06   1.7738991342379279e-06
2.0175474761164412e-05   -2.26267138579326e-06   1.7738991342379279e-06
2.0175474761164412e-05   -2.26267138579326e-06   1.7738991342379279e-06
2.0175474761164412e-05   -2.26267138579326e-06   1.7738991342379279e-06
9.694700467250994e-06   -3.613778971160546e-06   -1.6504722573504804e-05
9.694700467250994e-06   -3.613778971160546e-06   -1.6504722573504804e-05
9.694700467250994e-06   -3.613778971160546e-06   -1.6504722573504804e-05
9.694700467250994e-06   -3.613778971160546e-06   -1.6504722573504804e-05
9.93412638649009e-06   -1.7684002770456406e-06   -9.283927677195816e-07
9.93412638649009e-06   -1.7684002770456406e-06   -9.283927677195816e-07
9.93412638649009e-06   -1.7684002770456406e-06   -9.283927677195816e-07
9.93412638649009e-06   -1.7684002770456406e-06   -9.283927677195816e-07
2.0855076987738548e-05   -3.1065327601572865e-06   -1.832709761326681e-05
2.0855076987738548e-05   -3.1065327601572865e-06   -1.832709761326681e-05
2.0855076987738548e-05   -3.1065327601572865e-06   -1.832709761326681e-05
2.0855076987738548e-05   -3.1065327601572865e-06   -1.832709761326681e-05
1.445948831231357e-05   -2.6138005788463228e-06   -7.963422463011857e-06
1.445948831231357e-05   -2.6138005788463228e-06   -7.963422463011857e-06
1.445948831231357e-05   -2.6138005788463228e-06   -7.963422463011857e-06
1.445948831231357e-05   -2.6138005788463228e-06   -7.963422463011857e-06
8.98280314720284e-06   -1.205750798850499e-06   -4.381531656223411e-06
8.98280314720284e-06   -1.205750798850499e-06   -4.381531656223411e-06
8.98280314720284e-06   -1.205750798850499e-06   -4.381531656223411e-06
8.98280314720284e-06   -1.205750798850499e-06   -4.381531656223411e-06
-5.910448501906813e-07   -2.4547500494301582e-06   -2.1087344535560438e-05
-5.910448501906813e-07   -2.4547500494301582e-06   -2.1087344535560438e-05
-5.910448501906813e-07   -2.4547500494301582e-06   -2.1087344535560438e-05
-5.910448501906813e-07   -2.4547500494301582e-06   -2.1087344535560438e-05
-2.2589022982899353e-07   -9.518625599576076e-07   -4.836780045344648e-06
-2.2589022982899353e-07   -9.518625599576076e-07   -4.836780045344648e-06
-2.2589022982899353e-07   -9.518625599576076e-07   -4.836780045344648e-06
-2.2589022982899353e-07   -9.518625599576076e-07   -4.836780045344648e-06
9.339540018073823e-06   -2.333267895769783e-06   -1.995032059036202e-05
9.339540018073823e-06   -2.333267895769783e-06   -1.995032059036202e-05
9.339540018073823e-06   -2.333267895769783e-06   -1.995032059036202e-05
9.339540018073823e-06   -2.333267895769783e-06   -1.995032059036202e-05
4.388621868475107e-06   -1.4864175864165961e-06   -1.2206900526642769e-05
4.388621868475107e-06   -1.4864175864165961e-06   -1.2206900526642769e-05
4.388621868475107e-06   -1.4864175864165961e-06   -1.2206900526642769e-05
4.388621868475107e-06   -1.4864175864165961e-06   -1.2206900526642769e-05
9.33954001807381e-06   -9.518625599576076e-07   -4.007936843857256e-06
9.33954001807381e-06   -9.518625599576076e-07   -4.007936843857256e-06
9.33954001807381e-06   -9.518625599576076e-07   -4.007936843857256e-06
9.33954001807381e-06   -9.518625599576076e-07   -4.007936843857256e-06
-2.2589022982899353e-07   -2.333267895769783e-06   -2.0779163791849345e-05
-2.2589022982899353e-07   -2.333267895769783e-06   -2.0779163791849345e-05
-2.2589022982899353e-07   -2.333267895769783e-06   -2.0779163791849345e-05
-2.2589022982899353e-07   -2.333267895769783e-06   -2.0779163791849345e-05
9.557473416675752e-08   -6.418597542826423e-07   -4.960129053311908e-06
9.557473416675752e-08   -6.418597542826423e-07   -4.960129053311908e-06
9.557473416675752e-08   -6.418597542826423e-07   -4.960129053311908e-06
9.557473416675752e-08   -6.418597542826423e-07   -4.960129053311908e-06
9.694700467250994e-06   -2.1100033073163807e-06   -2.007778580996543e-05
9.694700467250994e-06   -2.1100033073163807e-06   -2.007778580996543e-05
9.694700467250994e-06   -2.1100033073163807e-06   -2.007778580996543e-05
9.694700467250994e-06   -2.1100033073163807e-06   -2.007778580996543e-05
4.634715434089243e-06   -1.360238159357199e-06   -1.2094336510137853e-05
4.634715434089243e-06   -1.360238159357199e-06   -1.2094336510137853e-05
4.634715434089243e-06   -1.360238159357199e-06   -1.2094336510137853e-05
4.634715434089243e-06   -1.360238159357199e-06   -1.2094336510137853e-05
9.694700467250994e-06   -6.418597542826423e-07   -4.0792429214916645e-06
9.694700467250994e-06   -6.418597542826423e-07   -4.0792429214916645e-06
9.694700467250994e-06   -6.418597542826423e-07   -4.0792429214916645e-06
9.694700467250994e-06   -6.418597542826423e-07   -4.0792429214916645e-06
9.557473416675752e-08   -2.1100033073163807e-06   -2.0958671941785753e-05
9.557473416675752e-08   -2.1100033073163807e-06   -2.0958671941785753e-05
9.557473416675752e-08   -2.1100033073163807e-06   -2.0958671941785753e-05
9.557473416675752e-08   -2.1100033073163807e-06   -2.0958671941785753e-05
3.235540900909856e-07   -2.5101940906815164e-07   -5.164744161801401e-06
3.235540900909856e-07   -2.5101940906815164e-07   -5.164744161801401e-06
3.235540900909856e-07   -2.5101940906815164e-07   -5.164744161801401e-06
3.235540900909856e-07   -2.5101940906815164e-07   -5.164744161801401e-06
9.93412638649013e-06   -1.7921223071640973e-06   -2.0257702916942445e-05
9.93412638649013e-06   -1.7921223071640973e-06   -2.0257702916942445e-05
9.93412638649013e-06   -1.7921223071640973e-06   -2.0257702916942445e-05
9.93412638649013e-06   -1.7921223071640973e-06   -2.0257702916942445e-05
4.933051371942807e-06   -1.139701985466762e-06   -1.2314030085715634e-05
4.933051371942807e-06   -1.139701985466762e-06   -1.2314030085715634e-05
4.933051371942807e-06   -1.139701985466762e-06   -1.2314030085715634e-05
4.933051371942807e-06   -1.139701985466762e-06   -1.2314030085715634e-05
-5.910448501906813e-07   2.428044545054126e-07   -6.742368042163922e-06
-5.910448501906813e-07   2.428044545054126e-07   -6.742368042163922e-06
-5.910448501906813e-07   2.428044545054126e-07   -6.742368042163922e-06
-5.910448501906813e-07   2.428044545054126e-07   -6.742368042163922e-06
-1.0023602929679452e-05   -1.2448390840149063e-06   -2.335588429775733e-05
-1.0023602929679452e-05   -1.2448390840149063e-06   -2.335588429775733e-05
-1.0023602929679452e-05   -1.2448390840149063e-06   -2.335588429775733e-05
-1.0023602929679452e-05   -1.2448390840149063e-06   -2.335588429775733e-05
-9.585101870588182e-06   5.288486345408601e-07   -7.3240488870583145e-06
-9.585101870588182e-06   5.288486345408601e-07   -7.3240488870583145e-06
-9.585101870588182e-06   5.288486345408601e-07   -7.3240488870583145e-06
-9.585101870588182e-06   5.288486345408601e-07   -7.3240488870583145e-06
-2.2589022982899353e-07   -1.10046134242463e-06   -2.19451489688109e-05
-2.2589022982899353e-07   -1.10046134242463e-06   -2.19451489688109e-05
-2.2589022982899353e-07   -1.10046134242463e-06   -2.19451489688109e-05
-2.2589022982899353e-07   -1.10046134242463e-06   -2.19451489688109e-05
-5.047381756583733e-06   -2.1193972568243034e-07   -1.4442442727598351e-05
-5.047381756583733e-06   -2.1193972568243034e-07   -1.4442442727598351e-05
-5.047381756583733e-06   -2.1193972568243034e-07   -1.4442442727598351e-05
-5.047381756583733e-06   -2.1193972568243034e-07   -1.4442442727598351e-05
-2.2589022982899353e-07   5.288486345409685e-07   -6.346462900878934e-06
-2.2589022982899353e-07   5.288486345409685e-07   -6.346462900878934e-06
-2.2589022982899353e-07   5.288486345409685e-07   -6.346462900878934e-06
-2.2589022982899353e-07   5.288486345409685e-07   -6.346462900878934e-06
-9.585101870588182e-06   -1.10046134242463e-06   -2.292273495499024e-05
-9.585101870588182e-06   -1.10046134242463e-06   -2.292273495499024e-05
-9.585101870588182e-06   -1.10046134242463e-06   -2.292273495499024e-05
-9.585101870588182e-06   -1.10046134242463e-06   -2.292273495499024e-05
-9.182846095980219e-06   8.587939581974294e-07   -7.192613772668589e-06
-9.182846095980219e-06   8.587939581974294e-07   -7.192613772668589e-06
-9.182846095980219e-06   8.587939581974294e-07   -7.192613772668589e-06
-9.182846095980219e-06   8.587939581974294e-07   -7.192613772668589e-06
9.557473416675752e-08   -8.798872172104686e-07   -2.1613439784335493e-05
9.557473416675752e-08   -8.798872172104686e-07   -2.1613439784335493e-05
9.557473416675752e-08   -8.798872172104686e-07   -2.1613439784335493e-05
9.557473416675752e-08   -8.798872172104686e-07   -2.1613439784335493e-05
-4.691088052508952e-06   -4.819362566562801e-08   -1.4134684628136149e-05
-4.691088052508952e-06   -4.819362566562801e-08   -1.4134684628136149e-05
-4.691088052508952e-06   -4.819362566562801e-08   -1.4134684628136149e-05
-4.691088052508952e-06   -4.819362566562801e-08   -1.4134684628136149e-05
9.557473416675752e-08   8.587939581974294e-07   -6.149405067423829e-06
9.557473416675752e-08   8.587939581974294e-07   -6.149405067423829e-06
9.557473416675752e-08   8.587939581974294e-07   -6.149405067423829e-06
9.557473416675752e-08   8.587939581974294e-07   -6.149405067423829e-06
-9.182846095980233e-06   -8.798872172104686e-07   -2.2656648489580253e-05
-9.182846095980233e-06   -8.798872172104686e-07   -2.2656648489580253e-05
-9.182846095980233e-06   -8.798872172104686e-07   -2.2656648489580253e-05
-9.182846095980233e-06   -8.798872172104686e-07   -2.2656648489580253e-05
-8.911977686730596e-06   1.1995354351076147e-06   -7.321163844963008e-06
-8.911977686730596e-06   1.1995354351076147e-06   -7.321163844963008e-06
-8.911977686730596e-06   1.1995354351076147e-06   -7.321163844963008e-06
-8.911977686730596e-06   1.1995354351076147e-06   -7.321163844963008e-06
3.235540900909856e-07   -6.701274953430916e-07   -2.159191904806182e-05
3.235540900909856e-07   -6.701274953430916e-07   -2.159191904806182e-05
3.235540900909856e-07   -6.701274953430916e-07   -2.159191904806182e-05
3.235540900909856e-07   -6.701274953430916e-07   -2.159191904806182e-05
-4.437881156243858e-06   1.351426041527274e-07   -1.4139355697201492e-05
-4.437881156243858e-06   1.351426041527274e-07   -1.4139355697201492e-05
-4.437881156243858e-06   1.351426041527274e-07   -1.4139355697201492e-05
-4.437881156243858e-06   1.351426041527274e-07   -1.4139355697201492e-05
-1.0023602929679431e-05   1.743658962024934e-06   -5.48181078906273e-06
-1.0023602929679431e-05   1.743658962024934e-06   -5.48181078906273e-06
-1.0023602929679431e-05   1.743658962024934e-06   -5.48181078906273e-06
-1.0023602929679431e-05   1.743658962024934e-06   -5.48181078906273e-06
-1.959352039276161e-05   4.1064793196866206e-07   -2.2231479845566816e-05
-1.959352039276161e-05   4.1064793196866206e-07   -2.2231479845566816e-05
-1.959352039276161e-05   4.1064793196866206e-07   -2.2231479845566816e-05
-1.959352039276161e-05   4.1064793196866206e-07   -2.2231479845566816e-05
-1.8968795902824436e-05   2.1052748345753124e-06   -5.826277773896015e-06
-1.8968795902824436e-05   2.1052748345753124e-06   -5.826277773896015e-06
-1.8968795902824436e-05   2.1052748345753124e-06   -5.826277773896015e-06
-1.8968795902824436e-05   2.1052748345753124e-06   -5.826277773896015e-06
-9.585101870588161e-06   6.71745785419905e-07   -2.0605650398129942e-05
-9.585101870588161e-06   6.71745785419905e-07   -2.0605650398129942e-05
-9.585101870588161e-06   6.71745785419905e-07   -2.0605650398129942e-05
-9.585101870588161e-06   6.71745785419905e-07   -2.0605650398129942e-05
-1.439408426251358e-05   1.353757872776958e-06   -1.2999886997335094e-05
-1.439408426251358e-05   1.353757872776958e-06   -1.2999886997335094e-05
-1.439408426251358e-05   1.353757872776958e-06   -1.2999886997335094e-05
-1.439408426251358e-05   1.353757872776958e-06   -1.2999886997335094e-05
-9.585101870588161e-06   2.1052748345753124e-06   -4.966160344402814e-06
-9.585101870588161e-06   2.1052748345753124e-06   -4.966160344402814e-06
-9.585101870588161e-06   2.1052748345753124e-06   -4.966160344402814e-06
-9.585101870588161e-06   2.1052748345753124e-06   -4.966160344402814e-06
-1.896879590282447e-05   6.717457854197965e-07   -2.146576782762323e-05
-1.896879590282447e-05   6.717457854197965e-07   -2.146576782762323e-05
-1.896879590282447e-05   6.717457854197965e-07   -2.146576782762323e-05
-1.896879590282447e-05   6.717457854197965e-07   -2.146576782762323e-05
-1.8362902820319384e-05   2.4164508791687297e-06   -5.290407116717317e-06
-1.8362902820319384e-05   2.4164508791687297e-06   -5.290407116717317e-06
-1.8362902820319384e-05   2.4164508791687297e-06   -5.290407116717317e-06
-1.8362902820319384e-05   2.4164508791687297e-06   -5.290407116717317e-06
-9.182846095980233e-06   9.114901113346872e-07   -1.9687525196582292e-05
-9.182846095980233e-06   9.114901113346872e-07   -1.9687525196582292e-05
-9.182846095980233e-06   9.114901113346872e-07   -1.9687525196582292e-05
-9.182846095980233e-06   9.114901113346872e-07   -1.9687525196582292e-05
-1.3826533862859293e-05   1.5810225394029178e-06   -1.2349765041958101e-05
-1.3826533862859293e-05   1.5810225394029178e-06   -1.2349765041958101e-05
-1.3826533862859293e-05   1.5810225394029178e-06   -1.2349765041958101e-05
-1.3826533862859293e-05   1.5810225394029178e-06   -1.2349765041958101e-05
-9.182846095980212e-06   2.4164508791687297e-06   -4.387430656016935e-06
-9.182846095980212e-06   2.4164508791687297e-06   -4.387430656016935e-06
-9.182846095980212e-06   2.4164508791687297e-06   -4.387430656016935e-06
-9.182846095980212e-06   2.4164508791687297e-06   -4.387430656016935e-06
-1.8362902820319417e-05   9.114901113346872e-07   -2.0590501657282735e-05
-1.8362902820319417e-05   9.114901113346872e-07   -2.0590501657282735e-05
-1.8362902820319417e-05   9.114901113346872e-07   -2.0590501657282735e-05
-1.8362902820319417e-05   9.114901113346872e-07   -2.0590501657282735e-05
-1.7906162440529196e-05   2.759411869440102e-06   -5.3076134228824444e-06
-1.7906162440529196e-05   2.759411869440102e-06   -5.3076134228824444e-06
-1.7906162440529196e-05   2.759411869440102e-06   -5.3076134228824444e-06
-1.7906162440529196e-05   2.759411869440102e-06   -5.3076134228824444e-06
-8.911977686730606e-06   1.112975704346689e-06   -1.931005964682415e-05
-8.911977686730606e-06   1.112975704346689e-06   -1.931005964682415e-05
-8.911977686730606e-06   1.112975704346689e-06   -1.931005964682415e-05
-8.911977686730606e-06   1.112975704346689e-06   -1.931005964682415e-05
-1.3515315246871166e-05   1.740031786961918e-06   -1.2014064029492182e-05
-1.3515315246871166e-05   1.740031786961918e-06   -1.2014064029492182e-05
-1.3515315246871166e-05   1.740031786961918e-06   -1.2014064029492182e-05
-1.3515315246871166e-05   1.740031786961918e-06   -1.2014064029492182e-05
-1.959352039276161e-05   3.4080953152243465e-06   -3.1299735730306146e-06
-1.959352039276161e-05   3.4080953152243465e-06   -3.1299735730306146e-06
-1.959352039276161e-05   3.4080953152243465e-06   -3.1299735730306146e-06
-1.959352039276161e-05   3.4080953152243465e-06   -3.1299735730306146e-06
-2.9609077612428722e-05   3.2358846129156666e-06   -1.9925895360527754e-05
-2.9609077612428722e-05   3.2358846129156666e-06   -1.9925895360527754e-05
-2.9609077612428722e-05   3.2358846129156666e-06   -1.9925895360527754e-05
-2.9609077612428722e-05   3.2358846129156666e-06   -1.9925895360527754e-05
-2.8360866710333588e-05   3.888809101989252e-06   4.067387219988238e-08
-2.8360866710333588e-05   3.888809101989252e-06   4.067387219988238e-08
-2.8360866710333588e-05   3.888809101989252e-06   4.067387219988238e-08
-2.8360866710333588e-05   3.888809101989252e-06   4.067387219988238e-08
-1.8968795902824405e-05   4.0712512893547985e-06   -1.572224278606812e-05
-1.8968795902824405e-05   4.0712512893547985e-06   -1.572224278606812e-05
-1.8968795902824405e-05   4.0712512893547985e-06   -1.572224278606812e-05
-1.8968795902824405e-05   4.0712512893547985e-06   -1.572224278606812e-05
-2.3093325647926025e-05   3.835469791794435e-06   -8.706557645695931e-06
-2.3093325647926025e-05   3.835469791794435e-06   -8.706557645695931e-06
-2.3093325647926025e-05   3.835469791794435e-06   -8.706557645695931e-06
-2.3093325647926025e-05   3.835469791794435e-06   -8.706557645695931e-06
-1.8968795902824453e-05   3.8888091019893605e-06   -6.879144021933702e-08
-1.8968795902824453e-05   3.8888091019893605e-06   -6.879144021933702e-08
-1.8968795902824453e-05   3.8888091019893605e-06   -6.879144021933702e-08
-1.8968795902824453e-05   3.8888091019893605e-06   -6.879144021933702e-08
-2.8360866710333588e-05   4.0712512893547985e-06   -1.5612777473648747e-05
-2.8360866710333588e-05   4.0712512893547985e-06   -1.5612777473648747e-05
-2.8360866710333588e-05   4.0712512893547985e-06   -1.5612777473648747e-05
-2.8360866710333588e-05   4.0712512893547985e-06   -1.5612777473648747e-05
-2.732799444708775e-05   4.015991269443273e-06   1.8333602914180863e-06
-2.732799444708775e-05   4.015991269443273e-06   1.8333602914180863e-06
-2.732799444708775e-05   4.015991269443273e-06   1.8333602914180863e-06
-2.732799444708775e-05   4.015991269443273e-06   1.8333602914180863e-06
-1.8362902820319384e-05   4.2601312020664264e-06   -1.3254943046103141e-05
-1.8362902820319384e-05   4.2601312020664264e-06   -1.3254943046103141e-05
-1.8362902820319384e-05   4.2601312020664264e-06   -1.3254943046103141e-05
-1.8362902820319384e-05   4.2601312020664264e-06   -1.3254943046103141e-05
-2.2634987557896144e-05   4.111394359136494e-06   -6.045559711050281e-06
-2.2634987557896144e-05   4.111394359136494e-06   -6.045559711050281e-06
-2.2634987557896144e-05   4.111394359136494e-06   -6.045559711050281e-06
-2.2634987557896144e-05   4.111394359136494e-06   -6.045559711050281e-06
-1.8362902820319417e-05   4.015991269443273e-06   1.6868763318442052e-06
-1.8362902820319417e-05   4.015991269443273e-06   1.6868763318442052e-06
-1.8362902820319417e-05   4.015991269443273e-06   1.6868763318442052e-06
-1.8362902820319417e-05   4.015991269443273e-06   1.6868763318442052e-06
-2.732799444708771e-05   4.2601312020664264e-06   -1.3108459086529165e-05
-2.732799444708771e-05   4.2601312020664264e-06   -1.3108459086529165e-05
-2.732799444708771e-05   4.2601312020664264e-06   -1.3108459086529165e-05
-2.732799444708771e-05   4.2601312020664264e-06   -1.3108459086529165e-05
-2.6245225992598123e-05   4.121583535888606e-06   4.244262642664489e-06
-2.6245225992598123e-05   4.121583535888606e-06   4.244262642664489e-06
-2.6245225992598123e-05   4.121583535888606e-06   4.244262642664489e-06
-2.6245225992598123e-05   4.121583535888606e-06   4.244262642664489e-06
-1.7906162440529196e-05   4.576986349391762e-06   -9.92741829888564e-06
-1.7906162440529196e-05   4.576986349391762e-06   -9.92741829888564e-06
-1.7906162440529196e-05   4.576986349391762e-06   -9.92741829888564e-06
-1.7906162440529196e-05   4.576986349391762e-06   -9.92741829888564e-06
-2.158447010641016e-05   4.201069605991987e-06   -3.5713554763776734e-06
-2.158447010641016e-05   4.201069605991987e-06   -3.5713554763776734e-06
-2.158447010641016e-05   4.201069605991987e-06   -3.5713554763776734e-06
-2.158447010641016e-05   4.201069605991987e-06   -3.5713554763776734e-06
2.5599329064084056e-05   -3.831867923229093e-06   8.826503075481961e-06
2.5599329064084056e-05   -3.831867923229093e-06   8.826503075481961e-06
2.5599329064084056e-05   -3.831867923229093e-06   8.826503075481961e-06
2.5599329064084056e-05   -3.831867923229093e-06   8.826503075481961e-06
1.2839433832172887e-05   -4.8320566907230494e-06   -1.3040102238199701e-05
1.2839433832172887e-05   -4.8320566907230494e-06   -1.3040102238199701e-05
1.2839433832172887e-05   -4.8320566907230494e-06   -1.3040102238199701e-05
1.2839433832172887e-05   -4.8320566907230494e-06   -1.3040102238199701e-05
1.314372282131364e-05   -3.744485808179353e-06   6.354181722685484e-06
1.314372282131364e-05   -3.744485808179353e-06   6.354181722685484e-06
1.314372282131364e-05   -3.744485808179353e-06   6.354181722685484e-06
1.314372282131364e-05   -3.744485808179353e-06   6.354181722685484e-06
2.622502447258383e-05   -4.953032011014314e-06   -1.4722859974397126e-05
2.622502447258383e-05   -4.953032011014314e-06   -1.4722859974397126e-05
2.622502447258383e-05   -4.953032011014314e-06   -1.4722859974397126e-05
2.622502447258383e-05   -4.953032011014314e-06   -1.4722859974397126e-05
1.8675009050985015e-05   -3.913675516051761e-06   -2.7631148353767497e-06
1.8675009050985015e-05   -3.913675516051761e-06   -2.7631148353767497e-06
1.8675009050985015e-05   -3.913675516051761e-06   -2.7631148353767497e-06
1.8675009050985015e-05   -3.913675516051761e-06   -2.7631148353767497e-06
2.622502447258383e-05   -3.744485808179353e-06   7.0793094443864606e-06
2.622502447258383e-05   -3.744485808179353e-06   7.0793094443864606e-06
2.622502447258383e-05   -3.744485808179353e-06   7.0793094443864606e-06
2.622502447258383e-05   -3.744485808179353e-06   7.0793094443864606e-06
1.314372282131364e-05   -4.953032011014314e-06   -1.5447987696098116e-05
1.314372282131364e-05   -4.953032011014314e-06   -1.5447987696098116e-05
1.314372282131364e-05   -4.953032011014314e-06   -1.5447987696098116e-05
1.314372282131364e-05   -4.953032011014314e-06   -1.5447987696098116e-05
1.3400700988105412e-05   -3.613778971160546e-06   5.025834486121453e-06
1.3400700988105412e-05   -3.613778971160546e-06   5.025834486121453e-06
1.3400700988105412e-05   -3.613778971160546e-06   5.025834486121453e-06
1.3400700988105412e-05   -3.613778971160546e-06   5.025834486121453e-06
2.661400568305277e-05   -4.906322970736144e-06   -1.6220813605712117e-05
2.661400568305277e-05   -4.906322970736144e-06   -1.6220813605712117e-05
2.661400568305277e-05   -4.906322970736144e-06   -1.6220813605712117e-05
2.661400568305277e-05   -4.906322970736144e-06   -1.6220813605712117e-05
1.9324944623799415e-05   -4.035033447820791e-06   -4.5951522207056915e-06
1.9324944623799415e-05   -4.035033447820791e-06   -4.5951522207056915e-06
1.9324944623799415e-05   -4.035033447820791e-06   -4.5951522207056915e-06
1.9324944623799415e-05   -4.035033447820791e-06   -4.5951522207056915e-06
2.661400568305277e-05   -3.613778971160546e-06   5.8013608858668115e-06
2.661400568305277e-05   -3.613778971160546e-06   5.8013608858668115e-06
2.661400568305277e-05   -3.613778971160546e-06   5.8013608858668115e-06
2.661400568305277e-05   -3.613778971160546e-06   5.8013608858668115e-06
1.3400700988105412e-05   -4.906322970736144e-06   -1.699634000545757e-05
1.3400700988105412e-05   -4.906322970736144e-06   -1.699634000545757e-05
1.3400700988105412e-05   -4.906322970736144e-06   -1.699634000545757e-05
1.3400700988105412e-05   -4.906322970736144e-06   -1.699634000545757e-05
1.366779993545093e-05   -3.106532760157395e-06   2.459145723025238e-06
1.366779993545093e-05   -3.106532760157395e-06   2.459145723025238e-06
1.366779993545093e-05   -3.106532760157395e-06   2.459145723025238e-06
1.366779993545093e-05   -3.106532760157395e-06   2.459145723025238e-06
2.699713118752082e-05   -4.628039931675381e-06   -1.884350206084694e-05
2.699713118752082e-05   -4.628039931675381e-06   -1.884350206084694e-05
2.699713118752082e-05   -4.628039931675381e-06   -1.884350206084694e-05
2.699713118752082e-05   -4.628039931675381e-06   -1.884350206084694e-05
1.932550239407062e-05   -3.880334014745709e-06   -6.506077621921296e-06
1.932550239407062e-05   -3.880334014745709e-06   -6.506077621921296e-06
1.932550239407062e-05   -3.880334014745709e-06   -6.506077621921296e-06
1.932550239407062e-05   -3.880334014745709e-06   -6.506077621921296e-06
1.2839433832172887e-05   -2.45475004943005e-06   9.89594584622274e-07
1.2839433832172887e-05   -2.45475004943005e-06   9.89594584622274e-07
1.2839433832172887e-05   -2.45475004943005e-06   9.89594584622274e-07
1.2839433832172887e-05   -2.45475004943005e-06   9.89594584622274e-07
1.4476030630886243e-06   -4.7794953275997944e-06   -1.939163719741994e-05
1.4476030630886243e-06   -4.7794953275997944e-06   -1.939163719741994e-05
1.4476030630886243e-06   -4.7794953275997944e-06   -1.939163719741994e-05
1.4476030630886243e-06   -4.7794953275997944e-06   -1.939163719741994e-05
1.8013519770515343e-06   -2.333267895769783e-06   3.6207271427910435e-08
1.8013519770515343e-06   -2.333267895769783e-06   3.6207271427910435e-08
1.8013519770515343e-06   -2.333267895769783e-06   3.6207271427910435e-08
1.8013519770515343e-06   -2.333267895769783e-06   3.6207271427910435e-08
1.3143722821313667e-05   -4.751295354189994e-06   -1.7416927660623337e-05
1.3143722821313667e-05   -4.751295354189994e-06   -1.7416927660623337e-05
1.3143722821313667e-05   -4.751295354189994e-06   -1.7416927660623337e-05
1.3143722821313667e-05   -4.751295354189994e-06   -1.7416927660623337e-05
7.334767189145743e-06   -3.228426968410582e-06   -8.649055971811283e-06
7.334767189145743e-06   -3.228426968410582e-06   -8.649055971811283e-06
7.334767189145743e-06   -3.228426968410582e-06   -8.649055971811283e-06
7.334767189145743e-06   -3.228426968410582e-06   -8.649055971811283e-06
1.3143722821313633e-05   -2.333267895769783e-06   1.487023746480254e-06
1.3143722821313633e-05   -2.333267895769783e-06   1.487023746480254e-06
1.3143722821313633e-05   -2.333267895769783e-06   1.487023746480254e-06
1.3143722821313633e-05   -2.333267895769783e-06   1.487023746480254e-06
1.8013519770515275e-06   -4.751295354190211e-06   -1.8867744135675545e-05
1.8013519770515275e-06   -4.751295354190211e-06   -1.8867744135675545e-05
1.8013519770515275e-06   -4.751295354190211e-06   -1.8867744135675545e-05
1.8013519770515275e-06   -4.751295354190211e-06   -1.8867744135675545e-05
2.12055567753861e-06   -2.1100033073163807e-06   -9.076197289949791e-08
2.12055567753861e-06   -2.1100033073163807e-06   -9.076197289949791e-08
2.12055567753861e-06   -2.1100033073163807e-06   -9.076197289949791e-08
2.12055567753861e-06   -2.1100033073163807e-06   -9.076197289949791e-08
1.3400700988105412e-05   -4.68255867825014e-06   -1.7347470934617212e-05
1.3400700988105412e-05   -4.68255867825014e-06   -1.7347470934617212e-05
1.3400700988105412e-05   -4.68255867825014e-06   -1.7347470934617212e-05
1.3400700988105412e-05   -4.68255867825014e-06   -1.7347470934617212e-05
7.5324495648043746e-06   -3.259541243743431e-06   -8.420862356485975e-06
7.5324495648043746e-06   -3.259541243743431e-06   -8.420862356485975e-06
7.5324495648043746e-06   -3.259541243743431e-06   -8.420862356485975e-06
7.5324495648043746e-06   -3.259541243743431e-06   -8.420862356485975e-06
1.3400700988105412e-05   -2.1100033073163807e-06   1.452771249660801e-06
1.3400700988105412e-05   -2.1100033073163807e-06   1.452771249660801e-06
1.3400700988105412e-05   -2.1100033073163807e-06   1.452771249660801e-06
1.3400700988105412e-05   -2.1100033073163807e-06   1.452771249660801e-06
2.1205556775386034e-06   -4.68255867825014e-06   -1.8891004157177524e-05
2.1205556775386034e-06   -4.68255867825014e-06   -1.8891004157177524e-05
2.1205556775386034e-06   -4.68255867825014e-06   -1.8891004157177524e-05
2.1205556775386034e-06   -4.68255867825014e-06   -1.8891004157177524e-05
2.597718304019884e-06   -1.7921223071640973e-06   -3.223757034020655e-07
2.597718304019884e-06   -1.7921223071640973e-06   -3.223757034020655e-07
2.597718304019884e-06   -1.7921223071640973e-06   -3.223757034020655e-07
2.597718304019884e-06   -1.7921223071640973e-06   -3.223757034020655e-07
1.366779993545093e-05   -4.548448328195367e-06   -1.7118716143168497e-05
1.366779993545093e-05   -4.548448328195367e-06   -1.7118716143168497e-05
1.366779993545093e-05   -4.548448328195367e-06   -1.7118716143168497e-05
1.366779993545093e-05   -4.548448328195367e-06   -1.7118716143168497e-05
7.917410457677028e-06   -3.2031319670548135e-06   -8.341923496896258e-06
7.917410457677028e-06   -3.2031319670548135e-06   -8.341923496896258e-06
7.917410457677028e-06   -3.2031319670548135e-06   -8.341923496896258e-06
7.917410457677028e-06   -3.2031319670548135e-06   -8.341923496896258e-06
1.4476030630886243e-06   -1.2448390840149063e-06   -1.7812062213642737e-06
1.4476030630886243e-06   -1.2448390840149063e-06   -1.7812062213642737e-06
1.4476030630886243e-06   -1.2448390840149063e-06   -1.7812062213642737e-06
1.4476030630886243e-06   -1.2448390840149063e-06   -1.7812062213642737e-06
-9.823276946687416e-06   -5.6935695400715455e-06   -2.3235244511291507e-05
-9.823276946687416e-06   -5.6935695400715455e-06   -2.3235244511291507e-05
-9.823276946687416e-06   -5.6935695400715455e-06   -2.3235244511291507e-05
-9.823276946687416e-06   -5.6935695400715455e-06   -2.3235244511291507e-05
-9.271420315575083e-06   -1.10046134242463e-06   -3.957819565662368e-06
-9.271420315575083e-06   -1.10046134242463e-06   -3.957819565662368e-06
-9.271420315575083e-06   -1.10046134242463e-06   -3.957819565662368e-06
-9.271420315575083e-06   -1.10046134242463e-06   -3.957819565662368e-06
1.8013519770515275e-06   -5.813864109305723e-06   -1.958439839324459e-05
1.8013519770515275e-06   -5.813864109305723e-06   -1.958439839324459e-05
1.8013519770515275e-06   -5.813864109305723e-06   -1.958439839324459e-05
1.8013519770515275e-06   -5.813864109305723e-06   -1.958439839324459e-05
-3.83454380307275e-06   -3.201396953386162e-06   -1.1758719053255962e-05
-3.83454380307275e-06   -3.201396953386162e-06   -1.1758719053255962e-05
-3.83454380307275e-06   -3.201396953386162e-06   -1.1758719053255962e-05
-3.83454380307275e-06   -3.201396953386162e-06   -1.1758719053255962e-05
1.8013519770515275e-06   -1.10046134242463e-06   -1.1297779055334956e-06
1.8013519770515275e-06   -1.10046134242463e-06   -1.1297779055334956e-06
1.8013519770515275e-06   -1.10046134242463e-06   -1.1297779055334956e-06
1.8013519770515275e-06   -1.10046134242463e-06   -1.1297779055334956e-06
-9.271420315575096e-06   -5.8138641093059395e-06   -2.241244005337338e-05
-9.271420315575096e-06   -5.8138641093059395e-06   -2.241244005337338e-05
-9.271420315575096e-06   -5.8138641093059395e-06   -2.241244005337338e-05
-9.271420315575096e-06   -5.8138641093059395e-06   -2.241244005337338e-05
-8.794926775565854e-06   -8.798872172103601e-07   -3.685528598299805e-06
-8.794926775565854e-06   -8.798872172103601e-07   -3.685528598299805e-06
-8.794926775565854e-06   -8.798872172103601e-07   -3.685528598299805e-06
-8.794926775565854e-06   -8.798872172103601e-07   -3.685528598299805e-06
2.1205556775386034e-06   -5.779885188627936e-06   -1.893800057062349e-05
2.1205556775386034e-06   -5.779885188627936e-06   -1.893800057062349e-05
2.1205556775386034e-06   -5.779885188627936e-06   -1.893800057062349e-05
2.1205556775386034e-06   -5.779885188627936e-06   -1.893800057062349e-05
-3.44311188355542e-06   -3.2690651785164185e-06   -1.1171713308200245e-05
-3.44311188355542e-06   -3.2690651785164185e-06   -1.1171713308200245e-05
-3.44311188355542e-06   -3.2690651785164185e-06   -1.1171713308200245e-05
-3.44311188355542e-06   -3.2690651785164185e-06   -1.1171713308200245e-05
2.1205556775386034e-06   -8.798872172103601e-07   -7.45529815449346e-07
2.1205556775386034e-06   -8.798872172103601e-07   -7.45529815449346e-07
2.1205556775386034e-06   -8.798872172103601e-07   -7.45529815449346e-07
2.1205556775386034e-06   -8.798872172103601e-07   -7.45529815449346e-07
-8.794926775565888e-06   -5.779885188627936e-06   -2.1877999353474113e-05
-8.794926775565888e-06   -5.779885188627936e-06   -2.1877999353474113e-05
-8.794926775565888e-06   -5.779885188627936e-06   -2.1877999353474113e-05
-8.794926775565888e-06   -5.779885188627936e-06   -2.1877999353474113e-05
-7.972208008748881e-06   -6.701274953429832e-07   -3.671415397613997e-06
-7.972208008748881e-06   -6.701274953429832e-07   -3.671415397613997e-06
-7.972208008748881e-06   -6.701274953429832e-07   -3.671415397613997e-06
-7.972208008748881e-06   -6.701274953429832e-07   -3.671415397613997e-06
2.597718304019891e-06   -5.569269665259714e-06   -1.8348473950278473e-05
2.597718304019891e-06   -5.569269665259714e-06   -1.8348473950278473e-05
2.597718304019891e-06   -5.569269665259714e-06   -1.8348473950278473e-05
2.597718304019891e-06   -5.569269665259714e-06   -1.8348473950278473e-05
-2.9340613189043873e-06   -3.1903699155826776e-06   -1.0556181095211037e-05
-2.9340613189043873e-06   -3.1903699155826776e-06   -1.0556181095211037e-05
-2.9340613189043873e-06   -3.1903699155826776e-06   -1.0556181095211037e-05
-2.9340613189043873e-06   -3.1903699155826776e-06   -1.0556181095211037e-05
-9.823276946687396e-06   4.1064793196855364e-07   -2.52623342477385e-06
-9.823276946687396e-06   4.1064793196855364e-07   -2.52623342477385e-06
-9.823276946687396e-06   4.1064793196855364e-07   -2.52623342477385e-06
-9.823276946687396e-06   4.1064793196855364e-07   -2.52623342477385e-06
-2.236886687137562e-05   -7.028542187409838e-06   -2.7899064037548117e-05
-2.236886687137562e-05   -7.028542187409838e-06   -2.7899064037548117e-05
-2.236886687137562e-05   -7.028542187409838e-06   -2.7899064037548117e-05
-2.236886687137562e-05   -7.028542187409838e-06   -2.7899064037548117e-05
-2.1704244967460177e-05   6.71745785419905e-07   -6.769888650288883e-06
-2.1704244967460177e-05   6.71745785419905e-07   -6.769888650288883e-06
-2.1704244967460177e-05   6.71745785419905e-07   -6.769888650288883e-06
-2.1704244967460177e-05   6.71745785419905e-07   -6.769888650288883e-06
-9.271420315575083e-06   -7.876843617058349e-06   -2.236210942861042e-05
-9.271420315575083e-06   -7.876843617058349e-06   -2.236210942861042e-05
-9.271420315575083e-06   -7.876843617058349e-06   -2.236210942861042e-05
-9.271420315575083e-06   -7.876843617058349e-06   -2.236210942861042e-05
-1.5568534087912477e-05   -3.537479354682972e-06   -1.4470538365473284e-05
-1.5568534087912477e-05   -3.537479354682972e-06   -1.4470538365473284e-05
-1.5568534087912477e-05   -3.537479354682972e-06   -1.4470538365473284e-05
-1.5568534087912477e-05   -3.537479354682972e-06   -1.4470538365473284e-05
-9.271420315575083e-06   6.71745785419905e-07   -1.6407350088019955e-06
-9.271420315575083e-06   6.71745785419905e-07   -1.6407350088019955e-06
-9.271420315575083e-06   6.71745785419905e-07   -1.6407350088019955e-06
-9.271420315575083e-06   6.71745785419905e-07   -1.6407350088019955e-06
-2.1704244967460177e-05   -7.876843617058132e-06   -2.749126307009743e-05
-2.1704244967460177e-05   -7.876843617058132e-06   -2.749126307009743e-05
-2.1704244967460177e-05   -7.876843617058132e-06   -2.749126307009743e-05
-2.1704244967460177e-05   -7.876843617058132e-06   -2.749126307009743e-05
-2.106776454508224e-05   9.114901113346872e-07   -6.011657320568087e-06
-2.106776454508224e-05   9.114901113346872e-07   -6.011657320568087e-06
-2.106776454508224e-05   9.114901113346872e-07   -6.011657320568087e-06
-2.106776454508224e-05   9.114901113346872e-07   -6.011657320568087e-06
-8.794926775565868e-06   -7.913929914109058e-06   -2.1171134921162544e-05
-8.794926775565868e-06   -7.913929914109058e-06   -2.1171134921162544e-05
-8.794926775565868e-06   -7.913929914109058e-06   -2.1171134921162544e-05
-8.794926775565868e-06   -7.913929914109058e-06   -2.1171134921162544e-05
-1.4920305293785626e-05   -3.5432815796028992e-06   -1.3584559724833293e-05
-1.4920305293785626e-05   -3.5432815796028992e-06   -1.3584559724833293e-05
-1.4920305293785626e-05   -3.5432815796028992e-06   -1.3584559724833293e-05
-1.4920305293785626e-05   -3.5432815796028992e-06   -1.3584559724833293e-05
-8.794926775565861e-06   9.114901113346872e-07   -7.164053053019051e-07
-8.794926775565861e-06   9.114901113346872e-07   -7.164053053019051e-07
-8.794926775565861e-06   9.114901113346872e-07   -7.164053053019051e-07
-8.794926775565861e-06   9.114901113346872e-07   -7.164053053019051e-07
-2.1067764545082276e-05   -7.91392991410884e-06   -2.64663869364287e-05
-2.1067764545082276e-05   -7.91392991410884e-06   -2.64663869364287e-05
-2.1067764545082276e-05   -7.91392991410884e-06   -2.64663869364287e-05
-2.1067764545082276e-05   -7.91392991410884e-06   -2.64663869364287e-05
-2.002021030504363e-05   1.1129757043467975e-06   -5.244403295869091e-06
-2.002021030504363e-05   1.1129757043467975e-06   -5.244403295869091e-06
-2.002021030504363e-05   1.1129757043467975e-06   -5.244403295869091e-06
-2.002021030504363e-05   1.1129757043467975e-06   -5.244403295869091e-06
-7.972208008748915e-06   -7.1814327252588215e-06   -2.0347762065263866e-05
-7.972208008748915e-06   -7.1814327252588215e-06   -2.0347762065263866e-05
-7.972208008748915e-06   -7.1814327252588215e-06   -2.0347762065263866e-05
-7.972208008748915e-06   -7.1814327252588215e-06   -2.0347762065263866e-05
-1.4285443533650918e-05   -3.100334880559285e-06   -1.2274361563913085e-05
-1.4285443533650918e-05   -3.100334880559285e-06   -1.2274361563913085e-05
-1.4285443533650918e-05   -3.100334880559285e-06   -1.2274361563913085e-05
-1.4285443533650918e-05   -3.100334880559285e-06   -1.2274361563913085e-05
-2.236886687137562e-05   3.2358846129156666e-06   -4.580836589976995e-06
-2.236886687137562e-05   3.2358846129156666e-06   -4.580836589976995e-06
-2.236886687137562e-05   3.2358846129156666e-06   -4.580836589976995e-06
-2.236886687137562e-05   3.2358846129156666e-06   -4.580836589976995e-06
-3.8355801551461795e-05   0.0   -3.316725849120345e-05
-3.8355801551461795e-05   0.0   -3.316725849120345e-05
-3.8355801551461795e-05   0.0   -3.316725849120345e-05
-3.8355801551461795e-05   0.0   -3.316725849120345e-05
-3.738845445955136e-05   4.0712512893547985e-06   -3.4691143823466697e-06
-3.738845445955136e-05   4.0712512893547985e-06   -3.4691143823466697e-06
-3.738845445955136e-05   4.0712512893547985e-06   -3.4691143823466697e-06
-3.738845445955136e-05   4.0712512893547985e-06   -3.4691143823466697e-06
-2.1704244967460136e-05   0.0   -2.716671276221911e-05
-2.1704244967460136e-05   0.0   -2.716671276221911e-05
-2.1704244967460136e-05   0.0   -2.716671276221911e-05
-2.1704244967460136e-05   0.0   -2.716671276221911e-05
-2.8683049555762895e-05   1.2588611527699365e-06   -1.6290688473376584e-05
-2.8683049555762895e-05   1.2588611527699365e-06   -1.6290688473376584e-05
-2.8683049555762895e-05   1.2588611527699365e-06   -1.6290688473376584e-05
-2.8683049555762895e-05   1.2588611527699365e-06   -1.6290688473376584e-05
-2.1704244967460156e-05   4.07125128935469e-06   -1.026363608733834e-06
-2.1704244967460156e-05   4.07125128935469e-06   -1.026363608733834e-06
-2.1704244967460156e-05   4.07125128935469e-06   -1.026363608733834e-06
-2.1704244967460156e-05   4.07125128935469e-06   -1.026363608733834e-06
-3.73884544595513e-05   0.0   -2.960946353583189e-05
-3.73884544595513e-05   0.0   -2.960946353583189e-05
-3.73884544595513e-05   0.0   -2.960946353583189e-05
-3.73884544595513e-05   0.0   -2.960946353583189e-05
-3.6566839384166207e-05   4.2601312020664264e-06   -1.2321774306284488e-06
-3.6566839384166207e-05   4.2601312020664264e-06   -1.2321774306284488e-06
-3.6566839384166207e-05   4.2601312020664264e-06   -1.2321774306284488e-06
-3.6566839384166207e-05   4.2601312020664264e-06   -1.2321774306284488e-06
-2.1067764545082276e-05   0.0   -2.450789010786185e-05
-2.1067764545082276e-05   0.0   -2.450789010786185e-05
-2.1067764545082276e-05   0.0   -2.450789010786185e-05
-2.1067764545082276e-05   0.0   -2.450789010786185e-05
-2.8408644968382785e-05   1.9750208179363307e-06   -1.3458101893122404e-05
-2.8408644968382785e-05   1.9750208179363307e-06   -1.3458101893122404e-05
-2.8408644968382785e-05   1.9750208179363307e-06   -1.3458101893122404e-05
-2.8408644968382785e-05   1.9750208179363307e-06   -1.3458101893122404e-05
-2.1067764545082276e-05   4.260131202066535e-06   1.3239012906114938e-06
-2.1067764545082276e-05   4.260131202066535e-06   1.3239012906114938e-06
-2.1067764545082276e-05   4.260131202066535e-06   1.3239012906114938e-06
-2.1067764545082276e-05   4.260131202066535e-06   1.3239012906114938e-06
-3.656683938416614e-05   0.0   -2.70639688291016e-05
-3.656683938416614e-05   0.0   -2.70639688291016e-05
-3.656683938416614e-05   0.0   -2.70639688291016e-05
-3.656683938416614e-05   0.0   -2.70639688291016e-05
-3.492419394919874e-05   4.5769863493916535e-06   2.379907941490382e-06
-3.492419394919874e-05   4.5769863493916535e-06   2.379907941490382e-06
-3.492419394919874e-05   4.5769863493916535e-06   2.379907941490382e-06
-3.492419394919874e-05   4.5769863493916535e-06   2.379907941490382e-06
-2.0020210305043665e-05   0.0   -1.9713872989133198e-05
-2.0020210305043665e-05   0.0   -1.9713872989133198e-05
-2.0020210305043665e-05   0.0   -1.9713872989133198e-05
-2.0020210305043665e-05   0.0   -1.9713872989133198e-05
-2.696337090974218e-05   2.4302078253551126e-06   -9.600063343181953e-06
-2.696337090974218e-05   2.4302078253551126e-06   -9.600063343181953e-06
-2.696337090974218e-05   2.4302078253551126e-06   -9.600063343181953e-06
-2.696337090974218e-05   2.4302078253551126e-06   -9.600063343181953e-06
2.8319158122197205e-05   -4.8320566907230494e-06   1.6847880967073986e-05
2.8319158122197205e-05   -4.8320566907230494e-06   1.6847880967073986e-05
2.8319158122197205e-05   -4.8320566907230494e-06   1.6847880967073986e-05
2.8319158122197205e-05   -4.8320566907230494e-06   1.6847880967073986e-05
1.465652563974396e-05   -3.751622982339081e-06   -5.27491294531775e-06
1.465652563974396e-05   -3.751622982339081e-06   -5.27491294531775e-06
1.465652563974396e-05   -3.751622982339081e-06   -5.27491294531775e-06
1.465652563974396e-05   -3.751622982339081e-06   -5.27491294531775e-06
1.4295233057893301e-05   -4.953032011014314e-06   1.4846975034235967e-05
1.4295233057893301e-05   -4.953032011014314e-06   1.4846975034235967e-05
1.4295233057893301e-05   -4.953032011014314e-06   1.4846975034235967e-05
1.4295233057893301e-05   -4.953032011014314e-06   1.4846975034235967e-05
2.8026569710847914e-05   -4.119509939192129e-06   -8.538699297115174e-06
2.8026569710847914e-05   -4.119509939192129e-06   -8.538699297115174e-06
2.8026569710847914e-05   -4.119509939192129e-06   -8.538699297115174e-06
2.8026569710847914e-05   -4.119509939192129e-06   -8.538699297115174e-06
2.044997548865191e-05   -4.178799013252344e-06   4.124531184314297e-06
2.044997548865191e-05   -4.178799013252344e-06   4.124531184314297e-06
2.044997548865191e-05   -4.178799013252344e-06   4.124531184314297e-06
2.044997548865191e-05   -4.178799013252344e-06   4.124531184314297e-06
2.8026569710847914e-05   -4.953032011014314e-06   1.4346861791142505e-05
2.8026569710847914e-05   -4.953032011014314e-06   1.4346861791142505e-05
2.8026569710847914e-05   -4.953032011014314e-06   1.4346861791142505e-05
2.8026569710847914e-05   -4.953032011014314e-06   1.4346861791142505e-05
1.4295233057893301e-05   -4.119509939192129e-06   -8.038586054021752e-06
1.4295233057893301e-05   -4.119509939192129e-06   -8.038586054021752e-06
1.4295233057893301e-05   -4.119509939192129e-06   -8.038586054021752e-06
1.4295233057893301e-05   -4.119509939192129e-06   -8.038586054021752e-06
1.3967702177267567e-05   -4.906322970736144e-06   1.3313482409410202e-05
1.3967702177267567e-05   -4.906322970736144e-06   1.3313482409410202e-05
1.3967702177267567e-05   -4.906322970736144e-06   1.3313482409410202e-05
1.3967702177267567e-05   -4.906322970736144e-06   1.3313482409410202e-05
2.768550424369567e-05   -4.1512247873796634e-06   -1.0002579944650385e-05
2.768550424369567e-05   -4.1512247873796634e-06   -1.0002579944650385e-05
2.768550424369567e-05   -4.1512247873796634e-06   -1.0002579944650385e-05
2.768550424369567e-05   -4.1512247873796634e-06   -1.0002579944650385e-05
2.044321631567395e-05   -4.252161341252803e-06   2.1284618677096094e-06
2.044321631567395e-05   -4.252161341252803e-06   2.1284618677096094e-06
2.044321631567395e-05   -4.252161341252803e-06   2.1284618677096094e-06
2.044321631567395e-05   -4.252161341252803e-06   2.1284618677096094e-06
2.768550424369573e-05   -4.906322970735927e-06   1.2860423499396422e-05
2.768550424369573e-05   -4.906322970735927e-06   1.2860423499396422e-05
2.768550424369573e-05   -4.906322970735927e-06   1.2860423499396422e-05
2.768550424369573e-05   -4.906322970735927e-06   1.2860423499396422e-05
1.3967702177267567e-05   -4.1512247873796634e-06   -9.549521034636632e-06
1.3967702177267567e-05   -4.1512247873796634e-06   -9.549521034636632e-06
1.3967702177267567e-05   -4.1512247873796634e-06   -9.549521034636632e-06
1.3967702177267567e-05   -4.1512247873796634e-06   -9.549521034636632e-06
1.3567729258311522e-05   -4.628039931675381e-06   1.0818540406829641e-05
1.3567729258311522e-05   -4.628039931675381e-06   1.0818540406829641e-05
1.3567729258311522e-05   -4.628039931675381e-06   1.0818540406829641e-05
1.3567729258311522e-05   -4.628039931675381e-06   1.0818540406829641e-05
2.7150868806993155e-05   -4.057338562129956e-06   -1.2162446329367111e-05
2.7150868806993155e-05   -4.057338562129956e-06   -1.2162446329367111e-05
2.7150868806993155e-05   -4.057338562129956e-06   -1.2162446329367111e-05
2.7150868806993155e-05   -4.057338562129956e-06   -1.2162446329367111e-05
1.975320305726111e-05   -4.042601545726967e-06   1.5815437701095173e-07
1.975320305726111e-05   -4.042601545726967e-06   1.5815437701095173e-07
1.975320305726111e-05   -4.042601545726967e-06   1.5815437701095173e-07
1.975320305726111e-05   -4.042601545726967e-06   1.5815437701095173e-07
1.465652563974396e-05   -4.7794953275997944e-06   1.2539453399785811e-05
1.465652563974396e-05   -4.7794953275997944e-06   1.2539453399785811e-05
1.465652563974396e-05   -4.7794953275997944e-06   1.2539453399785811e-05
1.465652563974396e-05   -4.7794953275997944e-06   1.2539453399785811e-05
3.018887059560203e-06   -2.2874400747384914e-06   -5.361377748803651e-06
3.018887059560203e-06   -2.2874400747384914e-06   -5.361377748803651e-06
3.018887059560203e-06   -2.2874400747384914e-06   -5.361377748803651e-06
3.018887059560203e-06   -2.2874400747384914e-06   -5.361377748803651e-06
2.4472579050633457e-06   -4.751295354190211e-06   1.4274471916227442e-05
2.4472579050633457e-06   -4.751295354190211e-06   1.4274471916227442e-05
2.4472579050633457e-06   -4.751295354190211e-06   1.4274471916227442e-05
2.4472579050633457e-06   -4.751295354190211e-06   1.4274471916227442e-05
1.4295233057893301e-05   -2.4239006099953126e-06   -6.868590185005877e-06
1.4295233057893301e-05   -2.4239006099953126e-06   -6.868590185005877e-06
1.4295233057893301e-05   -2.4239006099953126e-06   -6.868590185005877e-06
1.4295233057893301e-05   -2.4239006099953126e-06   -6.868590185005877e-06
8.590996019348264e-06   -3.428169485372983e-06   3.241032871129123e-06
8.590996019348264e-06   -3.428169485372983e-06   3.241032871129123e-06
8.590996019348264e-06   -3.428169485372983e-06   3.241032871129123e-06
8.590996019348264e-06   -3.428169485372983e-06   3.241032871129123e-06
1.4295233057893315e-05   -4.751295354189994e-06   1.2878035069710612e-05
1.4295233057893315e-05   -4.751295354189994e-06   1.2878035069710612e-05
1.4295233057893315e-05   -4.751295354189994e-06   1.2878035069710612e-05
1.4295233057893315e-05   -4.751295354189994e-06   1.2878035069710612e-05
2.4472579050633457e-06   -2.4239006099953126e-06   -5.472153338489114e-06
2.4472579050633457e-06   -2.4239006099953126e-06   -5.472153338489114e-06
2.4472579050633457e-06   -2.4239006099953126e-06   -5.472153338489114e-06
2.4472579050633457e-06   -2.4239006099953126e-06   -5.472153338489114e-06
2.0384872824069463e-06   -4.68255867825014e-06   1.4282851510844918e-05
2.0384872824069463e-06   -4.68255867825014e-06   1.4282851510844918e-05
2.0384872824069463e-06   -4.68255867825014e-06   1.4282851510844918e-05
2.0384872824069463e-06   -4.68255867825014e-06   1.4282851510844918e-05
1.3967702177267567e-05   -2.4817252939264046e-06   -6.919673344517099e-06
1.3967702177267567e-05   -2.4817252939264046e-06   -6.919673344517099e-06
1.3967702177267567e-05   -2.4817252939264046e-06   -6.919673344517099e-06
1.3967702177267567e-05   -2.4817252939264046e-06   -6.919673344517099e-06
8.098283252376015e-06   -3.3557552103467576e-06   3.3871094801546917e-06
8.098283252376015e-06   -3.3557552103467576e-06   3.3871094801546917e-06
8.098283252376015e-06   -3.3557552103467576e-06   3.3871094801546917e-06
8.098283252376015e-06   -3.3557552103467576e-06   3.3871094801546917e-06
1.3967702177267595e-05   -4.682558678250357e-06   1.2962351480250546e-05
1.3967702177267595e-05   -4.682558678250357e-06   1.2962351480250546e-05
1.3967702177267595e-05   -4.682558678250357e-06   1.2962351480250546e-05
1.3967702177267595e-05   -4.682558678250357e-06   1.2962351480250546e-05
2.0384872824069463e-06   -2.4817252939264046e-06   -5.5991733139227956e-06
2.0384872824069463e-06   -2.4817252939264046e-06   -5.5991733139227956e-06
2.0384872824069463e-06   -2.4817252939264046e-06   -5.5991733139227956e-06
2.0384872824069463e-06   -2.4817252939264046e-06   -5.5991733139227956e-06
1.5842372620431867e-06   -4.548448328195367e-06   1.4732889536563814e-05
1.5842372620431867e-06   -4.548448328195367e-06   1.4732889536563814e-05
1.5842372620431867e-06   -4.548448328195367e-06   1.4732889536563814e-05
1.5842372620431867e-06   -4.548448328195367e-06   1.4732889536563814e-05
1.3567729258311501e-05   -2.420683479620496e-06   -6.516256033028224e-06
1.3567729258311501e-05   -2.420683479620496e-06   -6.516256033028224e-06
1.3567729258311501e-05   -2.420683479620496e-06   -6.516256033028224e-06
1.3567729258311501e-05   -2.420683479620496e-06   -6.516256033028224e-06
7.799202370837642e-06   -3.204590265134654e-06   3.5682995174033554e-06
7.799202370837642e-06   -3.204590265134654e-06   3.5682995174033554e-06
7.799202370837642e-06   -3.204590265134654e-06   3.5682995174033554e-06
7.799202370837642e-06   -3.204590265134654e-06   3.5682995174033554e-06
3.018887059560203e-06   -5.6935695400715455e-06   1.2860317511265065e-05
3.018887059560203e-06   -5.6935695400715455e-06   1.2860317511265065e-05
3.018887059560203e-06   -5.6935695400715455e-06   1.2860317511265065e-05
3.018887059560203e-06   -5.6935695400715455e-06   1.2860317511265065e-05
-8.167910976323596e-06   -9.12055817228058e-07   -2.9154376481685005e-06
-8.167910976323596e-06   -9.12055817228058e-07   -2.9154376481685005e-06
-8.167910976323596e-06   -9.12055817228058e-07   -2.9154376481685005e-06
-8.167910976323596e-06   -9.12055817228058e-07   -2.9154376481685005e-06
-9.056293857887767e-06   -5.8138641093059395e-06   1.6469237075162745e-05
-9.056293857887767e-06   -5.8138641093059395e-06   1.6469237075162745e-05
-9.056293857887767e-06   -5.8138641093059395e-06   1.6469237075162745e-05
-9.056293857887767e-06   -5.8138641093059395e-06   1.6469237075162745e-05
2.4472579050633457e-06   -9.614984151321438e-07   -5.614768612926727e-06
2.4472579050633457e-06   -9.614984151321438e-07   -5.614768612926727e-06
2.4472579050633457e-06   -9.614984151321438e-07   -5.614768612926727e-06
2.4472579050633457e-06   -9.614984151321438e-07   -5.614768612926727e-06
-2.842284717418591e-06   -3.236335748510368e-06   4.566038157903605e-06
-2.842284717418591e-06   -3.236335748510368e-06   4.566038157903605e-06
-2.842284717418591e-06   -3.236335748510368e-06   4.566038157903605e-06
-2.842284717418591e-06   -3.236335748510368e-06   4.566038157903605e-06
2.4472579050633457e-06   -5.813864109305723e-06   1.3557817658658533e-05
2.4472579050633457e-06   -5.813864109305723e-06   1.3557817658658533e-05
2.4472579050633457e-06   -5.813864109305723e-06   1.3557817658658533e-05
2.4472579050633457e-06   -5.813864109305723e-06   1.3557817658658533e-05
-9.056293857887753e-06   -9.614984151321438e-07   -2.7033491964224875e-06
-9.056293857887753e-06   -9.614984151321438e-07   -2.7033491964224875e-06
-9.056293857887753e-06   -9.614984151321438e-07   -2.7033491964224875e-06
-9.056293857887753e-06   -9.614984151321438e-07   -2.7033491964224875e-06
-9.60116448283411e-06   -5.779885188627936e-06   1.709008999393601e-05
-9.60116448283411e-06   -5.779885188627936e-06   1.709008999393601e-05
-9.60116448283411e-06   -5.779885188627936e-06   1.709008999393601e-05
-9.60116448283411e-06   -5.779885188627936e-06   1.709008999393601e-05
2.0384872824069463e-06   -1.0228270277328009e-06   -5.163564511336173e-06
2.0384872824069463e-06   -1.0228270277328009e-06   -5.163564511336173e-06
2.0384872824069463e-06   -1.0228270277328009e-06   -5.163564511336173e-06
2.0384872824069463e-06   -1.0228270277328009e-06   -5.163564511336173e-06
-3.4446328534225556e-06   -3.220871134743293e-06   5.293795512586108e-06
-3.4446328534225556e-06   -3.220871134743293e-06   5.293795512586108e-06
-3.4446328534225556e-06   -3.220871134743293e-06   5.293795512586108e-06
-3.4446328534225556e-06   -3.220871134743293e-06   5.293795512586108e-06
2.0384872824069395e-06   -5.779885188627936e-06   1.4235855097398842e-05
2.0384872824069395e-06   -5.779885188627936e-06   1.4235855097398842e-05
2.0384872824069395e-06   -5.779885188627936e-06   1.4235855097398842e-05
2.0384872824069395e-06   -5.779885188627936e-06   1.4235855097398842e-05
-9.601164482834096e-06   -1.0228270277328009e-06   -2.3093296147990317e-06
-9.601164482834096e-06   -1.0228270277328009e-06   -2.3093296147990317e-06
-9.601164482834096e-06   -1.0228270277328009e-06   -2.3093296147990317e-06
-9.601164482834096e-06   -1.0228270277328009e-06   -2.3093296147990317e-06
-1.023976759657309e-05   -5.569269665259714e-06   1.7890868073507614e-05
-1.023976759657309e-05   -5.569269665259714e-06   1.7890868073507614e-05
-1.023976759657309e-05   -5.569269665259714e-06   1.7890868073507614e-05
-1.023976759657309e-05   -5.569269665259714e-06   1.7890868073507614e-05
1.5842372620431867e-06   -1.0127017795345458e-06   -4.549747422288069e-06
1.5842372620431867e-06   -1.0127017795345458e-06   -4.549747422288069e-06
1.5842372620431867e-06   -1.0127017795345458e-06   -4.549747422288069e-06
1.5842372620431867e-06   -1.0127017795345458e-06   -4.549747422288069e-06
-3.936097240214457e-06   -3.085796938154901e-06   5.894667176646986e-06
-3.936097240214457e-06   -3.085796938154901e-06   5.894667176646986e-06
-3.936097240214457e-06   -3.085796938154901e-06   5.894667176646986e-06
-3.936097240214457e-06   -3.085796938154901e-06   5.894667176646986e-06
-8.167910976323603e-06   -7.028542187409838e-06   1.5528920290341875e-05
-8.167910976323603e-06   -7.028542187409838e-06   1.5528920290341875e-05
-8.167910976323603e-06   -7.028542187409838e-06   1.5528920290341875e-05
-8.167910976323603e-06   -7.028542187409838e-06   1.5528920290341875e-05
-2.085073950106991e-05   1.1231546963494897e-06   -7.18109120646359e-07
-2.085073950106991e-05   1.1231546963494897e-06   -7.18109120646359e-07
-2.085073950106991e-05   1.1231546963494897e-06   -7.18109120646359e-07
-2.085073950106991e-05   1.1231546963494897e-06   -7.18109120646359e-07
-2.1925319499028353e-05   -7.876843617058132e-06   2.1887091747006316e-05
-2.1925319499028353e-05   -7.876843617058132e-06   2.1887091747006316e-05
-2.1925319499028353e-05   -7.876843617058132e-06   2.1887091747006316e-05
-2.1925319499028353e-05   -7.876843617058132e-06   2.1887091747006316e-05
-9.056293857887753e-06   1.0690297947430882e-06   -4.928808368641981e-06
-9.056293857887753e-06   1.0690297947430882e-06   -4.928808368641981e-06
-9.056293857887753e-06   1.0690297947430882e-06   -4.928808368641981e-06
-9.056293857887753e-06   1.0690297947430882e-06   -4.928808368641981e-06
-1.4795005732113124e-05   -2.8531319815772865e-06   6.989008487525729e-06
-1.4795005732113124e-05   -2.8531319815772865e-06   6.989008487525729e-06
-1.4795005732113124e-05   -2.8531319815772865e-06   6.989008487525729e-06
-1.4795005732113124e-05   -2.8531319815772865e-06   6.989008487525729e-06
-9.056293857887767e-06   -7.876843617058132e-06   1.6519567699925584e-05
-9.056293857887767e-06   -7.876843617058132e-06   1.6519567699925584e-05
-9.056293857887767e-06   -7.876843617058132e-06   1.6519567699925584e-05
-9.056293857887767e-06   -7.876843617058132e-06   1.6519567699925584e-05
-2.1925319499028353e-05   1.0690297947430882e-06   4.3871567843877836e-07
-2.1925319499028353e-05   1.0690297947430882e-06   4.3871567843877836e-07
-2.1925319499028353e-05   1.0690297947430882e-06   4.3871567843877836e-07
-2.1925319499028353e-05   1.0690297947430882e-06   4.3871567843877836e-07
-2.2578889896421953e-05   -7.91392991410884e-06   2.3121483156132803e-05
-2.2578889896421953e-05   -7.91392991410884e-06   2.3121483156132803e-05
-2.2578889896421953e-05   -7.91392991410884e-06   2.3121483156132803e-05
-2.2578889896421953e-05   -7.91392991410884e-06   2.3121483156132803e-05
-9.601164482834096e-06   9.60284635699929e-07   -3.832587929732202e-06
-9.601164482834096e-06   9.60284635699929e-07   -3.832587929732202e-06
-9.601164482834096e-06   9.60284635699929e-07   -3.832587929732202e-06
-9.601164482834096e-06   9.60284635699929e-07   -3.832587929732202e-06
-1.5488311299427457e-05   -3.308458823542571e-06   8.540569506802146e-06
-1.5488311299427457e-05   -3.308458823542571e-06   8.540569506802146e-06
-1.5488311299427457e-05   -3.308458823542571e-06   8.540569506802146e-06
-1.5488311299427457e-05   -3.308458823542571e-06   8.540569506802146e-06
-9.60116448283409e-06   -7.913929914109058e-06   1.7796954426247498e-05
-9.60116448283409e-06   -7.913929914109058e-06   1.7796954426247498e-05
-9.60116448283409e-06   -7.913929914109058e-06   1.7796954426247498e-05
-9.60116448283409e-06   -7.913929914109058e-06   1.7796954426247498e-05
-2.2578889896421912e-05   9.60284635699929e-07   1.4919408001531171e-06
-2.2578889896421912e-05   9.60284635699929e-07   1.4919408001531171e-06
-2.2578889896421912e-05   9.60284635699929e-07   1.4919408001531171e-06
-2.2578889896421912e-05   9.60284635699929e-07   1.4919408001531171e-06
-2.3284695779231616e-05   -7.1814327252588215e-06   2.3641522192085172e-05
-2.3284695779231616e-05   -7.1814327252588215e-06   2.3641522192085172e-05
-2.3284695779231616e-05   -7.1814327252588215e-06   2.3641522192085172e-05
-2.3284695779231616e-05   -7.1814327252588215e-06   2.3641522192085172e-05
-1.0239767596573056e-05   8.359954940956055e-07   -2.9104817106251216e-06
-1.0239767596573056e-05   8.359954940956055e-07   -2.9104817106251216e-06
-1.0239767596573056e-05   8.359954940956055e-07   -2.9104817106251216e-06
-1.0239767596573056e-05   8.359954940956055e-07   -2.9104817106251216e-06
-1.6208387387768176e-05   -3.3287158016652614e-06   9.53604471882368e-06
-1.6208387387768176e-05   -3.3287158016652614e-06   9.53604471882368e-06
-1.6208387387768176e-05   -3.3287158016652614e-06   9.53604471882368e-06
-1.6208387387768176e-05   -3.3287158016652614e-06   9.53604471882368e-06
-2.085073950106984e-05   0.0   1.709327473469152e-05
-2.085073950106984e-05   0.0   1.709327473469152e-05
-2.085073950106984e-05   0.0   1.709327473469152e-05
-2.085073950106984e-05   0.0   1.709327473469152e-05
-3.655633511916163e-05   4.812390911791741e-06   -6.195283415053108e-06
-3.655633511916163e-05   4.812390911791741e-06   -6.195283415053108e-06
-3.655633511916163e-05   4.812390911791741e-06   -6.195283415053108e-06
-3.655633511916163e-05   4.812390911791741e-06   -6.195283415053108e-06
-3.802504130722357e-05   0.0   2.500798540805264e-05
-3.802504130722357e-05   0.0   2.500798540805264e-05
-3.802504130722357e-05   0.0   2.500798540805264e-05
-3.802504130722357e-05   0.0   2.500798540805264e-05
-2.192531949902832e-05   4.660572255280352e-06   -4.621227625441101e-06
-2.192531949902832e-05   4.660572255280352e-06   -4.621227625441101e-06
-2.192531949902832e-05   4.660572255280352e-06   -4.621227625441101e-06
-2.192531949902832e-05   4.660572255280352e-06   -4.621227625441101e-06
-2.8090916700448644e-05   2.853998606417536e-06   6.738711899577268e-06
-2.8090916700448644e-05   2.853998606417536e-06   6.738711899577268e-06
-2.8090916700448644e-05   2.853998606417536e-06   6.738711899577268e-06
-2.8090916700448644e-05   2.853998606417536e-06   6.738711899577268e-06
-2.19253194990283e-05   0.0   2.2211642054884473e-05
-2.19253194990283e-05   0.0   2.2211642054884473e-05
-2.19253194990283e-05   0.0   2.2211642054884473e-05
-2.19253194990283e-05   0.0   2.2211642054884473e-05
-3.8025041307223636e-05   4.660572255280352e-06   -1.8248842722727978e-06
-3.8025041307223636e-05   4.660572255280352e-06   -1.8248842722727978e-06
-3.8025041307223636e-05   4.660572255280352e-06   -1.8248842722727978e-06
-3.8025041307223636e-05   4.660572255280352e-06   -1.8248842722727978e-06
-3.876309978439315e-05   0.0   2.7808141650414748e-05
-3.876309978439315e-05   0.0   2.7808141650414748e-05
-3.876309978439315e-05   0.0   2.7808141650414748e-05
-3.876309978439315e-05   0.0   2.7808141650414748e-05
-2.2578889896421912e-05   4.546936109525203e-06   -1.8937031619192384e-06
-2.2578889896421912e-05   4.546936109525203e-06   -1.8937031619192384e-06
-2.2578889896421912e-05   4.546936109525203e-06   -1.8937031619192384e-06
-2.2578889896421912e-05   4.546936109525203e-06   -1.8937031619192384e-06
-2.952474510777674e-05   2.387459290903015e-06   1.0978408281512469e-05
-2.952474510777674e-05   2.387459290903015e-06   1.0978408281512469e-05
-2.952474510777674e-05   2.387459290903015e-06   1.0978408281512469e-05
-2.952474510777674e-05   2.387459290903015e-06   1.0978408281512469e-05
-2.2578889896421912e-05   0.0   2.5079979984699626e-05
-2.2578889896421912e-05   0.0   2.5079979984699626e-05
-2.2578889896421912e-05   0.0   2.5079979984699626e-05
-2.2578889896421912e-05   0.0   2.5079979984699626e-05
-3.876309978439328e-05   4.54693610952542e-06   8.344585037960324e-07
-3.876309978439328e-05   4.54693610952542e-06   8.344585037960324e-07
-3.876309978439328e-05   4.54693610952542e-06   8.344585037960324e-07
-3.876309978439328e-05   4.54693610952542e-06   8.344585037960324e-07
-3.957873560394616e-05   0.0   3.153883645207027e-05
-3.957873560394616e-05   0.0   3.153883645207027e-05
-3.957873560394616e-05   0.0   3.153883645207027e-05
-3.957873560394616e-05   0.0   3.153883645207027e-05
-2.3284695779231616e-05   3.811300210152359e-06   2.0953232847880314e-06
-2.3284695779231616e-05   3.811300210152359e-06   2.0953232847880314e-06
-2.3284695779231616e-05   3.811300210152359e-06   2.0953232847880314e-06
-2.3284695779231616e-05   3.811300210152359e-06   2.0953232847880314e-06
-2.974865881532132e-05   1.6875083481901476e-06   1.4142870128781447e-05
-2.974865881532132e-05   1.6875083481901476e-06   1.4142870128781447e-05
-2.974865881532132e-05   1.6875083481901476e-06   1.4142870128781447e-05
-2.974865881532132e-05   1.6875083481901476e-06   1.4142870128781447e-05
2.5030917399937144e-05   -3.751622982339081e-06   1.7663301014259102e-05
2.5030917399937144e-05   -3.751622982339081e-06   1.7663301014259102e-05
2.5030917399937144e-05   -3.751622982339081e-06   1.7663301014259102e-05
2.5030917399937144e-05   -3.751622982339081e-06   1.7663301014259102e-05
1.2634021196356378e-05   -2.8525897460189662e-06   -2.4587727165834234e-06
1.2634021196356378e-05   -2.8525897460189662e-06   -2.4587727165834234e-06
1.2634021196356378e-05   -2.8525897460189662e-06   -2.4587727165834234e-06
1.2634021196356378e-05   -2.8525897460189662e-06   -2.4587727165834234e-06
1.2307773687308395e-05   -4.119509939191912e-06   1.539396962787771e-05
1.2307773687308395e-05   -4.119509939191912e-06   1.539396962787771e-05
1.2307773687308395e-05   -4.119509939191912e-06   1.539396962787771e-05
1.2307773687308395e-05   -4.119509939191912e-06   1.539396962787771e-05
2.4451583072700033e-05   -3.2268962949041262e-06   -5.381280867681138e-06
2.4451583072700033e-05   -3.2268962949041262e-06   -5.381280867681138e-06
2.4451583072700033e-05   -3.2268962949041262e-06   -5.381280867681138e-06
2.4451583072700033e-05   -3.2268962949041262e-06   -5.381280867681138e-06
1.7777773356978753e-05   -3.350086542072174e-06   5.815649473488605e-06
1.7777773356978753e-05   -3.350086542072174e-06   5.815649473488605e-06
1.7777773356978753e-05   -3.350086542072174e-06   5.815649473488605e-06
1.7777773356978753e-05   -3.350086542072174e-06   5.815649473488605e-06
2.445158307269999e-05   -4.119509939191912e-06   1.4858401441304866e-05
2.445158307269999e-05   -4.119509939191912e-06   1.4858401441304866e-05
2.445158307269999e-05   -4.119509939191912e-06   1.4858401441304866e-05
2.445158307269999e-05   -4.119509939191912e-06   1.4858401441304866e-05
1.2307773687308416e-05   -3.2268962949041262e-06   -4.845712681108313e-06
1.2307773687308416e-05   -3.2268962949041262e-06   -4.845712681108313e-06
1.2307773687308416e-05   -3.2268962949041262e-06   -4.845712681108313e-06
1.2307773687308416e-05   -3.2268962949041262e-06   -4.845712681108313e-06
1.188752376023803e-05   -4.1512247873796634e-06   1.3803095811423848e-05
1.188752376023803e-05   -4.1512247873796634e-06   1.3803095811423848e-05
1.188752376023803e-05   -4.1512247873796634e-06   1.3803095811423848e-05
1.188752376023803e-05   -4.1512247873796634e-06   1.3803095811423848e-05
2.3864197532095387e-05   -3.281046561461661e-06   -6.680134077222466e-06
2.3864197532095387e-05   -3.281046561461661e-06   -6.680134077222466e-06
2.3864197532095387e-05   -3.281046561461661e-06   -6.680134077222466e-06
2.3864197532095387e-05   -3.281046561461661e-06   -6.680134077222466e-06
1.7622401081348467e-05   -3.494921123962957e-06   3.851184744856431e-06
1.7622401081348467e-05   -3.494921123962957e-06   3.851184744856431e-06
1.7622401081348467e-05   -3.494921123962957e-06   3.851184744856431e-06
1.7622401081348467e-05   -3.494921123962957e-06   3.851184744856431e-06
2.3864197532095387e-05   -4.1512247873796634e-06   1.3280988875873068e-05
2.3864197532095387e-05   -4.1512247873796634e-06   1.3280988875873068e-05
2.3864197532095387e-05   -4.1512247873796634e-06   1.3280988875873068e-05
2.3864197532095387e-05   -4.1512247873796634e-06   1.3280988875873068e-05
1.188752376023803e-05   -3.281046561461661e-06   -6.158027141671754e-06
1.188752376023803e-05   -3.281046561461661e-06   -6.158027141671754e-06
1.188752376023803e-05   -3.281046561461661e-06   -6.158027141671754e-06
1.188752376023803e-05   -3.281046561461661e-06   -6.158027141671754e-06
1.1446064339414715e-05   -4.057338562129956e-06   1.1437715665861634e-05
1.1446064339414715e-05   -4.057338562129956e-06   1.1437715665861634e-05
1.1446064339414715e-05   -4.057338562129956e-06   1.1437715665861634e-05
1.1446064339414715e-05   -4.057338562129956e-06   1.1437715665861634e-05
2.3128465696732302e-05   -3.253687362724184e-06   -8.515143982644447e-06
2.3128465696732302e-05   -3.253687362724184e-06   -8.515143982644447e-06
2.3128465696732302e-05   -3.253687362724184e-06   -8.515143982644447e-06
2.3128465696732302e-05   -3.253687362724184e-06   -8.515143982644447e-06
1.684904850088583e-05   -3.401224808460574e-06   2.0390738112084595e-06
1.684904850088583e-05   -3.401224808460574e-06   2.0390738112084595e-06
1.684904850088583e-05   -3.401224808460574e-06   2.0390738112084595e-06
1.684904850088583e-05   -3.401224808460574e-06   2.0390738112084595e-06
1.2634021196356398e-05   -2.2874400747384914e-06   1.6621023000848705e-05
1.2634021196356398e-05   -2.2874400747384914e-06   1.6621023000848705e-05
1.2634021196356398e-05   -2.2874400747384914e-06   1.6621023000848705e-05
1.2634021196356398e-05   -2.2874400747384914e-06   1.6621023000848705e-05
1.3231990766773917e-06   -9.984550010310941e-07   -1.456956154391822e-06
1.3231990766773917e-06   -9.984550010310941e-07   -1.456956154391822e-06
1.3231990766773917e-06   -9.984550010310941e-07   -1.456956154391822e-06
1.3231990766773917e-06   -9.984550010310941e-07   -1.456956154391822e-06
9.983824716981179e-07   -2.4239006099953126e-06   1.7299418828578615e-05
9.983824716981179e-07   -2.4239006099953126e-06   1.7299418828578615e-05
9.983824716981179e-07   -2.4239006099953126e-06   1.7299418828578615e-05
9.983824716981179e-07   -2.4239006099953126e-06   1.7299418828578615e-05
1.2307773687308416e-05   -1.1981450571870713e-06   -2.2850198624569713e-06
1.2307773687308416e-05   -1.1981450571870713e-06   -2.2850198624569713e-06
1.2307773687308416e-05   -1.1981450571870713e-06   -2.2850198624569713e-06
1.2307773687308416e-05   -1.1981450571870713e-06   -2.2850198624569713e-06
6.750137794648746e-06   -1.6068292654296788e-06   7.222917150254647e-06
6.750137794648746e-06   -1.6068292654296788e-06   7.222917150254647e-06
6.750137794648746e-06   -1.6068292654296788e-06   7.222917150254647e-06
6.750137794648746e-06   -1.6068292654296788e-06   7.222917150254647e-06
1.2307773687308402e-05   -2.4239006099953126e-06   1.656396549689352e-05
1.2307773687308402e-05   -2.4239006099953126e-06   1.656396549689352e-05
1.2307773687308402e-05   -2.4239006099953126e-06   1.656396549689352e-05
1.2307773687308402e-05   -2.4239006099953126e-06   1.656396549689352e-05
9.983824716981179e-07   -1.1981450571870713e-06   -1.549566530772051e-06
9.983824716981179e-07   -1.1981450571870713e-06   -1.549566530772051e-06
9.983824716981179e-07   -1.1981450571870713e-06   -1.549566530772051e-06
9.983824716981179e-07   -1.1981450571870713e-06   -1.549566530772051e-06
5.845261509764251e-07   -2.4817252939264046e-06   1.71257240432211e-05
5.845261509764251e-07   -2.4817252939264046e-06   1.71257240432211e-05
5.845261509764251e-07   -2.4817252939264046e-06   1.71257240432211e-05
5.845261509764251e-07   -2.4817252939264046e-06   1.71257240432211e-05
1.188752376023803e-05   -1.3270910577967967e-06   -2.405385847226052e-06
1.188752376023803e-05   -1.3270910577967967e-06   -2.405385847226052e-06
1.188752376023803e-05   -1.3270910577967967e-06   -2.405385847226052e-06
1.188752376023803e-05   -1.3270910577967967e-06   -2.405385847226052e-06
6.336953130352979e-06   -1.6813564167172251e-06   7.058124417934938e-06
6.336953130352979e-06   -1.6813564167172251e-06   7.058124417934938e-06
6.336953130352979e-06   -1.6813564167172251e-06   7.058124417934938e-06
6.336953130352979e-06   -1.6813564167172251e-06   7.058124417934938e-06
1.188752376023801e-05   -2.4817252939264046e-06   1.6432943501543205e-05
1.188752376023801e-05   -2.4817252939264046e-06   1.6432943501543205e-05
1.188752376023801e-05   -2.4817252939264046e-06   1.6432943501543205e-05
1.188752376023801e-05   -2.4817252939264046e-06   1.6432943501543205e-05
5.845261509764251e-07   -1.3270910577967967e-06   -1.7126053055482654e-06
5.845261509764251e-07   -1.3270910577967967e-06   -1.7126053055482654e-06
5.845261509764251e-07   -1.3270910577967967e-06   -1.7126053055482654e-06
5.845261509764251e-07   -1.3270910577967967e-06   -1.7126053055482654e-06
1.2743334610899057e-07   -2.420683479620279e-06   1.7366242543266825e-05
1.2743334610899057e-07   -2.420683479620279e-06   1.7366242543266825e-05
1.2743334610899057e-07   -2.420683479620279e-06   1.7366242543266825e-05
1.2743334610899057e-07   -2.420683479620279e-06   1.7366242543266825e-05
1.1446064339414701e-05   -1.3794211416309288e-06   -2.122899848369711e-06
1.1446064339414701e-05   -1.3794211416309288e-06   -2.122899848369711e-06
1.1446064339414701e-05   -1.3794211416309288e-06   -2.122899848369711e-06
1.1446064339414701e-05   -1.3794211416309288e-06   -2.122899848369711e-06
6.003572653651915e-06   -1.662605464443378e-06   7.1178302215893995e-06
6.003572653651915e-06   -1.662605464443378e-06   7.1178302215893995e-06
6.003572653651915e-06   -1.662605464443378e-06   7.1178302215893995e-06
6.003572653651915e-06   -1.662605464443378e-06   7.1178302215893995e-06
1.3231990766773984e-06   -9.120558172278411e-07   1.6971445912002158e-05
1.3231990766773984e-06   -9.120558172278411e-07   1.6971445912002158e-05
1.3231990766773984e-06   -9.120558172278411e-07   1.6971445912002158e-05
1.3231990766773984e-06   -9.120558172278411e-07   1.6971445912002158e-05
-9.640491917829952e-06   9.048829537374988e-07   -2.112091495975587e-07
-9.640491917829952e-06   9.048829537374988e-07   -2.112091495975587e-07
-9.640491917829952e-06   9.048829537374988e-07   -2.112091495975587e-07
-9.640491917829952e-06   9.048829537374988e-07   -2.112091495975587e-07
-1.0006765082954854e-05   -9.61498415131927e-07   1.8186519443757652e-05
-1.0006765082954854e-05   -9.61498415131927e-07   1.8186519443757652e-05
-1.0006765082954854e-05   -9.61498415131927e-07   1.8186519443757652e-05
-1.0006765082954854e-05   -9.61498415131927e-07   1.8186519443757652e-05
9.983824716981179e-07   7.546947342291837e-07   -1.1851090369473276e-06
9.983824716981179e-07   7.546947342291837e-07   -1.1851090369473276e-06
9.983824716981179e-07   7.546947342291837e-07   -1.1851090369473276e-06
9.983824716981179e-07   7.546947342291837e-07   -1.1851090369473276e-06
-4.323741184927187e-06   2.5667998584250062e-08   8.122513098815065e-06
-4.323741184927187e-06   2.5667998584250062e-08   8.122513098815065e-06
-4.323741184927187e-06   2.5667998584250062e-08   8.122513098815065e-06
-4.323741184927187e-06   2.5667998584250062e-08   8.122513098815065e-06
9.983824716981246e-07   -9.61498415131927e-07   1.715680355414092e-05
9.983824716981246e-07   -9.61498415131927e-07   1.715680355414092e-05
9.983824716981246e-07   -9.61498415131927e-07   1.715680355414092e-05
9.983824716981246e-07   -9.61498415131927e-07   1.715680355414092e-05
-1.0006765082954854e-05   7.546947342290753e-07   -1.5539314733060972e-07
-1.0006765082954854e-05   7.546947342290753e-07   -1.5539314733060972e-07
-1.0006765082954854e-05   7.546947342290753e-07   -1.5539314733060972e-07
-1.0006765082954854e-05   7.546947342290753e-07   -1.5539314733060972e-07
-1.0496037727610941e-05   -1.0228270277328009e-06   1.8543974040404745e-05
-1.0496037727610941e-05   -1.0228270277328009e-06   1.8543974040404745e-05
-1.0496037727610941e-05   -1.0228270277328009e-06   1.8543974040404745e-05
-1.0496037727610941e-05   -1.0228270277328009e-06   1.8543974040404745e-05
5.845261509764251e-07   6.149082965953984e-07   -9.062736185044622e-07
5.845261509764251e-07   6.149082965953984e-07   -9.062736185044622e-07
5.845261509764251e-07   6.149082965953984e-07   -9.062736185044622e-07
5.845261509764251e-07   6.149082965953984e-07   -9.062736185044622e-07
-4.684557193638557e-06   -1.4716300428805652e-08   8.253306714068427e-06
-4.684557193638557e-06   -1.4716300428805652e-08   8.253306714068427e-06
-4.684557193638557e-06   -1.4716300428805652e-08   8.253306714068427e-06
-4.684557193638557e-06   -1.4716300428805652e-08   8.253306714068427e-06
5.845261509764251e-07   -1.0228270277328009e-06   1.7561332845807804e-05
5.845261509764251e-07   -1.0228270277328009e-06   1.7561332845807804e-05
5.845261509764251e-07   -1.0228270277328009e-06   1.7561332845807804e-05
5.845261509764251e-07   -1.0228270277328009e-06   1.7561332845807804e-05
-1.0496037727610928e-05   6.149082965953984e-07   7.636757609250609e-08
-1.0496037727610928e-05   6.149082965953984e-07   7.636757609250609e-08
-1.0496037727610928e-05   6.149082965953984e-07   7.636757609250609e-08
-1.0496037727610928e-05   6.149082965953984e-07   7.636757609250609e-08
-1.1017277508023281e-05   -1.0127017795347627e-06   1.8972640925412265e-05
-1.1017277508023281e-05   -1.0127017795347627e-06   1.8972640925412265e-05
-1.1017277508023281e-05   -1.0127017795347627e-06   1.8972640925412265e-05
-1.1017277508023281e-05   -1.0127017795347627e-06   1.8972640925412265e-05
1.2743334610899057e-07   5.148793547153077e-07   -5.184258453581599e-07
1.2743334610899057e-07   5.148793547153077e-07   -5.184258453581599e-07
1.2743334610899057e-07   5.148793547153077e-07   -5.184258453581599e-07
1.2743334610899057e-07   5.148793547153077e-07   -5.184258453581599e-07
-5.14400930834242e-06   -4.26920322435867e-08   8.601854744236389e-06
-5.14400930834242e-06   -4.26920322435867e-08   8.601854744236389e-06
-5.14400930834242e-06   -4.26920322435867e-08   8.601854744236389e-06
-5.14400930834242e-06   -4.26920322435867e-08   8.601854744236389e-06
-9.640491917829918e-06   1.1231546963494897e-06   1.5367919571847885e-05
-9.640491917829918e-06   1.1231546963494897e-06   1.5367919571847885e-05
-9.640491917829918e-06   1.1231546963494897e-06   1.5367919571847885e-05
-9.640491917829918e-06   1.1231546963494897e-06   1.5367919571847885e-05
-2.0401758162941977e-05   2.9249698259992e-06   -1.486435092215761e-06
-2.0401758162941977e-05   2.9249698259992e-06   -1.486435092215761e-06
-2.0401758162941977e-05   2.9249698259992e-06   -1.486435092215761e-06
-2.0401758162941977e-05   2.9249698259992e-06   -1.486435092215761e-06
-2.0931440864156806e-05   1.0690297947428713e-06   1.6985169352746088e-05
-2.0931440864156806e-05   1.0690297947428713e-06   1.6985169352746088e-05
-2.0931440864156806e-05   1.0690297947428713e-06   1.6985169352746088e-05
-2.0931440864156806e-05   1.0690297947428713e-06   1.6985169352746088e-05
-1.0006765082954813e-05   2.775878263422925e-06   -2.2467326971317453e-06
-1.0006765082954813e-05   2.775878263422925e-06   -2.2467326971317453e-06
-1.0006765082954813e-05   2.775878263422925e-06   -2.2467326971317453e-06
-1.0006765082954813e-05   2.775878263422925e-06   -2.2467326971317453e-06
-1.5127455443627639e-05   2.003492209167834e-06   6.7511828698759975e-06
-1.5127455443627639e-05   2.003492209167834e-06   6.7511828698759975e-06
-1.5127455443627639e-05   2.003492209167834e-06   6.7511828698759975e-06
-1.5127455443627639e-05   2.003492209167834e-06   6.7511828698759975e-06
-1.0006765082954834e-05   1.0690297947430882e-06   1.5961060271538078e-05
-1.0006765082954834e-05   1.0690297947430882e-06   1.5961060271538078e-05
-1.0006765082954834e-05   1.0690297947430882e-06   1.5961060271538078e-05
-1.0006765082954834e-05   1.0690297947430882e-06   1.5961060271538078e-05
-2.0931440864156766e-05   2.775878263422925e-06   -1.2226236159238162e-06
-2.0931440864156766e-05   2.775878263422925e-06   -1.2226236159238162e-06
-2.0931440864156766e-05   2.775878263422925e-06   -1.2226236159238162e-06
-2.0931440864156766e-05   2.775878263422925e-06   -1.2226236159238162e-06
-2.1581863680270696e-05   9.60284635699929e-07   1.802652683483637e-05
-2.1581863680270696e-05   9.60284635699929e-07   1.802652683483637e-05
-2.1581863680270696e-05   9.60284635699929e-07   1.802652683483637e-05
-2.1581863680270696e-05   9.60284635699929e-07   1.802652683483637e-05
-1.0496037727610928e-05   2.6366364846412303e-06   -1.4556608622946624e-06
-1.0496037727610928e-05   2.6366364846412303e-06   -1.4556608622946624e-06
-1.0496037727610928e-05   2.6366364846412303e-06   -1.4556608622946624e-06
-1.0496037727610928e-05   2.6366364846412303e-06   -1.4556608622946624e-06
-1.5519383690109024e-05   1.972182986015162e-06   7.31525450771111e-06
-1.5519383690109024e-05   1.972182986015162e-06   7.31525450771111e-06
-1.5519383690109024e-05   1.972182986015162e-06   7.31525450771111e-06
-1.5519383690109024e-05   1.972182986015162e-06   7.31525450771111e-06
-1.0496037727610914e-05   9.60284635699929e-07   1.702071572547148e-05
-1.0496037727610914e-05   9.60284635699929e-07   1.702071572547148e-05
-1.0496037727610914e-05   9.60284635699929e-07   1.702071572547148e-05
-1.0496037727610914e-05   9.60284635699929e-07   1.702071572547148e-05
-2.1581863680270696e-05   2.6366364846412303e-06   -4.4984975292988163e-07
-2.1581863680270696e-05   2.6366364846412303e-06   -4.4984975292988163e-07
-2.1581863680270696e-05   2.6366364846412303e-06   -4.4984975292988163e-07
-2.1581863680270696e-05   2.6366364846412303e-06   -4.4984975292988163e-07
-2.2268609999993664e-05   8.359954940958224e-07   1.8845112760241547e-05
-2.2268609999993664e-05   8.359954940958224e-07   1.8845112760241547e-05
-2.2268609999993664e-05   8.359954940958224e-07   1.8845112760241547e-05
-2.2268609999993664e-05   8.359954940958224e-07   1.8845112760241547e-05
-1.101727750802324e-05   2.447906918431452e-06   -8.742549143106671e-07
-1.101727750802324e-05   2.447906918431452e-06   -8.742549143106671e-07
-1.101727750802324e-05   2.447906918431452e-06   -8.742549143106671e-07
-1.101727750802324e-05   2.447906918431452e-06   -8.742549143106671e-07
-1.618138250507298e-05   1.8603004862918944e-06   8.085150606723288e-06
-1.618138250507298e-05   1.8603004862918944e-06   8.085150606723288e-06
-1.618138250507298e-05   1.8603004862918944e-06   8.085150606723288e-06
-1.618138250507298e-05   1.8603004862918944e-06   8.085150606723288e-06
-2.0401758162941977e-05   4.812390911791741e-06   8.084399808155765e-06
-2.0401758162941977e-05   4.812390911791741e-06   8.084399808155765e-06
-2.0401758162941977e-05   4.812390911791741e-06   8.084399808155765e-06
-2.0401758162941977e-05   4.812390911791741e-06   8.084399808155765e-06
-3.0733196130657456e-05   4.7570124806021455e-06   -9.167890530083894e-06
-3.0733196130657456e-05   4.7570124806021455e-06   -9.167890530083894e-06
-3.0733196130657456e-05   4.7570124806021455e-06   -9.167890530083894e-06
-3.0733196130657456e-05   4.7570124806021455e-06   -9.167890530083894e-06
-3.1686203822536046e-05   4.660572255280569e-06   1.2041950110752405e-05
-3.1686203822536046e-05   4.660572255280569e-06   1.2041950110752405e-05
-3.1686203822536046e-05   4.660572255280569e-06   1.2041950110752405e-05
-3.1686203822536046e-05   4.660572255280569e-06   1.2041950110752405e-05
-2.0931440864156766e-05   4.855112358424004e-06   -5.999378881765989e-06
-2.0931440864156766e-05   4.855112358424004e-06   -5.999378881765989e-06
-2.0931440864156766e-05   4.855112358424004e-06   -5.999378881765989e-06
-2.0931440864156766e-05   4.855112358424004e-06   -5.999378881765989e-06
-2.48940703840927e-05   4.840244033904617e-06   6.13924646172267e-07
-2.48940703840927e-05   4.840244033904617e-06   6.13924646172267e-07
-2.48940703840927e-05   4.840244033904617e-06   6.13924646172267e-07
-2.48940703840927e-05   4.840244033904617e-06   6.13924646172267e-07
-2.0931440864156745e-05   4.660572255280352e-06   1.1925226048866235e-05
-2.0931440864156745e-05   4.660572255280352e-06   1.1925226048866235e-05
-2.0931440864156745e-05   4.660572255280352e-06   1.1925226048866235e-05
-2.0931440864156745e-05   4.660572255280352e-06   1.1925226048866235e-05
-3.1686203822536046e-05   4.855112358424004e-06   -5.882654819879766e-06
-3.1686203822536046e-05   4.855112358424004e-06   -5.882654819879766e-06
-3.1686203822536046e-05   4.855112358424004e-06   -5.882654819879766e-06
-3.1686203822536046e-05   4.855112358424004e-06   -5.882654819879766e-06
-3.26206173114666e-05   4.54693610952542e-06   1.4806150063413756e-05
-3.26206173114666e-05   4.54693610952542e-06   1.4806150063413756e-05
-3.26206173114666e-05   4.54693610952542e-06   1.4806150063413756e-05
-3.26206173114666e-05   4.54693610952542e-06   1.4806150063413756e-05
-2.1581863680270655e-05   4.822381427274777e-06   -3.7570398458959087e-06
-2.1581863680270655e-05   4.822381427274777e-06   -3.7570398458959087e-06
-2.1581863680270655e-05   4.822381427274777e-06   -3.7570398458959087e-06
-2.1581863680270655e-05   4.822381427274777e-06   -3.7570398458959087e-06
-2.5998808593765662e-05   4.8455783777311915e-06   3.59061683965551e-06
-2.5998808593765662e-05   4.8455783777311915e-06   3.59061683965551e-06
-2.5998808593765662e-05   4.8455783777311915e-06   3.59061683965551e-06
-2.5998808593765662e-05   4.8455783777311915e-06   3.59061683965551e-06
-2.1581863680270655e-05   4.546936109525203e-06   1.4640882872764055e-05
-2.1581863680270655e-05   4.546936109525203e-06   1.4640882872764055e-05
-2.1581863680270655e-05   4.546936109525203e-06   1.4640882872764055e-05
-2.1581863680270655e-05   4.546936109525203e-06   1.4640882872764055e-05
-3.26206173114666e-05   4.8223814272746685e-06   -3.591772655246316e-06
-3.26206173114666e-05   4.8223814272746685e-06   -3.591772655246316e-06
-3.26206173114666e-05   4.8223814272746685e-06   -3.591772655246316e-06
-3.26206173114666e-05   4.8223814272746685e-06   -3.591772655246316e-06
-3.3723771190660575e-05   3.8113002101521423e-06   1.9421382468506887e-05
-3.3723771190660575e-05   3.8113002101521423e-06   1.9421382468506887e-05
-3.3723771190660575e-05   3.8113002101521423e-06   1.9421382468506887e-05
-3.3723771190660575e-05   3.8113002101521423e-06   1.9421382468506887e-05
-2.226860999999359e-05   4.446169617594023e-06   -5.1474493736419725e-08
-2.226860999999359e-05   4.446169617594023e-06   -5.1474493736419725e-08
-2.226860999999359e-05   4.446169617594023e-06   -5.1474493736419725e-08
-2.226860999999359e-05   4.446169617594023e-06   -5.1474493736419725e-08
-2.6377578468974573e-05   4.620537360483035e-06   6.692185642165333e-06
-2.6377578468974573e-05   4.620537360483035e-06   6.692185642165333e-06
-2.6377578468974573e-05   4.620537360483035e-06   6.692185642165333e-06
-2.6377578468974573e-05   4.620537360483035e-06   6.692185642165333e-06
2.043556760012007e-05   -2.8525897460189662e-06   1.5658358773322674e-05
2.043556760012007e-05   -2.8525897460189662e-06   1.5658358773322674e-05
2.043556760012007e-05   -2.8525897460189662e-06   1.5658358773322674e-05
2.043556760012007e-05   -2.8525897460189662e-06   1.5658358773322674e-05
1.009667926416915e-05   -2.1093314767383405e-06   -1.1271668250270638e-06
1.009667926416915e-05   -2.1093314767383405e-06   -1.1271668250270638e-06
1.009667926416915e-05   -2.1093314767383405e-06   -1.1271668250270638e-06
1.009667926416915e-05   -2.1093314767383405e-06   -1.1271668250270638e-06
9.720480901529856e-06   -3.226896294904018e-06   1.3599870357635995e-05
9.720480901529856e-06   -3.226896294904018e-06   1.3599870357635995e-05
9.720480901529856e-06   -3.226896294904018e-06   1.3599870357635995e-05
9.720480901529856e-06   -3.226896294904018e-06   1.3599870357635995e-05
1.974469201957597e-05   -2.4418602240907977e-06   -3.5781698149288206e-06
1.974469201957597e-05   -2.4418602240907977e-06   -3.5781698149288206e-06
1.974469201957597e-05   -2.4418602240907977e-06   -3.5781698149288206e-06
1.974469201957597e-05   -2.4418602240907977e-06   -3.5781698149288206e-06
1.4312995473275498e-05   -2.6300700958963117e-06   5.587583685321958e-06
1.4312995473275498e-05   -2.6300700958963117e-06   5.587583685321958e-06
1.4312995473275498e-05   -2.6300700958963117e-06   5.587583685321958e-06
1.4312995473275498e-05   -2.6300700958963117e-06   5.587583685321958e-06
1.974469201957594e-05   -3.2268962949041262e-06   1.312884871514802e-05
1.974469201957594e-05   -3.2268962949041262e-06   1.312884871514802e-05
1.974469201957594e-05   -3.2268962949041262e-06   1.312884871514802e-05
1.974469201957594e-05   -3.2268962949041262e-06   1.312884871514802e-05
9.720480901529886e-06   -2.4418602240907977e-06   -3.1071481724408113e-06
9.720480901529886e-06   -2.4418602240907977e-06   -3.1071481724408113e-06
9.720480901529886e-06   -2.4418602240907977e-06   -3.1071481724408113e-06
9.720480901529886e-06   -2.4418602240907977e-06   -3.1071481724408113e-06
9.301848933695088e-06   -3.281046561461661e-06   1.2177050062417037e-05
9.301848933695088e-06   -3.281046561461661e-06   1.2177050062417037e-05
9.301848933695088e-06   -3.281046561461661e-06   1.2177050062417037e-05
9.301848933695088e-06   -3.281046561461661e-06   1.2177050062417037e-05
1.9117822118096734e-05   -2.5076552434344975e-06   -4.646940035735282e-06
1.9117822118096734e-05   -2.5076552434344975e-06   -4.646940035735282e-06
1.9117822118096734e-05   -2.5076552434344975e-06   -4.646940035735282e-06
1.9117822118096734e-05   -2.5076552434344975e-06   -4.646940035735282e-06
1.4059685948282108e-05   -2.759402171143791e-06   3.934335070581178e-06
1.4059685948282108e-05   -2.759402171143791e-06   3.934335070581178e-06
1.4059685948282108e-05   -2.759402171143791e-06   3.934335070581178e-06
1.4059685948282108e-05   -2.759402171143791e-06   3.934335070581178e-06
1.911782211809667e-05   -3.2810465614615527e-06   1.1713015271600825e-05
1.911782211809667e-05   -3.2810465614615527e-06   1.1713015271600825e-05
1.911782211809667e-05   -3.2810465614615527e-06   1.1713015271600825e-05
1.911782211809667e-05   -3.2810465614615527e-06   1.1713015271600825e-05
9.301848933695105e-06   -2.5076552434344975e-06   -4.182905244918991e-06
9.301848933695105e-06   -2.5076552434344975e-06   -4.182905244918991e-06
9.301848933695105e-06   -2.5076552434344975e-06   -4.182905244918991e-06
9.301848933695105e-06   -2.5076552434344975e-06   -4.182905244918991e-06
8.898644815454099e-06   -3.253687362724184e-06   1.0184560717544223e-05
8.898644815454099e-06   -3.253687362724184e-06   1.0184560717544223e-05
8.898644815454099e-06   -3.253687362724184e-06   1.0184560717544223e-05
8.898644815454099e-06   -3.253687362724184e-06   1.0184560717544223e-05
1.8406651557778545e-05   -2.5291112211025613e-06   -6.0968628713026e-06
1.8406651557778545e-05   -2.5291112211025613e-06   -6.0968628713026e-06
1.8406651557778545e-05   -2.5291112211025613e-06   -6.0968628713026e-06
1.8406651557778545e-05   -2.5291112211025613e-06   -6.0968628713026e-06
1.3349287239176055e-05   -2.71067290269684e-06   2.4410146686582143e-06
1.3349287239176055e-05   -2.71067290269684e-06   2.4410146686582143e-06
1.3349287239176055e-05   -2.71067290269684e-06   2.4410146686582143e-06
1.3349287239176055e-05   -2.71067290269684e-06   2.4410146686582143e-06
1.009667926416915e-05   -9.984550010310941e-07   1.6332739252858017e-05
1.009667926416915e-05   -9.984550010310941e-07   1.6332739252858017e-05
1.009667926416915e-05   -9.984550010310941e-07   1.6332739252858017e-05
1.009667926416915e-05   -9.984550010310941e-07   1.6332739252858017e-05
3.9103438342074926e-07   -4.0547868821068627e-07   5.124502393029102e-07
3.9103438342074926e-07   -4.0547868821068627e-07   5.124502393029102e-07
3.9103438342074926e-07   -4.0547868821068627e-07   5.124502393029102e-07
3.9103438342074926e-07   -4.0547868821068627e-07   5.124502393029102e-07
2.9257014066681828e-08   -1.198145057186963e-06   1.6495461521956337e-05
2.9257014066681828e-08   -1.198145057186963e-06   1.6495461521956337e-05
2.9257014066681828e-08   -1.198145057186963e-06   1.6495461521956337e-05
2.9257014066681828e-08   -1.198145057186963e-06   1.6495461521956337e-05
9.720480901529886e-06   -6.39981147738662e-07   8.523363848722933e-09
9.720480901529886e-06   -6.39981147738662e-07   8.523363848722933e-09
9.720480901529886e-06   -6.39981147738662e-07   8.523363848722933e-09
9.720480901529886e-06   -6.39981147738662e-07   8.523363848722933e-09
4.997619551773762e-06   -7.811742844599564e-07   7.964674828808346e-06
4.997619551773762e-06   -7.811742844599564e-07   7.964674828808346e-06
4.997619551773762e-06   -7.811742844599564e-07   7.964674828808346e-06
4.997619551773762e-06   -7.811742844599564e-07   7.964674828808346e-06
9.72048090152988e-06   -1.1981450571870713e-06   1.616056317628727e-05
9.72048090152988e-06   -1.1981450571870713e-06   1.616056317628727e-05
9.72048090152988e-06   -1.1981450571870713e-06   1.616056317628727e-05
9.72048090152988e-06   -1.1981450571870713e-06   1.616056317628727e-05
2.9257014066681828e-08   -6.39981147738662e-07   3.434217095177631e-07
2.9257014066681828e-08   -6.39981147738662e-07   3.434217095177631e-07
2.9257014066681828e-08   -6.39981147738662e-07   3.434217095177631e-07
2.9257014066681828e-08   -6.39981147738662e-07   3.434217095177631e-07
-3.4683481137100464e-07   -1.3270910577966883e-06   1.6238415271433685e-05
-3.4683481137100464e-07   -1.3270910577966883e-06   1.6238415271433685e-05
-3.4683481137100464e-07   -1.3270910577966883e-06   1.6238415271433685e-05
-3.4683481137100464e-07   -1.3270910577966883e-06   1.6238415271433685e-05
9.301848933695105e-06   -8.125512001784822e-07   -1.514482182475574e-07
9.301848933695105e-06   -8.125512001784822e-07   -1.514482182475574e-07
9.301848933695105e-06   -8.125512001784822e-07   -1.514482182475574e-07
9.301848933695105e-06   -8.125512001784822e-07   -1.514482182475574e-07
4.5808230594643385e-06   -9.032969070501759e-07   7.771375662927093e-06
4.5808230594643385e-06   -9.032969070501759e-07   7.771375662927093e-06
4.5808230594643385e-06   -9.032969070501759e-07   7.771375662927093e-06
4.5808230594643385e-06   -9.032969070501759e-07   7.771375662927093e-06
9.301848933695088e-06   -1.3270910577966883e-06   1.592969135686274e-05
9.301848933695088e-06   -1.3270910577966883e-06   1.592969135686274e-05
9.301848933695088e-06   -1.3270910577966883e-06   1.592969135686274e-05
9.301848933695088e-06   -1.3270910577966883e-06   1.592969135686274e-05
-3.4683481137100464e-07   -8.125512001783738e-07   1.5727569632349638e-07
-3.4683481137100464e-07   -8.125512001783738e-07   1.5727569632349638e-07
-3.4683481137100464e-07   -8.125512001783738e-07   1.5727569632349638e-07
-3.4683481137100464e-07   -8.125512001783738e-07   1.5727569632349638e-07
-7.383907136952015e-07   -1.3794211416309288e-06   1.6354232632736533e-05
-7.383907136952015e-07   -1.3794211416309288e-06   1.6354232632736533e-05
-7.383907136952015e-07   -1.3794211416309288e-06   1.6354232632736533e-05
-7.383907136952015e-07   -1.3794211416309288e-06   1.6354232632736533e-05
8.898644815454123e-06   -9.46723640696018e-07   3.288825026008367e-08
8.898644815454123e-06   -9.46723640696018e-07   3.288825026008367e-08
8.898644815454123e-06   -9.46723640696018e-07   3.288825026008367e-08
8.898644815454123e-06   -9.46723640696018e-07   3.288825026008367e-08
4.2700065184562745e-06   -9.669089488637981e-07   7.759396596824153e-06
4.2700065184562745e-06   -9.669089488637981e-07   7.759396596824153e-06
4.2700065184562745e-06   -9.669089488637981e-07   7.759396596824153e-06
4.2700065184562745e-06   -9.669089488637981e-07   7.759396596824153e-06
3.9103438342074926e-07   9.048829537374988e-07   1.6844108782765256e-05
3.9103438342074926e-07   9.048829537374988e-07   1.6844108782765256e-05
3.9103438342074926e-07   9.048829537374988e-07   1.6844108782765256e-05
3.9103438342074926e-07   9.048829537374988e-07   1.6844108782765256e-05
-9.035549911178006e-06   1.300330610459451e-06   1.3704035524671546e-06
-9.035549911178006e-06   1.300330610459451e-06   1.3704035524671546e-06
-9.035549911178006e-06   1.300330610459451e-06   1.3704035524671546e-06
-9.035549911178006e-06   1.300330610459451e-06   1.3704035524671546e-06
-9.413925310272373e-06   7.546947342290753e-07   1.7071347930762014e-05
-9.413925310272373e-06   7.546947342290753e-07   1.7071347930762014e-05
-9.413925310272373e-06   7.546947342290753e-07   1.7071347930762014e-05
-9.413925310272373e-06   7.546947342290753e-07   1.7071347930762014e-05
2.9257014066681828e-08   1.1070762591973904e-06   1.1212818085492253e-06
2.9257014066681828e-08   1.1070762591973904e-06   1.1212818085492253e-06
2.9257014066681828e-08   1.1070762591973904e-06   1.1212818085492253e-06
2.9257014066681828e-08   1.1070762591973904e-06   1.1212818085492253e-06
-4.514131925287092e-06   1.026617194706367e-06   8.741872146166853e-06
-4.514131925287092e-06   1.026617194706367e-06   8.741872146166853e-06
-4.514131925287092e-06   1.026617194706367e-06   8.741872146166853e-06
-4.514131925287092e-06   1.026617194706367e-06   8.741872146166853e-06
2.9257014066681828e-08   7.546947342290753e-07   1.685991901578094e-05
2.9257014066681828e-08   7.546947342290753e-07   1.685991901578094e-05
2.9257014066681828e-08   7.546947342290753e-07   1.685991901578094e-05
2.9257014066681828e-08   7.546947342290753e-07   1.685991901578094e-05
-9.413925310272373e-06   1.1070762591973904e-06   1.3327107235302604e-06
-9.413925310272373e-06   1.1070762591973904e-06   1.3327107235302604e-06
-9.413925310272373e-06   1.1070762591973904e-06   1.3327107235302604e-06
-9.413925310272373e-06   1.1070762591973904e-06   1.3327107235302604e-06
-9.812980802441346e-06   6.149082965953984e-07   1.7227508894584976e-05
-9.812980802441346e-06   6.149082965953984e-07   1.7227508894584976e-05
-9.812980802441346e-06   6.149082965953984e-07   1.7227508894584976e-05
-9.812980802441346e-06   6.149082965953984e-07   1.7227508894584976e-05
-3.4683481137100464e-07   9.195115234413844e-07   1.2678369733602881e-06
-3.4683481137100464e-07   9.195115234413844e-07   1.2678369733602881e-06
-3.4683481137100464e-07   9.195115234413844e-07   1.2678369733602881e-06
-3.4683481137100464e-07   9.195115234413844e-07   1.2678369733602881e-06
-4.865299621836685e-06   9.173423245526207e-07   8.799913176802928e-06
-4.865299621836685e-06   9.173423245526207e-07   8.799913176802928e-06
-4.865299621836685e-06   9.173423245526207e-07   8.799913176802928e-06
-4.865299621836685e-06   9.173423245526207e-07   8.799913176802928e-06
-3.4683481137100464e-07   6.149082965953984e-07   1.7044746958477515e-05
-3.4683481137100464e-07   6.149082965953984e-07   1.7044746958477515e-05
-3.4683481137100464e-07   6.149082965953984e-07   1.7044746958477515e-05
-3.4683481137100464e-07   6.149082965953984e-07   1.7044746958477515e-05
-9.812980802441366e-06   9.195115234413844e-07   1.4505989094678175e-06
-9.812980802441366e-06   9.195115234413844e-07   1.4505989094678175e-06
-9.812980802441366e-06   9.195115234413844e-07   1.4505989094678175e-06
-9.812980802441366e-06   9.195115234413844e-07   1.4505989094678175e-06
-1.0224487981749724e-05   5.148793547153077e-07   1.747662646894453e-05
-1.0224487981749724e-05   5.148793547153077e-07   1.747662646894453e-05
-1.0224487981749724e-05   5.148793547153077e-07   1.747662646894453e-05
-1.0224487981749724e-05   5.148793547153077e-07   1.747662646894453e-05
-7.383907136952015e-07   7.5267474803221e-07   1.5237871195300826e-06
-7.383907136952015e-07   7.5267474803221e-07   1.5237871195300826e-06
-7.383907136952015e-07   7.5267474803221e-07   1.5237871195300826e-06
-7.383907136952015e-07   7.5267474803221e-07   1.5237871195300826e-06
-5.245368514151823e-06   8.128687443545489e-07   8.999300389164782e-06
-5.245368514151823e-06   8.128687443545489e-07   8.999300389164782e-06
-5.245368514151823e-06   8.128687443545489e-07   8.999300389164782e-06
-5.245368514151823e-06   8.128687443545489e-07   8.999300389164782e-06
-9.035549911178033e-06   2.9249698259993084e-06   1.4725062356390388e-05
-9.035549911178033e-06   2.9249698259993084e-06   1.4725062356390388e-05
-9.035549911178033e-06   2.9249698259993084e-06   1.4725062356390388e-05
-9.035549911178033e-06   2.9249698259993084e-06   1.4725062356390388e-05
-1.8184445235630103e-05   2.962440163734796e-06   -5.006143150550007e-07
-1.8184445235630103e-05   2.962440163734796e-06   -5.006143150550007e-07
-1.8184445235630103e-05   2.962440163734796e-06   -5.006143150550007e-07
-1.8184445235630103e-05   2.962440163734796e-06   -5.006143150550007e-07
-1.862346823130563e-05   2.7758782634230332e-06   1.4982223341976071e-05
-1.862346823130563e-05   2.7758782634230332e-06   1.4982223341976071e-05
-1.862346823130563e-05   2.7758782634230332e-06   1.4982223341976071e-05
-1.862346823130563e-05   2.7758782634230332e-06   1.4982223341976071e-05
-9.413925310272387e-06   2.77956986511512e-06   -3.692298207612132e-07
-9.413925310272387e-06   2.77956986511512e-06   -3.692298207612132e-07
-9.413925310272387e-06   2.77956986511512e-06   -3.692298207612132e-07
-9.413925310272387e-06   2.77956986511512e-06   -3.692298207612132e-07
-1.3752702891921025e-05   2.8513743679191555e-06   6.81898344697063e-06
-1.3752702891921025e-05   2.8513743679191555e-06   6.81898344697063e-06
-1.3752702891921025e-05   2.8513743679191555e-06   6.81898344697063e-06
-1.3752702891921025e-05   2.8513743679191555e-06   6.81898344697063e-06
-9.413925310272387e-06   2.7758782634230332e-06   1.4980008380960797e-05
-9.413925310272387e-06   2.7758782634230332e-06   1.4980008380960797e-05
-9.413925310272387e-06   2.7758782634230332e-06   1.4980008380960797e-05
-9.413925310272387e-06   2.7758782634230332e-06   1.4980008380960797e-05
-1.8623468231305604e-05   2.7795698651150117e-06   -3.6701485974595296e-07
-1.8623468231305604e-05   2.7795698651150117e-06   -3.6701485974595296e-07
-1.8623468231305604e-05   2.7795698651150117e-06   -3.6701485974595296e-07
-1.8623468231305604e-05   2.7795698651150117e-06   -3.6701485974595296e-07
-1.9109115413856053e-05   2.6366364846412303e-06   1.5679225500209973e-05
-1.9109115413856053e-05   2.6366364846412303e-06   1.5679225500209973e-05
-1.9109115413856053e-05   2.6366364846412303e-06   1.5679225500209973e-05
-1.9109115413856053e-05   2.6366364846412303e-06   1.5679225500209973e-05
-9.812980802441366e-06   2.609544891327793e-06   2.0192277050676874e-07
-9.812980802441366e-06   2.609544891327793e-06   2.0192277050676874e-07
-9.812980802441366e-06   2.609544891327793e-06   2.0192277050676874e-07
-9.812980802441366e-06   2.609544891327793e-06   2.0192277050676874e-07
-1.406716475628937e-05   2.749061624031748e-06   7.2085193206311246e-06
-1.406716475628937e-05   2.749061624031748e-06   7.2085193206311246e-06
-1.406716475628937e-05   2.749061624031748e-06   7.2085193206311246e-06
-1.406716475628937e-05   2.749061624031748e-06   7.2085193206311246e-06
-9.812980802441366e-06   2.6366364846412303e-06   1.569548045619797e-05
-9.812980802441366e-06   2.6366364846412303e-06   1.569548045619797e-05
-9.812980802441366e-06   2.6366364846412303e-06   1.569548045619797e-05
-9.812980802441366e-06   2.6366364846412303e-06   1.569548045619797e-05
-1.9109115413856026e-05   2.6095448913279013e-06   1.8566781451878492e-07
-1.9109115413856026e-05   2.6095448913279013e-06   1.8566781451878492e-07
-1.9109115413856026e-05   2.6095448913279013e-06   1.8566781451878492e-07
-1.9109115413856026e-05   2.6095448913279013e-06   1.8566781451878492e-07
-1.957140326324576e-05   2.4479069184315605e-06   1.6175863917680558e-05
-1.957140326324576e-05   2.4479069184315605e-06   1.6175863917680558e-05
-1.957140326324576e-05   2.4479069184315605e-06   1.6175863917680558e-05
-1.957140326324576e-05   2.4479069184315605e-06   1.6175863917680558e-05
-1.0224487981749758e-05   2.4005989154954896e-06   6.260565836155231e-07
-1.0224487981749758e-05   2.4005989154954896e-06   6.260565836155231e-07
-1.0224487981749758e-05   2.4005989154954896e-06   6.260565836155231e-07
-1.0224487981749758e-05   2.4005989154954896e-06   6.260565836155231e-07
-1.4574003943769542e-05   2.6142910053446712e-06   7.747034599739664e-06
-1.4574003943769542e-05   2.6142910053446712e-06   7.747034599739664e-06
-1.4574003943769542e-05   2.6142910053446712e-06   7.747034599739664e-06
-1.4574003943769542e-05   2.6142910053446712e-06   7.747034599739664e-06
-1.8184445235630063e-05   4.7570124806021455e-06   7.099316179877413e-06
-1.8184445235630063e-05   4.7570124806021455e-06   7.099316179877413e-06
-1.8184445235630063e-05   4.7570124806021455e-06   7.099316179877413e-06
-1.8184445235630063e-05   4.7570124806021455e-06   7.099316179877413e-06
-2.6911696006126092e-05   4.281575570490217e-06   -7.731363917016392e-06
-2.6911696006126092e-05   4.281575570490217e-06   -7.731363917016392e-06
-2.6911696006126092e-05   4.281575570490217e-06   -7.731363917016392e-06
-2.6911696006126092e-05   4.281575570490217e-06   -7.731363917016392e-06
-2.760345849539852e-05   4.8551123584238956e-06   9.89175384295696e-06
-2.760345849539852e-05   4.8551123584238956e-06   9.89175384295696e-06
-2.760345849539852e-05   4.8551123584238956e-06   9.89175384295696e-06
-2.760345849539852e-05   4.8551123584238956e-06   9.89175384295696e-06
-1.862346823130563e-05   4.3322553031290185e-06   -4.761182364020983e-06
-1.862346823130563e-05   4.3322553031290185e-06   -4.761182364020983e-06
-1.862346823130563e-05   4.3322553031290185e-06   -4.761182364020983e-06
-1.862346823130563e-05   4.3322553031290185e-06   -4.761182364020983e-06
-2.1955703752199876e-05   4.526849046205877e-06   6.757872582900551e-07
-2.1955703752199876e-05   4.526849046205877e-06   6.757872582900551e-07
-2.1955703752199876e-05   4.526849046205877e-06   6.757872582900551e-07
-2.1955703752199876e-05   4.526849046205877e-06   6.757872582900551e-07
-1.8623468231305577e-05   4.855112358424004e-06   1.0205468076133952e-05
-1.8623468231305577e-05   4.855112358424004e-06   1.0205468076133952e-05
-1.8623468231305577e-05   4.855112358424004e-06   1.0205468076133952e-05
-1.8623468231305577e-05   4.855112358424004e-06   1.0205468076133952e-05
-2.7603458495398616e-05   4.3322553031290185e-06   -5.074896597198001e-06
-2.7603458495398616e-05   4.3322553031290185e-06   -5.074896597198001e-06
-2.7603458495398616e-05   4.3322553031290185e-06   -5.074896597198001e-06
-2.7603458495398616e-05   4.3322553031290185e-06   -5.074896597198001e-06
-2.8277546111132526e-05   4.822381427274777e-06   1.2050236634255263e-05
-2.8277546111132526e-05   4.822381427274777e-06   1.2050236634255263e-05
-2.8277546111132526e-05   4.822381427274777e-06   1.2050236634255263e-05
-2.8277546111132526e-05   4.822381427274777e-06   1.2050236634255263e-05
-1.9109115413856053e-05   4.2860501389605215e-06   -2.9086824215503193e-06
-1.9109115413856053e-05   4.2860501389605215e-06   -2.9086824215503193e-06
-1.9109115413856053e-05   4.2860501389605215e-06   -2.9086824215503193e-06
-1.9109115413856053e-05   4.2860501389605215e-06   -2.9086824215503193e-06
-2.2815282013581356e-05   4.611539697845727e-06   3.072968175994278e-06
-2.2815282013581356e-05   4.611539697845727e-06   3.072968175994278e-06
-2.2815282013581356e-05   4.611539697845727e-06   3.072968175994278e-06
-2.2815282013581356e-05   4.611539697845727e-06   3.072968175994278e-06
-1.9109115413856053e-05   4.822381427274777e-06   1.2372035407243946e-05
-1.9109115413856053e-05   4.822381427274777e-06   1.2372035407243946e-05
-1.9109115413856053e-05   4.822381427274777e-06   1.2372035407243946e-05
-1.9109115413856053e-05   4.822381427274777e-06   1.2372035407243946e-05
-2.8277546111132607e-05   4.2860501389605215e-06   -3.2304811945389755e-06
-2.8277546111132607e-05   4.2860501389605215e-06   -3.2304811945389755e-06
-2.8277546111132607e-05   4.2860501389605215e-06   -3.2304811945389755e-06
-2.8277546111132607e-05   4.2860501389605215e-06   -3.2304811945389755e-06
-2.906340764160835e-05   4.446169617593914e-06   1.5739383908211068e-05
-2.906340764160835e-05   4.446169617593914e-06   1.5739383908211068e-05
-2.906340764160835e-05   4.446169617593914e-06   1.5739383908211068e-05
-2.906340764160835e-05   4.446169617593914e-06   1.5739383908211068e-05
-1.957140326324576e-05   3.959313658523844e-06   2.1149018638206033e-07
-1.957140326324576e-05   3.959313658523844e-06   2.1149018638206033e-07
-1.957140326324576e-05   3.959313658523844e-06   2.1149018638206033e-07
-1.957140326324576e-05   3.959313658523844e-06   2.1149018638206033e-07
-2.301922634097664e-05   4.476412643364142e-06   5.647602591696385e-06
-2.301922634097664e-05   4.476412643364142e-06   5.647602591696385e-06
-2.301922634097664e-05   4.476412643364142e-06   5.647602591696385e-06
-2.301922634097664e-05   4.476412643364142e-06   5.647602591696385e-06
1.564096147662799e-05   -2.1093314767383405e-06   1.3165083616375963e-05
1.564096147662799e-05   -2.1093314767383405e-06   1.3165083616375963e-05
1.564096147662799e-05   -2.1093314767383405e-06   1.3165083616375963e-05
1.564096147662799e-05   -2.1093314767383405e-06   1.3165083616375963e-05
7.351966688413502e-06   -1.409725380318379e-06   -2.3014403946290934e-07
7.351966688413502e-06   -1.409725380318379e-06   -2.3014403946290934e-07
7.351966688413502e-06   -1.409725380318379e-06   -2.3014403946290934e-07
7.351966688413502e-06   -1.409725380318379e-06   -2.3014403946290934e-07
7.014894031526549e-06   -2.4418602240907977e-06   1.1554113893631171e-05
7.014894031526549e-06   -2.4418602240907977e-06   1.1554113893631171e-05
7.014894031526549e-06   -2.4418602240907977e-06   1.1554113893631171e-05
7.014894031526549e-06   -2.4418602240907977e-06   1.1554113893631171e-05
1.4987916412341298e-05   -1.7052874789160637e-06   -2.176200388164728e-06
1.4987916412341298e-05   -1.7052874789160637e-06   -2.176200388164728e-06
1.4987916412341298e-05   -1.7052874789160637e-06   -2.176200388164728e-06
1.4987916412341298e-05   -1.7052874789160637e-06   -2.176200388164728e-06
1.072023758548024e-05   -1.9300423732656257e-06   5.071450593213342e-06
1.072023758548024e-05   -1.9300423732656257e-06   5.071450593213342e-06
1.072023758548024e-05   -1.9300423732656257e-06   5.071450593213342e-06
1.072023758548024e-05   -1.9300423732656257e-06   5.071450593213342e-06
1.4987916412341298e-05   -2.4418602240907977e-06   1.1112170246526591e-05
1.4987916412341298e-05   -2.4418602240907977e-06   1.1112170246526591e-05
1.4987916412341298e-05   -2.4418602240907977e-06   1.1112170246526591e-05
1.4987916412341298e-05   -2.4418602240907977e-06   1.1112170246526591e-05
7.014894031526563e-06   -1.7052874789160637e-06   -1.7342567410600328e-06
7.014894031526563e-06   -1.7052874789160637e-06   -1.7342567410600328e-06
7.014894031526563e-06   -1.7052874789160637e-06   -1.7342567410600328e-06
7.014894031526563e-06   -1.7052874789160637e-06   -1.7342567410600328e-06
6.6419958874020985e-06   -2.5076552434344975e-06   1.042313724621837e-05
6.6419958874020985e-06   -2.5076552434344975e-06   1.042313724621837e-05
6.6419958874020985e-06   -2.5076552434344975e-06   1.042313724621837e-05
6.6419958874020985e-06   -2.5076552434344975e-06   1.042313724621837e-05
1.4414509730679149e-05   -1.7833920719359997e-06   -2.9656103954758323e-06
1.4414509730679149e-05   -1.7833920719359997e-06   -2.9656103954758323e-06
1.4414509730679149e-05   -1.7833920719359997e-06   -2.9656103954758323e-06
1.4414509730679149e-05   -1.7833920719359997e-06   -2.9656103954758323e-06
1.0455490588340508e-05   -2.0504364519880174e-06   3.7929814697866483e-06
1.0455490588340508e-05   -2.0504364519880174e-06   3.7929814697866483e-06
1.0455490588340508e-05   -2.0504364519880174e-06   3.7929814697866483e-06
1.0455490588340508e-05   -2.0504364519880174e-06   3.7929814697866483e-06
1.4414509730679123e-05   -2.5076552434344975e-06   9.988579343319249e-06
1.4414509730679123e-05   -2.5076552434344975e-06   9.988579343319249e-06
1.4414509730679123e-05   -2.5076552434344975e-06   9.988579343319249e-06
1.4414509730679123e-05   -2.5076552434344975e-06   9.988579343319249e-06
6.641995887402109e-06   -1.7833920719359997e-06   -2.5310524925767526e-06
6.641995887402109e-06   -1.7833920719359997e-06   -2.5310524925767526e-06
6.641995887402109e-06   -1.7833920719359997e-06   -2.5310524925767526e-06
6.641995887402109e-06   -1.7833920719359997e-06   -2.5310524925767526e-06
6.2971941147168585e-06   -2.5291112211025613e-06   8.883403483929972e-06
6.2971941147168585e-06   -2.5291112211025613e-06   8.883403483929972e-06
6.2971941147168585e-06   -2.5291112211025613e-06   8.883403483929972e-06
6.2971941147168585e-06   -2.5291112211025613e-06   8.883403483929972e-06
1.3772264402339928e-05   -1.852421073432085e-06   -3.9810610840439455e-06
1.3772264402339928e-05   -1.852421073432085e-06   -3.9810610840439455e-06
1.3772264402339928e-05   -1.852421073432085e-06   -3.9810610840439455e-06
1.3772264402339928e-05   -1.852421073432085e-06   -3.9810610840439455e-06
9.850888916137244e-06   -2.036688096868078e-06   2.665124940355617e-06
9.850888916137244e-06   -2.036688096868078e-06   2.665124940355617e-06
9.850888916137244e-06   -2.036688096868078e-06   2.665124940355617e-06
9.850888916137244e-06   -2.036688096868078e-06   2.665124940355617e-06
7.351966688413475e-06   -4.0547868821068627e-07   1.4868678550865799e-05
7.351966688413475e-06   -4.0547868821068627e-07   1.4868678550865799e-05
7.351966688413475e-06   -4.0547868821068627e-07   1.4868678550865799e-05
7.351966688413475e-06   -4.0547868821068627e-07   1.4868678550865799e-05
-4.872439463620229e-07   -1.548976322207629e-08   2.037320847899824e-06
-4.872439463620229e-07   -1.548976322207629e-08   2.037320847899824e-06
-4.872439463620229e-07   -1.548976322207629e-08   2.037320847899824e-06
-4.872439463620229e-07   -1.548976322207629e-08   2.037320847899824e-06
-8.046157216873347e-07   -6.399811477385536e-07   1.4891126047587248e-05
-8.046157216873347e-07   -6.399811477385536e-07   1.4891126047587248e-05
-8.046157216873347e-07   -6.399811477385536e-07   1.4891126047587248e-05
-8.046157216873347e-07   -6.399811477385536e-07   1.4891126047587248e-05
7.014894031526563e-06   -2.7108011829441586e-07   1.637269174564299e-06
7.014894031526563e-06   -2.7108011829441586e-07   1.637269174564299e-06
7.014894031526563e-06   -2.7108011829441586e-07   1.637269174564299e-06
7.014894031526563e-06   -2.7108011829441586e-07   1.637269174564299e-06
3.2155373926615277e-06   -3.425289743135343e-07   8.012399552950842e-06
3.2155373926615277e-06   -3.425289743135343e-07   8.012399552950842e-06
3.2155373926615277e-06   -3.425289743135343e-07   8.012399552950842e-06
3.2155373926615277e-06   -3.425289743135343e-07   8.012399552950842e-06
7.014894031526542e-06   -6.39981147738662e-07   1.4669785429920678e-05
7.014894031526542e-06   -6.39981147738662e-07   1.4669785429920678e-05
7.014894031526542e-06   -6.39981147738662e-07   1.4669785429920678e-05
7.014894031526542e-06   -6.39981147738662e-07   1.4669785429920678e-05
-8.046157216873347e-07   -2.7108011829441586e-07   1.8586097922308514e-06
-8.046157216873347e-07   -2.7108011829441586e-07   1.8586097922308514e-06
-8.046157216873347e-07   -2.7108011829441586e-07   1.8586097922308514e-06
-8.046157216873347e-07   -2.7108011829441586e-07   1.8586097922308514e-06
-1.1289347558687376e-06   -8.125512001783738e-07   1.4659451875307012e-05
-1.1289347558687376e-06   -8.125512001783738e-07   1.4659451875307012e-05
-1.1289347558687376e-06   -8.125512001783738e-07   1.4659451875307012e-05
-1.1289347558687376e-06   -8.125512001783738e-07   1.4659451875307012e-05
6.641995887402109e-06   -4.7112186281653926e-07   1.5030432007718366e-06
6.641995887402109e-06   -4.7112186281653926e-07   1.5030432007718366e-06
6.641995887402109e-06   -4.7112186281653926e-07   1.5030432007718366e-06
6.641995887402109e-06   -4.7112186281653926e-07   1.5030432007718366e-06
2.8582497234123594e-06   -4.995165960902832e-07   7.826323647386075e-06
2.8582497234123594e-06   -4.995165960902832e-07   7.826323647386075e-06
2.8582497234123594e-06   -4.995165960902832e-07   7.826323647386075e-06
2.8582497234123594e-06   -4.995165960902832e-07   7.826323647386075e-06
6.6419958874020985e-06   -8.125512001784822e-07   1.4454594272889803e-05
6.6419958874020985e-06   -8.125512001784822e-07   1.4454594272889803e-05
6.6419958874020985e-06   -8.125512001784822e-07   1.4454594272889803e-05
6.6419958874020985e-06   -8.125512001784822e-07   1.4454594272889803e-05
-1.1289347558687376e-06   -4.7112186281653926e-07   1.7079008031889204e-06
-1.1289347558687376e-06   -4.7112186281653926e-07   1.7079008031889204e-06
-1.1289347558687376e-06   -4.7112186281653926e-07   1.7079008031889204e-06
-1.1289347558687376e-06   -4.7112186281653926e-07   1.7079008031889204e-06
-1.4551325551727425e-06   -9.46723640696018e-07   1.4753669975144318e-05
-1.4551325551727425e-06   -9.46723640696018e-07   1.4753669975144318e-05
-1.4551325551727425e-06   -9.46723640696018e-07   1.4753669975144318e-05
-1.4551325551727425e-06   -9.46723640696018e-07   1.4753669975144318e-05
6.297194114716865e-06   -6.546218829884621e-07   1.6578644707037759e-06
6.297194114716865e-06   -6.546218829884621e-07   1.6578644707037759e-06
6.297194114716865e-06   -6.546218829884621e-07   1.6578644707037759e-06
6.297194114716865e-06   -6.546218829884621e-07   1.6578644707037759e-06
2.5875331825293986e-06   -6.140229919323779e-07   7.816273356382758e-06
2.5875331825293986e-06   -6.140229919323779e-07   7.816273356382758e-06
2.5875331825293986e-06   -6.140229919323779e-07   7.816273356382758e-06
2.5875331825293986e-06   -6.140229919323779e-07   7.816273356382758e-06
-4.872439463620229e-07   1.300330610459451e-06   1.5723356624990103e-05
-4.872439463620229e-07   1.300330610459451e-06   1.5723356624990103e-05
-4.872439463620229e-07   1.300330610459451e-06   1.5723356624990103e-05
-4.872439463620229e-07   1.300330610459451e-06   1.5723356624990103e-05
-8.161791974847348e-06   1.3416284708867411e-06   2.957221960437598e-06
-8.161791974847348e-06   1.3416284708867411e-06   2.957221960437598e-06
-8.161791974847348e-06   1.3416284708867411e-06   2.957221960437598e-06
-8.161791974847348e-06   1.3416284708867411e-06   2.957221960437598e-06
-8.48135266799526e-06   1.1070762591973904e-06   1.5675926202745076e-05
-8.48135266799526e-06   1.1070762591973904e-06   1.5675926202745076e-05
-8.48135266799526e-06   1.1070762591973904e-06   1.5675926202745076e-05
-8.48135266799526e-06   1.1070762591973904e-06   1.5675926202745076e-05
-8.046157216873347e-07   1.1186430194078329e-06   2.874424569438959e-06
-8.046157216873347e-07   1.1186430194078329e-06   2.874424569438959e-06
-8.046157216873347e-07   1.1186430194078329e-06   2.874424569438959e-06
-8.046157216873347e-07   1.1186430194078329e-06   2.874424569438959e-06
-4.495283783910064e-06   1.1946932961003683e-06   8.979907840461277e-06
-4.495283783910064e-06   1.1946932961003683e-06   8.979907840461277e-06
-4.495283783910064e-06   1.1946932961003683e-06   8.979907840461277e-06
-4.495283783910064e-06   1.1946932961003683e-06   8.979907840461277e-06
-8.046157216873347e-07   1.1070762591973904e-06   1.5668986146618832e-05
-8.046157216873347e-07   1.1070762591973904e-06   1.5668986146618832e-05
-8.046157216873347e-07   1.1070762591973904e-06   1.5668986146618832e-05
-8.046157216873347e-07   1.1070762591973904e-06   1.5668986146618832e-05
-8.48135266799526e-06   1.1186430194078329e-06   2.8813646255651353e-06
-8.48135266799526e-06   1.1186430194078329e-06   2.8813646255651353e-06
-8.48135266799526e-06   1.1186430194078329e-06   2.8813646255651353e-06
-8.48135266799526e-06   1.1186430194078329e-06   2.8813646255651353e-06
-8.808632125863699e-06   9.19511523441276e-07   1.575786897641592e-05
-8.808632125863699e-06   9.19511523441276e-07   1.575786897641592e-05
-8.808632125863699e-06   9.19511523441276e-07   1.575786897641592e-05
-8.808632125863699e-06   9.19511523441276e-07   1.575786897641592e-05
-1.1289347558687376e-06   8.99271230228333e-07   2.970517535685443e-06
-1.1289347558687376e-06   8.99271230228333e-07   2.970517535685443e-06
-1.1289347558687376e-06   8.99271230228333e-07   2.970517535685443e-06
-1.1289347558687376e-06   8.99271230228333e-07   2.970517535685443e-06
-4.7915434847905125e-06   1.045472807859136e-06   8.987144470643714e-06
-4.7915434847905125e-06   1.045472807859136e-06   8.987144470643714e-06
-4.7915434847905125e-06   1.045472807859136e-06   8.987144470643714e-06
-4.7915434847905125e-06   1.045472807859136e-06   8.987144470643714e-06
-1.1289347558687376e-06   9.195115234413844e-07   1.5770013152343818e-05
-1.1289347558687376e-06   9.195115234413844e-07   1.5770013152343818e-05
-1.1289347558687376e-06   9.195115234413844e-07   1.5770013152343818e-05
-1.1289347558687376e-06   9.195115234413844e-07   1.5770013152343818e-05
-8.808632125863699e-06   8.99271230228333e-07   2.9583733597576692e-06
-8.808632125863699e-06   8.99271230228333e-07   2.9583733597576692e-06
-8.808632125863699e-06   8.99271230228333e-07   2.9583733597576692e-06
-8.808632125863699e-06   8.99271230228333e-07   2.9583733597576692e-06
-9.135542458289794e-06   7.526747480323184e-07   1.5948082955541095e-05
-9.135542458289794e-06   7.526747480323184e-07   1.5948082955541095e-05
-9.135542458289794e-06   7.526747480323184e-07   1.5948082955541095e-05
-9.135542458289794e-06   7.526747480323184e-07   1.5948082955541095e-05
-1.4551325551727425e-06   6.912291008448869e-07   3.1842671719916856e-06
-1.4551325551727425e-06   6.912291008448869e-07   3.1842671719916856e-06
-1.4551325551727425e-06   6.912291008448869e-07   3.1842671719916856e-06
-1.4551325551727425e-06   6.912291008448869e-07   3.1842671719916856e-06
-5.101921363162822e-06   9.002700719670364e-07   9.136823935968852e-06
-5.101921363162822e-06   9.002700719670364e-07   9.136823935968852e-06
-5.101921363162822e-06   9.002700719670364e-07   9.136823935968852e-06
-5.101921363162822e-06   9.002700719670364e-07   9.136823935968852e-06
-8.161791974847335e-06   2.9624401637349043e-06   1.385463527108291e-05
-8.161791974847335e-06   2.9624401637349043e-06   1.385463527108291e-05
-8.161791974847335e-06   2.9624401637349043e-06   1.385463527108291e-05
-8.161791974847335e-06   2.9624401637349043e-06   1.385463527108291e-05
-1.5680431578517524e-05   2.6498978901226804e-06   1.1360439007986295e-06
-1.5680431578517524e-05   2.6498978901226804e-06   1.1360439007986295e-06
-1.5680431578517524e-05   2.6498978901226804e-06   1.1360439007986295e-06
-1.5680431578517524e-05   2.6498978901226804e-06   1.1360439007986295e-06
-1.6024692308633565e-05   2.77956986511512e-06   1.3768879160091564e-05
-1.6024692308633565e-05   2.77956986511512e-06   1.3768879160091564e-05
-1.6024692308633565e-05   2.77956986511512e-06   1.3768879160091564e-05
-1.6024692308633565e-05   2.77956986511512e-06   1.3768879160091564e-05
-8.481352667995273e-06   2.4377257011782855e-06   1.4017529240565663e-06
-8.481352667995273e-06   2.4377257011782855e-06   1.4017529240565663e-06
-8.481352667995273e-06   2.4377257011782855e-06   1.4017529240565663e-06
-8.481352667995273e-06   2.4377257011782855e-06   1.4017529240565663e-06
-1.2046759760710243e-05   2.670423863514789e-06   7.2044791811794846e-06
-1.2046759760710243e-05   2.670423863514789e-06   7.2044791811794846e-06
-1.2046759760710243e-05   2.670423863514789e-06   7.2044791811794846e-06
-1.2046759760710243e-05   2.670423863514789e-06   7.2044791811794846e-06
-8.48135266799526e-06   2.7795698651150117e-06   1.3973985658453643e-05
-8.48135266799526e-06   2.7795698651150117e-06   1.3973985658453643e-05
-8.48135266799526e-06   2.7795698651150117e-06   1.3973985658453643e-05
-8.48135266799526e-06   2.7795698651150117e-06   1.3973985658453643e-05
-1.6024692308633565e-05   2.4377257011782855e-06   1.196646425694406e-06
-1.6024692308633565e-05   2.4377257011782855e-06   1.196646425694406e-06
-1.6024692308633565e-05   2.4377257011782855e-06   1.196646425694406e-06
-1.6024692308633565e-05   2.4377257011782855e-06   1.196646425694406e-06
-1.640301920833444e-05   2.609544891327793e-06   1.4286712854812145e-05
-1.640301920833444e-05   2.609544891327793e-06   1.4286712854812145e-05
-1.640301920833444e-05   2.609544891327793e-06   1.4286712854812145e-05
-1.640301920833444e-05   2.609544891327793e-06   1.4286712854812145e-05
-8.808632125863712e-06   2.238744920256665e-06   1.8518810333370583e-06
-8.808632125863712e-06   2.238744920256665e-06   1.8518810333370583e-06
-8.808632125863712e-06   2.238744920256665e-06   1.8518810333370583e-06
-8.808632125863712e-06   2.238744920256665e-06   1.8518810333370583e-06
-1.22911261775807e-05   2.5355529291203657e-06   7.47795298088085e-06
-1.22911261775807e-05   2.5355529291203657e-06   7.47795298088085e-06
-1.22911261775807e-05   2.5355529291203657e-06   7.47795298088085e-06
-1.22911261775807e-05   2.5355529291203657e-06   7.47795298088085e-06
-8.808632125863699e-06   2.6095448913279013e-06   1.4509192837454886e-05
-8.808632125863699e-06   2.6095448913279013e-06   1.4509192837454886e-05
-8.808632125863699e-06   2.6095448913279013e-06   1.4509192837454886e-05
-8.808632125863699e-06   2.6095448913279013e-06   1.4509192837454886e-05
-1.640301920833444e-05   2.238744920256665e-06   1.6294010506943436e-06
-1.640301920833444e-05   2.238744920256665e-06   1.6294010506943436e-06
-1.640301920833444e-05   2.238744920256665e-06   1.6294010506943436e-06
-1.640301920833444e-05   2.238744920256665e-06   1.6294010506943436e-06
-1.674817393405715e-05   2.4005989154954896e-06   1.4670823435180007e-05
-1.674817393405715e-05   2.4005989154954896e-06   1.4670823435180007e-05
-1.674817393405715e-05   2.4005989154954896e-06   1.4670823435180007e-05
-1.674817393405715e-05   2.4005989154954896e-06   1.4670823435180007e-05
-9.135542458289808e-06   2.0058460014017645e-06   2.2199560573574683e-06
-9.135542458289808e-06   2.0058460014017645e-06   2.2199560573574683e-06
-9.135542458289808e-06   2.0058460014017645e-06   2.2199560573574683e-06
-9.135542458289808e-06   2.0058460014017645e-06   2.2199560573574683e-06
-1.268560527592704e-05   2.3819925292014894e-06   7.911039503406825e-06
-1.268560527592704e-05   2.3819925292014894e-06   7.911039503406825e-06
-1.268560527592704e-05   2.3819925292014894e-06   7.911039503406825e-06
-1.268560527592704e-05   2.3819925292014894e-06   7.911039503406825e-06
-1.5680431578517524e-05   4.281575570490217e-06   6.721622451021396e-06
-1.5680431578517524e-05   4.281575570490217e-06   6.721622451021396e-06
-1.5680431578517524e-05   4.281575570490217e-06   6.721622451021396e-06
-1.5680431578517524e-05   4.281575570490217e-06   6.721622451021396e-06
-2.2851404665736333e-05   3.6688806274982975e-06   -5.597616326805165e-06
-2.2851404665736333e-05   3.6688806274982975e-06   -5.597616326805165e-06
-2.2851404665736333e-05   3.6688806274982975e-06   -5.597616326805165e-06
-2.2851404665736333e-05   3.6688806274982975e-06   -5.597616326805165e-06
-2.3471639443570447e-05   4.3322553031290185e-06   8.968659282613677e-06
-2.3471639443570447e-05   4.3322553031290185e-06   8.968659282613677e-06
-2.3471639443570447e-05   4.3322553031290185e-06   8.968659282613677e-06
-2.3471639443570447e-05   4.3322553031290185e-06   8.968659282613677e-06
-1.6024692308633565e-05   3.655501347791059e-06   -3.0368669024116886e-06
-1.6024692308633565e-05   3.655501347791059e-06   -3.0368669024116886e-06
-1.6024692308633565e-05   3.655501347791059e-06   -3.0368669024116886e-06
-1.6024692308633565e-05   3.655501347791059e-06   -3.0368669024116886e-06
-1.8764157144528027e-05   3.924228445036635e-06   1.3676715657316837e-06
-1.8764157144528027e-05   3.924228445036635e-06   1.3676715657316837e-06
-1.8764157144528027e-05   3.924228445036635e-06   1.3676715657316837e-06
-1.8764157144528027e-05   3.924228445036635e-06   1.3676715657316837e-06
-1.602469230863355e-05   4.3322553031290185e-06   9.37471165581656e-06
-1.602469230863355e-05   4.3322553031290185e-06   9.37471165581656e-06
-1.602469230863355e-05   4.3322553031290185e-06   9.37471165581656e-06
-1.602469230863355e-05   4.3322553031290185e-06   9.37471165581656e-06
-2.3471639443570474e-05   3.655501347791059e-06   -3.4429192756145455e-06
-2.3471639443570474e-05   3.655501347791059e-06   -3.4429192756145455e-06
-2.3471639443570474e-05   3.655501347791059e-06   -3.4429192756145455e-06
-2.3471639443570474e-05   3.655501347791059e-06   -3.4429192756145455e-06
-2.4025540135480587e-05   4.286050138960413e-06   1.0770328615640457e-05
-2.4025540135480587e-05   4.286050138960413e-06   1.0770328615640457e-05
-2.4025540135480587e-05   4.286050138960413e-06   1.0770328615640457e-05
-2.4025540135480587e-05   4.286050138960413e-06   1.0770328615640457e-05
-1.640301920833444e-05   3.5826601337894497e-06   -1.5118389265007164e-06
-1.640301920833444e-05   3.5826601337894497e-06   -1.5118389265007164e-06
-1.640301920833444e-05   3.5826601337894497e-06   -1.5118389265007164e-06
-1.640301920833444e-05   3.5826601337894497e-06   -1.5118389265007164e-06
-1.9484111281011138e-05   3.9693753513265605e-06   3.3912853974389938e-06
-1.9484111281011138e-05   3.9693753513265605e-06   3.3912853974389938e-06
-1.9484111281011138e-05   3.9693753513265605e-06   3.3912853974389938e-06
-1.9484111281011138e-05   3.9693753513265605e-06   3.3912853974389938e-06
-1.640301920833444e-05   4.286050138960413e-06   1.1192362618743122e-05
-1.640301920833444e-05   4.286050138960413e-06   1.1192362618743122e-05
-1.640301920833444e-05   4.286050138960413e-06   1.1192362618743122e-05
-1.640301920833444e-05   4.286050138960413e-06   1.1192362618743122e-05
-2.402554013548064e-05   3.5826601337894497e-06   -1.9338729296032456e-06
-2.402554013548064e-05   3.5826601337894497e-06   -1.9338729296032456e-06
-2.402554013548064e-05   3.5826601337894497e-06   -1.9338729296032456e-06
-2.402554013548064e-05   3.5826601337894497e-06   -1.9338729296032456e-06
-2.466063152298565e-05   3.959313658523844e-06   1.3863480799029522e-05
-2.466063152298565e-05   3.959313658523844e-06   1.3863480799029522e-05
-2.466063152298565e-05   3.959313658523844e-06   1.3863480799029522e-05
-2.466063152298565e-05   3.959313658523844e-06   1.3863480799029522e-05
-1.674817393405715e-05   3.2573785907260427e-06   1.0972125248271704e-06
-1.674817393405715e-05   3.2573785907260427e-06   1.0972125248271704e-06
-1.674817393405715e-05   3.2573785907260427e-06   1.0972125248271704e-06
-1.674817393405715e-05   3.2573785907260427e-06   1.0972125248271704e-06
-1.9626577019447548e-05   3.83403497616864e-06   5.548557169212618e-06
-1.9626577019447548e-05   3.83403497616864e-06   5.548557169212618e-06
-1.9626577019447548e-05   3.83403497616864e-06   5.548557169212618e-06
-1.9626577019447548e-05   3.83403497616864e-06   5.548557169212618e-06
1.0896994852302527e-05   -1.4097253803182705e-06   1.079986146032807e-05
1.0896994852302527e-05   -1.4097253803182705e-06   1.079986146032807e-05
1.0896994852302527e-05   -1.4097253803182705e-06   1.079986146032807e-05
1.0896994852302527e-05   -1.4097253803182705e-06   1.079986146032807e-05
4.529173031690911e-06   -7.103119655765388e-07   6.064731414871989e-07
4.529173031690911e-06   -7.103119655765388e-07   6.064731414871989e-07
4.529173031690911e-06   -7.103119655765388e-07   6.064731414871989e-07
4.529173031690911e-06   -7.103119655765388e-07   6.064731414871989e-07
4.256539559858101e-06   -1.7052874789160637e-06   9.696035673454977e-06
4.256539559858101e-06   -1.7052874789160637e-06   9.696035673454977e-06
4.256539559858101e-06   -1.7052874789160637e-06   9.696035673454977e-06
4.256539559858101e-06   -1.7052874789160637e-06   9.696035673454977e-06
1.0314695379386004e-05   -9.765732409503392e-07   -8.381192352043866e-07
1.0314695379386004e-05   -9.765732409503392e-07   -8.381192352043866e-07
1.0314695379386004e-05   -9.765732409503392e-07   -8.381192352043866e-07
1.0314695379386004e-05   -9.765732409503392e-07   -8.381192352043866e-07
7.127063241183161e-06   -1.2281835717411777e-06   4.625567193608477e-06
7.127063241183161e-06   -1.2281835717411777e-06   4.625567193608477e-06
7.127063241183161e-06   -1.2281835717411777e-06   4.625567193608477e-06
7.127063241183161e-06   -1.2281835717411777e-06   4.625567193608477e-06
1.0314695379386024e-05   -1.7052874789161721e-06   9.258807130675445e-06
1.0314695379386024e-05   -1.7052874789161721e-06   9.258807130675445e-06
1.0314695379386024e-05   -1.7052874789161721e-06   9.258807130675445e-06
1.0314695379386024e-05   -1.7052874789161721e-06   9.258807130675445e-06
4.2565395598580874e-06   -9.765732409503392e-07   -4.008906924248814e-07
4.2565395598580874e-06   -9.765732409503392e-07   -4.008906924248814e-07
4.2565395598580874e-06   -9.765732409503392e-07   -4.008906924248814e-07
4.2565395598580874e-06   -9.765732409503392e-07   -4.008906924248814e-07
3.9493652111185295e-06   -1.7833920719359997e-06   8.878199890764455e-06
3.9493652111185295e-06   -1.7833920719359997e-06   8.878199890764455e-06
3.9493652111185295e-06   -1.7833920719359997e-06   8.878199890764455e-06
3.9493652111185295e-06   -1.7833920719359997e-06   8.878199890764455e-06
9.813839048374855e-06   -1.0672231855637752e-06   -1.3256245031528023e-06
9.813839048374855e-06   -1.0672231855637752e-06   -1.3256245031528023e-06
9.813839048374855e-06   -1.0672231855637752e-06   -1.3256245031528023e-06
9.813839048374855e-06   -1.0672231855637752e-06   -1.3256245031528023e-06
6.872819002489947e-06   -1.3414811065673177e-06   3.7406303259244187e-06
6.872819002489947e-06   -1.3414811065673177e-06   3.7406303259244187e-06
6.872819002489947e-06   -1.3414811065673177e-06   3.7406303259244187e-06
6.872819002489947e-06   -1.3414811065673177e-06   3.7406303259244187e-06
9.813839048374876e-06   -1.7833920719359997e-06   8.448498558941077e-06
9.813839048374876e-06   -1.7833920719359997e-06   8.448498558941077e-06
9.813839048374876e-06   -1.7833920719359997e-06   8.448498558941077e-06
9.813839048374876e-06   -1.7833920719359997e-06   8.448498558941077e-06
3.949365211118523e-06   -1.0672231855637752e-06   -8.959231713294175e-07
3.949365211118523e-06   -1.0672231855637752e-06   -8.959231713294175e-07
3.949365211118523e-06   -1.0672231855637752e-06   -8.959231713294175e-07
3.949365211118523e-06   -1.0672231855637752e-06   -8.959231713294175e-07
3.6736061278683983e-06   -1.852421073432085e-06   7.808762546393532e-06
3.6736061278683983e-06   -1.852421073432085e-06   7.808762546393532e-06
3.6736061278683983e-06   -1.852421073432085e-06   7.808762546393532e-06
3.6736061278683983e-06   -1.852421073432085e-06   7.808762546393532e-06
9.244075892114731e-06   -1.1838088907486317e-06   -1.87652103696039e-06
9.244075892114731e-06   -1.1838088907486317e-06   -1.87652103696039e-06
9.244075892114731e-06   -1.1838088907486317e-06   -1.87652103696039e-06
9.244075892114731e-06   -1.1838088907486317e-06   -1.87652103696039e-06
6.387481359387877e-06   -1.3614609477688487e-06   2.9910610851297513e-06
6.387481359387877e-06   -1.3614609477688487e-06   2.9910610851297513e-06
6.387481359387877e-06   -1.3614609477688487e-06   2.9910610851297513e-06
6.387481359387877e-06   -1.3614609477688487e-06   2.9910610851297513e-06
4.529173031690926e-06   -1.548976322207629e-08   1.3252981041542709e-05
4.529173031690926e-06   -1.548976322207629e-08   1.3252981041542709e-05
4.529173031690926e-06   -1.548976322207629e-08   1.3252981041542709e-05
4.529173031690926e-06   -1.548976322207629e-08   1.3252981041542709e-05
-1.4373382444600626e-06   3.423627498152842e-07   3.5235070891134973e-06
-1.4373382444600626e-06   3.423627498152842e-07   3.5235070891134973e-06
-1.4373382444600626e-06   3.423627498152842e-07   3.5235070891134973e-06
-1.4373382444600626e-06   3.423627498152842e-07   3.5235070891134973e-06
-1.6882729762043185e-06   -2.7108011829441586e-07   1.3274969250249094e-05
-1.6882729762043185e-06   -2.7108011829441586e-07   1.3274969250249094e-05
-1.6882729762043185e-06   -2.7108011829441586e-07   1.3274969250249094e-05
-1.6882729762043185e-06   -2.7108011829441586e-07   1.3274969250249094e-05
4.2565395598580874e-06   7.45993169889124e-08   3.1595406956418967e-06
4.2565395598580874e-06   7.45993169889124e-08   3.1595406956418967e-06
4.2565395598580874e-06   7.45993169889124e-08   3.1595406956418967e-06
4.2565395598580874e-06   7.45993169889124e-08   3.1595406956418967e-06
1.3721623778225642e-06   9.17092738848737e-09   8.006093032794892e-06
1.3721623778225642e-06   9.17092738848737e-09   8.006093032794892e-06
1.3721623778225642e-06   9.17092738848737e-09   8.006093032794892e-06
1.3721623778225642e-06   9.17092738848737e-09   8.006093032794892e-06
4.256539559858098e-06   -2.7108011829430744e-07   1.306756158907913e-05
4.256539559858098e-06   -2.7108011829430744e-07   1.306756158907913e-05
4.256539559858098e-06   -2.7108011829430744e-07   1.306756158907913e-05
4.256539559858098e-06   -2.7108011829430744e-07   1.306756158907913e-05
-1.6882729762043253e-06   7.45993169889124e-08   3.36694835681179e-06
-1.6882729762043253e-06   7.45993169889124e-08   3.36694835681179e-06
-1.6882729762043253e-06   7.45993169889124e-08   3.36694835681179e-06
-1.6882729762043253e-06   7.45993169889124e-08   3.36694835681179e-06
-1.9450527785647717e-06   -4.7112186281653926e-07   1.3109073772546312e-05
-1.9450527785647717e-06   -4.7112186281653926e-07   1.3109073772546312e-05
-1.9450527785647717e-06   -4.7112186281653926e-07   1.3109073772546312e-05
-1.9450527785647717e-06   -4.7112186281653926e-07   1.3109073772546312e-05
3.949365211118523e-06   -1.4315821542760458e-07   3.088265601307483e-06
3.949365211118523e-06   -1.4315821542760458e-07   3.088265601307483e-06
3.949365211118523e-06   -1.4315821542760458e-07   3.088265601307483e-06
3.949365211118523e-06   -1.4315821542760458e-07   3.088265601307483e-06
1.0953030312016387e-06   -1.686176169850501e-07   7.86031154210396e-06
1.0953030312016387e-06   -1.686176169850501e-07   7.86031154210396e-06
1.0953030312016387e-06   -1.686176169850501e-07   7.86031154210396e-06
1.0953030312016387e-06   -1.686176169850501e-07   7.86031154210396e-06
3.949365211118536e-06   -4.7112186281653926e-07   1.2912295584112919e-05
3.949365211118536e-06   -4.7112186281653926e-07   1.2912295584112919e-05
3.949365211118536e-06   -4.7112186281653926e-07   1.2912295584112919e-05
3.949365211118536e-06   -4.7112186281653926e-07   1.2912295584112919e-05
-1.9450527785647853e-06   -1.4315821542760458e-07   3.285043789740883e-06
-1.9450527785647853e-06   -1.4315821542760458e-07   3.285043789740883e-06
-1.9450527785647853e-06   -1.4315821542760458e-07   3.285043789740883e-06
-1.9450527785647853e-06   -1.4315821542760458e-07   3.285043789740883e-06
-2.1998404507340833e-06   -6.546218829884621e-07   1.322082161192941e-05
-2.1998404507340833e-06   -6.546218829884621e-07   1.322082161192941e-05
-2.1998404507340833e-06   -6.546218829884621e-07   1.322082161192941e-05
-2.1998404507340833e-06   -6.546218829884621e-07   1.322082161192941e-05
3.673606127868383e-06   -3.560425506711788e-07   3.2525963815349753e-06
3.673606127868383e-06   -3.560425506711788e-07   3.2525963815349753e-06
3.673606127868383e-06   -3.560425506711788e-07   3.2525963815349753e-06
3.673606127868383e-06   -3.560425506711788e-07   3.2525963815349753e-06
8.781658832975579e-07   -3.1522102501466923e-07   7.887170540425736e-06
8.781658832975579e-07   -3.1522102501466923e-07   7.887170540425736e-06
8.781658832975579e-07   -3.1522102501466923e-07   7.887170540425736e-06
8.781658832975579e-07   -3.1522102501466923e-07   7.887170540425736e-06
-1.4373382444600558e-06   1.3416284708867411e-06   1.4362814945646524e-05
-1.4373382444600558e-06   1.3416284708867411e-06   1.4362814945646524e-05
-1.4373382444600558e-06   1.3416284708867411e-06   1.4362814945646524e-05
-1.4373382444600558e-06   1.3416284708867411e-06   1.4362814945646524e-05
-7.3021733636755666e-06   1.324859954805204e-06   4.578028637305075e-06
-7.3021733636755666e-06   1.324859954805204e-06   4.578028637305075e-06
-7.3021733636755666e-06   1.324859954805204e-06   4.578028637305075e-06
-7.3021733636755666e-06   1.324859954805204e-06   4.578028637305075e-06
-7.550214657194655e-06   1.1186430194078329e-06   1.4269423636589589e-05
-7.550214657194655e-06   1.1186430194078329e-06   1.4269423636589589e-05
-7.550214657194655e-06   1.1186430194078329e-06   1.4269423636589589e-05
-7.550214657194655e-06   1.1186430194078329e-06   1.4269423636589589e-05
-1.6882729762043253e-06   1.0830423679615998e-06   4.520881225806753e-06
-1.6882729762043253e-06   1.0830423679615998e-06   4.520881225806753e-06
-1.6882729762043253e-06   1.0830423679615998e-06   4.520881225806753e-06
-1.6882729762043253e-06   1.0830423679615998e-06   4.520881225806753e-06
-4.505856386470078e-06   1.1858650310522236e-06   9.155159978395605e-06
-4.505856386470078e-06   1.1858650310522236e-06   9.155159978395605e-06
-4.505856386470078e-06   1.1858650310522236e-06   9.155159978395605e-06
-4.505856386470078e-06   1.1858650310522236e-06   9.155159978395605e-06
-1.6882729762043185e-06   1.1186430194078329e-06   1.4290784027457242e-05
-1.6882729762043185e-06   1.1186430194078329e-06   1.4290784027457242e-05
-1.6882729762043185e-06   1.1186430194078329e-06   1.4290784027457242e-05
-1.6882729762043185e-06   1.1186430194078329e-06   1.4290784027457242e-05
-7.550214657194655e-06   1.0830423679617082e-06   4.499520834939019e-06
-7.550214657194655e-06   1.0830423679617082e-06   4.499520834939019e-06
-7.550214657194655e-06   1.0830423679617082e-06   4.499520834939019e-06
-7.550214657194655e-06   1.0830423679617082e-06   4.499520834939019e-06
-7.804030401987604e-06   8.99271230228333e-07   1.4338555384225504e-05
-7.804030401987604e-06   8.99271230228333e-07   1.4338555384225504e-05
-7.804030401987604e-06   8.99271230228333e-07   1.4338555384225504e-05
-7.804030401987604e-06   8.99271230228333e-07   1.4338555384225504e-05
-1.9450527785647717e-06   8.440460288662186e-07   4.606727799338133e-06
-1.9450527785647717e-06   8.440460288662186e-07   4.606727799338133e-06
-1.9450527785647717e-06   8.440460288662186e-07   4.606727799338133e-06
-1.9450527785647717e-06   8.440460288662186e-07   4.606727799338133e-06
-4.7325514619544615e-06   1.0109881800658433e-06   9.152393647601559e-06
-4.7325514619544615e-06   1.0109881800658433e-06   9.152393647601559e-06
-4.7325514619544615e-06   1.0109881800658433e-06   9.152393647601559e-06
-4.7325514619544615e-06   1.0109881800658433e-06   9.152393647601559e-06
-1.9450527785647785e-06   8.99271230228333e-07   1.4371690505042794e-05
-1.9450527785647785e-06   8.99271230228333e-07   1.4371690505042794e-05
-1.9450527785647785e-06   8.99271230228333e-07   1.4371690505042794e-05
-1.9450527785647785e-06   8.99271230228333e-07   1.4371690505042794e-05
-7.804030401987604e-06   8.440460288662186e-07   4.5735926785209105e-06
-7.804030401987604e-06   8.440460288662186e-07   4.5735926785209105e-06
-7.804030401987604e-06   8.440460288662186e-07   4.5735926785209105e-06
-7.804030401987604e-06   8.440460288662186e-07   4.5735926785209105e-06
-8.05470057378937e-06   6.912291008448869e-07   1.4525729276467056e-05
-8.05470057378937e-06   6.912291008448869e-07   1.4525729276467056e-05
-8.05470057378937e-06   6.912291008448869e-07   1.4525729276467056e-05
-8.05470057378937e-06   6.912291008448869e-07   1.4525729276467056e-05
-2.1998404507340697e-06   6.141724639686886e-07   4.813863053500705e-06
-2.1998404507340697e-06   6.141724639686886e-07   4.813863053500705e-06
-2.1998404507340697e-06   6.141724639686886e-07   4.813863053500705e-06
-2.1998404507340697e-06   6.141724639686886e-07   4.813863053500705e-06
-4.969915698821659e-06   8.403908712918207e-07   9.29492408925276e-06
-4.969915698821659e-06   8.403908712918207e-07   9.29492408925276e-06
-4.969915698821659e-06   8.403908712918207e-07   9.29492408925276e-06
-4.969915698821659e-06   8.403908712918207e-07   9.29492408925276e-06
-7.3021733636755666e-06   2.649897890122572e-06   1.2719101140525979e-05
-7.3021733636755666e-06   2.649897890122572e-06   1.2719101140525979e-05
-7.3021733636755666e-06   2.649897890122572e-06   1.2719101140525979e-05
-7.3021733636755666e-06   2.649897890122572e-06   1.2719101140525979e-05
-1.3078366577043323e-05   2.281819720897308e-06   2.8712655500445663e-06
-1.3078366577043323e-05   2.281819720897308e-06   2.8712655500445663e-06
-1.3078366577043323e-05   2.281819720897308e-06   2.8712655500445663e-06
-1.3078366577043323e-05   2.281819720897308e-06   2.8712655500445663e-06
-1.3344996238328526e-05   2.4377257011782855e-06   1.2555156769837269e-05
-1.3344996238328526e-05   2.4377257011782855e-06   1.2555156769837269e-05
-1.3344996238328526e-05   2.4377257011782855e-06   1.2555156769837269e-05
-1.3344996238328526e-05   2.4377257011782855e-06   1.2555156769837269e-05
-7.550214657194628e-06   2.0466337591057556e-06   3.1318426331911086e-06
-7.550214657194628e-06   2.0466337591057556e-06   3.1318426331911086e-06
-7.550214657194628e-06   2.0466337591057556e-06   3.1318426331911086e-06
-7.550214657194628e-06   2.0466337591057556e-06   3.1318426331911086e-06
-1.0289452438455884e-05   2.312379368559869e-06   7.537791569620973e-06
-1.0289452438455884e-05   2.312379368559869e-06   7.537791569620973e-06
-1.0289452438455884e-05   2.312379368559869e-06   7.537791569620973e-06
-1.0289452438455884e-05   2.312379368559869e-06   7.537791569620973e-06
-7.550214657194655e-06   2.437725701178177e-06   1.278981193508083e-05
-7.550214657194655e-06   2.437725701178177e-06   1.278981193508083e-05
-7.550214657194655e-06   2.437725701178177e-06   1.278981193508083e-05
-7.550214657194655e-06   2.437725701178177e-06   1.278981193508083e-05
-1.3344996238328499e-05   2.0466337591057556e-06   2.8971874679476015e-06
-1.3344996238328499e-05   2.0466337591057556e-06   2.8971874679476015e-06
-1.3344996238328499e-05   2.0466337591057556e-06   2.8971874679476015e-06
-1.3344996238328499e-05   2.0466337591057556e-06   2.8971874679476015e-06
-1.3644551777735854e-05   2.238744920256665e-06   1.298556225441639e-05
-1.3644551777735854e-05   2.238744920256665e-06   1.298556225441639e-05
-1.3644551777735854e-05   2.238744920256665e-06   1.298556225441639e-05
-1.3644551777735854e-05   2.238744920256665e-06   1.298556225441639e-05
-7.804030401987563e-06   1.827910247942377e-06   3.4978607648912324e-06
-7.804030401987563e-06   1.827910247942377e-06   3.4978607648912324e-06
-7.804030401987563e-06   1.827910247942377e-06   3.4978607648912324e-06
-7.804030401987563e-06   1.827910247942377e-06   3.4978607648912324e-06
-1.0471847177797324e-05   2.1526493555309913e-06   7.749378593354593e-06
-1.0471847177797324e-05   2.1526493555309913e-06   7.749378593354593e-06
-1.0471847177797324e-05   2.1526493555309913e-06   7.749378593354593e-06
-1.0471847177797324e-05   2.1526493555309913e-06   7.749378593354593e-06
-7.80403040198759e-06   2.238744920256665e-06   1.3232063057804866e-05
-7.80403040198759e-06   2.238744920256665e-06   1.3232063057804866e-05
-7.80403040198759e-06   2.238744920256665e-06   1.3232063057804866e-05
-7.80403040198759e-06   2.238744920256665e-06   1.3232063057804866e-05
-1.3644551777735841e-05   1.827910247942377e-06   3.2513599615026758e-06
-1.3644551777735841e-05   1.827910247942377e-06   3.2513599615026758e-06
-1.3644551777735841e-05   1.827910247942377e-06   3.2513599615026758e-06
-1.3644551777735841e-05   1.827910247942377e-06   3.2513599615026758e-06
-1.3910059274658567e-05   2.0058460014017645e-06   1.334416650368821e-05
-1.3910059274658567e-05   2.0058460014017645e-06   1.334416650368821e-05
-1.3910059274658567e-05   2.0058460014017645e-06   1.334416650368821e-05
-1.3910059274658567e-05   2.0058460014017645e-06   1.334416650368821e-05
-8.05470057378933e-06   1.5823142573068898e-06   3.839354382029799e-06
-8.05470057378933e-06   1.5823142573068898e-06   3.839354382029799e-06
-8.05470057378933e-06   1.5823142573068898e-06   3.839354382029799e-06
-8.05470057378933e-06   1.5823142573068898e-06   3.839354382029799e-06
-1.0773369280937995e-05   1.983282895217991e-06   8.129887711197874e-06
-1.0773369280937995e-05   1.983282895217991e-06   8.129887711197874e-06
-1.0773369280937995e-05   1.983282895217991e-06   8.129887711197874e-06
-1.0773369280937995e-05   1.983282895217991e-06   8.129887711197874e-06
-1.3078366577043323e-05   3.6688806274982975e-06   6.132210977182124e-06
-1.3078366577043323e-05   3.6688806274982975e-06   6.132210977182124e-06
-1.3078366577043323e-05   3.6688806274982975e-06   6.132210977182124e-06
-1.3078366577043323e-05   3.6688806274982975e-06   6.132210977182124e-06
-1.8523798692439333e-05   3.0092234035288554e-06   -3.339303549526162e-06
-1.8523798692439333e-05   3.0092234035288554e-06   -3.339303549526162e-06
-1.8523798692439333e-05   3.0092234035288554e-06   -3.339303549526162e-06
-1.8523798692439333e-05   3.0092234035288554e-06   -3.339303549526162e-06
-1.908340616745154e-05   3.655501347791059e-06   7.890298204347914e-06
-1.908340616745154e-05   3.655501347791059e-06   7.890298204347914e-06
-1.908340616745154e-05   3.655501347791059e-06   7.890298204347914e-06
-1.908340616745154e-05   3.655501347791059e-06   7.890298204347914e-06
-1.3344996238328472e-05   2.9365926188189674e-06   -1.2423731068072087e-06
-1.3344996238328472e-05   2.9365926188189674e-06   -1.2423731068072087e-06
-1.3344996238328472e-05   2.9365926188189674e-06   -1.2423731068072087e-06
-1.3344996238328472e-05   2.9365926188189674e-06   -1.2423731068072087e-06
-1.540699502959055e-05   3.255343280680759e-06   2.003041148179442e-06
-1.540699502959055e-05   3.255343280680759e-06   2.003041148179442e-06
-1.540699502959055e-05   3.255343280680759e-06   2.003041148179442e-06
-1.540699502959055e-05   3.255343280680759e-06   2.003041148179442e-06
-1.3344996238328513e-05   3.655501347791059e-06   8.321643441731202e-06
-1.3344996238328513e-05   3.655501347791059e-06   8.321643441731202e-06
-1.3344996238328513e-05   3.655501347791059e-06   8.321643441731202e-06
-1.3344996238328513e-05   3.655501347791059e-06   8.321643441731202e-06
-1.9083406167451594e-05   2.9365926188189674e-06   -1.6737183441904691e-06
-1.9083406167451594e-05   2.9365926188189674e-06   -1.6737183441904691e-06
-1.9083406167451594e-05   2.9365926188189674e-06   -1.6737183441904691e-06
-1.9083406167451594e-05   2.9365926188189674e-06   -1.6737183441904691e-06
-1.9570241757811528e-05   3.582660133789558e-06   9.400899503323942e-06
-1.9570241757811528e-05   3.582660133789558e-06   9.400899503323942e-06
-1.9570241757811528e-05   3.582660133789558e-06   9.400899503323942e-06
-1.9570241757811528e-05   3.582660133789558e-06   9.400899503323942e-06
-1.3644551777735814e-05   2.843622177293938e-06   -3.182768957150353e-08
-1.3644551777735814e-05   2.843622177293938e-06   -3.182768957150353e-08
-1.3644551777735814e-05   2.843622177293938e-06   -3.182768957150353e-08
-1.3644551777735814e-05   2.843622177293938e-06   -3.182768957150353e-08
-1.6004400953128715e-05   3.2595217783923337e-06   3.6517145087582806e-06
-1.6004400953128715e-05   3.2595217783923337e-06   3.6517145087582806e-06
-1.6004400953128715e-05   3.2595217783923337e-06   3.6517145087582806e-06
-1.6004400953128715e-05   3.2595217783923337e-06   3.6517145087582806e-06
-1.3644551777735854e-05   3.5826601337894497e-06   9.844322277221358e-06
-1.3644551777735854e-05   3.5826601337894497e-06   9.844322277221358e-06
-1.3644551777735854e-05   3.5826601337894497e-06   9.844322277221358e-06
-1.3644551777735854e-05   3.5826601337894497e-06   9.844322277221358e-06
-1.9570241757811528e-05   2.843622177293938e-06   -4.752504634687835e-07
-1.9570241757811528e-05   2.843622177293938e-06   -4.752504634687835e-07
-1.9570241757811528e-05   2.843622177293938e-06   -4.752504634687835e-07
-1.9570241757811528e-05   2.843622177293938e-06   -4.752504634687835e-07
-2.0133738283296428e-05   3.2573785907260427e-06   1.2020868595127312e-05
-2.0133738283296428e-05   3.2573785907260427e-06   1.2020868595127312e-05
-2.0133738283296428e-05   3.2573785907260427e-06   1.2020868595127312e-05
-2.0133738283296428e-05   3.2573785907260427e-06   1.2020868595127312e-05
-1.3910059274658513e-05   2.52836838324764e-06   2.085476371884462e-06
-1.3910059274658513e-05   2.52836838324764e-06   2.085476371884462e-06
-1.3910059274658513e-05   2.52836838324764e-06   2.085476371884462e-06
-1.3910059274658513e-05   2.52836838324764e-06   2.085476371884462e-06
-1.6128865015194814e-05   3.121919029064682e-06   5.4273555519547545e-06
-1.6128865015194814e-05   3.121919029064682e-06   5.4273555519547545e-06
-1.6128865015194814e-05   3.121919029064682e-06   5.4273555519547545e-06
-1.6128865015194814e-05   3.121919029064682e-06   5.4273555519547545e-06
6.180734356136534e-06   -7.103119655765388e-07   8.570806575992906e-06
6.180734356136534e-06   -7.103119655765388e-07   8.570806575992906e-06
6.180734356136534e-06   -7.103119655765388e-07   8.570806575992906e-06
6.180734356136534e-06   -7.103119655765388e-07   8.570806575992906e-06
1.6662918264943498e-06   -1.2415076545589307e-08   1.4654738266745384e-06
1.6662918264943498e-06   -1.2415076545589307e-08   1.4654738266745384e-06
1.6662918264943498e-06   -1.2415076545589307e-08   1.4654738266745384e-06
1.6662918264943498e-06   -1.2415076545589307e-08   1.4654738266745384e-06
1.4602993833129992e-06   -9.765732409503392e-07   7.973865973176291e-06
1.4602993833129992e-06   -9.765732409503392e-07   7.973865973176291e-06
1.4602993833129992e-06   -9.765732409503392e-07   7.973865973176291e-06
1.4602993833129992e-06   -9.765732409503392e-07   7.973865973176291e-06
5.67008075936415e-06   -2.522503281092176e-07   5.229699320531645e-07
5.67008075936415e-06   -2.522503281092176e-07   5.229699320531645e-07
5.67008075936415e-06   -2.522503281092176e-07   5.229699320531645e-07
5.67008075936415e-06   -2.522503281092176e-07   5.229699320531645e-07
3.525645905369461e-06   -5.218070935118866e-07   4.258762081286245e-06
3.525645905369461e-06   -5.218070935118866e-07   4.258762081286245e-06
3.525645905369461e-06   -5.218070935118866e-07   4.258762081286245e-06
3.525645905369461e-06   -5.218070935118866e-07   4.258762081286245e-06
5.67008075936416e-06   -9.765732409503392e-07   7.539272225471694e-06
5.67008075936416e-06   -9.765732409503392e-07   7.539272225471694e-06
5.67008075936416e-06   -9.765732409503392e-07   7.539272225471694e-06
5.67008075936416e-06   -9.765732409503392e-07   7.539272225471694e-06
1.4602993833129975e-06   -2.522503281092176e-07   9.575636797578158e-07
1.4602993833129975e-06   -2.522503281092176e-07   9.575636797578158e-07
1.4602993833129975e-06   -2.522503281092176e-07   9.575636797578158e-07
1.4602993833129975e-06   -2.522503281092176e-07   9.575636797578158e-07
1.2193314141395412e-06   -1.0672231855636668e-06   7.472351257863845e-06
1.2193314141395412e-06   -1.0672231855636668e-06   7.472351257863845e-06
1.2193314141395412e-06   -1.0672231855636668e-06   7.472351257863845e-06
1.2193314141395412e-06   -1.0672231855636668e-06   7.472351257863845e-06
5.236679386035712e-06   -3.542257983945663e-07   3.4897287240206136e-07
5.236679386035712e-06   -3.542257983945663e-07   3.4897287240206136e-07
5.236679386035712e-06   -3.542257983945663e-07   3.4897287240206136e-07
5.236679386035712e-06   -3.542257983945663e-07   3.4897287240206136e-07
3.2823357851253113e-06   -6.266370706343007e-07   3.7696589705965523e-06
3.2823357851253113e-06   -6.266370706343007e-07   3.7696589705965523e-06
3.2823357851253113e-06   -6.266370706343007e-07   3.7696589705965523e-06
3.2823357851253113e-06   -6.266370706343007e-07   3.7696589705965523e-06
5.236679386035716e-06   -1.0672231855637752e-06   7.044552825562287e-06
5.236679386035716e-06   -1.0672231855637752e-06   7.044552825562287e-06
5.236679386035716e-06   -1.0672231855637752e-06   7.044552825562287e-06
5.236679386035716e-06   -1.0672231855637752e-06   7.044552825562287e-06
1.2193314141395361e-06   -3.542257983945663e-07   7.767713047036125e-07
1.2193314141395361e-06   -3.542257983945663e-07   7.767713047036125e-07
1.2193314141395361e-06   -3.542257983945663e-07   7.767713047036125e-07
1.2193314141395361e-06   -3.542257983945663e-07   7.767713047036125e-07
1.0100841682942678e-06   -1.1838088907487401e-06   6.883987846114975e-06
1.0100841682942678e-06   -1.1838088907487401e-06   6.883987846114975e-06
1.0100841682942678e-06   -1.1838088907487401e-06   6.883987846114975e-06
1.0100841682942678e-06   -1.1838088907487401e-06   6.883987846114975e-06
4.72767918910094e-06   -5.213796882892361e-07   2.9053862329496486e-07
4.72767918910094e-06   -5.213796882892361e-07   2.9053862329496486e-07
4.72767918910094e-06   -5.213796882892361e-07   2.9053862329496486e-07
4.72767918910094e-06   -5.213796882892361e-07   2.9053862329496486e-07
2.91414258493623e-06   -6.781002092821117e-07   3.4071319428319617e-06
2.91414258493623e-06   -6.781002092821117e-07   3.4071319428319617e-06
2.91414258493623e-06   -6.781002092821117e-07   3.4071319428319617e-06
2.91414258493623e-06   -6.781002092821117e-07   3.4071319428319617e-06
1.6662918264943532e-06   3.423627498152842e-07   1.1691867149215423e-05
1.6662918264943532e-06   3.423627498152842e-07   1.1691867149215423e-05
1.6662918264943532e-06   3.423627498152842e-07   1.1691867149215423e-05
1.6662918264943532e-06   3.423627498152842e-07   1.1691867149215423e-05
-2.4381146346655357e-06   6.613034742674164e-07   5.042554148620244e-06
-2.4381146346655357e-06   6.613034742674164e-07   5.042554148620244e-06
-2.4381146346655357e-06   6.613034742674164e-07   5.042554148620244e-06
-2.4381146346655357e-06   6.613034742674164e-07   5.042554148620244e-06
-2.6195652269752874e-06   7.459931698880398e-08   1.1724854103522403e-05
-2.6195652269752874e-06   7.459931698880398e-08   1.1724854103522403e-05
-2.6195652269752874e-06   7.459931698880398e-08   1.1724854103522403e-05
-2.6195652269752874e-06   7.459931698880398e-08   1.1724854103522403e-05
1.4602993833129975e-06   3.9219388745447784e-07   4.734523010762722e-06
1.4602993833129975e-06   3.9219388745447784e-07   4.734523010762722e-06
1.4602993833129975e-06   3.9219388745447784e-07   4.734523010762722e-06
1.4602993833129975e-06   3.9219388745447784e-07   4.734523010762722e-06
-5.140749801169221e-07   3.399653838709587e-07   8.056484051963055e-06
-5.140749801169221e-07   3.399653838709587e-07   8.056484051963055e-06
-5.140749801169221e-07   3.399653838709587e-07   8.056484051963055e-06
-5.140749801169221e-07   3.399653838709587e-07   8.056484051963055e-06
1.4602993833129992e-06   7.45993169889124e-08   1.1534297361242998e-05
1.4602993833129992e-06   7.45993169889124e-08   1.1534297361242998e-05
1.4602993833129992e-06   7.45993169889124e-08   1.1534297361242998e-05
1.4602993833129992e-06   7.45993169889124e-08   1.1534297361242998e-05
-2.6195652269752874e-06   3.9219388745447784e-07   4.925079753042086e-06
-2.6195652269752874e-06   3.9219388745447784e-07   4.925079753042086e-06
-2.6195652269752874e-06   3.9219388745447784e-07   4.925079753042086e-06
-2.6195652269752874e-06   3.9219388745447784e-07   4.925079753042086e-06
-2.8065206854877e-06   -1.4315821542760458e-07   1.1641757063407792e-05
-2.8065206854877e-06   -1.4315821542760458e-07   1.1641757063407792e-05
-2.8065206854877e-06   -1.4315821542760458e-07   1.1641757063407792e-05
-2.8065206854877e-06   -1.4315821542760458e-07   1.1641757063407792e-05
1.2193314141395361e-06   1.6553683941753373e-07   4.746786531122047e-06
1.2193314141395361e-06   1.6553683941753373e-07   4.746786531122047e-06
1.2193314141395361e-06   1.6553683941753373e-07   4.746786531122047e-06
1.2193314141395361e-06   1.6553683941753373e-07   4.746786531122047e-06
-7.083537373428138e-07   1.5316776440525617e-07   7.967016561933438e-06
-7.083537373428138e-07   1.5316776440525617e-07   7.967016561933438e-06
-7.083537373428138e-07   1.5316776440525617e-07   7.967016561933438e-06
-7.083537373428138e-07   1.5316776440525617e-07   7.967016561933438e-06
1.2193314141395412e-06   -1.4315821542760458e-07   1.1456540030500807e-05
1.2193314141395412e-06   -1.4315821542760458e-07   1.1456540030500807e-05
1.2193314141395412e-06   -1.4315821542760458e-07   1.1456540030500807e-05
1.2193314141395412e-06   -1.4315821542760458e-07   1.1456540030500807e-05
-2.806520685487707e-06   1.6553683941753373e-07   4.93200356402909e-06
-2.806520685487707e-06   1.6553683941753373e-07   4.93200356402909e-06
-2.806520685487707e-06   1.6553683941753373e-07   4.93200356402909e-06
-2.806520685487707e-06   1.6553683941753373e-07   4.93200356402909e-06
-2.990922528273618e-06   -3.560425506711788e-07   1.1786947248563942e-05
-2.990922528273618e-06   -3.560425506711788e-07   1.1786947248563942e-05
-2.990922528273618e-06   -3.560425506711788e-07   1.1786947248563942e-05
-2.990922528273618e-06   -3.560425506711788e-07   1.1786947248563942e-05
1.0100841682942644e-06   -6.43603947317762e-08   4.943593460720562e-06
1.0100841682942644e-06   -6.43603947317762e-08   4.943593460720562e-06
1.0100841682942644e-06   -6.43603947317762e-08   4.943593460720562e-06
1.0100841682942644e-06   -6.43603947317762e-08   4.943593460720562e-06
-8.719063484212954e-07   -1.2842169790257263e-08   8.049333386948328e-06
-8.719063484212954e-07   -1.2842169790257263e-08   8.049333386948328e-06
-8.719063484212954e-07   -1.2842169790257263e-08   8.049333386948328e-06
-8.719063484212954e-07   -1.2842169790257263e-08   8.049333386948328e-06
-2.4381146346655357e-06   1.324859954805204e-06   1.2947814241727235e-05
-2.4381146346655357e-06   1.324859954805204e-06   1.2947814241727235e-05
-2.4381146346655357e-06   1.324859954805204e-06   1.2947814241727235e-05
-2.4381146346655357e-06   1.324859954805204e-06   1.2947814241727235e-05
-6.467438616952252e-06   1.2534060888451642e-06   6.18940195167342e-06
-6.467438616952252e-06   1.2534060888451642e-06   6.18940195167342e-06
-6.467438616952252e-06   1.2534060888451642e-06   6.18940195167342e-06
-6.467438616952252e-06   1.2534060888451642e-06   6.18940195167342e-06
-6.641976607656472e-06   1.0830423679617082e-06   1.2833010982887198e-05
-6.641976607656472e-06   1.0830423679617082e-06   1.2833010982887198e-05
-6.641976607656472e-06   1.0830423679617082e-06   1.2833010982887198e-05
-6.641976607656472e-06   1.0830423679617082e-06   1.2833010982887198e-05
-2.619565226975274e-06   1.0067490519114364e-06   6.174768004715473e-06
-2.619565226975274e-06   1.0067490519114364e-06   6.174768004715473e-06
-2.619565226975274e-06   1.0067490519114364e-06   6.174768004715473e-06
-2.619565226975274e-06   1.0067490519114364e-06   6.174768004715473e-06
-4.550678837691133e-06   1.1378184916011145e-06   9.314649025428466e-06
-4.550678837691133e-06   1.1378184916011145e-06   9.314649025428466e-06
-4.550678837691133e-06   1.1378184916011145e-06   9.314649025428466e-06
-4.550678837691133e-06   1.1378184916011145e-06   9.314649025428466e-06
-2.6195652269752874e-06   1.0830423679615998e-06   1.2878786972517393e-05
-2.6195652269752874e-06   1.0830423679615998e-06   1.2878786972517393e-05
-2.6195652269752874e-06   1.0830423679615998e-06   1.2878786972517393e-05
-2.6195652269752874e-06   1.0830423679615998e-06   1.2878786972517393e-05
-6.641976607656459e-06   1.006749051911328e-06   6.128992015085331e-06
-6.641976607656459e-06   1.006749051911328e-06   6.128992015085331e-06
-6.641976607656459e-06   1.006749051911328e-06   6.128992015085331e-06
-6.641976607656459e-06   1.006749051911328e-06   6.128992015085331e-06
-6.822067951291685e-06   8.440460288662186e-07   1.2913851954271158e-05
-6.822067951291685e-06   8.440460288662186e-07   1.2913851954271158e-05
-6.822067951291685e-06   8.440460288662186e-07   1.2913851954271158e-05
-6.822067951291685e-06   8.440460288662186e-07   1.2913851954271158e-05
-2.8065206854877e-06   7.613974976428215e-07   6.270862296665176e-06
-2.8065206854877e-06   7.613974976428215e-07   6.270862296665176e-06
-2.8065206854877e-06   7.613974976428215e-07   6.270862296665176e-06
-2.8065206854877e-06   7.613974976428215e-07   6.270862296665176e-06
-4.705734333208241e-06   9.508698611941386e-07   9.322534958068623e-06
-4.705734333208241e-06   9.508698611941386e-07   9.322534958068623e-06
-4.705734333208241e-06   9.508698611941386e-07   9.322534958068623e-06
-4.705734333208241e-06   9.508698611941386e-07   9.322534958068623e-06
-2.806520685487707e-06   8.440460288662186e-07   1.2963441073005164e-05
-2.806520685487707e-06   8.440460288662186e-07   1.2963441073005164e-05
-2.806520685487707e-06   8.440460288662186e-07   1.2963441073005164e-05
-2.806520685487707e-06   8.440460288662186e-07   1.2963441073005164e-05
-6.822067951291685e-06   7.613974976429299e-07   6.221273177931224e-06
-6.822067951291685e-06   7.613974976429299e-07   6.221273177931224e-06
-6.822067951291685e-06   7.613974976429299e-07   6.221273177931224e-06
-6.822067951291685e-06   7.613974976429299e-07   6.221273177931224e-06
-6.9992312038567785e-06   6.141724639685802e-07   1.311666848439932e-05
-6.9992312038567785e-06   6.141724639685802e-07   1.311666848439932e-05
-6.9992312038567785e-06   6.141724639685802e-07   1.311666848439932e-05
-6.9992312038567785e-06   6.141724639685802e-07   1.311666848439932e-05
-2.990922528273618e-06   5.268427360685798e-07   6.488551861834194e-06
-2.990922528273618e-06   5.268427360685798e-07   6.488551861834194e-06
-2.990922528273618e-06   5.268427360685798e-07   6.488551861834194e-06
-2.990922528273618e-06   5.268427360685798e-07   6.488551861834194e-06
-4.870856217133065e-06   7.678550683040729e-07   9.477167277258808e-06
-4.870856217133065e-06   7.678550683040729e-07   9.477167277258808e-06
-4.870856217133065e-06   7.678550683040729e-07   9.477167277258808e-06
-4.870856217133065e-06   7.678550683040729e-07   9.477167277258808e-06
-6.467438616952252e-06   2.281819720897308e-06   1.1419025736425937e-05
-6.467438616952252e-06   2.281819720897308e-06   1.1419025736425937e-05
-6.467438616952252e-06   2.281819720897308e-06   1.1419025736425937e-05
-6.467438616952252e-06   2.281819720897308e-06   1.1419025736425937e-05
-1.0431255948780029e-05   1.8717755462354909e-06   4.566637011915828e-06
-1.0431255948780029e-05   1.8717755462354909e-06   4.566637011915828e-06
-1.0431255948780029e-05   1.8717755462354909e-06   4.566637011915828e-06
-1.0431255948780029e-05   1.8717755462354909e-06   4.566637011915828e-06
-1.0621980716506098e-05   2.0466337591057556e-06   1.1211562612007775e-05
-1.0621980716506098e-05   2.0466337591057556e-06   1.1211562612007775e-05
-1.0621980716506098e-05   2.0466337591057556e-06   1.1211562612007775e-05
-1.0621980716506098e-05   2.0466337591057556e-06   1.1211562612007775e-05
-6.6419766076564315e-06   1.6236834772199917e-06   4.831992599723262e-06
-6.6419766076564315e-06   1.6236834772199917e-06   4.831992599723262e-06
-6.6419766076564315e-06   1.6236834772199917e-06   4.831992599723262e-06
-6.6419766076564315e-06   1.6236834772199917e-06   4.831992599723262e-06
-8.519871488066063e-06   1.9223458622561656e-06   7.78261996938471e-06
-8.519871488066063e-06   1.9223458622561656e-06   7.78261996938471e-06
-8.519871488066063e-06   1.9223458622561656e-06   7.78261996938471e-06
-8.519871488066063e-06   1.9223458622561656e-06   7.78261996938471e-06
-6.641976607656472e-06   2.0466337591057556e-06   1.1465332781139287e-05
-6.641976607656472e-06   2.0466337591057556e-06   1.1465332781139287e-05
-6.641976607656472e-06   2.0466337591057556e-06   1.1465332781139287e-05
-6.641976607656472e-06   2.0466337591057556e-06   1.1465332781139287e-05
-1.0621980716506071e-05   1.6236834772199917e-06   4.578222430591858e-06
-1.0621980716506071e-05   1.6236834772199917e-06   4.578222430591858e-06
-1.0621980716506071e-05   1.6236834772199917e-06   4.578222430591858e-06
-1.0621980716506071e-05   1.6236834772199917e-06   4.578222430591858e-06
-1.0847275133804845e-05   1.827910247942377e-06   1.1579690160932262e-05
-1.0847275133804845e-05   1.827910247942377e-06   1.1579690160932262e-05
-1.0847275133804845e-05   1.827910247942377e-06   1.1579690160932262e-05
-1.0847275133804845e-05   1.827910247942377e-06   1.1579690160932262e-05
-6.822067951291671e-06   1.3971937817603731e-06   5.129441403119498e-06
-6.822067951291671e-06   1.3971937817603731e-06   5.129441403119498e-06
-6.822067951291671e-06   1.3971937817603731e-06   5.129441403119498e-06
-6.822067951291671e-06   1.3971937817603731e-06   5.129441403119498e-06
-8.641959728369924e-06   1.7473860912383754e-06   7.952478979229795e-06
-8.641959728369924e-06   1.7473860912383754e-06   7.952478979229795e-06
-8.641959728369924e-06   1.7473860912383754e-06   7.952478979229795e-06
-8.641959728369924e-06   1.7473860912383754e-06   7.952478979229795e-06
-6.822067951291685e-06   1.827910247942377e-06   1.1838120040641399e-05
-6.822067951291685e-06   1.827910247942377e-06   1.1838120040641399e-05
-6.822067951291685e-06   1.827910247942377e-06   1.1838120040641399e-05
-6.822067951291685e-06   1.827910247942377e-06   1.1838120040641399e-05
-1.0847275133804817e-05   1.3971937817603731e-06   4.87101152341036e-06
-1.0847275133804817e-05   1.3971937817603731e-06   4.87101152341036e-06
-1.0847275133804817e-05   1.3971937817603731e-06   4.87101152341036e-06
-1.0847275133804817e-05   1.3971937817603731e-06   4.87101152341036e-06
-1.1039877078434525e-05   1.5823142573069982e-06   1.1931505691936532e-05
-1.1039877078434525e-05   1.5823142573069982e-06   1.1931505691936532e-05
-1.1039877078434525e-05   1.5823142573069982e-06   1.1931505691936532e-05
-1.1039877078434525e-05   1.5823142573069982e-06   1.1931505691936532e-05
-6.999231203856765e-06   1.154167418777473e-06   5.453984004091361e-06
-6.999231203856765e-06   1.154167418777473e-06   5.453984004091361e-06
-6.999231203856765e-06   1.154167418777473e-06   5.453984004091361e-06
-6.999231203856765e-06   1.154167418777473e-06   5.453984004091361e-06
-8.854715620038488e-06   1.5711089208582428e-06   8.296293129812988e-06
-8.854715620038488e-06   1.5711089208582428e-06   8.296293129812988e-06
-8.854715620038488e-06   1.5711089208582428e-06   8.296293129812988e-06
-8.854715620038488e-06   1.5711089208582428e-06   8.296293129812988e-06
-1.0431255948780056e-05   3.0092234035288554e-06   5.358224466439751e-06
-1.0431255948780056e-05   3.0092234035288554e-06   5.358224466439751e-06
-1.0431255948780056e-05   3.0092234035288554e-06   5.358224466439751e-06
-1.0431255948780056e-05   3.0092234035288554e-06   5.358224466439751e-06
-1.4035817996970422e-05   2.318157768828235e-06   -1.0640183280313554e-06
-1.4035817996970422e-05   2.318157768828235e-06   -1.0640183280313554e-06
-1.4035817996970422e-05   2.318157768828235e-06   -1.0640183280313554e-06
-1.4035817996970422e-05   2.318157768828235e-06   -1.0640183280313554e-06
-1.4526050596683855e-05   2.9365926188189674e-06   6.625557191667383e-06
-1.4526050596683855e-05   2.9365926188189674e-06   6.625557191667383e-06
-1.4526050596683855e-05   2.9365926188189674e-06   6.625557191667383e-06
-1.4526050596683855e-05   2.9365926188189674e-06   6.625557191667383e-06
-1.0621980716506071e-05   2.19251787617644e-06   5.652189036233694e-07
-1.0621980716506071e-05   2.19251787617644e-06   5.652189036233694e-07
-1.0621980716506071e-05   2.19251787617644e-06   5.652189036233694e-07
-1.0621980716506071e-05   2.19251787617644e-06   5.652189036233694e-07
-1.195125083693859e-05   2.5640118494382443e-06   2.557772720387713e-06
-1.195125083693859e-05   2.5640118494382443e-06   2.557772720387713e-06
-1.195125083693859e-05   2.5640118494382443e-06   2.557772720387713e-06
-1.195125083693859e-05   2.5640118494382443e-06   2.557772720387713e-06
-1.0621980716506071e-05   2.9365926188189674e-06   7.072002037252965e-06
-1.0621980716506071e-05   2.9365926188189674e-06   7.072002037252965e-06
-1.0621980716506071e-05   2.9365926188189674e-06   7.072002037252965e-06
-1.0621980716506071e-05   2.9365926188189674e-06   7.072002037252965e-06
-1.4526050596683855e-05   2.19251787617644e-06   1.1877405803790997e-07
-1.4526050596683855e-05   2.19251787617644e-06   1.1877405803790997e-07
-1.4526050596683855e-05   2.19251787617644e-06   1.1877405803790997e-07
-1.4526050596683855e-05   2.19251787617644e-06   1.1877405803790997e-07
-1.4946812044450971e-05   2.843622177293938e-06   7.841712583323479e-06
-1.4946812044450971e-05   2.843622177293938e-06   7.841712583323479e-06
-1.4946812044450971e-05   2.843622177293938e-06   7.841712583323479e-06
-1.4946812044450971e-05   2.843622177293938e-06   7.841712583323479e-06
-1.0847275133804817e-05   2.0856389664030946e-06   1.463940992114574e-06
-1.0847275133804817e-05   2.0856389664030946e-06   1.463940992114574e-06
-1.0847275133804817e-05   2.0856389664030946e-06   1.463940992114574e-06
-1.0847275133804817e-05   2.0856389664030946e-06   1.463940992114574e-06
-1.2424818361013532e-05   2.5327050212683305e-06   3.824940071210149e-06
-1.2424818361013532e-05   2.5327050212683305e-06   3.824940071210149e-06
-1.2424818361013532e-05   2.5327050212683305e-06   3.824940071210149e-06
-1.2424818361013532e-05   2.5327050212683305e-06   3.824940071210149e-06
-1.0847275133804817e-05   2.8436221772940463e-06   8.296502509858082e-06
-1.0847275133804817e-05   2.8436221772940463e-06   8.296502509858082e-06
-1.0847275133804817e-05   2.8436221772940463e-06   8.296502509858082e-06
-1.0847275133804817e-05   2.8436221772940463e-06   8.296502509858082e-06
-1.4946812044450971e-05   2.0856389664030946e-06   1.009151065579984e-06
-1.4946812044450971e-05   2.0856389664030946e-06   1.009151065579984e-06
-1.4946812044450971e-05   2.0856389664030946e-06   1.009151065579984e-06
-1.4946812044450971e-05   2.0856389664030946e-06   1.009151065579984e-06
-1.544892812001619e-05   2.52836838324764e-06   9.989829283291196e-06
-1.544892812001619e-05   2.52836838324764e-06   9.989829283291196e-06
-1.544892812001619e-05   2.52836838324764e-06   9.989829283291196e-06
-1.544892812001619e-05   2.52836838324764e-06   9.989829283291196e-06
-1.1039877078434471e-05   1.791839308319795e-06   3.0833283256119753e-06
-1.1039877078434471e-05   1.791839308319795e-06   3.0833283256119753e-06
-1.1039877078434471e-05   1.791839308319795e-06   3.0833283256119753e-06
-1.1039877078434471e-05   1.791839308319795e-06   3.0833283256119753e-06
-1.253681612587027e-05   2.3990856441314778e-06   5.213878936518191e-06
-1.253681612587027e-05   2.3990856441314778e-06   5.213878936518191e-06
-1.253681612587027e-05   2.3990856441314778e-06   5.213878936518191e-06
-1.253681612587027e-05   2.3990856441314778e-06   5.213878936518191e-06
1.4271790539461475e-06   -1.2415076545480887e-08   6.463007053774457e-06
1.4271790539461475e-06   -1.2415076545480887e-08   6.463007053774457e-06
1.4271790539461475e-06   -1.2415076545480887e-08   6.463007053774457e-06
1.4271790539461475e-06   -1.2415076545480887e-08   6.463007053774457e-06
-1.2125412229226286e-06   6.623410470084118e-07   2.4683269331255277e-06
-1.2125412229226286e-06   6.623410470084118e-07   2.4683269331255277e-06
-1.2125412229226286e-06   6.623410470084118e-07   2.4683269331255277e-06
-1.2125412229226286e-06   6.623410470084118e-07   2.4683269331255277e-06
-1.3613150481937736e-06   -2.522503281091092e-07   6.350651612404353e-06
-1.3613150481937736e-06   -2.522503281091092e-07   6.350651612404353e-06
-1.3613150481937736e-06   -2.522503281091092e-07   6.350651612404353e-06
-1.3613150481937736e-06   -2.522503281091092e-07   6.350651612404353e-06
9.767678444669086e-07   4.384083405895977e-07   2.0394515900839296e-06
9.767678444669086e-07   4.384083405895977e-07   2.0394515900839296e-06
9.767678444669086e-07   4.384083405895977e-07   2.0394515900839296e-06
9.767678444669086e-07   4.384083405895977e-07   2.0394515900839296e-06
-1.0960838468360864e-07   1.6998328419701647e-07   4.011133672503702e-06
-1.0960838468360864e-07   1.6998328419701647e-07   4.011133672503702e-06
-1.0960838468360864e-07   1.6998328419701647e-07   4.011133672503702e-06
-1.0960838468360864e-07   1.6998328419701647e-07   4.011133672503702e-06
9.767678444669086e-07   -2.522503281091092e-07   5.936256411185042e-06
9.767678444669086e-07   -2.522503281091092e-07   5.936256411185042e-06
9.767678444669086e-07   -2.522503281091092e-07   5.936256411185042e-06
9.767678444669086e-07   -2.522503281091092e-07   5.936256411185042e-06
-1.3613150481937736e-06   4.384083405895977e-07   2.453846791303227e-06
-1.3613150481937736e-06   4.384083405895977e-07   2.453846791303227e-06
-1.3613150481937736e-06   4.384083405895977e-07   2.453846791303227e-06
-1.3613150481937736e-06   4.384083405895977e-07   2.453846791303227e-06
-1.54558205172282e-06   -3.542257983945663e-07   6.1692933983958985e-06
-1.54558205172282e-06   -3.542257983945663e-07   6.1692933983958985e-06
-1.54558205172282e-06   -3.542257983945663e-07   6.1692933983958985e-06
-1.54558205172282e-06   -3.542257983945663e-07   6.1692933983958985e-06
5.846613821386512e-07   3.17171310509185e-07   2.2160494099511744e-06
5.846613821386512e-07   3.17171310509185e-07   2.2160494099511744e-06
5.846613821386512e-07   3.17171310509185e-07   2.2160494099511744e-06
5.846613821386512e-07   3.17171310509185e-07   2.2160494099511744e-06
-3.5056070317699933e-07   7.471942483787191e-08   3.920224016880082e-06
-3.5056070317699933e-07   7.471942483787191e-08   3.920224016880082e-06
-3.5056070317699933e-07   7.471942483787191e-08   3.920224016880082e-06
-3.5056070317699933e-07   7.471942483787191e-08   3.920224016880082e-06
5.846613821386512e-07   -3.542257983945663e-07   5.766455133053572e-06
5.846613821386512e-07   -3.542257983945663e-07   5.766455133053572e-06
5.846613821386512e-07   -3.542257983945663e-07   5.766455133053572e-06
5.846613821386512e-07   -3.542257983945663e-07   5.766455133053572e-06
-1.545582051722815e-06   3.17171310509185e-07   2.6188876752934807e-06
-1.545582051722815e-06   3.17171310509185e-07   2.6188876752934807e-06
-1.545582051722815e-06   3.17171310509185e-07   2.6188876752934807e-06
-1.545582051722815e-06   3.17171310509185e-07   2.6188876752934807e-06
-1.7004034806384271e-06   -5.213796882892361e-07   6.082388333091351e-06
-1.7004034806384271e-06   -5.213796882892361e-07   6.082388333091351e-06
-1.7004034806384271e-06   -5.213796882892361e-07   6.082388333091351e-06
-1.7004034806384271e-06   -5.213796882892361e-07   6.082388333091351e-06
9.174076129820415e-08   6.19977249499519e-08   2.7454548152534876e-06
9.174076129820415e-08   6.19977249499519e-08   2.7454548152534876e-06
9.174076129820415e-08   6.19977249499519e-08   2.7454548152534876e-06
9.174076129820415e-08   6.19977249499519e-08   2.7454548152534876e-06
-6.172337659339048e-07   -9.628641410390753e-09   3.97005484712324e-06
-6.172337659339048e-07   -9.628641410390753e-09   3.97005484712324e-06
-6.172337659339048e-07   -9.628641410390753e-09   3.97005484712324e-06
-6.172337659339048e-07   -9.628641410390753e-09   3.97005484712324e-06
-1.2125412229226286e-06   6.613034742674164e-07   1.0253576615181273e-05
-1.2125412229226286e-06   6.613034742674164e-07   1.0253576615181273e-05
-1.2125412229226286e-06   6.613034742674164e-07   1.0253576615181273e-05
-1.2125412229226286e-06   6.613034742674164e-07   1.0253576615181273e-05
-3.418003580463332e-06   7.983017465912432e-07   6.660004982674342e-06
-3.418003580463332e-06   7.983017465912432e-07   6.660004982674342e-06
-3.418003580463332e-06   7.983017465912432e-07   6.660004982674342e-06
-3.418003580463332e-06   7.983017465912432e-07   6.660004982674342e-06
-3.531217481344874e-06   3.9219388745447784e-07   1.0221887560688285e-05
-3.531217481344874e-06   3.9219388745447784e-07   1.0221887560688285e-05
-3.531217481344874e-06   3.9219388745447784e-07   1.0221887560688285e-05
-3.531217481344874e-06   3.9219388745447784e-07   1.0221887560688285e-05
-1.3613150481937736e-06   5.493215829195522e-07   6.511106888157341e-06
-1.3613150481937736e-06   5.493215829195522e-07   6.511106888157341e-06
-1.3613150481937736e-06   5.493215829195522e-07   6.511106888157341e-06
-1.3613150481937736e-06   5.493215829195522e-07   6.511106888157341e-06
-2.3970467065744017e-06   5.702504533408224e-07   8.22476899653898e-06
-2.3970467065744017e-06   5.702504533408224e-07   8.22476899653898e-06
-2.3970467065744017e-06   5.702504533408224e-07   8.22476899653898e-06
-2.3970467065744017e-06   5.702504533408224e-07   8.22476899653898e-06
-1.3613150481937753e-06   3.9219388745447784e-07   1.0127610943409164e-05
-1.3613150481937753e-06   3.9219388745447784e-07   1.0127610943409164e-05
-1.3613150481937753e-06   3.9219388745447784e-07   1.0127610943409164e-05
-1.3613150481937753e-06   3.9219388745447784e-07   1.0127610943409164e-05
-3.5312174813448673e-06   5.493215829195522e-07   6.6053835054364414e-06
-3.5312174813448673e-06   5.493215829195522e-07   6.6053835054364414e-06
-3.5312174813448673e-06   5.493215829195522e-07   6.6053835054364414e-06
-3.5312174813448673e-06   5.493215829195522e-07   6.6053835054364414e-06
-3.648136838369042e-06   1.655368394174253e-07   1.0232774022849388e-05
-3.648136838369042e-06   1.655368394174253e-07   1.0232774022849388e-05
-3.648136838369042e-06   1.655368394174253e-07   1.0232774022849388e-05
-3.648136838369042e-06   1.655368394174253e-07   1.0232774022849388e-05
-1.545582051722815e-06   3.2131250280917865e-07   6.635050647070654e-06
-1.545582051722815e-06   3.2131250280917865e-07   6.635050647070654e-06
-1.545582051722815e-06   3.2131250280917865e-07   6.635050647070654e-06
-1.545582051722815e-06   3.2131250280917865e-07   6.635050647070654e-06
-2.5129627742063467e-06   3.8938134887207604e-07   8.206510543572271e-06
-2.5129627742063467e-06   3.8938134887207604e-07   8.206510543572271e-06
-2.5129627742063467e-06   3.8938134887207604e-07   8.206510543572271e-06
-2.5129627742063467e-06   3.8938134887207604e-07   8.206510543572271e-06
-1.54558205172282e-06   1.6553683941753373e-07   1.0139308624814336e-05
-1.54558205172282e-06   1.6553683941753373e-07   1.0139308624814336e-05
-1.54558205172282e-06   1.6553683941753373e-07   1.0139308624814336e-05
-1.54558205172282e-06   1.6553683941753373e-07   1.0139308624814336e-05
-3.648136838369042e-06   3.2131250280917865e-07   6.728516045105689e-06
-3.648136838369042e-06   3.2131250280917865e-07   6.728516045105689e-06
-3.648136838369042e-06   3.2131250280917865e-07   6.728516045105689e-06
-3.648136838369042e-06   3.2131250280917865e-07   6.728516045105689e-06
-3.763212526227456e-06   -6.436039473166778e-08   1.0422338120541063e-05
-3.763212526227456e-06   -6.436039473166778e-08   1.0422338120541063e-05
-3.763212526227456e-06   -6.436039473166778e-08   1.0422338120541063e-05
-3.763212526227456e-06   -6.436039473166778e-08   1.0422338120541063e-05
-1.7004034806384237e-06   7.622705776788238e-08   6.899970573059622e-06
-1.7004034806384237e-06   7.622705776788238e-08   6.899970573059622e-06
-1.7004034806384237e-06   7.622705776788238e-08   6.899970573059622e-06
-1.7004034806384237e-06   7.622705776788238e-08   6.899970573059622e-06
-2.628085378799719e-06   2.1335749607228867e-07   8.363828807012442e-06
-2.628085378799719e-06   2.1335749607228867e-07   8.363828807012442e-06
-2.628085378799719e-06   2.1335749607228867e-07   8.363828807012442e-06
-2.628085378799719e-06   2.1335749607228867e-07   8.363828807012442e-06
-3.4180035804633253e-06   1.2534060888452726e-06   1.1525495701204661e-05
-3.4180035804633253e-06   1.2534060888452726e-06   1.1525495701204661e-05
-3.4180035804633253e-06   1.2534060888452726e-06   1.1525495701204661e-05
-3.4180035804633253e-06   1.2534060888452726e-06   1.1525495701204661e-05
-5.605725788091422e-06   9.693706611022587e-07   7.708870765178673e-06
-5.605725788091422e-06   9.693706611022587e-07   7.708870765178673e-06
-5.605725788091422e-06   9.693706611022587e-07   7.708870765178673e-06
-5.605725788091422e-06   9.693706611022587e-07   7.708870765178673e-06
-5.702214381948887e-06   1.0067490519114364e-06   1.1311578039379993e-05
-5.702214381948887e-06   1.0067490519114364e-06   1.1311578039379993e-05
-5.702214381948887e-06   1.0067490519114364e-06   1.1311578039379993e-05
-5.702214381948887e-06   1.0067490519114364e-06   1.1311578039379993e-05
-3.5312174813448673e-06   7.400860969419094e-07   7.853247644688346e-06
-3.5312174813448673e-06   7.400860969419094e-07   7.853247644688346e-06
-3.5312174813448673e-06   7.400860969419094e-07   7.853247644688346e-06
-3.5312174813448673e-06   7.400860969419094e-07   7.853247644688346e-06
-4.567285896933473e-06   9.717487292115528e-07   9.441030757974218e-06
-4.567285896933473e-06   9.717487292115528e-07   9.441030757974218e-06
-4.567285896933473e-06   9.717487292115528e-07   9.441030757974218e-06
-4.567285896933473e-06   9.717487292115528e-07   9.441030757974218e-06
-3.5312174813448673e-06   1.0067490519114364e-06   1.1471575812361699e-05
-3.5312174813448673e-06   1.0067490519114364e-06   1.1471575812361699e-05
-3.5312174813448673e-06   1.0067490519114364e-06   1.1471575812361699e-05
-3.5312174813448673e-06   1.0067490519114364e-06   1.1471575812361699e-05
-5.702214381948887e-06   7.400860969419094e-07   7.693249871706628e-06
-5.702214381948887e-06   7.400860969419094e-07   7.693249871706628e-06
-5.702214381948887e-06   7.400860969419094e-07   7.693249871706628e-06
-5.702214381948887e-06   7.400860969419094e-07   7.693249871706628e-06
-5.805348574555467e-06   7.613974976428215e-07   1.141911668222712e-05
-5.805348574555467e-06   7.613974976428215e-07   1.141911668222712e-05
-5.805348574555467e-06   7.613974976428215e-07   1.141911668222712e-05
-5.805348574555467e-06   7.613974976428215e-07   1.141911668222712e-05
-3.648136838369042e-06   5.072040422122851e-07   7.976279861841471e-06
-3.648136838369042e-06   5.072040422122851e-07   7.976279861841471e-06
-3.648136838369042e-06   5.072040422122851e-07   7.976279861841471e-06
-3.648136838369042e-06   5.072040422122851e-07   7.976279861841471e-06
-4.649768714586329e-06   7.889286847654752e-07   9.476631536671729e-06
-4.649768714586329e-06   7.889286847654752e-07   9.476631536671729e-06
-4.649768714586329e-06   7.889286847654752e-07   9.476631536671729e-06
-4.649768714586329e-06   7.889286847654752e-07   9.476631536671729e-06
-3.648136838369042e-06   7.613974976428215e-07   1.157163275548542e-05
-3.648136838369042e-06   7.613974976428215e-07   1.157163275548542e-05
-3.648136838369042e-06   7.613974976428215e-07   1.157163275548542e-05
-3.648136838369042e-06   7.613974976428215e-07   1.157163275548542e-05
-5.805348574555453e-06   5.072040422122851e-07   7.823763788583144e-06
-5.805348574555453e-06   5.072040422122851e-07   7.823763788583144e-06
-5.805348574555453e-06   5.072040422122851e-07   7.823763788583144e-06
-5.805348574555453e-06   5.072040422122851e-07   7.823763788583144e-06
-5.90636934975924e-06   5.268427360685798e-07   1.1648473174327907e-05
-5.90636934975924e-06   5.268427360685798e-07   1.1648473174327907e-05
-5.90636934975924e-06   5.268427360685798e-07   1.1648473174327907e-05
-5.90636934975924e-06   5.268427360685798e-07   1.1648473174327907e-05
-3.7632125262274492e-06   2.8715264646325157e-07   8.220359188871476e-06
-3.7632125262274492e-06   2.8715264646325157e-07   8.220359188871476e-06
-3.7632125262274492e-06   2.8715264646325157e-07   8.220359188871476e-06
-3.7632125262274492e-06   2.8715264646325157e-07   8.220359188871476e-06
-4.741614071414544e-06   6.091565140865698e-07   9.65782611027591e-06
-4.741614071414544e-06   6.091565140865698e-07   9.65782611027591e-06
-4.741614071414544e-06   6.091565140865698e-07   9.65782611027591e-06
-4.741614071414544e-06   6.091565140865698e-07   9.65782611027591e-06
-5.605725788091449e-06   1.8717755462354909e-06   9.978336009598405e-06
-5.605725788091449e-06   1.8717755462354909e-06   9.978336009598405e-06
-5.605725788091449e-06   1.8717755462354909e-06   9.978336009598405e-06
-5.605725788091449e-06   1.8717755462354909e-06   9.978336009598405e-06
-7.762246041765491e-06   1.3183077226216252e-06   6.052054892639956e-06
-7.762246041765491e-06   1.3183077226216252e-06   6.052054892639956e-06
-7.762246041765491e-06   1.3183077226216252e-06   6.052054892639956e-06
-7.762246041765491e-06   1.3183077226216252e-06   6.052054892639956e-06
-7.868494533954084e-06   1.6236834772199917e-06   9.68672263545995e-06
-7.868494533954084e-06   1.6236834772199917e-06   9.68672263545995e-06
-7.868494533954084e-06   1.6236834772199917e-06   9.68672263545995e-06
-7.868494533954084e-06   1.6236834772199917e-06   9.68672263545995e-06
-5.702214381948887e-06   1.0772568296232052e-06   6.4041117040093795e-06
-5.702214381948887e-06   1.0772568296232052e-06   6.4041117040093795e-06
-5.702214381948887e-06   1.0772568296232052e-06   6.4041117040093795e-06
-5.702214381948887e-06   1.0772568296232052e-06   6.4041117040093795e-06
-6.720365370870579e-06   1.4582050606340262e-06   7.872461080272265e-06
-6.720365370870579e-06   1.4582050606340262e-06   7.872461080272265e-06
-6.720365370870579e-06   1.4582050606340262e-06   7.872461080272265e-06
-6.720365370870579e-06   1.4582050606340262e-06   7.872461080272265e-06
-5.702214381948887e-06   1.6236834772199917e-06   1.0014578624017978e-05
-5.702214381948887e-06   1.6236834772199917e-06   1.0014578624017978e-05
-5.702214381948887e-06   1.6236834772199917e-06   1.0014578624017978e-05
-5.702214381948887e-06   1.6236834772199917e-06   1.0014578624017978e-05
-7.868494533954057e-06   1.0772568296232052e-06   6.076255715451256e-06
-7.868494533954057e-06   1.0772568296232052e-06   6.076255715451256e-06
-7.868494533954057e-06   1.0772568296232052e-06   6.076255715451256e-06
-7.868494533954057e-06   1.0772568296232052e-06   6.076255715451256e-06
-8.013947687228652e-06   1.3971937817603731e-06   1.0006221603169963e-05
-8.013947687228652e-06   1.3971937817603731e-06   1.0006221603169963e-05
-8.013947687228652e-06   1.3971937817603731e-06   1.0006221603169963e-05
-8.013947687228652e-06   1.3971937817603731e-06   1.0006221603169963e-05
-5.805348574555467e-06   8.620882746844028e-07   6.646286386293603e-06
-5.805348574555467e-06   8.620882746844028e-07   6.646286386293603e-06
-5.805348574555467e-06   8.620882746844028e-07   6.646286386293603e-06
-5.805348574555467e-06   8.620882746844028e-07   6.646286386293603e-06
-6.778016429059822e-06   1.281072763425334e-06   8.016008783889617e-06
-6.778016429059822e-06   1.281072763425334e-06   8.016008783889617e-06
-6.778016429059822e-06   1.281072763425334e-06   8.016008783889617e-06
-6.778016429059822e-06   1.281072763425334e-06   8.016008783889617e-06
-5.805348574555467e-06   1.3971937817603731e-06   1.0327284907415447e-05
-5.805348574555467e-06   1.3971937817603731e-06   1.0327284907415447e-05
-5.805348574555467e-06   1.3971937817603731e-06   1.0327284907415447e-05
-5.805348574555467e-06   1.3971937817603731e-06   1.0327284907415447e-05
-8.013947687228625e-06   8.620882746844028e-07   6.325223082047997e-06
-8.013947687228625e-06   8.620882746844028e-07   6.325223082047997e-06
-8.013947687228625e-06   8.620882746844028e-07   6.325223082047997e-06
-8.013947687228625e-06   8.620882746844028e-07   6.325223082047997e-06
-8.130233090124017e-06   1.154167418777473e-06   1.0359077157729845e-05
-8.130233090124017e-06   1.154167418777473e-06   1.0359077157729845e-05
-8.130233090124017e-06   1.154167418777473e-06   1.0359077157729845e-05
-8.130233090124017e-06   1.154167418777473e-06   1.0359077157729845e-05
-5.9063693497592265e-06   6.42124092785335e-07   6.959863586050556e-06
-5.9063693497592265e-06   6.42124092785335e-07   6.959863586050556e-06
-5.9063693497592265e-06   6.42124092785335e-07   6.959863586050556e-06
-5.9063693497592265e-06   6.42124092785335e-07   6.959863586050556e-06
-6.899253283547432e-06   1.1117920622191269e-06   8.33286936070414e-06
-6.899253283547432e-06   1.1117920622191269e-06   8.33286936070414e-06
-6.899253283547432e-06   1.1117920622191269e-06   8.33286936070414e-06
-6.899253283547432e-06   1.1117920622191269e-06   8.33286936070414e-06
-7.762246041765491e-06   2.318157768828235e-06   4.4302393563033695e-06
-7.762246041765491e-06   2.318157768828235e-06   4.4302393563033695e-06
-7.762246041765491e-06   2.318157768828235e-06   4.4302393563033695e-06
-7.762246041765491e-06   2.318157768828235e-06   4.4302393563033695e-06
-9.490937101268619e-06   1.571102280863699e-06   1.100854297686048e-06
-9.490937101268619e-06   1.571102280863699e-06   1.100854297686048e-06
-9.490937101268619e-06   1.571102280863699e-06   1.100854297686048e-06
-9.490937101268619e-06   1.571102280863699e-06   1.100854297686048e-06
-9.88951633236937e-06   2.1925178761765486e-06   5.204751053151718e-06
-9.88951633236937e-06   2.1925178761765486e-06   5.204751053151718e-06
-9.88951633236937e-06   2.1925178761765486e-06   5.204751053151718e-06
-9.88951633236937e-06   2.1925178761765486e-06   5.204751053151718e-06
-7.868494533954084e-06   1.4109044506103552e-06   2.30534944446593e-06
-7.868494533954084e-06   1.4109044506103552e-06   2.30534944446593e-06
-7.868494533954084e-06   1.4109044506103552e-06   2.30534944446593e-06
-7.868494533954084e-06   1.4109044506103552e-06   2.30534944446593e-06
-8.448232667267788e-06   1.85174057043254e-06   3.007077994762145e-06
-8.448232667267788e-06   1.85174057043254e-06   3.007077994762145e-06
-8.448232667267788e-06   1.85174057043254e-06   3.007077994762145e-06
-8.448232667267788e-06   1.85174057043254e-06   3.007077994762145e-06
-7.868494533954057e-06   2.19251787617644e-06   5.673719108491434e-06
-7.868494533954057e-06   2.19251787617644e-06   5.673719108491434e-06
-7.868494533954057e-06   2.19251787617644e-06   5.673719108491434e-06
-7.868494533954057e-06   2.19251787617644e-06   5.673719108491434e-06
-9.889516332369424e-06   1.4109044506104094e-06   1.8363813891262816e-06
-9.889516332369424e-06   1.4109044506104094e-06   1.8363813891262816e-06
-9.889516332369424e-06   1.4109044506104094e-06   1.8363813891262816e-06
-9.889516332369424e-06   1.4109044506104094e-06   1.8363813891262816e-06
-1.0230673014086886e-05   2.0856389664030946e-06   6.127906706165204e-06
-1.0230673014086886e-05   2.0856389664030946e-06   6.127906706165204e-06
-1.0230673014086886e-05   2.0856389664030946e-06   6.127906706165204e-06
-1.0230673014086886e-05   2.0856389664030946e-06   6.127906706165204e-06
-8.013947687228652e-06   1.3002316902216188e-06   2.9046088604436145e-06
-8.013947687228652e-06   1.3002316902216188e-06   2.9046088604436145e-06
-8.013947687228652e-06   1.3002316902216188e-06   2.9046088604436145e-06
-8.013947687228652e-06   1.3002316902216188e-06   2.9046088604436145e-06
-8.787739269789667e-06   1.790222240932466e-06   3.900267167619015e-06
-8.787739269789667e-06   1.790222240932466e-06   3.900267167619015e-06
-8.787739269789667e-06   1.790222240932466e-06   3.900267167619015e-06
-8.787739269789667e-06   1.790222240932466e-06   3.900267167619015e-06
-8.013947687228652e-06   2.0856389664030946e-06   6.599151071874014e-06
-8.013947687228652e-06   2.0856389664030946e-06   6.599151071874014e-06
-8.013947687228652e-06   2.0856389664030946e-06   6.599151071874014e-06
-8.013947687228652e-06   2.0856389664030946e-06   6.599151071874014e-06
-1.0230673014086886e-05   1.3002316902216188e-06   2.4333644947347795e-06
-1.0230673014086886e-05   1.3002316902216188e-06   2.4333644947347795e-06
-1.0230673014086886e-05   1.3002316902216188e-06   2.4333644947347795e-06
-1.0230673014086886e-05   1.3002316902216188e-06   2.4333644947347795e-06
-1.0662780940103668e-05   1.791839308319795e-06   7.795930443001945e-06
-1.0662780940103668e-05   1.791839308319795e-06   7.795930443001945e-06
-1.0662780940103668e-05   1.791839308319795e-06   7.795930443001945e-06
-1.0662780940103668e-05   1.791839308319795e-06   7.795930443001945e-06
-8.13023309012399e-06   1.042874076042971e-06   4.024396499068564e-06
-8.13023309012399e-06   1.042874076042971e-06   4.024396499068564e-06
-8.13023309012399e-06   1.042874076042971e-06   4.024396499068564e-06
-8.13023309012399e-06   1.042874076042971e-06   4.024396499068564e-06
-8.881835878093696e-06   1.6679207367111676e-06   4.902039815950492e-06
-8.881835878093696e-06   1.6679207367111676e-06   4.902039815950492e-06
-8.881835878093696e-06   1.6679207367111676e-06   4.902039815950492e-06
-8.881835878093696e-06   1.6679207367111676e-06   4.902039815950492e-06
-3.566019270856706e-06   6.623410470084118e-07   4.674565023007741e-06
-3.566019270856706e-06   6.623410470084118e-07   4.674565023007741e-06
-3.566019270856706e-06   6.623410470084118e-07   4.674565023007741e-06
-3.566019270856706e-06   6.623410470084118e-07   4.674565023007741e-06
-4.0391523336097206e-06   1.2763883069683729e-06   4.254438274395349e-06
-4.0391523336097206e-06   1.2763883069683729e-06   4.254438274395349e-06
-4.0391523336097206e-06   1.2763883069683729e-06   4.254438274395349e-06
-4.0391523336097206e-06   1.2763883069683729e-06   4.254438274395349e-06
-4.150041735526904e-06   4.384083405895977e-07   4.983349041474207e-06
-4.150041735526904e-06   4.384083405895977e-07   4.983349041474207e-06
-4.150041735526904e-06   4.384083405895977e-07   4.983349041474207e-06
-4.150041735526904e-06   4.384083405895977e-07   4.983349041474207e-06
-4.018896167285835e-06   9.92141103058335e-07   4.4325334369245094e-06
-4.018896167285835e-06   9.92141103058335e-07   4.4325334369245094e-06
-4.018896167285835e-06   9.92141103058335e-07   4.4325334369245094e-06
-4.018896167285835e-06   9.92141103058335e-07   4.4325334369245094e-06
-3.849752198647554e-06   7.846994187870856e-07   4.275091833090159e-06
-3.849752198647554e-06   7.846994187870856e-07   4.275091833090159e-06
-3.849752198647554e-06   7.846994187870856e-07   4.275091833090159e-06
-3.849752198647554e-06   7.846994187870856e-07   4.275091833090159e-06
-4.018896167285835e-06   4.384083405895977e-07   4.651109383992905e-06
-4.018896167285835e-06   4.384083405895977e-07   4.651109383992905e-06
-4.018896167285835e-06   4.384083405895977e-07   4.651109383992905e-06
-4.018896167285835e-06   4.384083405895977e-07   4.651109383992905e-06
-4.150041735526904e-06   9.92141103058335e-07   4.7647730944057505e-06
-4.150041735526904e-06   9.92141103058335e-07   4.7647730944057505e-06
-4.150041735526904e-06   9.92141103058335e-07   4.7647730944057505e-06
-4.150041735526904e-06   9.92141103058335e-07   4.7647730944057505e-06
-4.29369578205074e-06   3.17171310509185e-07   5.118881421864967e-06
-4.29369578205074e-06   3.17171310509185e-07   5.118881421864967e-06
-4.29369578205074e-06   3.17171310509185e-07   5.118881421864967e-06
-4.29369578205074e-06   3.17171310509185e-07   5.118881421864967e-06
-4.460979658047695e-06   7.976399448090307e-07   5.10940670127988e-06
-4.460979658047695e-06   7.976399448090307e-07   5.10940670127988e-06
-4.460979658047695e-06   7.976399448090307e-07   5.10940670127988e-06
-4.460979658047695e-06   7.976399448090307e-07   5.10940670127988e-06
-4.118529844817729e-06   6.626939408575913e-07   4.619624614934066e-06
-4.118529844817729e-06   6.626939408575913e-07   4.619624614934066e-06
-4.118529844817729e-06   6.626939408575913e-07   4.619624614934066e-06
-4.118529844817729e-06   6.626939408575913e-07   4.619624614934066e-06
-4.460979658047706e-06   3.17171310509185e-07   4.830600241284891e-06
-4.460979658047706e-06   3.17171310509185e-07   4.830600241284891e-06
-4.460979658047706e-06   3.17171310509185e-07   4.830600241284891e-06
-4.460979658047706e-06   3.17171310509185e-07   4.830600241284891e-06
-4.29369578205074e-06   7.976399448090307e-07   5.39768788185982e-06
-4.29369578205074e-06   7.976399448090307e-07   5.39768788185982e-06
-4.29369578205074e-06   7.976399448090307e-07   5.39768788185982e-06
-4.29369578205074e-06   7.976399448090307e-07   5.39768788185982e-06
-4.38766971162612e-06   6.199772495000611e-08   5.587290600154955e-06
-4.38766971162612e-06   6.199772495000611e-08   5.587290600154955e-06
-4.38766971162612e-06   6.199772495000611e-08   5.587290600154955e-06
-4.38766971162612e-06   6.199772495000611e-08   5.587290600154955e-06
-4.9327001947639245e-06   3.203520887171737e-07   6.3406621204575595e-06
-4.9327001947639245e-06   3.203520887171737e-07   6.3406621204575595e-06
-4.9327001947639245e-06   3.203520887171737e-07   6.3406621204575595e-06
-4.9327001947639245e-06   3.203520887171737e-07   6.3406621204575595e-06
-4.314637805558505e-06   5.154740410142646e-07   5.1934849670701535e-06
-4.314637805558505e-06   5.154740410142646e-07   5.1934849670701535e-06
-4.314637805558505e-06   5.154740410142646e-07   5.1934849670701535e-06
-4.314637805558505e-06   5.154740410142646e-07   5.1934849670701535e-06
-4.039152333609712e-06   7.98301746591189e-07   9.15247246513823e-06
-4.039152333609712e-06   7.98301746591189e-07   9.15247246513823e-06
-4.039152333609712e-06   7.98301746591189e-07   9.15247246513823e-06
-4.039152333609712e-06   7.98301746591189e-07   9.15247246513823e-06
-4.1795163963943634e-06   3.316721858495782e-07   8.638554624052164e-06
-4.1795163963943634e-06   3.316721858495782e-07   8.638554624052164e-06
-4.1795163963943634e-06   3.316721858495782e-07   8.638554624052164e-06
-4.1795163963943634e-06   3.316721858495782e-07   8.638554624052164e-06
-4.21756074738981e-06   5.49321582919498e-07   8.804082803051314e-06
-4.21756074738981e-06   5.49321582919498e-07   8.804082803051314e-06
-4.21756074738981e-06   5.49321582919498e-07   8.804082803051314e-06
-4.21756074738981e-06   5.49321582919498e-07   8.804082803051314e-06
-4.150041735526904e-06   1.551110241243569e-07   8.928077451890187e-06
-4.150041735526904e-06   1.551110241243569e-07   8.928077451890187e-06
-4.150041735526904e-06   1.551110241243569e-07   8.928077451890187e-06
-4.150041735526904e-06   1.551110241243569e-07   8.928077451890187e-06
-4.135743932745617e-06   4.040074803657919e-07   8.754909906843209e-06
-4.135743932745617e-06   4.040074803657919e-07   8.754909906843209e-06
-4.135743932745617e-06   4.040074803657919e-07   8.754909906843209e-06
-4.135743932745617e-06   4.040074803657919e-07   8.754909906843209e-06
-4.150041735526899e-06   5.493215829195522e-07   9.040609138328247e-06
-4.150041735526899e-06   5.493215829195522e-07   9.040609138328247e-06
-4.150041735526899e-06   5.493215829195522e-07   9.040609138328247e-06
-4.150041735526899e-06   5.493215829195522e-07   9.040609138328247e-06
-4.217560747389803e-06   1.551110241243569e-07   8.691551116613109e-06
-4.217560747389803e-06   1.551110241243569e-07   8.691551116613109e-06
-4.217560747389803e-06   1.551110241243569e-07   8.691551116613109e-06
-4.217560747389803e-06   1.551110241243569e-07   8.691551116613109e-06
-4.2639649286383986e-06   3.2131250280917865e-07   8.91461531561243e-06
-4.2639649286383986e-06   3.2131250280917865e-07   8.91461531561243e-06
-4.2639649286383986e-06   3.2131250280917865e-07   8.91461531561243e-06
-4.2639649286383986e-06   3.2131250280917865e-07   8.91461531561243e-06
-4.29369578205074e-06   -4.606929390705769e-08   9.184595815996044e-06
-4.29369578205074e-06   -4.606929390705769e-08   9.184595815996044e-06
-4.29369578205074e-06   -4.606929390705769e-08   9.184595815996044e-06
-4.29369578205074e-06   -4.606929390705769e-08   9.184595815996044e-06
-4.18156633975515e-06   2.59663878579943e-07   8.814273508677716e-06
-4.18156633975515e-06   2.59663878579943e-07   8.814273508677716e-06
-4.18156633975515e-06   2.59663878579943e-07   8.814273508677716e-06
-4.18156633975515e-06   2.59663878579943e-07   8.814273508677716e-06
-4.29369578205074e-06   3.2131250280917865e-07   9.135044393642069e-06
-4.29369578205074e-06   3.2131250280917865e-07   9.135044393642069e-06
-4.29369578205074e-06   3.2131250280917865e-07   9.135044393642069e-06
-4.29369578205074e-06   3.2131250280917865e-07   9.135044393642069e-06
-4.263964928638385e-06   -4.60692939071119e-08   8.964166737966266e-06
-4.263964928638385e-06   -4.60692939071119e-08   8.964166737966266e-06
-4.263964928638385e-06   -4.60692939071119e-08   8.964166737966266e-06
-4.263964928638385e-06   -4.60692939071119e-08   8.964166737966266e-06
-4.299860738707401e-06   7.622705776788238e-08   9.161093752246515e-06
-4.299860738707401e-06   7.622705776788238e-08   9.161093752246515e-06
-4.299860738707401e-06   7.622705776788238e-08   9.161093752246515e-06
-4.299860738707401e-06   7.622705776788238e-08   9.161093752246515e-06
-4.387669711626115e-06   -3.082498718505575e-07   9.538128198215328e-06
-4.387669711626115e-06   -3.082498718505575e-07   9.538128198215328e-06
-4.387669711626115e-06   -3.082498718505575e-07   9.538128198215328e-06
-4.387669711626115e-06   -3.082498718505575e-07   9.538128198215328e-06
-4.250593479675058e-06   9.218652161405681e-08   9.069405975551263e-06
-4.250593479675058e-06   9.218652161405681e-08   9.069405975551263e-06
-4.250593479675058e-06   9.218652161405681e-08   9.069405975551263e-06
-4.250593479675058e-06   9.218652161405681e-08   9.069405975551263e-06
-4.179516396394377e-06   9.693706611022587e-07   1.0091781767843382e-05
-4.179516396394377e-06   9.693706611022587e-07   1.0091781767843382e-05
-4.179516396394377e-06   9.693706611022587e-07   1.0091781767843382e-05
-4.179516396394377e-06   9.693706611022587e-07   1.0091781767843382e-05
-4.5697987642794675e-06   9.41200319901146e-08   8.916160777234266e-06
-4.5697987642794675e-06   9.41200319901146e-08   8.916160777234266e-06
-4.5697987642794675e-06   9.41200319901146e-08   8.916160777234266e-06
-4.5697987642794675e-06   9.41200319901146e-08   8.916160777234266e-06
-4.586296493579566e-06   7.400860969419094e-07   9.576202596526921e-06
-4.586296493579566e-06   7.400860969419094e-07   9.576202596526921e-06
-4.586296493579566e-06   7.400860969419094e-07   9.576202596526921e-06
-4.586296493579566e-06   7.400860969419094e-07   9.576202596526921e-06
-4.217560747389803e-06   -5.282114601853731e-08   9.437387365320224e-06
-4.217560747389803e-06   -5.282114601853731e-08   9.437387365320224e-06
-4.217560747389803e-06   -5.282114601853731e-08   9.437387365320224e-06
-4.217560747389803e-06   -5.282114601853731e-08   9.437387365320224e-06
-4.381720707202289e-06   4.2178535352311447e-07   9.426223398616054e-06
-4.381720707202289e-06   4.2178535352311447e-07   9.426223398616054e-06
-4.381720707202289e-06   4.2178535352311447e-07   9.426223398616054e-06
-4.381720707202289e-06   4.2178535352311447e-07   9.426223398616054e-06
-4.21756074738981e-06   7.400860969419094e-07   1.0051946942303124e-05
-4.21756074738981e-06   7.400860969419094e-07   1.0051946942303124e-05
-4.21756074738981e-06   7.400860969419094e-07   1.0051946942303124e-05
-4.21756074738981e-06   7.400860969419094e-07   1.0051946942303124e-05
-4.586296493579552e-06   -5.28211460184831e-08   8.96164301954398e-06
-4.586296493579552e-06   -5.28211460184831e-08   8.96164301954398e-06
-4.586296493579552e-06   -5.28211460184831e-08   8.96164301954398e-06
-4.586296493579552e-06   -5.28211460184831e-08   8.96164301954398e-06
-4.61200189061397e-06   5.072040422122851e-07   9.720889280433154e-06
-4.61200189061397e-06   5.072040422122851e-07   9.720889280433154e-06
-4.61200189061397e-06   5.072040422122851e-07   9.720889280433154e-06
-4.61200189061397e-06   5.072040422122851e-07   9.720889280433154e-06
-4.263964928638385e-06   -2.286123776461626e-07   9.58231752905549e-06
-4.263964928638385e-06   -2.286123776461626e-07   9.58231752905549e-06
-4.263964928638385e-06   -2.286123776461626e-07   9.58231752905549e-06
-4.263964928638385e-06   -2.286123776461626e-07   9.58231752905549e-06
-4.389374423429251e-06   2.771889747611028e-07   9.48785254226229e-06
-4.389374423429251e-06   2.771889747611028e-07   9.48785254226229e-06
-4.389374423429251e-06   2.771889747611028e-07   9.48785254226229e-06
-4.389374423429251e-06   2.771889747611028e-07   9.48785254226229e-06
-4.2639649286383986e-06   5.072040422122851e-07   1.0162379132348104e-05
-4.2639649286383986e-06   5.072040422122851e-07   1.0162379132348104e-05
-4.2639649286383986e-06   5.072040422122851e-07   1.0162379132348104e-05
-4.2639649286383986e-06   5.072040422122851e-07   1.0162379132348104e-05
-4.6120018906139565e-06   -2.286123776461084e-07   9.140827677140445e-06
-4.6120018906139565e-06   -2.286123776461084e-07   9.140827677140445e-06
-4.6120018906139565e-06   -2.286123776461084e-07   9.140827677140445e-06
-4.6120018906139565e-06   -2.286123776461084e-07   9.140827677140445e-06
-4.630592067948991e-06   2.8715264646325157e-07   9.982586279590807e-06
-4.630592067948991e-06   2.8715264646325157e-07   9.982586279590807e-06
-4.630592067948991e-06   2.8715264646325157e-07   9.982586279590807e-06
-4.630592067948991e-06   2.8715264646325157e-07   9.982586279590807e-06
-4.299860738707401e-06   -4.0375338181640723e-07   9.845911014489173e-06
-4.299860738707401e-06   -4.0375338181640723e-07   9.845911014489173e-06
-4.299860738707401e-06   -4.0375338181640723e-07   9.845911014489173e-06
-4.299860738707401e-06   -4.0375338181640723e-07   9.845911014489173e-06
-4.404612019316774e-06   1.288329698815563e-07   9.700944671152411e-06
-4.404612019316774e-06   1.288329698815563e-07   9.700944671152411e-06
-4.404612019316774e-06   1.288329698815563e-07   9.700944671152411e-06
-4.404612019316774e-06   1.288329698815563e-07   9.700944671152411e-06
-4.5697987642794675e-06   1.3183077226216252e-06   8.241896212005708e-06
-4.5697987642794675e-06   1.3183077226216252e-06   8.241896212005708e-06
-4.5697987642794675e-06   1.3183077226216252e-06   8.241896212005708e-06
-4.5697987642794675e-06   1.3183077226216252e-06   8.241896212005708e-06
-5.103527694150971e-06   4.366797366557769e-07   6.823371203973687e-06
-5.103527694150971e-06   4.366797366557769e-07   6.823371203973687e-06
-5.103527694150971e-06   4.366797366557769e-07   6.823371203973687e-06
-5.103527694150971e-06   4.366797366557769e-07   6.823371203973687e-06
-5.117484807416284e-06   1.0772568296232052e-06   7.78611238877599e-06
-5.117484807416284e-06   1.0772568296232052e-06   7.78611238877599e-06
-5.117484807416284e-06   1.0772568296232052e-06   7.78611238877599e-06
-5.117484807416284e-06   1.0772568296232052e-06   7.78611238877599e-06
-4.586296493579566e-06   2.4233676286711985e-07   7.401750572435156e-06
-4.586296493579566e-06   2.4233676286711985e-07   7.401750572435156e-06
-4.586296493579566e-06   2.4233676286711985e-07   7.401750572435156e-06
-4.586296493579566e-06   2.4233676286711985e-07   7.401750572435156e-06
-4.831776944861252e-06   7.85004531801475e-07   7.485283996544001e-06
-4.831776944861252e-06   7.85004531801475e-07   7.485283996544001e-06
-4.831776944861252e-06   7.85004531801475e-07   7.485283996544001e-06
-4.831776944861252e-06   7.85004531801475e-07   7.485283996544001e-06
-4.586296493579566e-06   1.0772568296232052e-06   8.287064428829592e-06
-4.586296493579566e-06   1.0772568296232052e-06   8.287064428829592e-06
-4.586296493579566e-06   1.0772568296232052e-06   8.287064428829592e-06
-4.586296493579566e-06   1.0772568296232052e-06   8.287064428829592e-06
-5.117484807416284e-06   2.4233676286711985e-07   6.900798532381496e-06
-5.117484807416284e-06   2.4233676286711985e-07   6.900798532381496e-06
-5.117484807416284e-06   2.4233676286711985e-07   6.900798532381496e-06
-5.117484807416284e-06   2.4233676286711985e-07   6.900798532381496e-06
-5.177498847960262e-06   8.620882746844028e-07   8.071462286322298e-06
-5.177498847960262e-06   8.620882746844028e-07   8.071462286322298e-06
-5.177498847960262e-06   8.620882746844028e-07   8.071462286322298e-06
-5.177498847960262e-06   8.620882746844028e-07   8.071462286322298e-06
-4.61200189061397e-06   7.550562164886738e-08   7.600916949233091e-06
-4.61200189061397e-06   7.550562164886738e-08   7.600916949233091e-06
-4.61200189061397e-06   7.550562164886738e-08   7.600916949233091e-06
-4.61200189061397e-06   7.550562164886738e-08   7.600916949233091e-06
-4.82299254557494e-06   6.263787523002381e-07   7.622044162443494e-06
-4.82299254557494e-06   6.263787523002381e-07   7.622044162443494e-06
-4.82299254557494e-06   6.263787523002381e-07   7.622044162443494e-06
-4.82299254557494e-06   6.263787523002381e-07   7.622044162443494e-06
-4.6120018906139565e-06   8.620882746844028e-07   8.543411878143424e-06
-4.6120018906139565e-06   8.620882746844028e-07   8.543411878143424e-06
-4.6120018906139565e-06   8.620882746844028e-07   8.543411878143424e-06
-4.6120018906139565e-06   8.620882746844028e-07   8.543411878143424e-06
-5.177498847960262e-06   7.550562164886738e-08   7.128967357411784e-06
-5.177498847960262e-06   7.550562164886738e-08   7.128967357411784e-06
-5.177498847960262e-06   7.550562164886738e-08   7.128967357411784e-06
-5.177498847960262e-06   7.550562164886738e-08   7.128967357411784e-06
-5.214801567695704e-06   6.42124092785335e-07   8.42486304146212e-06
-5.214801567695704e-06   6.42124092785335e-07   8.42486304146212e-06
-5.214801567695704e-06   6.42124092785335e-07   8.42486304146212e-06
-5.214801567695704e-06   6.42124092785335e-07   8.42486304146212e-06
-4.630592067948991e-06   -9.294538899959999e-08   7.892222230955113e-06
-4.630592067948991e-06   -9.294538899959999e-08   7.892222230955113e-06
-4.630592067948991e-06   -9.294538899959999e-08   7.892222230955113e-06
-4.630592067948991e-06   -9.294538899959999e-08   7.892222230955113e-06
-4.8524964942083226e-06   4.841342783153861e-07   7.915815140998152e-06
-4.8524964942083226e-06   4.841342783153861e-07   7.915815140998152e-06
-4.8524964942083226e-06   4.841342783153861e-07   7.915815140998152e-06
-4.8524964942083226e-06   4.841342783153861e-07   7.915815140998152e-06
-5.103527694150971e-06   1.571102280863699e-06   3.209952118250997e-06
-5.103527694150971e-06   1.571102280863699e-06   3.209952118250997e-06
-5.103527694150971e-06   1.571102280863699e-06   3.209952118250997e-06
-5.103527694150971e-06   1.571102280863699e-06   3.209952118250997e-06
-5.119242439880498e-06   7.290827219836541e-07   2.678549140040478e-06
-5.119242439880498e-06   7.290827219836541e-07   2.678549140040478e-06
-5.119242439880498e-06   7.290827219836541e-07   2.678549140040478e-06
-5.119242439880498e-06   7.290827219836541e-07   2.678549140040478e-06
-5.382874931943041e-06   1.4109044506104094e-06   3.522880550135409e-06
-5.382874931943041e-06   1.4109044506104094e-06   3.522880550135409e-06
-5.382874931943041e-06   1.4109044506104094e-06   3.522880550135409e-06
-5.382874931943041e-06   1.4109044506104094e-06   3.522880550135409e-06
-5.117484807416257e-06   5.90361837851639e-07   3.5728892435793512e-06
-5.117484807416257e-06   5.90361837851639e-07   3.5728892435793512e-06
-5.117484807416257e-06   5.90361837851639e-07   3.5728892435793512e-06
-5.117484807416257e-06   5.90361837851639e-07   3.5728892435793512e-06
-5.011718162703429e-06   1.10876830801968e-06   3.0855676202905073e-06
-5.011718162703429e-06   1.10876830801968e-06   3.0855676202905073e-06
-5.011718162703429e-06   1.10876830801968e-06   3.0855676202905073e-06
-5.011718162703429e-06   1.10876830801968e-06   3.0855676202905073e-06
-5.117484807416257e-06   1.4109044506103552e-06   4.015206117790541e-06
-5.117484807416257e-06   1.4109044506103552e-06   4.015206117790541e-06
-5.117484807416257e-06   1.4109044506103552e-06   4.015206117790541e-06
-5.117484807416257e-06   1.4109044506103552e-06   4.015206117790541e-06
-5.382874931943041e-06   5.903618378515847e-07   3.080563675924097e-06
-5.382874931943041e-06   5.903618378515847e-07   3.080563675924097e-06
-5.382874931943041e-06   5.903618378515847e-07   3.080563675924097e-06
-5.382874931943041e-06   5.903618378515847e-07   3.080563675924097e-06
-5.613767253305393e-06   1.3002316902215646e-06   4.170681300050077e-06
-5.613767253305393e-06   1.3002316902215646e-06   4.170681300050077e-06
-5.613767253305393e-06   1.3002316902215646e-06   4.170681300050077e-06
-5.613767253305393e-06   1.3002316902215646e-06   4.170681300050077e-06
-5.177498847960235e-06   4.999537491084949e-07   3.9237340558093245e-06
-5.177498847960235e-06   4.999537491084949e-07   3.9237340558093245e-06
-5.177498847960235e-06   4.999537491084949e-07   3.9237340558093245e-06
-5.177498847960235e-06   4.999537491084949e-07   3.9237340558093245e-06
-5.201633290351468e-06   1.0295953333839289e-06   3.6461731758958226e-06
-5.201633290351468e-06   1.0295953333839289e-06   3.6461731758958226e-06
-5.201633290351468e-06   1.0295953333839289e-06   3.6461731758958226e-06
-5.201633290351468e-06   1.0295953333839289e-06   3.6461731758958226e-06
-5.177498847960208e-06   1.3002316902216188e-06   4.650848064717767e-06
-5.177498847960208e-06   1.3002316902216188e-06   4.650848064717767e-06
-5.177498847960208e-06   1.3002316902216188e-06   4.650848064717767e-06
-5.177498847960208e-06   1.3002316902216188e-06   4.650848064717767e-06
-5.61376725330542e-06   4.999537491084949e-07   3.443567291141404e-06
-5.61376725330542e-06   4.999537491084949e-07   3.443567291141404e-06
-5.61376725330542e-06   4.999537491084949e-07   3.443567291141404e-06
-5.61376725330542e-06   4.999537491084949e-07   3.443567291141404e-06
-5.952347783512126e-06   1.042874076042971e-06   5.3596942139495915e-06
-5.952347783512126e-06   1.042874076042971e-06   5.3596942139495915e-06
-5.952347783512126e-06   1.042874076042971e-06   5.3596942139495915e-06
-5.952347783512126e-06   1.042874076042971e-06   5.3596942139495915e-06
-5.214801567695704e-06   3.1466118249992873e-07   4.567378257047943e-06
-5.214801567695704e-06   3.1466118249992873e-07   4.567378257047943e-06
-5.214801567695704e-06   3.1466118249992873e-07   4.567378257047943e-06
-5.214801567695704e-06   3.1466118249992873e-07   4.567378257047943e-06
-5.2663061417244385e-06   9.3276585745914e-07   4.282356408786636e-06
-5.2663061417244385e-06   9.3276585745914e-07   4.282356408786636e-06
-5.2663061417244385e-06   9.3276585745914e-07   4.282356408786636e-06
-5.2663061417244385e-06   9.3276585745914e-07   4.282356408786636e-06
-9.626531848659997e-06   1.276388306968427e-06   3.9609331829263685e-06
-9.626531848659997e-06   1.276388306968427e-06   3.9609331829263685e-06
-9.626531848659997e-06   1.276388306968427e-06   3.9609331829263685e-06
-9.626531848659997e-06   1.276388306968427e-06   3.9609331829263685e-06
-6.562699535702736e-06   1.7595793628205983e-06   9.357235004699767e-06
-6.562699535702736e-06   1.7595793628205983e-06   9.357235004699767e-06
-6.562699535702736e-06   1.7595793628205983e-06   9.357235004699767e-06
-6.562699535702736e-06   1.7595793628205983e-06   9.357235004699767e-06
-6.563979563610261e-06   9.92141103058335e-07   4.439857465834464e-06
-6.563979563610261e-06   9.92141103058335e-07   4.439857465834464e-06
-6.563979563610261e-06   9.92141103058335e-07   4.439857465834464e-06
-6.563979563610261e-06   9.92141103058335e-07   4.439857465834464e-06
-1.0639178657981005e-05   6.813363294070761e-07   1.1418338820643218e-05
-1.0639178657981005e-05   6.813363294070761e-07   1.1418338820643218e-05
-1.0639178657981005e-05   6.813363294070761e-07   1.1418338820643218e-05
-1.0639178657981005e-05   6.813363294070761e-07   1.1418338820643218e-05
-7.915983654334917e-06   1.0353903524362804e-06   6.667248067415536e-06
-7.915983654334917e-06   1.0353903524362804e-06   6.667248067415536e-06
-7.915983654334917e-06   1.0353903524362804e-06   6.667248067415536e-06
-7.915983654334917e-06   1.0353903524362804e-06   6.667248067415536e-06
-1.0639178657981026e-05   9.921411030583893e-07   4.626340330025235e-06
-1.0639178657981026e-05   9.921411030583893e-07   4.626340330025235e-06
-1.0639178657981026e-05   9.921411030583893e-07   4.626340330025235e-06
-1.0639178657981026e-05   9.921411030583893e-07   4.626340330025235e-06
-6.563979563610261e-06   6.813363294070761e-07   1.1231855956452474e-05
-6.563979563610261e-06   6.813363294070761e-07   1.1231855956452474e-05
-6.563979563610261e-06   6.813363294070761e-07   1.1231855956452474e-05
-6.563979563610261e-06   6.813363294070761e-07   1.1231855956452474e-05
-6.664731480702594e-06   7.976399448090307e-07   4.93806513747915e-06
-6.664731480702594e-06   7.976399448090307e-07   4.93806513747915e-06
-6.664731480702594e-06   7.976399448090307e-07   4.93806513747915e-06
-6.664731480702594e-06   7.976399448090307e-07   4.93806513747915e-06
-1.0686788314601103e-05   4.777376978112868e-07   1.1833434542175307e-05
-1.0686788314601103e-05   4.777376978112868e-07   1.1833434542175307e-05
-1.0686788314601103e-05   4.777376978112868e-07   1.1833434542175307e-05
-1.0686788314601103e-05   4.777376978112868e-07   1.1833434542175307e-05
-8.464974217372236e-06   6.352699413407069e-07   8.035891700676107e-06
-8.464974217372236e-06   6.352699413407069e-07   8.035891700676107e-06
-8.464974217372236e-06   6.352699413407069e-07   8.035891700676107e-06
-8.464974217372236e-06   6.352699413407069e-07   8.035891700676107e-06
-1.0686788314601123e-05   7.976399448090307e-07   5.130006485677826e-06
-1.0686788314601123e-05   7.976399448090307e-07   5.130006485677826e-06
-1.0686788314601123e-05   7.976399448090307e-07   5.130006485677826e-06
-1.0686788314601123e-05   7.976399448090307e-07   5.130006485677826e-06
-6.6647314807025805e-06   4.777376978112868e-07   1.1641493193976618e-05
-6.6647314807025805e-06   4.777376978112868e-07   1.1641493193976618e-05
-6.6647314807025805e-06   4.777376978112868e-07   1.1641493193976618e-05
-6.6647314807025805e-06   4.777376978112868e-07   1.1641493193976618e-05
-6.604632008033618e-06   3.203520887171737e-07   5.807302236603156e-06
-6.604632008033618e-06   3.203520887171737e-07   5.807302236603156e-06
-6.604632008033618e-06   3.203520887171737e-07   5.807302236603156e-06
-6.604632008033618e-06   3.203520887171737e-07   5.807302236603156e-06
-1.0819981567463993e-05   -3.946948912803916e-07   1.3261913023652289e-05
-1.0819981567463993e-05   -3.946948912803916e-07   1.3261913023652289e-05
-1.0819981567463993e-05   -3.946948912803916e-07   1.3261913023652289e-05
-1.0819981567463993e-05   -3.946948912803916e-07   1.3261913023652289e-05
-8.347149978468543e-06   2.9407530128752486e-07   8.727264926452493e-06
-8.347149978468543e-06   2.9407530128752486e-07   8.727264926452493e-06
-8.347149978468543e-06   2.9407530128752486e-07   8.727264926452493e-06
-8.347149978468543e-06   2.9407530128752486e-07   8.727264926452493e-06
-6.562699535702746e-06   3.316721858495782e-07   8.914941902539501e-06
-6.562699535702746e-06   3.316721858495782e-07   8.914941902539501e-06
-6.562699535702746e-06   3.316721858495782e-07   8.914941902539501e-06
-6.562699535702746e-06   3.316721858495782e-07   8.914941902539501e-06
-4.057416693041012e-06   -2.088187414558073e-06   1.1638497546731116e-05
-4.057416693041012e-06   -2.088187414558073e-06   1.1638497546731116e-05
-4.057416693041012e-06   -2.088187414558073e-06   1.1638497546731116e-05
-4.057416693041012e-06   -2.088187414558073e-06   1.1638497546731116e-05
-4.072829817758322e-06   1.551110241243027e-07   7.4780010072420585e-06
-4.072829817758322e-06   1.551110241243027e-07   7.4780010072420585e-06
-4.072829817758322e-06   1.551110241243027e-07   7.4780010072420585e-06
-4.072829817758322e-06   1.551110241243027e-07   7.4780010072420585e-06
-6.563979563610261e-06   -1.7201570026704983e-06   1.2755078066405576e-05
-6.563979563610261e-06   -1.7201570026704983e-06   1.2755078066405576e-05
-6.563979563610261e-06   -1.7201570026704983e-06   1.2755078066405576e-05
-6.563979563610261e-06   -1.7201570026704983e-06   1.2755078066405576e-05
-5.288729543515508e-06   -1.0347122889136327e-06   1.0218394537993614e-05
-5.288729543515508e-06   -1.0347122889136327e-06   1.0218394537993614e-05
-5.288729543515508e-06   -1.0347122889136327e-06   1.0218394537993614e-05
-5.288729543515508e-06   -1.0347122889136327e-06   1.0218394537993614e-05
-6.563979563610264e-06   1.551110241243027e-07   8.603161823318863e-06
-6.563979563610264e-06   1.551110241243027e-07   8.603161823318863e-06
-6.563979563610264e-06   1.551110241243027e-07   8.603161823318863e-06
-6.563979563610264e-06   1.551110241243027e-07   8.603161823318863e-06
-4.072829817758315e-06   -1.7201570026704983e-06   1.1629917250328697e-05
-4.072829817758315e-06   -1.7201570026704983e-06   1.1629917250328697e-05
-4.072829817758315e-06   -1.7201570026704983e-06   1.1629917250328697e-05
-4.072829817758315e-06   -1.7201570026704983e-06   1.1629917250328697e-05
-4.099082726712121e-06   -4.606929390705769e-08   7.69918684071351e-06
-4.099082726712121e-06   -4.606929390705769e-08   7.69918684071351e-06
-4.099082726712121e-06   -4.606929390705769e-08   7.69918684071351e-06
-4.099082726712121e-06   -4.606929390705769e-08   7.69918684071351e-06
-6.6647314807025805e-06   -1.7557130120768023e-06   1.3001054328266081e-05
-6.6647314807025805e-06   -1.7557130120768023e-06   1.3001054328266081e-05
-6.6647314807025805e-06   -1.7557130120768023e-06   1.3001054328266081e-05
-6.6647314807025805e-06   -1.7557130120768023e-06   1.3001054328266081e-05
-5.257469220196071e-06   -9.045191897435827e-07   1.0144900934021928e-05
-5.257469220196071e-06   -9.045191897435827e-07   1.0144900934021928e-05
-5.257469220196071e-06   -9.045191897435827e-07   1.0144900934021928e-05
-5.257469220196071e-06   -9.045191897435827e-07   1.0144900934021928e-05
-6.664731480702594e-06   -4.606929390705769e-08   8.72497307161533e-06
-6.664731480702594e-06   -4.606929390705769e-08   8.72497307161533e-06
-6.664731480702594e-06   -4.606929390705769e-08   8.72497307161533e-06
-6.664731480702594e-06   -4.606929390705769e-08   8.72497307161533e-06
-4.099082726712114e-06   -1.7557130120768023e-06   1.1975268097364255e-05
-4.099082726712114e-06   -1.7557130120768023e-06   1.1975268097364255e-05
-4.099082726712114e-06   -1.7557130120768023e-06   1.1975268097364255e-05
-4.099082726712114e-06   -1.7557130120768023e-06   1.1975268097364255e-05
-4.071373464271792e-06   -3.082498718505575e-07   7.977508318976641e-06
-4.071373464271792e-06   -3.082498718505575e-07   7.977508318976641e-06
-4.071373464271792e-06   -3.082498718505575e-07   7.977508318976641e-06
-4.071373464271792e-06   -3.082498718505575e-07   7.977508318976641e-06
-6.604632008033601e-06   -1.7619955003905351e-06   1.307185326903692e-05
-6.604632008033601e-06   -1.7619955003905351e-06   1.307185326903692e-05
-6.604632008033601e-06   -1.7619955003905351e-06   1.307185326903692e-05
-6.604632008033601e-06   -1.7619955003905351e-06   1.307185326903692e-05
-5.292828632029986e-06   -1.009001989125529e-06   1.0433718202271919e-05
-5.292828632029986e-06   -1.009001989125529e-06   1.0433718202271919e-05
-5.292828632029986e-06   -1.009001989125529e-06   1.0433718202271919e-05
-5.292828632029986e-06   -1.009001989125529e-06   1.0433718202271919e-05
-4.057416693041012e-06   9.41200319901146e-08   8.26578267294428e-06
-4.057416693041012e-06   9.41200319901146e-08   8.26578267294428e-06
-4.057416693041012e-06   9.41200319901146e-08   8.26578267294428e-06
-4.057416693041012e-06   9.41200319901146e-08   8.26578267294428e-06
-3.0223496867069175e-06   -1.6324130826173748e-06   8.954974481403314e-06
-3.0223496867069175e-06   -1.6324130826173748e-06   8.954974481403314e-06
-3.0223496867069175e-06   -1.6324130826173748e-06   8.954974481403314e-06
-3.0223496867069175e-06   -1.6324130826173748e-06   8.954974481403314e-06
-3.003623382680245e-06   -5.282114601853731e-08   7.293569177198658e-06
-3.003623382680245e-06   -5.282114601853731e-08   7.293569177198658e-06
-3.003623382680245e-06   -5.282114601853731e-08   7.293569177198658e-06
-3.003623382680245e-06   -5.282114601853731e-08   7.293569177198658e-06
-4.072829817758315e-06   -1.6032679439360051e-06   1.0005847981079354e-05
-4.072829817758315e-06   -1.6032679439360051e-06   1.0005847981079354e-05
-4.072829817758315e-06   -1.6032679439360051e-06   1.0005847981079354e-05
-4.072829817758315e-06   -1.6032679439360051e-06   1.0005847981079354e-05
-3.5185609892282825e-06   -8.227480496697471e-07   8.613754663636304e-06
-3.5185609892282825e-06   -8.227480496697471e-07   8.613754663636304e-06
-3.5185609892282825e-06   -8.227480496697471e-07   8.613754663636304e-06
-3.5185609892282825e-06   -8.227480496697471e-07   8.613754663636304e-06
-4.072829817758315e-06   -5.282114601853731e-08   8.22383725594916e-06
-4.072829817758315e-06   -5.282114601853731e-08   8.22383725594916e-06
-4.072829817758315e-06   -5.282114601853731e-08   8.22383725594916e-06
-4.072829817758315e-06   -5.282114601853731e-08   8.22383725594916e-06
-3.003623382680245e-06   -1.6032679439360322e-06   9.075579902328904e-06
-3.003623382680245e-06   -1.6032679439360322e-06   9.075579902328904e-06
-3.003623382680245e-06   -1.6032679439360322e-06   9.075579902328904e-06
-3.003623382680245e-06   -1.6032679439360322e-06   9.075579902328904e-06
-2.9903499843769797e-06   -2.286123776461626e-07   7.464368273658851e-06
-2.9903499843769797e-06   -2.286123776461626e-07   7.464368273658851e-06
-2.9903499843769797e-06   -2.286123776461626e-07   7.464368273658851e-06
-2.9903499843769797e-06   -2.286123776461626e-07   7.464368273658851e-06
-4.099082726712114e-06   -1.6502279745527143e-06   1.0165225535694567e-05
-4.099082726712114e-06   -1.6502279745527143e-06   1.0165225535694567e-05
-4.099082726712114e-06   -1.6502279745527143e-06   1.0165225535694567e-05
-4.099082726712114e-06   -1.6502279745527143e-06   1.0165225535694567e-05
-3.495833613387926e-06   -8.729306017404305e-07   8.693431923133401e-06
-3.495833613387926e-06   -8.729306017404305e-07   8.693431923133401e-06
-3.495833613387926e-06   -8.729306017404305e-07   8.693431923133401e-06
-3.495833613387926e-06   -8.729306017404305e-07   8.693431923133401e-06
-4.099082726712114e-06   -2.286123776461084e-07   8.31733763180276e-06
-4.099082726712114e-06   -2.286123776461084e-07   8.31733763180276e-06
-4.099082726712114e-06   -2.286123776461084e-07   8.31733763180276e-06
-4.099082726712114e-06   -2.286123776461084e-07   8.31733763180276e-06
-2.9903499843769932e-06   -1.6502279745527414e-06   9.312256177550659e-06
-2.9903499843769932e-06   -1.6502279745527414e-06   9.312256177550659e-06
-2.9903499843769932e-06   -1.6502279745527414e-06   9.312256177550659e-06
-2.9903499843769932e-06   -1.6502279745527414e-06   9.312256177550659e-06
-2.9433377850505564e-06   -4.0375338181640723e-07   7.730133538080017e-06
-2.9433377850505564e-06   -4.0375338181640723e-07   7.730133538080017e-06
-2.9433377850505564e-06   -4.0375338181640723e-07   7.730133538080017e-06
-2.9433377850505564e-06   -4.0375338181640723e-07   7.730133538080017e-06
-4.071373464271792e-06   -1.7134929733856393e-06   1.0396036758390196e-05
-4.071373464271792e-06   -1.7134929733856393e-06   1.0396036758390196e-05
-4.071373464271792e-06   -1.7134929733856393e-06   1.0396036758390196e-05
-4.071373464271792e-06   -1.7134929733856393e-06   1.0396036758390196e-05
-3.469890960537427e-06   -9.480732226777228e-07   8.934314068408263e-06
-3.469890960537427e-06   -9.480732226777228e-07   8.934314068408263e-06
-3.469890960537427e-06   -9.480732226777228e-07   8.934314068408263e-06
-3.469890960537427e-06   -9.480732226777228e-07   8.934314068408263e-06
-3.022349686706931e-06   4.366797366557227e-07   5.66605002249874e-06
-3.022349686706931e-06   4.366797366557227e-07   5.66605002249874e-06
-3.022349686706931e-06   4.366797366557227e-07   5.66605002249874e-06
-3.022349686706931e-06   4.366797366557227e-07   5.66605002249874e-06
-2.5637632341680278e-06   -6.736009872208978e-07   5.7641923424042865e-06
-2.5637632341680278e-06   -6.736009872208978e-07   5.7641923424042865e-06
-2.5637632341680278e-06   -6.736009872208978e-07   5.7641923424042865e-06
-2.5637632341680278e-06   -6.736009872208978e-07   5.7641923424042865e-06
-2.5182254789642676e-06   2.4233676286711985e-07   5.1172816609909295e-06
-2.5182254789642676e-06   2.4233676286711985e-07   5.1172816609909295e-06
-2.5182254789642676e-06   2.4233676286711985e-07   5.1172816609909295e-06
-2.5182254789642676e-06   2.4233676286711985e-07   5.1172816609909295e-06
-3.003623382680245e-06   -7.849883522977204e-07   6.542673236283216e-06
-3.003623382680245e-06   -7.849883522977204e-07   6.542673236283216e-06
-3.003623382680245e-06   -7.849883522977204e-07   6.542673236283216e-06
-3.003623382680245e-06   -7.849883522977204e-07   6.542673236283216e-06
-2.7571524338315833e-06   -1.5428524317281705e-07   5.753466456060542e-06
-2.7571524338315833e-06   -1.5428524317281705e-07   5.753466456060542e-06
-2.7571524338315833e-06   -1.5428524317281705e-07   5.753466456060542e-06
-2.7571524338315833e-06   -1.5428524317281705e-07   5.753466456060542e-06
-3.003623382680245e-06   2.4233676286711985e-07   5.733676730089834e-06
-3.003623382680245e-06   2.4233676286711985e-07   5.733676730089834e-06
-3.003623382680245e-06   2.4233676286711985e-07   5.733676730089834e-06
-3.003623382680245e-06   2.4233676286711985e-07   5.733676730089834e-06
-2.5182254789642676e-06   -7.849883522977204e-07   5.926278167184284e-06
-2.5182254789642676e-06   -7.849883522977204e-07   5.926278167184284e-06
-2.5182254789642676e-06   -7.849883522977204e-07   5.926278167184284e-06
-2.5182254789642676e-06   -7.849883522977204e-07   5.926278167184284e-06
-2.503244489410108e-06   7.550562164881317e-08   5.3565830836549075e-06
-2.503244489410108e-06   7.550562164881317e-08   5.3565830836549075e-06
-2.503244489410108e-06   7.550562164881317e-08   5.3565830836549075e-06
-2.503244489410108e-06   7.550562164881317e-08   5.3565830836549075e-06
-2.9903499843769932e-06   -8.709518151786859e-07   6.7363000373628454e-06
-2.9903499843769932e-06   -8.709518151786859e-07   6.7363000373628454e-06
-2.9903499843769932e-06   -8.709518151786859e-07   6.7363000373628454e-06
-2.9903499843769932e-06   -8.709518151786859e-07   6.7363000373628454e-06
-2.7116831326050035e-06   -2.712979671051568e-07   5.912062975565172e-06
-2.7116831326050035e-06   -2.712979671051568e-07   5.912062975565172e-06
-2.7116831326050035e-06   -2.712979671051568e-07   5.912062975565172e-06
-2.7116831326050035e-06   -2.712979671051568e-07   5.912062975565172e-06
-2.9903499843769797e-06   7.550562164881317e-08   5.9244575457514015e-06
-2.9903499843769797e-06   7.550562164881317e-08   5.9244575457514015e-06
-2.9903499843769797e-06   7.550562164881317e-08   5.9244575457514015e-06
-2.9903499843769797e-06   7.550562164881317e-08   5.9244575457514015e-06
-2.503244489410108e-06   -8.709518151786859e-07   6.168425575266324e-06
-2.503244489410108e-06   -8.709518151786859e-07   6.168425575266324e-06
-2.503244489410108e-06   -8.709518151786859e-07   6.168425575266324e-06
-2.503244489410108e-06   -8.709518151786859e-07   6.168425575266324e-06
-2.4724498722928463e-06   -9.294538899954578e-08   5.657069964606269e-06
-2.4724498722928463e-06   -9.294538899954578e-08   5.657069964606269e-06
-2.4724498722928463e-06   -9.294538899954578e-08   5.657069964606269e-06
-2.4724498722928463e-06   -9.294538899954578e-08   5.657069964606269e-06
-2.9433377850505564e-06   -9.828094005120123e-07   6.975801559443216e-06
-2.9433377850505564e-06   -9.828094005120123e-07   6.975801559443216e-06
-2.9433377850505564e-06   -9.828094005120123e-07   6.975801559443216e-06
-2.9433377850505564e-06   -9.828094005120123e-07   6.975801559443216e-06
-2.6798509645886226e-06   -3.747344339247345e-07   6.171811878721145e-06
-2.6798509645886226e-06   -3.747344339247345e-07   6.171811878721145e-06
-2.6798509645886226e-06   -3.747344339247345e-07   6.171811878721145e-06
-2.6798509645886226e-06   -3.747344339247345e-07   6.171811878721145e-06
-2.5637632341680278e-06   7.290827219836541e-07   1.3602712595674887e-06
-2.5637632341680278e-06   7.290827219836541e-07   1.3602712595674887e-06
-2.5637632341680278e-06   7.290827219836541e-07   1.3602712595674887e-06
-2.5637632341680278e-06   7.290827219836541e-07   1.3602712595674887e-06
-1.5506544680911685e-06   -6.928266972939536e-08   2.569766634667785e-06
-1.5506544680911685e-06   -6.928266972939536e-08   2.569766634667785e-06
-1.5506544680911685e-06   -6.928266972939536e-08   2.569766634667785e-06
-1.5506544680911685e-06   -6.928266972939536e-08   2.569766634667785e-06
-1.6462121706909056e-06   5.903618378515847e-07   1.3756658804281278e-06
-1.6462121706909056e-06   5.903618378515847e-07   1.3756658804281278e-06
-1.6462121706909056e-06   5.903618378515847e-07   1.3756658804281278e-06
-1.6462121706909056e-06   5.903618378515847e-07   1.3756658804281278e-06
-2.5182254789642676e-06   -9.914898174947693e-08   3.2427278859778713e-06
-2.5182254789642676e-06   -9.914898174947693e-08   3.2427278859778713e-06
-2.5182254789642676e-06   -9.914898174947693e-08   3.2427278859778713e-06
-2.5182254789642676e-06   -9.914898174947693e-08   3.2427278859778713e-06
-1.9983422414845183e-06   3.763137391212012e-07   2.0909781909892572e-06
-1.9983422414845183e-06   3.763137391212012e-07   2.0909781909892572e-06
-1.9983422414845183e-06   3.763137391212012e-07   2.0909781909892572e-06
-1.9983422414845183e-06   3.763137391212012e-07   2.0909781909892572e-06
-2.5182254789642405e-06   5.90361837851639e-07   1.7893723721886998e-06
-2.5182254789642405e-06   5.90361837851639e-07   1.7893723721886998e-06
-2.5182254789642405e-06   5.90361837851639e-07   1.7893723721886998e-06
-2.5182254789642405e-06   5.90361837851639e-07   1.7893723721886998e-06
-1.6462121706908785e-06   -9.914898174950403e-08   2.8290213942171367e-06
-1.6462121706908785e-06   -9.914898174950403e-08   2.8290213942171367e-06
-1.6462121706908785e-06   -9.914898174950403e-08   2.8290213942171367e-06
-1.6462121706908785e-06   -9.914898174950403e-08   2.8290213942171367e-06
-1.7258756059074427e-06   4.999537491084949e-07   1.7681380365796987e-06
-1.7258756059074427e-06   4.999537491084949e-07   1.7681380365796987e-06
-1.7258756059074427e-06   4.999537491084949e-07   1.7681380365796987e-06
-1.7258756059074427e-06   4.999537491084949e-07   1.7681380365796987e-06
-2.503244489410108e-06   -1.387324933461206e-07   3.4469645878902415e-06
-2.503244489410108e-06   -1.387324933461206e-07   3.4469645878902415e-06
-2.503244489410108e-06   -1.387324933461206e-07   3.4469645878902415e-06
-2.503244489410108e-06   -1.387324933461206e-07   3.4469645878902415e-06
-2.0434969428356845e-06   3.0925807047201535e-07   2.4119243386417754e-06
-2.0434969428356845e-06   3.0925807047201535e-07   2.4119243386417754e-06
-2.0434969428356845e-06   3.0925807047201535e-07   2.4119243386417754e-06
-2.0434969428356845e-06   3.0925807047201535e-07   2.4119243386417754e-06
-2.503244489410108e-06   4.999537491084949e-07   2.151349782052457e-06
-2.503244489410108e-06   4.999537491084949e-07   2.151349782052457e-06
-2.503244489410108e-06   4.999537491084949e-07   2.151349782052457e-06
-2.503244489410108e-06   4.999537491084949e-07   2.151349782052457e-06
-1.7258756059074156e-06   -1.387324933461206e-07   3.063752842417456e-06
-1.7258756059074156e-06   -1.387324933461206e-07   3.063752842417456e-06
-1.7258756059074156e-06   -1.387324933461206e-07   3.063752842417456e-06
-1.7258756059074156e-06   -1.387324933461206e-07   3.063752842417456e-06
-1.9055735686858899e-06   3.1466118249992873e-07   2.4706855902103847e-06
-1.9055735686858899e-06   3.1466118249992873e-07   2.4706855902103847e-06
-1.9055735686858899e-06   3.1466118249992873e-07   2.4706855902103847e-06
-1.9055735686858899e-06   3.1466118249992873e-07   2.4706855902103847e-06
-2.4724498722928463e-06   -1.8964230009949458e-07   3.7180615191150456e-06
-2.4724498722928463e-06   -1.8964230009949458e-07   3.7180615191150456e-06
-2.4724498722928463e-06   -1.8964230009949458e-07   3.7180615191150456e-06
-2.4724498722928463e-06   -1.8964230009949458e-07   3.7180615191150456e-06
-2.0564307602718892e-06   2.6236989266885434e-07   2.7534890167523634e-06
-2.0564307602718892e-06   2.6236989266885434e-07   2.7534890167523634e-06
-2.0564307602718892e-06   2.6236989266885434e-07   2.7534890167523634e-06
-2.0564307602718892e-06   2.6236989266885434e-07   2.7534890167523634e-06
-2.290407226280162e-05   1.7595793628205712e-06   1.0227972362697124e-05
-2.290407226280162e-05   1.7595793628205712e-06   1.0227972362697124e-05
-2.290407226280162e-05   1.7595793628205712e-06   1.0227972362697124e-05
-2.290407226280162e-05   1.7595793628205712e-06   1.0227972362697124e-05
-5.336934138921202e-06   -1.1698367653934373e-05   3.1431767692444856e-05
-5.336934138921202e-06   -1.1698367653934373e-05   3.1431767692444856e-05
-5.336934138921202e-06   -1.1698367653934373e-05   3.1431767692444856e-05
-5.336934138921202e-06   -1.1698367653934373e-05   3.1431767692444856e-05
-6.29674236173294e-06   6.813363294070761e-07   5.572936684422646e-06
-6.29674236173294e-06   6.813363294070761e-07   5.572936684422646e-06
-6.29674236173294e-06   6.813363294070761e-07   5.572936684422646e-06
-6.29674236173294e-06   6.813363294070761e-07   5.572936684422646e-06
-2.0889509875203527e-05   -9.169008707130553e-06   3.580442289546282e-05
-2.0889509875203527e-05   -9.169008707130553e-06   3.580442289546282e-05
-2.0889509875203527e-05   -9.169008707130553e-06   3.580442289546282e-05
-2.0889509875203527e-05   -9.169008707130553e-06   3.580442289546282e-05
-1.3915451869760293e-05   -4.561392559412059e-06   2.1416423197759662e-05
-1.3915451869760293e-05   -4.561392559412059e-06   2.1416423197759662e-05
-1.3915451869760293e-05   -4.561392559412059e-06   2.1416423197759662e-05
-1.3915451869760293e-05   -4.561392559412059e-06   2.1416423197759662e-05
-2.088950987520349e-05   6.813363294070761e-07   1.1483143706345203e-05
-2.088950987520349e-05   6.813363294070761e-07   1.1483143706345203e-05
-2.088950987520349e-05   6.813363294070761e-07   1.1483143706345203e-05
-2.088950987520349e-05   6.813363294070761e-07   1.1483143706345203e-05
-6.29674236173295e-06   -9.169008707130553e-06   2.989421587354025e-05
-6.29674236173295e-06   -9.169008707130553e-06   2.989421587354025e-05
-6.29674236173295e-06   -9.169008707130553e-06   2.989421587354025e-05
-6.29674236173295e-06   -9.169008707130553e-06   2.989421587354025e-05
-6.4553914356325765e-06   4.777376978112868e-07   6.1269291239985185e-06
-6.4553914356325765e-06   4.777376978112868e-07   6.1269291239985185e-06
-6.4553914356325765e-06   4.777376978112868e-07   6.1269291239985185e-06
-6.4553914356325765e-06   4.777376978112868e-07   6.1269291239985185e-06
-1.9713417059535408e-05   -7.960423215143843e-06   3.328653504494293e-05
-1.9713417059535408e-05   -7.960423215143843e-06   3.328653504494293e-05
-1.9713417059535408e-05   -7.960423215143843e-06   3.328653504494293e-05
-1.9713417059535408e-05   -7.960423215143843e-06   3.328653504494293e-05
-1.3512040933684572e-05   -4.329557698717142e-06   2.0772388858668868e-05
-1.3512040933684572e-05   -4.329557698717142e-06   2.0772388858668868e-05
-1.3512040933684572e-05   -4.329557698717142e-06   2.0772388858668868e-05
-1.3512040933684572e-05   -4.329557698717142e-06   2.0772388858668868e-05
-1.9713417059535374e-05   4.777376978112868e-07   1.11898256717716e-05
-1.9713417059535374e-05   4.777376978112868e-07   1.11898256717716e-05
-1.9713417059535374e-05   4.777376978112868e-07   1.11898256717716e-05
-1.9713417059535374e-05   4.777376978112868e-07   1.11898256717716e-05
-6.45539143563259e-06   -7.960423215143843e-06   2.8223638497169853e-05
-6.45539143563259e-06   -7.960423215143843e-06   2.8223638497169853e-05
-6.45539143563259e-06   -7.960423215143843e-06   2.8223638497169853e-05
-6.45539143563259e-06   -7.960423215143843e-06   2.8223638497169853e-05
-7.104358294116722e-06   -3.946948912803645e-07   7.657139008634096e-06
-7.104358294116722e-06   -3.946948912803645e-07   7.657139008634096e-06
-7.104358294116722e-06   -3.946948912803645e-07   7.657139008634096e-06
-7.104358294116722e-06   -3.946948912803645e-07   7.657139008634096e-06
-1.8200411157275637e-05   -6.348888398123742e-06   2.9723076551338266e-05
-1.8200411157275637e-05   -6.348888398123742e-06   2.9723076551338266e-05
-1.8200411157275637e-05   -6.348888398123742e-06   2.9723076551338266e-05
-1.8200411157275637e-05   -6.348888398123742e-06   2.9723076551338266e-05
-1.3013681131211287e-05   -4.000180109390105e-06   1.9669301534657528e-05
-1.3013681131211287e-05   -4.000180109390105e-06   1.9669301534657528e-05
-1.3013681131211287e-05   -4.000180109390105e-06   1.9669301534657528e-05
-1.3013681131211287e-05   -4.000180109390105e-06   1.9669301534657528e-05
-5.336934138921192e-06   -2.088187414558073e-06   5.886382454920033e-06
-5.336934138921192e-06   -2.088187414558073e-06   5.886382454920033e-06
-5.336934138921192e-06   -2.088187414558073e-06   5.886382454920033e-06
-5.336934138921192e-06   -2.088187414558073e-06   5.886382454920033e-06
-1.8451589079049351e-06   -3.766311484490503e-06   1.0699133397987732e-05
-1.8451589079049351e-06   -3.766311484490503e-06   1.0699133397987732e-05
-1.8451589079049351e-06   -3.766311484490503e-06   1.0699133397987732e-05
-1.8451589079049351e-06   -3.766311484490503e-06   1.0699133397987732e-05
-2.080364937305317e-06   -1.7201570026704983e-06   5.167227387911519e-06
-2.080364937305317e-06   -1.7201570026704983e-06   5.167227387911519e-06
-2.080364937305317e-06   -1.7201570026704983e-06   5.167227387911519e-06
-2.080364937305317e-06   -1.7201570026704983e-06   5.167227387911519e-06
-6.29674236173295e-06   -4.9350426801109215e-06   1.412345450175514e-05
-6.29674236173295e-06   -4.9350426801109215e-06   1.412345450175514e-05
-6.29674236173295e-06   -4.9350426801109215e-06   1.412345450175514e-05
-6.29674236173295e-06   -4.9350426801109215e-06   1.412345450175514e-05
-3.6866809533031205e-06   -2.564491944482896e-06   8.351021712995255e-06
-3.6866809533031205e-06   -2.564491944482896e-06   8.351021712995255e-06
-3.6866809533031205e-06   -2.564491944482896e-06   8.351021712995255e-06
-3.6866809533031205e-06   -2.564491944482896e-06   8.351021712995255e-06
-6.296742361732937e-06   -1.7201570026704983e-06   7.0961587943757076e-06
-6.296742361732937e-06   -1.7201570026704983e-06   7.0961587943757076e-06
-6.296742361732937e-06   -1.7201570026704983e-06   7.0961587943757076e-06
-6.296742361732937e-06   -1.7201570026704983e-06   7.0961587943757076e-06
-2.080364937305317e-06   -4.9350426801109215e-06   1.2194523095290888e-05
-2.080364937305317e-06   -4.9350426801109215e-06   1.2194523095290888e-05
-2.080364937305317e-06   -4.9350426801109215e-06   1.2194523095290888e-05
-2.080364937305317e-06   -4.9350426801109215e-06   1.2194523095290888e-05
-2.283347177005953e-06   -1.7557130120767752e-06   5.812408033188432e-06
-2.283347177005953e-06   -1.7557130120767752e-06   5.812408033188432e-06
-2.283347177005953e-06   -1.7557130120767752e-06   5.812408033188432e-06
-2.283347177005953e-06   -1.7557130120767752e-06   5.812408033188432e-06
-6.45539143563259e-06   -4.545850053909376e-06   1.4439897355998999e-05
-6.45539143563259e-06   -4.545850053909376e-06   1.4439897355998999e-05
-6.45539143563259e-06   -4.545850053909376e-06   1.4439897355998999e-05
-6.45539143563259e-06   -4.545850053909376e-06   1.4439897355998999e-05
-4.178733340335053e-06   -3.1169257223474263e-06   9.78811259823268e-06
-4.178733340335053e-06   -3.1169257223474263e-06   9.78811259823268e-06
-4.178733340335053e-06   -3.1169257223474263e-06   9.78811259823268e-06
-4.178733340335053e-06   -3.1169257223474263e-06   9.78811259823268e-06
-6.4553914356325765e-06   -1.7557130120767752e-06   7.486490258287962e-06
-6.4553914356325765e-06   -1.7557130120767752e-06   7.486490258287962e-06
-6.4553914356325765e-06   -1.7557130120767752e-06   7.486490258287962e-06
-6.4553914356325765e-06   -1.7557130120767752e-06   7.486490258287962e-06
-2.283347177005953e-06   -4.545850053909376e-06   1.2765815130899452e-05
-2.283347177005953e-06   -4.545850053909376e-06   1.2765815130899452e-05
-2.283347177005953e-06   -4.545850053909376e-06   1.2765815130899452e-05
-2.283347177005953e-06   -4.545850053909376e-06   1.2765815130899452e-05
-2.6167331771586097e-06   -1.7619955003905622e-06   6.37514357701343e-06
-2.6167331771586097e-06   -1.7619955003905622e-06   6.37514357701343e-06
-2.6167331771586097e-06   -1.7619955003905622e-06   6.37514357701343e-06
-2.6167331771586097e-06   -1.7619955003905622e-06   6.37514357701343e-06
-7.1043582941167286e-06   -4.2969352753970014e-06   1.537548263694745e-05
-7.1043582941167286e-06   -4.2969352753970014e-06   1.537548263694745e-05
-7.1043582941167286e-06   -4.2969352753970014e-06   1.537548263694745e-05
-7.1043582941167286e-06   -4.2969352753970014e-06   1.537548263694745e-05
-4.4770335710527045e-06   -2.8489451999149024e-06   1.0127814053218192e-05
-4.4770335710527045e-06   -2.8489451999149024e-06   1.0127814053218192e-05
-4.4770335710527045e-06   -2.8489451999149024e-06   1.0127814053218192e-05
-4.4770335710527045e-06   -2.8489451999149024e-06   1.0127814053218192e-05
-1.8451589079049351e-06   -1.6324130826173748e-06   3.2319048163972322e-06
-1.8451589079049351e-06   -1.6324130826173748e-06   3.2319048163972322e-06
-1.8451589079049351e-06   -1.6324130826173748e-06   3.2319048163972322e-06
-1.8451589079049351e-06   -1.6324130826173748e-06   3.2319048163972322e-06
-1.0380701473954057e-06   -1.1313193729031405e-06   4.877708976408303e-06
-1.0380701473954057e-06   -1.1313193729031405e-06   4.877708976408303e-06
-1.0380701473954057e-06   -1.1313193729031405e-06   4.877708976408303e-06
-1.0380701473954057e-06   -1.1313193729031405e-06   4.877708976408303e-06
-1.0077416181914037e-06   -1.6032679439360051e-06   3.632191080312348e-06
-1.0077416181914037e-06   -1.6032679439360051e-06   3.632191080312348e-06
-1.0077416181914037e-06   -1.6032679439360051e-06   3.632191080312348e-06
-1.0077416181914037e-06   -1.6032679439360051e-06   3.632191080312348e-06
-2.080364937305317e-06   -1.4548796745191524e-06   5.33086365051866e-06
-2.080364937305317e-06   -1.4548796745191524e-06   5.33086365051866e-06
-2.080364937305317e-06   -1.4548796745191524e-06   5.33086365051866e-06
-2.080364937305317e-06   -1.4548796745191524e-06   5.33086365051866e-06
-1.3974215000438255e-06   -1.3649040794706796e-06   4.1386392313870544e-06
-1.3974215000438255e-06   -1.3649040794706796e-06   4.1386392313870544e-06
-1.3974215000438255e-06   -1.3649040794706796e-06   4.1386392313870544e-06
-1.3974215000438255e-06   -1.3649040794706796e-06   4.1386392313870544e-06
-2.0803649373053035e-06   -1.6032679439360322e-06   3.5431581186622096e-06
-2.0803649373053035e-06   -1.6032679439360322e-06   3.5431581186622096e-06
-2.0803649373053035e-06   -1.6032679439360322e-06   3.5431581186622096e-06
-2.0803649373053035e-06   -1.6032679439360322e-06   3.5431581186622096e-06
-1.0077416181914037e-06   -1.4548796745191524e-06   5.419896612168771e-06
-1.0077416181914037e-06   -1.4548796745191524e-06   5.419896612168771e-06
-1.0077416181914037e-06   -1.4548796745191524e-06   5.419896612168771e-06
-1.0077416181914037e-06   -1.4548796745191524e-06   5.419896612168771e-06
-1.0197757386969775e-06   -1.6502279745527143e-06   3.890260694885484e-06
-1.0197757386969775e-06   -1.6502279745527143e-06   3.890260694885484e-06
-1.0197757386969775e-06   -1.6502279745527143e-06   3.890260694885484e-06
-1.0197757386969775e-06   -1.6502279745527143e-06   3.890260694885484e-06
-2.283347177005953e-06   -1.8370692689415208e-06   6.1083178687003315e-06
-2.283347177005953e-06   -1.8370692689415208e-06   6.1083178687003315e-06
-2.283347177005953e-06   -1.8370692689415208e-06   6.1083178687003315e-06
-2.283347177005953e-06   -1.8370692689415208e-06   6.1083178687003315e-06
-1.4945508966928973e-06   -1.491716482692352e-06   4.586445729762398e-06
-1.4945508966928973e-06   -1.491716482692352e-06   4.586445729762398e-06
-1.4945508966928973e-06   -1.491716482692352e-06   4.586445729762398e-06
-1.4945508966928973e-06   -1.491716482692352e-06   4.586445729762398e-06
-2.283347177005953e-06   -1.6502279745527414e-06   4.002365471518737e-06
-2.283347177005953e-06   -1.6502279745527414e-06   4.002365471518737e-06
-2.283347177005953e-06   -1.6502279745527414e-06   4.002365471518737e-06
-2.283347177005953e-06   -1.6502279745527414e-06   4.002365471518737e-06
-1.0197757386969775e-06   -1.8370692689415208e-06   5.9962130920670375e-06
-1.0197757386969775e-06   -1.8370692689415208e-06   5.9962130920670375e-06
-1.0197757386969775e-06   -1.8370692689415208e-06   5.9962130920670375e-06
-1.0197757386969775e-06   -1.8370692689415208e-06   5.9962130920670375e-06
-1.0539376148299793e-06   -1.7134929733856393e-06   4.2804308855742975e-06
-1.0539376148299793e-06   -1.7134929733856393e-06   4.2804308855742975e-06
-1.0539376148299793e-06   -1.7134929733856393e-06   4.2804308855742975e-06
-1.0539376148299793e-06   -1.7134929733856393e-06   4.2804308855742975e-06
-2.6167331771586097e-06   -2.198732236579591e-06   7.176233714038344e-06
-2.6167331771586097e-06   -2.198732236579591e-06   7.176233714038344e-06
-2.6167331771586097e-06   -2.198732236579591e-06   7.176233714038344e-06
-2.6167331771586097e-06   -2.198732236579591e-06   7.176233714038344e-06
-1.6076716321310075e-06   -1.619502528331108e-06   5.146926647376596e-06
-1.6076716321310075e-06   -1.619502528331108e-06   5.146926647376596e-06
-1.6076716321310075e-06   -1.619502528331108e-06   5.146926647376596e-06
-1.6076716321310075e-06   -1.619502528331108e-06   5.146926647376596e-06
-1.0380701473954057e-06   -6.736009872208978e-07   1.0079473375527087e-06
-1.0380701473954057e-06   -6.736009872208978e-07   1.0079473375527087e-06
-1.0380701473954057e-06   -6.736009872208978e-07   1.0079473375527087e-06
-1.0380701473954057e-06   -6.736009872208978e-07   1.0079473375527087e-06
-7.90487282617845e-07   1.0437353025616872e-07   1.8873701560015845e-06
-7.90487282617845e-07   1.0437353025616872e-07   1.8873701560015845e-06
-7.90487282617845e-07   1.0437353025616872e-07   1.8873701560015845e-06
-7.90487282617845e-07   1.0437353025616872e-07   1.8873701560015845e-06
-6.482811593935486e-07   -7.849883522977204e-07   1.5590895077454434e-06
-6.482811593935486e-07   -7.849883522977204e-07   1.5590895077454434e-06
-6.482811593935486e-07   -7.849883522977204e-07   1.5590895077454434e-06
-6.482811593935486e-07   -7.849883522977204e-07   1.5590895077454434e-06
-1.0077416181914037e-06   -1.8646529833107547e-08   1.6983851789297228e-06
-1.0077416181914037e-06   -1.8646529833107547e-08   1.6983851789297228e-06
-1.0077416181914037e-06   -1.8646529833107547e-08   1.6983851789297228e-06
-1.0077416181914037e-06   -1.8646529833107547e-08   1.6983851789297228e-06
-8.166347788019239e-07   -3.437341795780875e-07   1.5749263697941427e-06
-8.166347788019239e-07   -3.437341795780875e-07   1.5749263697941427e-06
-8.166347788019239e-07   -3.437341795780875e-07   1.5749263697941427e-06
-8.166347788019239e-07   -3.437341795780875e-07   1.5749263697941427e-06
-1.0077416181914037e-06   -7.849883522977204e-07   1.0992844142666716e-06
-1.0077416181914037e-06   -7.849883522977204e-07   1.0992844142666716e-06
-1.0077416181914037e-06   -7.849883522977204e-07   1.0992844142666716e-06
-1.0077416181914037e-06   -7.849883522977204e-07   1.0992844142666716e-06
-6.482811593935486e-07   -1.8646529833107547e-08   2.1581902724084946e-06
-6.482811593935486e-07   -1.8646529833107547e-08   2.1581902724084946e-06
-6.482811593935486e-07   -1.8646529833107547e-08   2.1581902724084946e-06
-6.482811593935486e-07   -1.8646529833107547e-08   2.1581902724084946e-06
-5.739722107948571e-07   -8.709518151786859e-07   1.7136557192382138e-06
-5.739722107948571e-07   -8.709518151786859e-07   1.7136557192382138e-06
-5.739722107948571e-07   -8.709518151786859e-07   1.7136557192382138e-06
-5.739722107948571e-07   -8.709518151786859e-07   1.7136557192382138e-06
-1.0197757386969775e-06   -2.0536654094451875e-07   2.057310434534521e-06
-1.0197757386969775e-06   -2.0536654094451875e-07   2.057310434534521e-06
-1.0197757386969775e-06   -2.0536654094451875e-07   2.057310434534521e-06
-1.0197757386969775e-06   -2.0536654094451875e-07   2.057310434534521e-06
-7.482523154275103e-07   -4.3434010477754153e-07   1.7421555340518357e-06
-7.482523154275103e-07   -4.3434010477754153e-07   1.7421555340518357e-06
-7.482523154275103e-07   -4.3434010477754153e-07   1.7421555340518357e-06
-7.482523154275103e-07   -4.3434010477754153e-07   1.7421555340518357e-06
-1.019775738696991e-06   -8.709518151786859e-07   1.3143045546976448e-06
-1.019775738696991e-06   -8.709518151786859e-07   1.3143045546976448e-06
-1.019775738696991e-06   -8.709518151786859e-07   1.3143045546976448e-06
-1.019775738696991e-06   -8.709518151786859e-07   1.3143045546976448e-06
-5.739722107948571e-07   -2.0536654094451875e-07   2.4566615990750224e-06
-5.739722107948571e-07   -2.0536654094451875e-07   2.4566615990750224e-06
-5.739722107948571e-07   -2.0536654094451875e-07   2.4566615990750224e-06
-5.739722107948571e-07   -2.0536654094451875e-07   2.4566615990750224e-06
-4.605282761538387e-07   -9.828094005120123e-07   1.8886399049021984e-06
-4.605282761538387e-07   -9.828094005120123e-07   1.8886399049021984e-06
-4.605282761538387e-07   -9.828094005120123e-07   1.8886399049021984e-06
-4.605282761538387e-07   -9.828094005120123e-07   1.8886399049021984e-06
-1.0539376148299793e-06   -5.784752949563468e-07   2.6350550060289923e-06
-1.0539376148299793e-06   -5.784752949563468e-07   2.6350550060289923e-06
-1.0539376148299793e-06   -5.784752949563468e-07   2.6350550060289923e-06
-1.0539376148299793e-06   -5.784752949563468e-07   2.6350550060289923e-06
-6.967118347836918e-07   -5.689349622350323e-07   2.033954506319225e-06
-6.967118347836918e-07   -5.689349622350323e-07   2.033954506319225e-06
-6.967118347836918e-07   -5.689349622350323e-07   2.033954506319225e-06
-6.967118347836918e-07   -5.689349622350323e-07   2.033954506319225e-06
-7.90487282617845e-07   -6.928266972939536e-08   -1.2406744246696975e-06
-7.90487282617845e-07   -6.928266972939536e-08   -1.2406744246696975e-06
-7.90487282617845e-07   -6.928266972939536e-08   -1.2406744246696975e-06
-7.90487282617845e-07   -6.928266972939536e-08   -1.2406744246696975e-06
-1.6777485416002904e-07   1.0484971734391917e-07   -9.834094499600217e-08
-1.6777485416002904e-07   1.0484971734391917e-07   -9.834094499600217e-08
-1.6777485416002904e-07   1.0484971734391917e-07   -9.834094499600217e-08
-1.6777485416002904e-07   1.0484971734391917e-07   -9.834094499600217e-08
-2.8895616848215438e-08   -9.914898174950403e-08   -9.581121806306837e-07
-2.8895616848215438e-08   -9.914898174950403e-08   -9.581121806306837e-07
-2.8895616848215438e-08   -9.914898174950403e-08   -9.581121806306837e-07
-2.8895616848215438e-08   -9.914898174950403e-08   -9.581121806306837e-07
-6.482811593935486e-07   1.7809867296776e-07   -9.215153588560407e-08
-6.482811593935486e-07   1.7809867296776e-07   -9.215153588560407e-08
-6.482811593935486e-07   1.7809867296776e-07   -9.215153588560407e-08
-6.482811593935486e-07   1.7809867296776e-07   -9.215153588560407e-08
-3.735937176898305e-07   5.098123306185884e-08   -4.7369347478168865e-07
-3.735937176898305e-07   5.098123306185884e-08   -4.7369347478168865e-07
-3.735937176898305e-07   5.098123306185884e-08   -4.7369347478168865e-07
-3.735937176898305e-07   5.098123306185884e-08   -4.7369347478168865e-07
-6.482811593935486e-07   -9.914898174950403e-08   -1.1244607734611594e-06
-6.482811593935486e-07   -9.914898174950403e-08   -1.1244607734611594e-06
-6.482811593935486e-07   -9.914898174950403e-08   -1.1244607734611594e-06
-6.482811593935486e-07   -9.914898174950403e-08   -1.1244607734611594e-06
-2.8895616848242543e-08   1.7809867296776e-07   7.419705694473606e-08
-2.8895616848242543e-08   1.7809867296776e-07   7.419705694473606e-08
-2.8895616848242543e-08   1.7809867296776e-07   7.419705694473606e-08
-2.8895616848242543e-08   1.7809867296776e-07   7.419705694473606e-08
3.995232338894778e-08   -1.387324933461206e-07   -8.385691021208647e-07
3.995232338894778e-08   -1.387324933461206e-07   -8.385691021208647e-07
3.995232338894778e-08   -1.387324933461206e-07   -8.385691021208647e-07
3.995232338894778e-08   -1.387324933461206e-07   -8.385691021208647e-07
-5.739722107948571e-07   1.433277833490255e-07   1.5402288835075946e-08
-5.739722107948571e-07   1.433277833490255e-07   1.5402288835075946e-08
-5.739722107948571e-07   1.433277833490255e-07   1.5402288835075946e-08
-5.739722107948571e-07   1.433277833490255e-07   1.5402288835075946e-08
-2.7293303078749175e-07   3.2548468528124366e-08   -4.198620889512075e-07
-2.7293303078749175e-07   3.2548468528124366e-08   -4.198620889512075e-07
-2.7293303078749175e-07   3.2548468528124366e-08   -4.198620889512075e-07
-2.7293303078749175e-07   3.2548468528124366e-08   -4.198620889512075e-07
-5.739722107948571e-07   -1.387324933461206e-07   -1.0078052681379232e-06
-5.739722107948571e-07   -1.387324933461206e-07   -1.0078052681379232e-06
-5.739722107948571e-07   -1.387324933461206e-07   -1.0078052681379232e-06
-5.739722107948571e-07   -1.387324933461206e-07   -1.0078052681379232e-06
3.9952323388920677e-08   1.433277833490255e-07   1.8463845485210736e-07
3.9952323388920677e-08   1.433277833490255e-07   1.8463845485210736e-07
3.9952323388920677e-08   1.433277833490255e-07   1.8463845485210736e-07
3.9952323388920677e-08   1.433277833490255e-07   1.8463845485210736e-07
1.2305392006869888e-07   -1.8964230009946748e-07   -6.581686885082094e-07
1.2305392006869888e-07   -1.8964230009946748e-07   -6.581686885082094e-07
1.2305392006869888e-07   -1.8964230009946748e-07   -6.581686885082094e-07
1.2305392006869888e-07   -1.8964230009946748e-07   -6.581686885082094e-07
-4.605282761538387e-07   1.0537943325110643e-07   1.3745526518556522e-07
-4.605282761538387e-07   1.0537943325110643e-07   1.3745526518556522e-07
-4.605282761538387e-07   1.0537943325110643e-07   1.3745526518556522e-07
-4.605282761538387e-07   1.0537943325110643e-07   1.3745526518556522e-07
-1.827271665348103e-07   8.47647844571934e-09   -2.6740481129611336e-07
-1.827271665348103e-07   8.47647844571934e-09   -2.6740481129611336e-07
-1.827271665348103e-07   8.47647844571934e-09   -2.6740481129611336e-07
-1.827271665348103e-07   8.47647844571934e-09   -2.6740481129611336e-07
              </DataArray>   
             <DataArray type="Float64" NumberOfComponents="3" Name="Stress" format="ascii">   
-1.196333712857179   -0.29908342821429473   -0.29908342821429473
-1.196333712857179   -0.29908342821429473   -0.29908342821429473
-1.196333712857179   -0.29908342821429473   -0.29908342821429473
-1.196333712857179   -0.29908342821429473   -0.29908342821429473
-0.6920172982610581   -0.022536346268535123   -0.01411448459987863
-0.6920172982610581   -0.022536346268535123   -0.01411448459987863
-0.6920172982610581   -0.022536346268535123   -0.01411448459987863
-0.6920172982610581   -0.022536346268535123   -0.01411448459987863
-0.745383411490971   -0.18634585287274275   -0.18634585287274275
-0.745383411490971   -0.18634585287274275   -0.18634585287274275
-0.745383411490971   -0.18634585287274275   -0.18634585287274275
-0.745383411490971   -0.18634585287274275   -0.18634585287274275
-1.152783382124839   -0.09515011638838197   -0.03653959118647008
-1.152783382124839   -0.09515011638838197   -0.03653959118647008
-1.152783382124839   -0.09515011638838197   -0.03653959118647008
-1.152783382124839   -0.09515011638838197   -0.03653959118647008
-0.9039760348708528   -0.14848710255690334   -0.002529542014030481
-0.9039760348708528   -0.14848710255690334   -0.002529542014030481
-0.9039760348708528   -0.14848710255690334   -0.002529542014030481
-0.9039760348708528   -0.14848710255690334   -0.002529542014030481
-1.2516060451220785   -0.31290151128051963   -0.31290151128051963
-1.2516060451220785   -0.31290151128051963   -0.31290151128051963
-1.2516060451220785   -0.31290151128051963   -0.31290151128051963
-1.2516060451220785   -0.31290151128051963   -0.31290151128051963
-0.6700462425055256   0.007920048007602737   -0.003925908825861114
-0.6700462425055256   0.007920048007602737   -0.003925908825861114
-0.6700462425055256   0.007920048007602737   -0.003925908825861114
-0.6700462425055256   0.007920048007602737   -0.003925908825861114
-0.747123680936605   -0.18678092023415124   -0.18678092023415124
-0.747123680936605   -0.18678092023415124   -0.18678092023415124
-0.747123680936605   -0.18678092023415124   -0.18678092023415124
-0.747123680936605   -0.18678092023415124   -0.18678092023415124
-1.191119848429619   -0.09594912981840414   -0.05349294967308196
-1.191119848429619   -0.09594912981840414   -0.05349294967308196
-1.191119848429619   -0.09594912981840414   -0.05349294967308196
-1.191119848429619   -0.09594912981840414   -0.05349294967308196
-0.93730405426302   -0.13967231090063426   -0.049706076782435576
-0.93730405426302   -0.13967231090063426   -0.049706076782435576
-0.93730405426302   -0.13967231090063426   -0.049706076782435576
-0.93730405426302   -0.13967231090063426   -0.049706076782435576
-1.2902571472570263   -0.3225642868142566   -0.3225642868142566
-1.2902571472570263   -0.3225642868142566   -0.3225642868142566
-1.2902571472570263   -0.3225642868142566   -0.3225642868142566
-1.2902571472570263   -0.3225642868142566   -0.3225642868142566
-0.6677613071894773   0.02005931168142336   0.0031907165859120443
-0.6677613071894773   0.02005931168142336   0.0031907165859120443
-0.6677613071894773   0.02005931168142336   0.0031907165859120443
-0.6677613071894773   0.02005931168142336   0.0031907165859120443
-0.7463230773457111   -0.18658076933642778   -0.18658076933642778
-0.7463230773457111   -0.18658076933642778   -0.18658076933642778
-0.7463230773457111   -0.18658076933642778   -0.18658076933642778
-0.7463230773457111   -0.18658076933642778   -0.18658076933642778
-1.2597296288268023   -0.08389645223401018   -0.032285573401072166
-1.2597296288268023   -0.08389645223401018   -0.032285573401072166
-1.2597296288268023   -0.08389645223401018   -0.032285573401072166
-1.2597296288268023   -0.08389645223401018   -0.032285573401072166
-0.9618910785040229   -0.13738833547412826   -0.08976155168983505
-0.9618910785040229   -0.13738833547412826   -0.08976155168983505
-0.9618910785040229   -0.13738833547412826   -0.08976155168983505
-0.9618910785040229   -0.13738833547412826   -0.08976155168983505
-0.7607634800970848   -0.1901908700242712   -0.1901908700242712
-0.7607634800970848   -0.1901908700242712   -0.1901908700242712
-0.7607634800970848   -0.1901908700242712   -0.1901908700242712
-0.7607634800970848   -0.1901908700242712   -0.1901908700242712
-0.31789132412913473   -0.021554447500757315   -0.0069680546286378965
-0.31789132412913473   -0.021554447500757315   -0.0069680546286378965
-0.31789132412913473   -0.021554447500757315   -0.0069680546286378965
-0.31789132412913473   -0.021554447500757315   -0.0069680546286378965
-0.3332660782287333   -0.08331651955718332   -0.08331651955718332
-0.3332660782287333   -0.08331651955718332   -0.08331651955718332
-0.3332660782287333   -0.08331651955718332   -0.08331651955718332
-0.3332660782287333   -0.08331651955718332   -0.08331651955718332
-0.6923826253482841   -0.08167291189036191   -0.026014863141689007
-0.6923826253482841   -0.08167291189036191   -0.026014863141689007
-0.6923826253482841   -0.08167291189036191   -0.026014863141689007
-0.6923826253482841   -0.08167291189036191   -0.026014863141689007
-0.5109117215595047   -0.09692372004393725   0.003931618479500764
-0.5109117215595047   -0.09692372004393725   0.003931618479500764
-0.5109117215595047   -0.09692372004393725   0.003931618479500764
-0.5109117215595047   -0.09692372004393725   0.003931618479500764
-0.7453834114909703   -0.18634585287274258   -0.18634585287274258
-0.7453834114909703   -0.18634585287274258   -0.18634585287274258
-0.7453834114909703   -0.18634585287274258   -0.18634585287274258
-0.7453834114909703   -0.18634585287274258   -0.18634585287274258
-0.2995919010262421   0.002029812485001767   -0.0002919655869125376
-0.2995919010262421   0.002029812485001767   -0.0002919655869125376
-0.2995919010262421   0.002029812485001767   -0.0002919655869125376
-0.2995919010262421   0.002029812485001767   -0.0002919655869125376
-0.32547539818683296   -0.08136884954670824   -0.08136884954670824
-0.32547539818683296   -0.08136884954670824   -0.08136884954670824
-0.32547539818683296   -0.08136884954670824   -0.08136884954670824
-0.32547539818683296   -0.08136884954670824   -0.08136884954670824
-0.6902906364170632   -0.06653151721742079   -0.02286510065317337
-0.6902906364170632   -0.06653151721742079   -0.02286510065317337
-0.6902906364170632   -0.06653151721742079   -0.02286510065317337
-0.6902906364170632   -0.06653151721742079   -0.02286510065317337
-0.5034479876228823   -0.08152402460218153   -0.026283591737175836
-0.5034479876228823   -0.08152402460218153   -0.026283591737175836
-0.5034479876228823   -0.08152402460218153   -0.026283591737175836
-0.5034479876228823   -0.08152402460218153   -0.026283591737175836
-0.747123680936605   -0.18678092023415124   -0.18678092023415124
-0.747123680936605   -0.18678092023415124   -0.18678092023415124
-0.747123680936605   -0.18678092023415124   -0.18678092023415124
-0.747123680936605   -0.18678092023415124   -0.18678092023415124
-0.2873619569247304   0.020160950212583115   0.0076685570045132365
-0.2873619569247304   0.020160950212583115   0.0076685570045132365
-0.2873619569247304   0.020160950212583115   0.0076685570045132365
-0.2873619569247304   0.020160950212583115   0.0076685570045132365
-0.31832159923859876   -0.07958039980964969   -0.07958039980964969
-0.31832159923859876   -0.07958039980964969   -0.07958039980964969
-0.31832159923859876   -0.07958039980964969   -0.07958039980964969
-0.31832159923859876   -0.07958039980964969   -0.07958039980964969
-0.6848344209475522   -0.05123540681673462   -0.014482849865334862
-0.6848344209475522   -0.05123540681673462   -0.014482849865334862
-0.6848344209475522   -0.05123540681673462   -0.014482849865334862
-0.6848344209475522   -0.05123540681673462   -0.014482849865334862
-0.505560133370673   -0.07204357052455776   -0.05850521593459939
-0.505560133370673   -0.07204357052455776   -0.05850521593459939
-0.505560133370673   -0.07204357052455776   -0.05850521593459939
-0.505560133370673   -0.07204357052455776   -0.05850521593459939
-0.3468742485591736   -0.0867185621397934   -0.0867185621397934
-0.3468742485591736   -0.0867185621397934   -0.0867185621397934
-0.3468742485591736   -0.0867185621397934   -0.0867185621397934
-0.3468742485591736   -0.0867185621397934   -0.0867185621397934
0.040031985448429105   0.0024274575093054156   0.0003441089203818791
0.040031985448429105   0.0024274575093054156   0.0003441089203818791
0.040031985448429105   0.0024274575093054156   0.0003441089203818791
0.040031985448429105   0.0024274575093054156   0.0003441089203818791
0.052717887640718185   0.013179471910179546   0.013179471910179546
0.052717887640718185   0.013179471910179546   0.013179471910179546
0.052717887640718185   0.013179471910179546   0.013179471910179546
0.052717887640718185   0.013179471910179546   0.013179471910179546
-0.31327956506482724   -0.05413804998267645   -0.012562423312160134
-0.31327956506482724   -0.05413804998267645   -0.012562423312160134
-0.31327956506482724   -0.05413804998267645   -0.012562423312160134
-0.31327956506482724   -0.05413804998267645   -0.012562423312160134
-0.13468330707428003   -0.03414237148567166   0.02257764818079452
-0.13468330707428003   -0.03414237148567166   0.02257764818079452
-0.13468330707428003   -0.03414237148567166   0.02257764818079452
-0.13468330707428003   -0.03414237148567166   0.02257764818079452
-0.3332660782287333   -0.08331651955718332   -0.08331651955718332
-0.3332660782287333   -0.08331651955718332   -0.08331651955718332
-0.3332660782287333   -0.08331651955718332   -0.08331651955718332
-0.3332660782287333   -0.08331651955718332   -0.08331651955718332
0.05371119254406646   0.023364733224128617   0.007960735112971445
0.05371119254406646   0.023364733224128617   0.007960735112971445
0.05371119254406646   0.023364733224128617   0.007960735112971445
0.05371119254406646   0.023364733224128617   0.007960735112971445
0.059753700168158605   0.014938425042039651   0.014938425042039651
0.059753700168158605   0.014938425042039651   0.014938425042039651
0.059753700168158605   0.014938425042039651   0.014938425042039651
0.059753700168158605   0.014938425042039651   0.014938425042039651
-0.30187773421163844   -0.03632857041371193   -0.008420808803734643
-0.30187773421163844   -0.03632857041371193   -0.008420808803734643
-0.30187773421163844   -0.03632857041371193   -0.008420808803734643
-0.30187773421163844   -0.03632857041371193   -0.008420808803734643
-0.12885630667348838   -0.021052025350193584   -0.007826657380955525
-0.12885630667348838   -0.021052025350193584   -0.007826657380955525
-0.12885630667348838   -0.021052025350193584   -0.007826657380955525
-0.12885630667348838   -0.021052025350193584   -0.007826657380955525
-0.32547539818683296   -0.08136884954670824   -0.08136884954670824
-0.32547539818683296   -0.08136884954670824   -0.08136884954670824
-0.32547539818683296   -0.08136884954670824   -0.08136884954670824
-0.32547539818683296   -0.08136884954670824   -0.08136884954670824
0.0647412677949563   0.04136860782663967   0.013446080391427659
0.0647412677949563   0.04136860782663967   0.013446080391427659
0.0647412677949563   0.04136860782663967   0.013446080391427659
0.0647412677949563   0.04136860782663967   0.013446080391427659
0.06910030332224468   0.01727507583056117   0.01727507583056117
0.06910030332224468   0.01727507583056117   0.01727507583056117
0.06910030332224468   0.01727507583056117   0.01727507583056117
0.06910030332224468   0.01727507583056117   0.01727507583056117
-0.28947498922528964   -0.015117925045533054   0.00019017549277796503
-0.28947498922528964   -0.015117925045533054   0.00019017549277796503
-0.28947498922528964   -0.015117925045533054   0.00019017549277796503
-0.28947498922528964   -0.015117925045533054   0.00019017549277796503
-0.12464698113081178   -0.008431984649368094   -0.037958957559368636
-0.12464698113081178   -0.008431984649368094   -0.037958957559368636
-0.12464698113081178   -0.008431984649368094   -0.037958957559368636
-0.12464698113081178   -0.008431984649368094   -0.037958957559368636
0.04386408018054635   0.010966020045136587   0.010966020045136587
0.04386408018054635   0.010966020045136587   0.010966020045136587
0.04386408018054635   0.010966020045136587   0.010966020045136587
0.04386408018054635   0.010966020045136587   0.010966020045136587
0.4321264272890779   0.03969444161693237   0.013531573136660107
0.4321264272890779   0.03969444161693237   0.013531573136660107
0.4321264272890779   0.03969444161693237   0.013531573136660107
0.4321264272890779   0.03969444161693237   0.013531573136660107
0.469592597592534   0.1173981493981335   0.1173981493981335
0.469592597592534   0.1173981493981335   0.1173981493981335
0.469592597592534   0.1173981493981335   0.1173981493981335
0.469592597592534   0.1173981493981335   0.1173981493981335
0.04012759288587209   -0.030391890716568122   -0.006200639237304137
0.04012759288587209   -0.030391890716568122   -0.006200639237304137
0.04012759288587209   -0.030391890716568122   -0.006200639237304137
0.04012759288587209   -0.030391890716568122   -0.006200639237304137
0.24611344041220656   0.03066218645739549   0.04462749061420648
0.24611344041220656   0.03066218645739549   0.04462749061420648
0.24611344041220656   0.03066218645739549   0.04462749061420648
0.24611344041220656   0.03066218645739549   0.04462749061420648
0.05271788764071837   0.013179471910179593   0.013179471910179593
0.05271788764071837   0.013179471910179593   0.013179471910179593
0.05271788764071837   0.013179471910179593   0.013179471910179593
0.05271788764071837   0.013179471910179593   0.013179471910179593
0.4376869946922103   0.05451147862590832   0.020756805668739893
0.4376869946922103   0.05451147862590832   0.020756805668739893
0.4376869946922103   0.05451147862590832   0.020756805668739893
0.4376869946922103   0.05451147862590832   0.020756805668739893
0.4679669508560425   0.11699173771401063   0.11699173771401063
0.4679669508560425   0.11699173771401063   0.11699173771401063
0.4679669508560425   0.11699173771401063   0.11699173771401063
0.4679669508560425   0.11699173771401063   0.11699173771401063
0.05122550045402829   -0.012962332113925688   0.00019818362735294758
0.05122550045402829   -0.012962332113925688   0.00019818362735294758
0.05122550045402829   -0.012962332113925688   0.00019818362735294758
0.05122550045402829   -0.012962332113925688   0.00019818362735294758
0.24468982750606383   0.04038789569413984   0.01152035521846727
0.24468982750606383   0.04038789569413984   0.01152035521846727
0.24468982750606383   0.04038789569413984   0.01152035521846727
0.24468982750606383   0.04038789569413984   0.01152035521846727
0.05975370016815866   0.014938425042039665   0.014938425042039665
0.05975370016815866   0.014938425042039665   0.014938425042039665
0.05975370016815866   0.014938425042039665   0.014938425042039665
0.05975370016815866   0.014938425042039665   0.014938425042039665
0.44031125688854605   0.06996348630467925   0.025741519285859847
0.44031125688854605   0.06996348630467925   0.025741519285859847
0.44031125688854605   0.06996348630467925   0.025741519285859847
0.44031125688854605   0.06996348630467925   0.025741519285859847
0.4774005251622644   0.1193501312905661   0.1193501312905661
0.4774005251622644   0.1193501312905661   0.1193501312905661
0.4774005251622644   0.1193501312905661   0.1193501312905661
0.4774005251622644   0.1193501312905661   0.1193501312905661
0.06567668839517873   0.010060528399706541   0.007371548626085519
0.06567668839517873   0.010060528399706541   0.007371548626085519
0.06567668839517873   0.010060528399706541   0.007371548626085519
0.06567668839517873   0.010060528399706541   0.007371548626085519
0.2488616669469005   0.05488639452441985   -0.019175066783368257
0.2488616669469005   0.05488639452441985   -0.019175066783368257
0.2488616669469005   0.05488639452441985   -0.019175066783368257
0.2488616669469005   0.05488639452441985   -0.019175066783368257
0.468312471487066   0.1170781178717665   0.1170781178717665
0.468312471487066   0.1170781178717665   0.1170781178717665
0.468312471487066   0.1170781178717665   0.1170781178717665
0.468312471487066   0.1170781178717665   0.1170781178717665
0.973745586725492   0.07434820523238386   0.025964669048426675
0.973745586725492   0.07434820523238386   0.025964669048426675
0.973745586725492   0.07434820523238386   0.025964669048426675
0.973745586725492   0.07434820523238386   0.025964669048426675
0.9957614043252888   0.2489403510813222   0.2489403510813222
0.9957614043252888   0.2489403510813222   0.2489403510813222
0.9957614043252888   0.2489403510813222   0.2489403510813222
0.9957614043252888   0.2489403510813222   0.2489403510813222
0.41751473385225574   -0.023552805025861268   -0.0020402148792631435
0.41751473385225574   -0.023552805025861268   -0.0020402148792631435
0.41751473385225574   -0.023552805025861268   -0.0020402148792631435
0.41751473385225574   -0.023552805025861268   -0.0020402148792631435
0.6941506940156293   0.09838026148265512   0.0782069880176933
0.6941506940156293   0.09838026148265512   0.0782069880176933
0.6941506940156293   0.09838026148265512   0.0782069880176933
0.6941506940156293   0.09838026148265512   0.0782069880176933
0.46959259759253363   0.11739814939813341   0.11739814939813341
0.46959259759253363   0.11739814939813341   0.11739814939813341
0.46959259759253363   0.11739814939813341   0.11739814939813341
0.46959259759253363   0.11739814939813341   0.11739814939813341
0.922966809099329   0.08727266517164885   0.04663506086121223
0.922966809099329   0.08727266517164885   0.04663506086121223
0.922966809099329   0.08727266517164885   0.04663506086121223
0.922966809099329   0.08727266517164885   0.04663506086121223
0.9664749861312794   0.24161874653281984   0.24161874653281984
0.9664749861312794   0.24161874653281984   0.24161874653281984
0.9664749861312794   0.24161874653281984   0.24161874653281984
0.9664749861312794   0.24161874653281984   0.24161874653281984
0.4193393283495218   -0.012783011483002135   0.0036283743784200143
0.4193393283495218   -0.012783011483002135   0.0036283743784200143
0.4193393283495218   -0.012783011483002135   0.0036283743784200143
0.4193393283495218   -0.012783011483002135   0.0036283743784200143
0.6739940430013215   0.10134055231995787   0.03747759930807133
0.6739940430013215   0.10134055231995787   0.03747759930807133
0.6739940430013215   0.10134055231995787   0.03747759930807133
0.6739940430013215   0.10134055231995787   0.03747759930807133
0.4679669508560425   0.11699173771401063   0.11699173771401063
0.4679669508560425   0.11699173771401063   0.11699173771401063
0.4679669508560425   0.11699173771401063   0.11699173771401063
0.4679669508560425   0.11699173771401063   0.11699173771401063
0.8936750832998331   0.08767171701088435   0.031566261897539125
0.8936750832998331   0.08767171701088435   0.031566261897539125
0.8936750832998331   0.08767171701088435   0.031566261897539125
0.8936750832998331   0.08767171701088435   0.031566261897539125
0.9226062692763148   0.2306515673190787   0.2306515673190787
0.9226062692763148   0.2306515673190787   0.2306515673190787
0.9226062692763148   0.2306515673190787   0.2306515673190787
0.9226062692763148   0.2306515673190787   0.2306515673190787
0.4352486191484018   0.014337031695769997   0.013603700816049048
0.4352486191484018   0.014337031695769997   0.013603700816049048
0.4352486191484018   0.014337031695769997   0.013603700816049048
0.4352486191484018   0.014337031695769997   0.013603700816049048
0.6457745179737377   0.11002280443098165   -0.009939959860101249
0.6457745179737377   0.11002280443098165   -0.009939959860101249
0.6457745179737377   0.11002280443098165   -0.009939959860101249
0.6457745179737377   0.11002280443098165   -0.009939959860101249
-0.9421968368676291   -0.0675289675430667   0.011101947634034576
-0.9421968368676291   -0.0675289675430667   0.011101947634034576
-0.9421968368676291   -0.0675289675430667   0.011101947634034576
-0.9421968368676291   -0.0675289675430667   0.011101947634034576
-0.6002102244006761   -0.014315733736554745   -0.004055228513498214
-0.6002102244006761   -0.014315733736554745   -0.004055228513498214
-0.6002102244006761   -0.014315733736554745   -0.004055228513498214
-0.6002102244006761   -0.014315733736554745   -0.004055228513498214
-0.603881843701623   0.024523004840310753   0.01292447653377745
-0.603881843701623   0.024523004840310753   0.01292447653377745
-0.603881843701623   0.024523004840310753   0.01292447653377745
-0.603881843701623   0.024523004840310753   0.01292447653377745
-0.9560251803163243   -0.06546319942616591   -0.011539312502849286
-0.9560251803163243   -0.06546319942616591   -0.011539312502849286
-0.9560251803163243   -0.06546319942616591   -0.011539312502849286
-0.9560251803163243   -0.06546319942616591   -0.011539312502849286
-0.7451083697568729   -0.025594837207985388   -0.0032079813804950508
-0.7451083697568729   -0.025594837207985388   -0.0032079813804950508
-0.7451083697568729   -0.025594837207985388   -0.0032079813804950508
-0.7451083697568729   -0.025594837207985388   -0.0032079813804950508
-0.9488509409643564   -0.0460683107940221   0.004936995624846584
-0.9488509409643564   -0.0460683107940221   0.004936995624846584
-0.9488509409643564   -0.0460683107940221   0.004936995624846584
-0.9488509409643564   -0.0460683107940221   0.004936995624846584
-0.6120354069510341   0.004148792310725846   -0.007469127183682596
-0.6120354069510341   0.004148792310725846   -0.007469127183682596
-0.6120354069510341   0.004148792310725846   -0.007469127183682596
-0.6120354069510341   0.004148792310725846   -0.007469127183682596
-0.6043638900654886   0.03502704395954498   0.014631960852534348
-0.6043638900654886   0.03502704395954498   0.014631960852534348
-0.6043638900654886   0.03502704395954498   0.014631960852534348
-0.6043638900654886   0.03502704395954498   0.014631960852534348
-0.9614868064605341   -0.05757340730613986   -0.015209219999673076
-0.9614868064605341   -0.05757340730613986   -0.015209219999673076
-0.9614868064605341   -0.05757340730613986   -0.015209219999673076
-0.9614868064605341   -0.05757340730613986   -0.015209219999673076
-0.7657348577341341   -0.01703803772984258   -0.007384702095712681
-0.7657348577341341   -0.01703803772984258   -0.007384702095712681
-0.7657348577341341   -0.01703803772984258   -0.007384702095712681
-0.7657348577341341   -0.01703803772984258   -0.007384702095712681
-0.9439744587178482   -0.027388033049926847   0.04216714445753483
-0.9439744587178482   -0.027388033049926847   0.04216714445753483
-0.9439744587178482   -0.027388033049926847   0.04216714445753483
-0.9439744587178482   -0.027388033049926847   0.04216714445753483
-0.6146415065690716   0.012076400942434395   -0.013805478648264286
-0.6146415065690716   0.012076400942434395   -0.013805478648264286
-0.6146415065690716   0.012076400942434395   -0.013805478648264286
-0.6146415065690716   0.012076400942434395   -0.013805478648264286
-0.5931035364743451   0.061154127703360595   0.026341233933325575
-0.5931035364743451   0.061154127703360595   0.026341233933325575
-0.5931035364743451   0.061154127703360595   0.026341233933325575
-0.5931035364743451   0.061154127703360595   0.026341233933325575
-0.934415714608019   -0.04624739772926009   -0.024764807682057723
-0.934415714608019   -0.04624739772926009   -0.024764807682057723
-0.934415714608019   -0.04624739772926009   -0.024764807682057723
-0.934415714608019   -0.04624739772926009   -0.024764807682057723
-0.7360789567175053   0.007087502525394307   0.016394102389044714
-0.7360789567175053   0.007087502525394307   0.016394102389044714
-0.7360789567175053   0.007087502525394307   0.016394102389044714
-0.7360789567175053   0.007087502525394307   0.016394102389044714
-0.6149806820127292   -0.08168613184484375   -0.010537118465474686
-0.6149806820127292   -0.08168613184484375   -0.010537118465474686
-0.6149806820127292   -0.08168613184484375   -0.010537118465474686
-0.6149806820127292   -0.08168613184484375   -0.010537118465474686
-0.2839345363061039   -0.0066191280811977865   0.0029403786317927
-0.2839345363061039   -0.0066191280811977865   0.0029403786317927
-0.2839345363061039   -0.0066191280811977865   0.0029403786317927
-0.2839345363061039   -0.0066191280811977865   0.0029403786317927
-0.28783099988847555   0.005324339347777568   0.004419767589200919
-0.28783099988847555   0.005324339347777568   0.004419767589200919
-0.28783099988847555   0.005324339347777568   0.004419767589200919
-0.28783099988847555   0.005324339347777568   0.004419767589200919
-0.6270216520069245   -0.05974766072081862   -0.018503899431600673
-0.6270216520069245   -0.05974766072081862   -0.018503899431600673
-0.6270216520069245   -0.05974766072081862   -0.018503899431600673
-0.6270216520069245   -0.05974766072081862   -0.018503899431600673
-0.45345228726793646   -0.03696459126329297   -0.010520440889778127
-0.45345228726793646   -0.03696459126329297   -0.010520440889778127
-0.45345228726793646   -0.03696459126329297   -0.010520440889778127
-0.45345228726793646   -0.03696459126329297   -0.010520440889778127
-0.6263831788956679   -0.06523490740894082   -0.00982428718719867
-0.6263831788956679   -0.06523490740894082   -0.00982428718719867
-0.6263831788956679   -0.06523490740894082   -0.00982428718719867
-0.6263831788956679   -0.06523490740894082   -0.00982428718719867
-0.2873572057268383   0.011923853308793794   0.000189224436373394
-0.2873572057268383   0.011923853308793794   0.000189224436373394
-0.2873572057268383   0.011923853308793794   0.000189224436373394
-0.2873572057268383   0.011923853308793794   0.000189224436373394
-0.2865338572090501   0.01997457801116813   0.005908596281759028
-0.2865338572090501   0.01997457801116813   0.005908596281759028
-0.2865338572090501   0.01997457801116813   0.005908596281759028
-0.2865338572090501   0.01997457801116813   0.005908596281759028
-0.6270345683623396   -0.04366305728673851   -0.02003132938543715
-0.6270345683623396   -0.04366305728673851   -0.02003132938543715
-0.6270345683623396   -0.04366305728673851   -0.02003132938543715
-0.6270345683623396   -0.04366305728673851   -0.02003132938543715
-0.4523584098059631   -0.020521199344215188   -0.005010905922359393
-0.4523584098059631   -0.020521199344215188   -0.005010905922359393
-0.4523584098059631   -0.020521199344215188   -0.005010905922359393
-0.4523584098059631   -0.020521199344215188   -0.005010905922359393
-0.6245422272854081   -0.04921279293163239   -0.002019888355885617
-0.6245422272854081   -0.04921279293163239   -0.002019888355885617
-0.6245422272854081   -0.04921279293163239   -0.002019888355885617
-0.6245422272854081   -0.04921279293163239   -0.002019888355885617
-0.2869578942663258   0.027592617675719175   -0.003829628669164486
-0.2869578942663258   0.027592617675719175   -0.003829628669164486
-0.2869578942663258   0.027592617675719175   -0.003829628669164486
-0.2869578942663258   0.027592617675719175   -0.003829628669164486
-0.2815328362116442   0.03466866492128823   0.011735924088871353
-0.2815328362116442   0.03466866492128823   0.011735924088871353
-0.2815328362116442   0.03466866492128823   0.011735924088871353
-0.2815328362116442   0.03466866492128823   0.011735924088871353
-0.6200823225960018   -0.025074705774552175   -0.022323863197047843
-0.6200823225960018   -0.025074705774552175   -0.022323863197047843
-0.6200823225960018   -0.025074705774552175   -0.022323863197047843
-0.6200823225960018   -0.025074705774552175   -0.022323863197047843
-0.45023717061505475   -0.004956215871152303   0.002249285845817333
-0.45023717061505475   -0.004956215871152303   0.002249285845817333
-0.45023717061505475   -0.004956215871152303   0.002249285845817333
-0.45023717061505475   -0.004956215871152303   0.002249285845817333
-0.2993116131477794   -0.06801909227130808   -0.012545041386477072
-0.2993116131477794   -0.06801909227130808   -0.012545041386477072
-0.2993116131477794   -0.06801909227130808   -0.012545041386477072
-0.2993116131477794   -0.06801909227130808   -0.012545041386477072
0.02984004502467343   0.0067705825297572336   0.011658571922235334
0.02984004502467343   0.0067705825297572336   0.011658571922235334
0.02984004502467343   0.0067705825297572336   0.011658571922235334
0.02984004502467343   0.0067705825297572336   0.011658571922235334
0.028643338438220263   0.016953326024646782   0.0009715532214084801
0.028643338438220263   0.016953326024646782   0.0009715532214084801
0.028643338438220263   0.016953326024646782   0.0009715532214084801
0.028643338438220263   0.016953326024646782   0.0009715532214084801
-0.3003791366150213   -0.04497655073499905   -0.008020025960751038
-0.3003791366150213   -0.04497655073499905   -0.008020025960751038
-0.3003791366150213   -0.04497655073499905   -0.008020025960751038
-0.3003791366150213   -0.04497655073499905   -0.008020025960751038
-0.13661422988145702   -0.02263569225589249   -0.004387081125255955
-0.13661422988145702   -0.02263569225589249   -0.004387081125255955
-0.13661422988145702   -0.02263569225589249   -0.004387081125255955
-0.13661422988145702   -0.02263569225589249   -0.004387081125255955
-0.3024634681359524   -0.05178832732879214   -0.01162990697161348
-0.3024634681359524   -0.05178832732879214   -0.01162990697161348
-0.3024634681359524   -0.05178832732879214   -0.01162990697161348
-0.3024634681359524   -0.05178832732879214   -0.01162990697161348
0.03186790335173454   0.024905336011023037   0.009142367802603604
0.03186790335173454   0.024905336011023037   0.009142367802603604
0.03186790335173454   0.024905336011023037   0.009142367802603604
0.03186790335173454   0.024905336011023037   0.009142367802603604
0.031208595687492527   0.03305240744398705   0.0053977505856283425
0.031208595687492527   0.03305240744398705   0.0053977505856283425
0.031208595687492527   0.03305240744398705   0.0053977505856283425
0.031208595687492527   0.03305240744398705   0.0053977505856283425
-0.29917829961139036   -0.027316060597065102   -0.010022977121708786
-0.29917829961139036   -0.027316060597065102   -0.010022977121708786
-0.29917829961139036   -0.027316060597065102   -0.010022977121708786
-0.29917829961139036   -0.027316060597065102   -0.010022977121708786
-0.13426793260137146   -0.0055415041684644915   0.001553436054896465
-0.13426793260137146   -0.0055415041684644915   0.001553436054896465
-0.13426793260137146   -0.0055415041684644915   0.001553436054896465
-0.13426793260137146   -0.0055415041684644915   0.001553436054896465
-0.3000005754817325   -0.03546588360090044   -0.005984533469584075
-0.3000005754817325   -0.03546588360090044   -0.005984533469584075
-0.3000005754817325   -0.03546588360090044   -0.005984533469584075
-0.3000005754817325   -0.03546588360090044   -0.005984533469584075
0.03325997153396559   0.0424313304239536   0.00627570683802684
0.03325997153396559   0.0424313304239536   0.00627570683802684
0.03325997153396559   0.0424313304239536   0.00627570683802684
0.03325997153396559   0.0424313304239536   0.00627570683802684
0.032166109316510996   0.05094138019828483   0.008845603170067629
0.032166109316510996   0.05094138019828483   0.008845603170067629
0.032166109316510996   0.05094138019828483   0.008845603170067629
0.032166109316510996   0.05094138019828483   0.008845603170067629
-0.29503539000461787   -0.008453773835617268   -0.012654406119090283
-0.29503539000461787   -0.008453773835617268   -0.012654406119090283
-0.29503539000461787   -0.008453773835617268   -0.012654406119090283
-0.29503539000461787   -0.008453773835617268   -0.012654406119090283
-0.13068579717931894   0.012334257726825351   0.008057395475400375
-0.13068579717931894   0.012334257726825351   0.008057395475400375
-0.13068579717931894   0.012334257726825351   0.008057395475400375
-0.13068579717931894   0.012334257726825351   0.008057395475400375
0.013064421777144359   -0.04992838872493059   -0.015520573060722177
0.013064421777144359   -0.04992838872493059   -0.015520573060722177
0.013064421777144359   -0.04992838872493059   -0.015520573060722177
0.013064421777144359   -0.04992838872493059   -0.015520573060722177
0.3540935322122588   0.024302885199870145   0.021472962697300493
0.3540935322122588   0.024302885199870145   0.021472962697300493
0.3540935322122588   0.024302885199870145   0.021472962697300493
0.3540935322122588   0.024302885199870145   0.021472962697300493
0.3538635223270026   0.032899420607594286   -0.0034800120576225866
0.3538635223270026   0.032899420607594286   -0.0034800120576225866
0.3538635223270026   0.032899420607594286   -0.0034800120576225866
0.3538635223270026   0.032899420607594286   -0.0034800120576225866
0.01954503319745806   -0.029843416673830482   0.0022767697160747183
0.01954503319745806   -0.029843416673830482   0.0022767697160747183
0.01954503319745806   -0.029843416673830482   0.0022767697160747183
0.01954503319745806   -0.029843416673830482   0.0022767697160747183
0.18284592981059197   -0.004376796938990436   0.0003125921618248456
0.18284592981059197   -0.004376796938990436   0.0003125921618248456
0.18284592981059197   -0.004376796938990436   0.0003125921618248456
0.18284592981059197   -0.004376796938990436   0.0003125921618248456
0.015444921908079825   -0.036418114787995906   -0.011649088616650788
0.015444921908079825   -0.036418114787995906   -0.011649088616650788
0.015444921908079825   -0.036418114787995906   -0.011649088616650788
0.015444921908079825   -0.036418114787995906   -0.011649088616650788
0.36002684665275814   0.04153733175813656   0.01869869842060983
0.36002684665275814   0.04153733175813656   0.01869869842060983
0.36002684665275814   0.04153733175813656   0.01869869842060983
0.36002684665275814   0.04153733175813656   0.01869869842060983
0.3569460856914325   0.048836889413297   0.003473706026062181
0.3569460856914325   0.048836889413297   0.003473706026062181
0.3569460856914325   0.048836889413297   0.003473706026062181
0.3569460856914325   0.048836889413297   0.003473706026062181
0.020526214186731   -0.01404559353465894   -0.0009161559395333089
0.020526214186731   -0.01404559353465894   -0.0009161559395333089
0.020526214186731   -0.01404559353465894   -0.0009161559395333089
0.020526214186731   -0.01404559353465894   -0.0009161559395333089
0.18556620072331323   0.01084806231778445   0.007615401661202175
0.18556620072331323   0.01084806231778445   0.007615401661202175
0.18556620072331323   0.01084806231778445   0.007615401661202175
0.18556620072331323   0.01084806231778445   0.007615401661202175
0.017514247961995633   -0.021457112881147176   -0.008564467716721844
0.017514247961995633   -0.021457112881147176   -0.008564467716721844
0.017514247961995633   -0.021457112881147176   -0.008564467716721844
0.017514247961995633   -0.021457112881147176   -0.008564467716721844
0.36145336440641346   0.05774372125002982   0.01710326776422802
0.36145336440641346   0.05774372125002982   0.01710326776422802
0.36145336440641346   0.05774372125002982   0.01710326776422802
0.36145336440641346   0.05774372125002982   0.01710326776422802
0.35144555731920457   0.06722409258490183   0.007420500628036156
0.35144555731920457   0.06722409258490183   0.007420500628036156
0.35144555731920457   0.06722409258490183   0.007420500628036156
0.35144555731920457   0.06722409258490183   0.007420500628036156
0.020573097871141963   0.0054748834340300765   -0.003652957292522782
0.020573097871141963   0.0054748834340300765   -0.003652957292522782
0.020573097871141963   0.0054748834340300765   -0.003652957292522782
0.020573097871141963   0.0054748834340300765   -0.003652957292522782
0.18858368893389993   0.028244919466270266   0.014389833215456317
0.18858368893389993   0.028244919466270266   0.014389833215456317
0.18858368893389993   0.028244919466270266   0.014389833215456317
0.18858368893389993   0.028244919466270266   0.014389833215456317
0.3259241677678769   -0.06618600602814351   -0.028884968296595107
0.3259241677678769   -0.06618600602814351   -0.028884968296595107
0.3259241677678769   -0.06618600602814351   -0.028884968296595107
0.3259241677678769   -0.06618600602814351   -0.028884968296595107
0.6722820613901064   0.044419292991754705   0.021146058605338636
0.6722820613901064   0.044419292991754705   0.021146058605338636
0.6722820613901064   0.044419292991754705   0.021146058605338636
0.6722820613901064   0.044419292991754705   0.021146058605338636
0.6801892558351789   0.02069468199099328   -0.043477301777914326
0.6801892558351789   0.02069468199099328   -0.043477301777914326
0.6801892558351789   0.02069468199099328   -0.043477301777914326
0.6801892558351789   0.02069468199099328   -0.043477301777914326
0.34787941717941806   -0.01322556653226259   0.0127244493443056
0.34787941717941806   -0.01322556653226259   0.0127244493443056
0.34787941717941806   -0.01322556653226259   0.0127244493443056
0.34787941717941806   -0.01322556653226259   0.0127244493443056
0.4813376166443549   -0.008663955918947017   -0.012233663244013065
0.4813376166443549   -0.008663955918947017   -0.012233663244013065
0.4813376166443549   -0.008663955918947017   -0.012233663244013065
0.4813376166443549   -0.008663955918947017   -0.012233663244013065
0.3354411012924142   -0.043415023238809095   -0.019277673384162617
0.3354411012924142   -0.043415023238809095   -0.019277673384162617
0.3354411012924142   -0.043415023238809095   -0.019277673384162617
0.3354411012924142   -0.043415023238809095   -0.019277673384162617
0.6988548710211561   0.05711143799651407   0.013434018146450951
0.6988548710211561   0.05711143799651407   0.013434018146450951
0.6988548710211561   0.05711143799651407   0.013434018146450951
0.6988548710211561   0.05711143799651407   0.013434018146450951
0.6881143248588986   0.03821699910307125   -0.010146569200589796
0.6881143248588986   0.03821699910307125   -0.010146569200589796
0.6881143248588986   0.03821699910307125   -0.010146569200589796
0.6881143248588986   0.03821699910307125   -0.010146569200589796
0.3467545773373947   -0.005319770447288014   0.006672824116452029
0.3467545773373947   -0.005319770447288014   0.006672824116452029
0.3467545773373947   -0.005319770447288014   0.006672824116452029
0.3467545773373947   -0.005319770447288014   0.006672824116452029
0.5070066107975943   0.01269002126690269   0.008380069761958577
0.5070066107975943   0.01269002126690269   0.008380069761958577
0.5070066107975943   0.01269002126690269   0.008380069761958577
0.5070066107975943   0.01269002126690269   0.008380069761958577
0.3367349680646861   -0.03314879746210675   -0.01559619523226925
0.3367349680646861   -0.03314879746210675   -0.01559619523226925
0.3367349680646861   -0.03314879746210675   -0.01559619523226925
0.3367349680646861   -0.03314879746210675   -0.01559619523226925
0.6973374724229258   0.06524956440920943   0.008936603313408197
0.6973374724229258   0.06524956440920943   0.008936603313408197
0.6973374724229258   0.06524956440920943   0.008936603313408197
0.6973374724229258   0.06524956440920943   0.008936603313408197
0.6874527293248262   0.05897354490408058   -0.015417843318823399
0.6874527293248262   0.05897354490408058   -0.015417843318823399
0.6874527293248262   0.05897354490408058   -0.015417843318823399
0.6874527293248262   0.05897354490408058   -0.015417843318823399
0.33983643585286005   0.01280654006474842   0.003792445816461057
0.33983643585286005   0.01280654006474842   0.003792445816461057
0.33983643585286005   0.01280654006474842   0.003792445816461057
0.33983643585286005   0.01280654006474842   0.003792445816461057
0.49438188399662286   0.022410164162233723   0.006365521905204882
0.49438188399662286   0.022410164162233723   0.006365521905204882
0.49438188399662286   0.022410164162233723   0.006365521905204882
0.49438188399662286   0.022410164162233723   0.006365521905204882
-0.737815560058731   -0.03331948424863039   0.038531354584176655
-0.737815560058731   -0.03331948424863039   0.038531354584176655
-0.737815560058731   -0.03331948424863039   0.038531354584176655
-0.737815560058731   -0.03331948424863039   0.038531354584176655
-0.4908460740054394   -0.01900314907899417   -0.010025700448379159
-0.4908460740054394   -0.01900314907899417   -0.010025700448379159
-0.4908460740054394   -0.01900314907899417   -0.010025700448379159
-0.4908460740054394   -0.01900314907899417   -0.010025700448379159
-0.47284209200418825   0.039934989249430425   0.03226854256299638
-0.47284209200418825   0.039934989249430425   0.03226854256299638
-0.47284209200418825   0.039934989249430425   0.03226854256299638
-0.47284209200418825   0.039934989249430425   0.03226854256299638
-0.7411048309131102   -0.05303540044327126   -0.01567554150850335
-0.7411048309131102   -0.05303540044327126   -0.01567554150850335
-0.7411048309131102   -0.05303540044327126   -0.01567554150850335
-0.7411048309131102   -0.05303540044327126   -0.01567554150850335
-0.585913871690777   -0.009052159497373133   -0.0013281122323113813
-0.585913871690777   -0.009052159497373133   -0.0013281122323113813
-0.585913871690777   -0.009052159497373133   -0.0013281122323113813
-0.585913871690777   -0.009052159497373133   -0.0013281122323113813
-0.7202216800554697   -0.007378062005116259   0.043082874341544314
-0.7202216800554697   -0.007378062005116259   0.043082874341544314
-0.7202216800554697   -0.007378062005116259   0.043082874341544314
-0.7202216800554697   -0.007378062005116259   0.043082874341544314
-0.4904416363481116   -0.002438742675007405   -0.013355447232182696
-0.4904416363481116   -0.002438742675007405   -0.013355447232182696
-0.4904416363481116   -0.002438742675007405   -0.013355447232182696
-0.4904416363481116   -0.002438742675007405   -0.013355447232182696
-0.47079080415089   0.04958087931100383   0.029866210776401406
-0.47079080415089   0.04958087931100383   0.029866210776401406
-0.47079080415089   0.04958087931100383   0.029866210776401406
-0.47079080415089   0.04958087931100383   0.029866210776401406
-0.7293555977853549   -0.044278208683594   -0.02142321544280515
-0.7293555977853549   -0.044278208683594   -0.02142321544280515
-0.7293555977853549   -0.044278208683594   -0.02142321544280515
-0.7293555977853549   -0.044278208683594   -0.02142321544280515
-0.5869367178087127   0.0022773557679731937   0.006643713321861387
-0.5869367178087127   0.0022773557679731937   0.006643713321861387
-0.5869367178087127   0.0022773557679731937   0.006643713321861387
-0.5869367178087127   0.0022773557679731937   0.006643713321861387
-0.7099243441858336   0.0017265816024802927   0.029728262268727226
-0.7099243441858336   0.0017265816024802927   0.029728262268727226
-0.7099243441858336   0.0017265816024802927   0.029728262268727226
-0.7099243441858336   0.0017265816024802927   0.029728262268727226
-0.48914141345559436   0.004656733319746698   -0.016962689755858438
-0.48914141345559436   0.004656733319746698   -0.016962689755858438
-0.48914141345559436   0.004656733319746698   -0.016962689755858438
-0.48914141345559436   0.004656733319746698   -0.016962689755858438
-0.4711353134573806   0.05610181249416299   0.023700842284419342
-0.4711353134573806   0.05610181249416299   0.023700842284419342
-0.4711353134573806   0.05610181249416299   0.023700842284419342
-0.4711353134573806   0.05610181249416299   0.023700842284419342
-0.714178264985766   -0.034904041807966885   -0.02728464587837387
-0.714178264985766   -0.034904041807966885   -0.02728464587837387
-0.714178264985766   -0.034904041807966885   -0.02728464587837387
-0.714178264985766   -0.034904041807966885   -0.02728464587837387
-0.5698779220490267   0.01245591604561161   0.014036344259999146
-0.5698779220490267   0.01245591604561161   0.014036344259999146
-0.5698779220490267   0.01245591604561161   0.014036344259999146
-0.5698779220490267   0.01245591604561161   0.014036344259999146
-0.49214765273117966   -0.04663097976982195   0.011094236613747635
-0.49214765273117966   -0.04663097976982195   0.011094236613747635
-0.49214765273117966   -0.04663097976982195   0.011094236613747635
-0.49214765273117966   -0.04663097976982195   0.011094236613747635
-0.24933128911379715   -0.009215363878481063   0.000439568725805993
-0.24933128911379715   -0.009215363878481063   0.000439568725805993
-0.24933128911379715   -0.009215363878481063   0.000439568725805993
-0.24933128911379715   -0.009215363878481063   0.000439568725805993
-0.24210789156114776   0.024439351972980784   0.017517403591619633
-0.24210789156114776   0.024439351972980784   0.017517403591619633
-0.24210789156114776   0.024439351972980784   0.017517403591619633
-0.24210789156114776   0.024439351972980784   0.017517403591619633
-0.49992745631793367   -0.04598495221768795   -0.01723833753861676
-0.49992745631793367   -0.04598495221768795   -0.01723833753861676
-0.49992745631793367   -0.04598495221768795   -0.01723833753861676
-0.49992745631793367   -0.04598495221768795   -0.01723833753861676
-0.3695892864256054   -0.018139510722126787   -0.007606966265869014
-0.3695892864256054   -0.018139510722126787   -0.007606966265869014
-0.3695892864256054   -0.018139510722126787   -0.007606966265869014
-0.3695892864256054   -0.018139510722126787   -0.007606966265869014
-0.49046265226539665   -0.02659577898743025   0.010696509493813278
-0.49046265226539665   -0.02659577898743025   0.010696509493813278
-0.49046265226539665   -0.02659577898743025   0.010696509493813278
-0.49046265226539665   -0.02659577898743025   0.010696509493813278
-0.2496639833935442   0.0069588909628644086   -0.0027825945602444196
-0.2496639833935442   0.0069588909628644086   -0.0027825945602444196
-0.2496639833935442   0.0069588909628644086   -0.0027825945602444196
-0.2496639833935442   0.0069588909628644086   -0.0027825945602444196
-0.24123265459340287   0.04053069181707981   0.015135502364717685
-0.24123265459340287   0.04053069181707981   0.015135502364717685
-0.24123265459340287   0.04053069181707981   0.015135502364717685
-0.24123265459340287   0.04053069181707981   0.015135502364717685
-0.4969508010168765   -0.03098613550966095   -0.02036675873286639
-0.4969508010168765   -0.03098613550966095   -0.02036675873286639
-0.4969508010168765   -0.03098613550966095   -0.02036675873286639
-0.4969508010168765   -0.03098613550966095   -0.02036675873286639
-0.36543602921681256   -0.0018954357547870532   -9.181783438788615e-05
-0.36543602921681256   -0.0018954357547870532   -9.181783438788615e-05
-0.36543602921681256   -0.0018954357547870532   -9.181783438788615e-05
-0.36543602921681256   -0.0018954357547870532   -9.181783438788615e-05
-0.48729533998155683   -0.010270052955566891   0.007194463889638115
-0.48729533998155683   -0.010270052955566891   0.007194463889638115
-0.48729533998155683   -0.010270052955566891   0.007194463889638115
-0.48729533998155683   -0.010270052955566891   0.007194463889638115
-0.24933464945966463   0.02136807543204506   -0.0062118555815520934
-0.24933464945966463   0.02136807543204506   -0.0062118555815520934
-0.24933464945966463   0.02136807543204506   -0.0062118555815520934
-0.24933464945966463   0.02136807543204506   -0.0062118555815520934
-0.24105549810993132   0.05746030954944375   0.011324388936859327
-0.24105549810993132   0.05746030954944375   0.011324388936859327
-0.24105549810993132   0.05746030954944375   0.011324388936859327
-0.24105549810993132   0.05746030954944375   0.011324388936859327
-0.49443188359855095   -0.01477338789906063   -0.02190680802821122
-0.49443188359855095   -0.01477338789906063   -0.02190680802821122
-0.49443188359855095   -0.01477338789906063   -0.02190680802821122
-0.49443188359855095   -0.01477338789906063   -0.02190680802821122
-0.3655439457737848   0.01303847236428475   0.005669619582337523
-0.3655439457737848   0.01303847236428475   0.005669619582337523
-0.3655439457737848   0.01303847236428475   0.005669619582337523
-0.3655439457737848   0.01303847236428475   0.005669619582337523
-0.2585507082453939   -0.05351155055902963   -0.0013613402516316707
-0.2585507082453939   -0.05351155055902963   -0.0013613402516316707
-0.2585507082453939   -0.05351155055902963   -0.0013613402516316707
-0.2585507082453939   -0.05351155055902963   -0.0013613402516316707
-0.009995137711183946   0.002384403311988249   0.01103245467674297
-0.009995137711183946   0.002384403311988249   0.01103245467674297
-0.009995137711183946   0.002384403311988249   0.01103245467674297
-0.009995137711183946   0.002384403311988249   0.01103245467674297
-0.010837094568782606   0.01559340454783065   0.005287708407158812
-0.010837094568782606   0.01559340454783065   0.005287708407158812
-0.010837094568782606   0.01559340454783065   0.005287708407158812
-0.010837094568782606   0.01559340454783065   0.005287708407158812
-0.2586178760775966   -0.03418207593865498   -0.006411091078988682
-0.2586178760775966   -0.03418207593865498   -0.006411091078988682
-0.2586178760775966   -0.03418207593865498   -0.006411091078988682
-0.2586178760775966   -0.03418207593865498   -0.006411091078988682
-0.13491890643729051   -0.016853566015927073   -0.0042829898907742
-0.13491890643729051   -0.016853566015927073   -0.0042829898907742
-0.13491890643729051   -0.016853566015927073   -0.0042829898907742
-0.13491890643729051   -0.016853566015927073   -0.0042829898907742
-0.2583382761100372   -0.03566950573151776   -0.0035256614483286826
-0.2583382761100372   -0.03566950573151776   -0.0035256614483286826
-0.2583382761100372   -0.03566950573151776   -0.0035256614483286826
-0.2583382761100372   -0.03566950573151776   -0.0035256614483286826
-0.009695820923537386   0.01850170795349876   0.00808577322771693
-0.009695820923537386   0.01850170795349876   0.00808577322771693
-0.009695820923537386   0.01850170795349876   0.00808577322771693
-0.009695820923537386   0.01850170795349876   0.00808577322771693
-0.009548052491912791   0.03311479805990221   0.0025010690436501615
-0.009548052491912791   0.03311479805990221   0.0025010690436501615
-0.009548052491912791   0.03311479805990221   0.0025010690436501615
-0.009548052491912791   0.03311479805990221   0.0025010690436501615
-0.2578560077811058   -0.018031495105320844   -0.009419076651393788
-0.2578560077811058   -0.018031495105320844   -0.009419076651393788
-0.2578560077811058   -0.018031495105320844   -0.009419076651393788
-0.2578560077811058   -0.018031495105320844   -0.009419076651393788
-0.13350402944442846   -0.0006674798106024414   0.0017947752519112915
-0.13350402944442846   -0.0006674798106024414   0.0017947752519112915
-0.13350402944442846   -0.0006674798106024414   0.0017947752519112915
-0.13350402944442846   -0.0006674798106024414   0.0017947752519112915
-0.25747109786681666   -0.018396024384051607   -0.0071299978012169946
-0.25747109786681666   -0.018396024384051607   -0.0071299978012169946
-0.25747109786681666   -0.018396024384051607   -0.0071299978012169946
-0.25747109786681666   -0.018396024384051607   -0.0071299978012169946
-0.008760600522444102   0.03465168922239121   0.004901437728504772
-0.008760600522444102   0.03465168922239121   0.004901437728504772
-0.008760600522444102   0.03465168922239121   0.004901437728504772
-0.008760600522444102   0.03465168922239121   0.004901437728504772
-0.009187259039954074   0.051152846363358276   -0.0004694360888763509
-0.009187259039954074   0.051152846363358276   -0.0004694360888763509
-0.009187259039954074   0.051152846363358276   -0.0004694360888763509
-0.009187259039954074   0.051152846363358276   -0.0004694360888763509
-0.2576283121320891   -0.001612640351701125   -0.012466731272786217
-0.2576283121320891   -0.001612640351701125   -0.012466731272786217
-0.2576283121320891   -0.001612640351701125   -0.012466731272786217
-0.2576283121320891   -0.001612640351701125   -0.012466731272786217
-0.13238050187238107   0.015534594249146768   0.007370146969034697
-0.13238050187238107   0.015534594249146768   0.007370146969034697
-0.13238050187238107   0.015534594249146768   0.007370146969034697
-0.13238050187238107   0.015534594249146768   0.007370146969034697
-0.026996667946225995   -0.05877325500715257   -0.012817538179326318
-0.026996667946225995   -0.05877325500715257   -0.012817538179326318
-0.026996667946225995   -0.05877325500715257   -0.012817538179326318
-0.026996667946225995   -0.05877325500715257   -0.012817538179326318
0.2282501703471276   0.015930090368147097   0.02098952303241526
0.2282501703471276   0.015930090368147097   0.02098952303241526
0.2282501703471276   0.015930090368147097   0.02098952303241526
0.2282501703471276   0.015930090368147097   0.02098952303241526
0.22075185859725904   0.008261879843520864   -0.008403573096969515
0.22075185859725904   0.008261879843520864   -0.008403573096969515
0.22075185859725904   0.008261879843520864   -0.008403573096969515
0.22075185859725904   0.008261879843520864   -0.008403573096969515
-0.018366947649696912   -0.021374470396853893   0.004606317947271946
-0.018366947649696912   -0.021374470396853893   0.004606317947271946
-0.018366947649696912   -0.021374470396853893   0.004606317947271946
-0.018366947649696912   -0.021374470396853893   0.004606317947271946
0.09946964446631607   -0.013764462903394302   -0.0024435753881116747
0.09946964446631607   -0.013764462903394302   -0.0024435753881116747
0.09946964446631607   -0.013764462903394302   -0.0024435753881116747
0.09946964446631607   -0.013764462903394302   -0.0024435753881116747
-0.026798146101557514   -0.042793529515521275   -0.01613061519336367
-0.026798146101557514   -0.042793529515521275   -0.01613061519336367
-0.026798146101557514   -0.042793529515521275   -0.01613061519336367
-0.026798146101557514   -0.042793529515521275   -0.01613061519336367
0.23079990536932513   0.03129778728239309   0.018800753324488675
0.23079990536932513   0.03129778728239309   0.018800753324488675
0.23079990536932513   0.03129778728239309   0.018800753324488675
0.23079990536932513   0.03129778728239309   0.018800753324488675
0.22450407751105492   0.024573485381500913   -0.011798624683057942
0.22450407751105492   0.024573485381500913   -0.011798624683057942
0.22450407751105492   0.024573485381500913   -0.011798624683057942
0.22450407751105492   0.024573485381500913   -0.011798624683057942
-0.017773382686826922   -0.006900585962814395   0.001389802091796391
-0.017773382686826922   -0.006900585962814395   0.001389802091796391
-0.017773382686826922   -0.006900585962814395   0.001389802091796391
-0.017773382686826922   -0.006900585962814395   0.001389802091796391
0.10049430704677008   0.0009045501072708038   0.003605486706482402
0.10049430704677008   0.0009045501072708038   0.003605486706482402
0.10049430704677008   0.0009045501072708038   0.003605486706482402
0.10049430704677008   0.0009045501072708038   0.003605486706482402
-0.02597640621893016   -0.02705672227849283   -0.019469179253041598
-0.02597640621893016   -0.02705672227849283   -0.019469179253041598
-0.02597640621893016   -0.02705672227849283   -0.019469179253041598
-0.02597640621893016   -0.02705672227849283   -0.019469179253041598
0.2344699468728788   0.0464924675269   0.0161117399806626
0.2344699468728788   0.0464924675269   0.0161117399806626
0.2344699468728788   0.0464924675269   0.0161117399806626
0.2344699468728788   0.0464924675269   0.0161117399806626
0.22686584717638442   0.044991071632527475   -0.012364765605278256
0.22686584717638442   0.044991071632527475   -0.012364765605278256
0.22686584717638442   0.044991071632527475   -0.012364765605278256
0.22686584717638442   0.044991071632527475   -0.012364765605278256
-0.017692392485071567   0.009977501297827991   -0.0018197582489333643
-0.017692392485071567   0.009977501297827991   -0.0018197582489333643
-0.017692392485071567   0.009977501297827991   -0.0018197582489333643
-0.017692392485071567   0.009977501297827991   -0.0018197582489333643
0.10414392437726003   0.017222171020110463   0.010772056848645373
0.10414392437726003   0.017222171020110463   0.010772056848645373
0.10414392437726003   0.017222171020110463   0.010772056848645373
0.10414392437726003   0.017222171020110463   0.010772056848645373
0.20416453857655525   -0.058445943652068885   -0.02506260180022822
0.20416453857655525   -0.058445943652068885   -0.02506260180022822
0.20416453857655525   -0.058445943652068885   -0.02506260180022822
0.20416453857655525   -0.058445943652068885   -0.02506260180022822
0.45026984882476556   0.033474374668260656   0.02351134212490138
0.45026984882476556   0.033474374668260656   0.02351134212490138
0.45026984882476556   0.033474374668260656   0.02351134212490138
0.45026984882476556   0.033474374668260656   0.02351134212490138
0.4467982174288956   -0.0026600105294573156   -0.03336657089114556
0.4467982174288956   -0.0026600105294573156   -0.03336657089114556
0.4467982174288956   -0.0026600105294573156   -0.03336657089114556
0.4467982174288956   -0.0026600105294573156   -0.03336657089114556
0.22301787115075747   -0.004640563004555315   0.01582893251860075
0.22301787115075747   -0.004640563004555315   0.01582893251860075
0.22301787115075747   -0.004640563004555315   0.01582893251860075
0.22301787115075747   -0.004640563004555315   0.01582893251860075
0.3149834804584581   -0.011535441735608859   -0.010435732587668677
0.3149834804584581   -0.011535441735608859   -0.010435732587668677
0.3149834804584581   -0.011535441735608859   -0.010435732587668677
0.3149834804584581   -0.011535441735608859   -0.010435732587668677
0.2044889755258936   -0.050616472044902744   -0.03083963656537075
0.2044889755258936   -0.050616472044902744   -0.03083963656537075
0.2044889755258936   -0.050616472044902744   -0.03083963656537075
0.2044889755258936   -0.050616472044902744   -0.03083963656537075
0.46665450633371836   0.04464329179084912   0.018611571312662015
0.46665450633371836   0.04464329179084912   0.018611571312662015
0.46665450633371836   0.04464329179084912   0.018611571312662015
0.46665450633371836   0.04464329179084912   0.018611571312662015
0.45806319712391586   0.00664382066694362   -0.04481784009891097
0.45806319712391586   0.00664382066694362   -0.04481784009891097
0.45806319712391586   0.00664382066694362   -0.04481784009891097
0.45806319712391586   0.00664382066694362   -0.04481784009891097
0.22480838865969693   0.0024612699296436974   0.011835146512013358
0.22480838865969693   0.0024612699296436974   0.011835146512013358
0.22480838865969693   0.0024612699296436974   0.011835146512013358
0.22480838865969693   0.0024612699296436974   0.011835146512013358
0.3295010887136785   -0.0014523619670604726   -0.003126287078988578
0.3295010887136785   -0.0014523619670604726   -0.003126287078988578
0.3295010887136785   -0.0014523619670604726   -0.003126287078988578
0.3295010887136785   -0.0014523619670604726   -0.003126287078988578
0.2069597281612071   -0.04133556859664561   -0.03361131745414833
0.2069597281612071   -0.04133556859664561   -0.03361131745414833
0.2069597281612071   -0.04133556859664561   -0.03361131745414833
0.2069597281612071   -0.04133556859664561   -0.03361131745414833
0.47884840272432394   0.05337720429515177   0.012374804274926666
0.47884840272432394   0.05337720429515177   0.012374804274926666
0.47884840272432394   0.05337720429515177   0.012374804274926666
0.47884840272432394   0.05337720429515177   0.012374804274926666
0.4759335245711388   0.030821509184743523   -0.042229797301842203
0.4759335245711388   0.030821509184743523   -0.042229797301842203
0.4759335245711388   0.030821509184743523   -0.042229797301842203
0.4759335245711388   0.030821509184743523   -0.042229797301842203
0.22568676600904775   0.018061908240044493   0.008668991950525284
0.22568676600904775   0.018061908240044493   0.008668991950525284
0.22568676600904775   0.018061908240044493   0.008668991950525284
0.22568676600904775   0.018061908240044493   0.008668991950525284
0.3322082752506133   0.010039761254054466   0.004999356056075734
0.3322082752506133   0.010039761254054466   0.004999356056075734
0.3322082752506133   0.010039761254054466   0.004999356056075734
0.3322082752506133   0.010039761254054466   0.004999356056075734
-0.5250681718466897   -0.01689026508216812   0.03476081737700138
-0.5250681718466897   -0.01689026508216812   0.03476081737700138
-0.5250681718466897   -0.01689026508216812   0.03476081737700138
-0.5250681718466897   -0.01689026508216812   0.03476081737700138
-0.36844291811815894   -0.024886425501029756   -0.013063480437597768
-0.36844291811815894   -0.024886425501029756   -0.013063480437597768
-0.36844291811815894   -0.024886425501029756   -0.013063480437597768
-0.36844291811815894   -0.024886425501029756   -0.013063480437597768
-0.3466171680931609   0.03491810680457745   0.02960433191079087
-0.3466171680931609   0.03491810680457745   0.02960433191079087
-0.3466171680931609   0.03491810680457745   0.02960433191079087
-0.3466171680931609   0.03491810680457745   0.02960433191079087
-0.525096699123027   -0.04328395879829319   -0.01912262267306434
-0.525096699123027   -0.04328395879829319   -0.01912262267306434
-0.525096699123027   -0.04328395879829319   -0.01912262267306434
-0.525096699123027   -0.04328395879829319   -0.01912262267306434
-0.4232858194040985   -0.006683889380826202   -0.0011536421175433777
-0.4232858194040985   -0.006683889380826202   -0.0011536421175433777
-0.4232858194040985   -0.006683889380826202   -0.0011536421175433777
-0.4232858194040985   -0.006683889380826202   -0.0011536421175433777
-0.5052325865063848   0.0038807942184541644   0.033033187393398486
-0.5052325865063848   0.0038807942184541644   0.033033187393398486
-0.5052325865063848   0.0038807942184541644   0.033033187393398486
-0.5052325865063848   0.0038807942184541644   0.033033187393398486
-0.36486003562729563   -0.01062540112966108   -0.01606649782564269
-0.36486003562729563   -0.01062540112966108   -0.01606649782564269
-0.36486003562729563   -0.01062540112966108   -0.01606649782564269
-0.36486003562729563   -0.01062540112966108   -0.01606649782564269
-0.3433428741994371   0.042207697779854766   0.024993593288524654
-0.3433428741994371   0.042207697779854766   0.024993593288524654
-0.3433428741994371   0.042207697779854766   0.024993593288524654
-0.3433428741994371   0.042207697779854766   0.024993593288524654
-0.5125314240058675   -0.035152579822127245   -0.02414026259182201
-0.5125314240058675   -0.035152579822127245   -0.02414026259182201
-0.5125314240058675   -0.035152579822127245   -0.02414026259182201
-0.5125314240058675   -0.035152579822127245   -0.02414026259182201
-0.4202285169096025   0.002916871639295812   0.004296211733893333
-0.4202285169096025   0.002916871639295812   0.004296211733893333
-0.4202285169096025   0.002916871639295812   0.004296211733893333
-0.4202285169096025   0.002916871639295812   0.004296211733893333
-0.4928561257360836   0.012602548834845503   0.02648110010012487
-0.4928561257360836   0.012602548834845503   0.02648110010012487
-0.4928561257360836   0.012602548834845503   0.02648110010012487
-0.4928561257360836   0.012602548834845503   0.02648110010012487
-0.36155721933030843   -0.004086477738204808   -0.019783956847768944
-0.36155721933030843   -0.004086477738204808   -0.019783956847768944
-0.36155721933030843   -0.004086477738204808   -0.019783956847768944
-0.36155721933030843   -0.004086477738204808   -0.019783956847768944
-0.341534465234348   0.049382414544666436   0.021503836133374782
-0.341534465234348   0.049382414544666436   0.021503836133374782
-0.341534465234348   0.049382414544666436   0.021503836133374782
-0.341534465234348   0.049382414544666436   0.021503836133374782
-0.4957412428906441   -0.024367936177816726   -0.02888211363951278
-0.4957412428906441   -0.024367936177816726   -0.02888211363951278
-0.4957412428906441   -0.024367936177816726   -0.02888211363951278
-0.4957412428906441   -0.024367936177816726   -0.02888211363951278
-0.4043893344790332   0.011945301503167888   0.0118994498428255
-0.4043893344790332   0.011945301503167888   0.0118994498428255
-0.4043893344790332   0.011945301503167888   0.0118994498428255
-0.4043893344790332   0.011945301503167888   0.0118994498428255
-0.36414017315391844   -0.02962690887929429   0.01319072776186501
-0.36414017315391844   -0.02962690887929429   0.01319072776186501
-0.36414017315391844   -0.02962690887929429   0.01319072776186501
-0.36414017315391844   -0.02962690887929429   0.01319072776186501
-0.21213313470494405   -0.016119256410240295   -0.0021125275845513816
-0.21213313470494405   -0.016119256410240295   -0.0021125275845513816
-0.21213313470494405   -0.016119256410240295   -0.0021125275845513816
-0.21213313470494405   -0.016119256410240295   -0.0021125275845513816
-0.2013305373601694   0.020373601512536012   0.015957512154734958
-0.2013305373601694   0.020373601512536012   0.015957512154734958
-0.2013305373601694   0.020373601512536012   0.015957512154734958
-0.2013305373601694   0.020373601512536012   0.015957512154734958
-0.3696665351655391   -0.03532789824971231   -0.015396498396810314
-0.3696665351655391   -0.03532789824971231   -0.015396498396810314
-0.3696665351655391   -0.03532789824971231   -0.015396498396810314
-0.3696665351655391   -0.03532789824971231   -0.015396498396810314
-0.28569372182644737   -0.01386417312318159   -0.00592755943371988
-0.28569372182644737   -0.01386417312318159   -0.00592755943371988
-0.28569372182644737   -0.01386417312318159   -0.00592755943371988
-0.28569372182644737   -0.01386417312318159   -0.00592755943371988
-0.35983827450524264   -0.012363389180362366   0.010780295835320121
-0.35983827450524264   -0.012363389180362366   0.010780295835320121
-0.35983827450524264   -0.012363389180362366   0.010780295835320121
-0.35983827450524264   -0.012363389180362366   0.010780295835320121
-0.209896524179165   -0.0013286337155153094   -0.0051701867121917156
-0.209896524179165   -0.0013286337155153094   -0.0051701867121917156
-0.209896524179165   -0.0013286337155153094   -0.0051701867121917156
-0.209896524179165   -0.0013286337155153094   -0.0051701867121917156
-0.19877365721632964   0.035336857805778756   0.013071064043781368
-0.19877365721632964   0.035336857805778756   0.013071064043781368
-0.19877365721632964   0.035336857805778756   0.013071064043781368
-0.19877365721632964   0.035336857805778756   0.013071064043781368
-0.3646605697446024   -0.02123805186189611   -0.018149134795551247
-0.3646605697446024   -0.02123805186189611   -0.018149134795551247
-0.3646605697446024   -0.02123805186189611   -0.018149134795551247
-0.3646605697446024   -0.02123805186189611   -0.018149134795551247
-0.28020067110350055   0.0008059501480253001   0.0003771682794527047
-0.28020067110350055   0.0008059501480253001   0.0003771682794527047
-0.28020067110350055   0.0008059501480253001   0.0003771682794527047
-0.28020067110350055   0.0008059501480253001   0.0003771682794527047
-0.35408914081690346   0.003627949894264376   0.009842008086783281
-0.35408914081690346   0.003627949894264376   0.009842008086783281
-0.35408914081690346   0.003627949894264376   0.009842008086783281
-0.35408914081690346   0.003627949894264376   0.009842008086783281
-0.20777767536867914   0.012038266824967982   -0.00865043573715406
-0.20777767536867914   0.012038266824967982   -0.00865043573715406
-0.20777767536867914   0.012038266824967982   -0.00865043573715406
-0.20777767536867914   0.012038266824967982   -0.00865043573715406
-0.19630208677648792   0.05131056400492611   0.010383154669659462
-0.19630208677648792   0.05131056400492611   0.010383154669659462
-0.19630208677648792   0.05131056400492611   0.010383154669659462
-0.19630208677648792   0.05131056400492611   0.010383154669659462
-0.3609253265469632   -0.006023144284646717   -0.02004491160038828
-0.3609253265469632   -0.006023144284646717   -0.02004491160038828
-0.3609253265469632   -0.006023144284646717   -0.02004491160038828
-0.3609253265469632   -0.006023144284646717   -0.02004491160038828
-0.2780574959882628   0.0146499590915437   0.006395944486833567
-0.2780574959882628   0.0146499590915437   0.006395944486833567
-0.2780574959882628   0.0146499590915437   0.006395944486833567
-0.2780574959882628   0.0146499590915437   0.006395944486833567
-0.21656146455022338   -0.041008366362839214   0.0006349331416489272
-0.21656146455022338   -0.041008366362839214   0.0006349331416489272
-0.21656146455022338   -0.041008366362839214   0.0006349331416489272
-0.21656146455022338   -0.041008366362839214   0.0006349331416489272
-0.057342424031490244   -0.005012648725208769   0.008807550811709499
-0.057342424031490244   -0.005012648725208769   0.008807550811709499
-0.057342424031490244   -0.005012648725208769   0.008807550811709499
-0.057342424031490244   -0.005012648725208769   0.008807550811709499
-0.05597981234088981   0.008228627960588486   0.0030043646805218436
-0.05597981234088981   0.008228627960588486   0.0030043646805218436
-0.05597981234088981   0.008228627960588486   0.0030043646805218436
-0.05597981234088981   0.008228627960588486   0.0030043646805218436
-0.214190576217429   -0.0238907633450243   -0.004078317274005177
-0.214190576217429   -0.0238907633450243   -0.004078317274005177
-0.214190576217429   -0.0238907633450243   -0.004078317274005177
-0.214190576217429   -0.0238907633450243   -0.004078317274005177
-0.13625528928910202   -0.014755011692201142   -0.0042248664933100845
-0.13625528928910202   -0.014755011692201142   -0.0042248664933100845
-0.13625528928910202   -0.014755011692201142   -0.0042248664933100845
-0.13625528928910202   -0.014755011692201142   -0.0042248664933100845
-0.21383469415442746   -0.02431762949918979   -0.0018720408048319053
-0.21383469415442746   -0.02431762949918979   -0.0018720408048319053
-0.21383469415442746   -0.02431762949918979   -0.0018720408048319053
-0.21383469415442746   -0.02431762949918979   -0.0018720408048319053
-0.05507004266620603   0.00992114585243932   0.005860695162089932
-0.05507004266620603   0.00992114585243932   0.005860695162089932
-0.05507004266620603   0.00992114585243932   0.005860695162089932
-0.05507004266620603   0.00992114585243932   0.005860695162089932
-0.052889651194762674   0.024994713186230172   0.0007456082200181548
-0.052889651194762674   0.024994713186230172   0.0007456082200181548
-0.052889651194762674   0.024994713186230172   0.0007456082200181548
-0.052889651194762674   0.024994713186230172   0.0007456082200181548
-0.21162936921091643   -0.008849674289945784   -0.007020963833428099
-0.21162936921091643   -0.008849674289945784   -0.007020963833428099
-0.21162936921091643   -0.008849674289945784   -0.007020963833428099
-0.21162936921091643   -0.008849674289945784   -0.007020963833428099
-0.1329531816925155   0.00029580513235245853   0.0017238915187515547
-0.1329531816925155   0.00029580513235245853   0.0017238915187515547
-0.1329531816925155   0.00029580513235245853   0.0017238915187515547
-0.1329531816925155   0.00029580513235245853   0.0017238915187515547
-0.21083777370550436   -0.007605470899320427   -0.004307189696993136
-0.21083777370550436   -0.007605470899320427   -0.004307189696993136
-0.21083777370550436   -0.007605470899320427   -0.004307189696993136
-0.21083777370550436   -0.007605470899320427   -0.004307189696993136
-0.05251248482774236   0.02491927166803856   0.002706881573311847
-0.05251248482774236   0.02491927166803856   0.002706881573311847
-0.05251248482774236   0.02491927166803856   0.002706881573311847
-0.05251248482774236   0.02491927166803856   0.002706881573311847
-0.05011270896065328   0.04200412726710519   -0.0018984963501942672
-0.05011270896065328   0.04200412726710519   -0.0018984963501942672
-0.05011270896065328   0.04200412726710519   -0.0018984963501942672
-0.05011270896065328   0.04200412726710519   -0.0018984963501942672
-0.20938994808095346   0.0063624631640503   -0.01010805101179246
-0.20938994808095346   0.0063624631640503   -0.01010805101179246
-0.20938994808095346   0.0063624631640503   -0.01010805101179246
-0.20938994808095346   0.0063624631640503   -0.01010805101179246
-0.1299393184017578   0.015419097147202299   0.007455093950250782
-0.1299393184017578   0.015419097147202299   0.007455093950250782
-0.1299393184017578   0.015419097147202299   0.007455093950250782
-0.1299393184017578   0.015419097147202299   0.007455093950250782
-0.07049135126287237   -0.05033838781201503   -0.011611346258395373
-0.07049135126287237   -0.05033838781201503   -0.011611346258395373
-0.07049135126287237   -0.05033838781201503   -0.011611346258395373
-0.07049135126287237   -0.05033838781201503   -0.011611346258395373
0.09518592875794808   0.007422314829187978   0.019086931096683267
0.09518592875794808   0.007422314829187978   0.019086931096683267
0.09518592875794808   0.007422314829187978   0.019086931096683267
0.09518592875794808   0.007422314829187978   0.019086931096683267
0.08829729782944445   -0.0031253112494064247   -0.010812131794632075
0.08829729782944445   -0.0031253112494064247   -0.010812131794632075
0.08829729782944445   -0.0031253112494064247   -0.010812131794632075
0.08829729782944445   -0.0031253112494064247   -0.010812131794632075
-0.05912030339055234   -0.011603306076784314   0.007133843469581971
-0.05912030339055234   -0.011603306076784314   0.007133843469581971
-0.05912030339055234   -0.011603306076784314   0.007133843469581971
-0.05912030339055234   -0.011603306076784314   0.007133843469581971
0.012871500729004177   -0.014008842027103875   -0.003016043656530834
0.012871500729004177   -0.014008842027103875   -0.003016043656530834
0.012871500729004177   -0.014008842027103875   -0.003016043656530834
0.012871500729004177   -0.014008842027103875   -0.003016043656530834
-0.06811205336419215   -0.03510866468690634   -0.014319547788495042
-0.06811205336419215   -0.03510866468690634   -0.014319547788495042
-0.06811205336419215   -0.03510866468690634   -0.014319547788495042
-0.06811205336419215   -0.03510866468690634   -0.014319547788495042
0.09879426789325783   0.021885267450889   0.016662139824138368
0.09879426789325783   0.021885267450889   0.016662139824138368
0.09879426789325783   0.021885267450889   0.016662139824138368
0.09879426789325783   0.021885267450889   0.016662139824138368
0.09406355880290908   0.012737111695540555   -0.012258651106164843
0.09406355880290908   0.012737111695540555   -0.012258651106164843
0.09406355880290908   0.012737111695540555   -0.012258651106164843
0.09406355880290908   0.012737111695540555   -0.012258651106164843
-0.056891898233983475   0.0018474927767485414   0.0038815934333962863
-0.056891898233983475   0.0018474927767485414   0.0038815934333962863
-0.056891898233983475   0.0018474927767485414   0.0038815934333962863
-0.056891898233983475   0.0018474927767485414   0.0038815934333962863
0.015949163250778966   -0.00033962231937643625   0.00304272895168163
0.015949163250778966   -0.00033962231937643625   0.00304272895168163
0.015949163250778966   -0.00033962231937643625   0.00304272895168163
0.015949163250778966   -0.00033962231937643625   0.00304272895168163
-0.06556986437759514   -0.020224993017425055   -0.017435751490488687
-0.06556986437759514   -0.020224993017425055   -0.017435751490488687
-0.06556986437759514   -0.020224993017425055   -0.017435751490488687
-0.06556986437759514   -0.020224993017425055   -0.017435751490488687
0.10404761136401194   0.03611568390720388   0.014283039487685223
0.10404761136401194   0.03611568390720388   0.014283039487685223
0.10404761136401194   0.03611568390720388   0.014283039487685223
0.10404761136401194   0.03611568390720388   0.014283039487685223
0.09871359135918616   0.030786504990598984   -0.014180723629336136
0.09871359135918616   0.030786504990598984   -0.014180723629336136
0.09871359135918616   0.030786504990598984   -0.014180723629336136
0.09871359135918616   0.030786504990598984   -0.014180723629336136
-0.05451202293299886   0.017321617863774726   0.0007874431914077808
-0.05451202293299886   0.017321617863774726   0.0007874431914077808
-0.05451202293299886   0.017321617863774726   0.0007874431914077808
-0.05451202293299886   0.017321617863774726   0.0007874431914077808
0.02066808219368922   0.014488113216053708   0.009303015398834161
0.02066808219368922   0.014488113216053708   0.009303015398834161
0.02066808219368922   0.014488113216053708   0.009303015398834161
0.02066808219368922   0.014488113216053708   0.009303015398834161
0.07511331268299504   -0.05085830656237693   -0.02299552788651606
0.07511331268299504   -0.05085830656237693   -0.02299552788651606
0.07511331268299504   -0.05085830656237693   -0.02299552788651606
0.07511331268299504   -0.05085830656237693   -0.02299552788651606
0.23005715267847776   0.022814103096208557   0.02485717554743564
0.23005715267847776   0.022814103096208557   0.02485717554743564
0.23005715267847776   0.022814103096208557   0.02485717554743564
0.23005715267847776   0.022814103096208557   0.02485717554743564
0.22767823014197863   -0.01293192606155507   -0.030288241757619155
0.22767823014197863   -0.01293192606155507   -0.030288241757619155
0.22767823014197863   -0.01293192606155507   -0.030288241757619155
0.22767823014197863   -0.01293192606155507   -0.030288241757619155
0.09567059510867781   0.004358034959280544   0.018571008392847727
0.09567059510867781   0.004358034959280544   0.018571008392847727
0.09567059510867781   0.004358034959280544   0.018571008392847727
0.09567059510867781   0.004358034959280544   0.018571008392847727
0.1489242268598753   -0.010653392206176275   -0.00799765152127913
0.1489242268598753   -0.010653392206176275   -0.00799765152127913
0.1489242268598753   -0.010653392206176275   -0.00799765152127913
0.1489242268598753   -0.010653392206176275   -0.00799765152127913
0.07730845466909055   -0.0422704704781419   -0.026611188367665232
0.07730845466909055   -0.0422704704781419   -0.026611188367665232
0.07730845466909055   -0.0422704704781419   -0.026611188367665232
0.07730845466909055   -0.0422704704781419   -0.026611188367665232
0.24757493800273409   0.035231146797036365   0.02103222468757055
0.24757493800273409   0.035231146797036365   0.02103222468757055
0.24757493800273409   0.035231146797036365   0.02103222468757055
0.24757493800273409   0.035231146797036365   0.02103222468757055
0.24043221468557732   -0.004055524211053027   -0.03637265021734681
0.24043221468557732   -0.004055524211053027   -0.03637265021734681
0.24043221468557732   -0.004055524211053027   -0.03637265021734681
0.24043221468557732   -0.004055524211053027   -0.03637265021734681
0.09904195548946045   0.010863183474108716   0.014507260548022833
0.09904195548946045   0.010863183474108716   0.014507260548022833
0.09904195548946045   0.010863183474108716   0.014507260548022833
0.09904195548946045   0.010863183474108716   0.014507260548022833
0.16172953342230983   -0.0016814395052121914   -0.0008799783104947514
0.16172953342230983   -0.0016814395052121914   -0.0008799783104947514
0.16172953342230983   -0.0016814395052121914   -0.0008799783104947514
0.16172953342230983   -0.0016814395052121914   -0.0008799783104947514
0.08081202409337339   -0.03488406239807019   -0.030895150560232523
0.08081202409337339   -0.03488406239807019   -0.030895150560232523
0.08081202409337339   -0.03488406239807019   -0.030895150560232523
0.08081202409337339   -0.03488406239807019   -0.030895150560232523
0.2602653539939491   0.04329492957341336   0.015442592540049666
0.2602653539939491   0.04329492957341336   0.015442592540049666
0.2602653539939491   0.04329492957341336   0.015442592540049666
0.2602653539939491   0.04329492957341336   0.015442592540049666
0.2600602332680351   0.015407447090275611   -0.038976781057306516
0.2600602332680351   0.015407447090275611   -0.038976781057306516
0.2600602332680351   0.015407447090275611   -0.038976781057306516
0.2600602332680351   0.015407447090275611   -0.038976781057306516
0.10248935268365433   0.023946947511191724   0.011537640472411077
0.10248935268365433   0.023946947511191724   0.011537640472411077
0.10248935268365433   0.023946947511191724   0.011537640472411077
0.10248935268365433   0.023946947511191724   0.011537640472411077
0.16824193078540353   0.008170318554768675   0.005278627016233298
0.16824193078540353   0.008170318554768675   0.005278627016233298
0.16824193078540353   0.008170318554768675   0.005278627016233298
0.16824193078540353   0.008170318554768675   0.005278627016233298
-0.31272446009370664   -0.004925327531383458   0.031023551386181472
-0.31272446009370664   -0.004925327531383458   0.031023551386181472
-0.31272446009370664   -0.004925327531383458   0.031023551386181472
-0.31272446009370664   -0.004925327531383458   0.031023551386181472
-0.24530420385155205   -0.03136497445494689   -0.015242445617756997
-0.24530420385155205   -0.03136497445494689   -0.015242445617756997
-0.24530420385155205   -0.03136497445494689   -0.015242445617756997
-0.24530420385155205   -0.03136497445494689   -0.015242445617756997
-0.22198776730047665   0.026461790693811375   0.026497192964908246
-0.22198776730047665   0.026461790693811375   0.026497192964908246
-0.22198776730047665   0.026461790693811375   0.026497192964908246
-0.22198776730047665   0.026461790693811375   0.026497192964908246
-0.3114716310243203   -0.033981323415325   -0.020789370101070084
-0.3114716310243203   -0.033981323415325   -0.020789370101070084
-0.3114716310243203   -0.033981323415325   -0.020789370101070084
-0.3114716310243203   -0.033981323415325   -0.020789370101070084
-0.26249279574079776   -0.007154388153992934   -0.004079652183624353
-0.26249279574079776   -0.007154388153992934   -0.004079652183624353
-0.26249279574079776   -0.007154388153992934   -0.004079652183624353
-0.26249279574079776   -0.007154388153992934   -0.004079652183624353
-0.29197597931929525   0.013088518915676639   0.02961904609305322
-0.29197597931929525   0.013088518915676639   0.02961904609305322
-0.29197597931929525   0.013088518915676639   0.02961904609305322
-0.29197597931929525   0.013088518915676639   0.02961904609305322
-0.24011644945296146   -0.019241082084649815   -0.018443345019052954
-0.24011644945296146   -0.019241082084649815   -0.018443345019052954
-0.24011644945296146   -0.019241082084649815   -0.018443345019052954
-0.24011644945296146   -0.019241082084649815   -0.018443345019052954
-0.21655398375137053   0.033348874273158066   0.0223895676301075
-0.21655398375137053   0.033348874273158066   0.0223895676301075
-0.21655398375137053   0.033348874273158066   0.0223895676301075
-0.21655398375137053   0.033348874273158066   0.0223895676301075
-0.29709996877405287   -0.026173751314230845   -0.02593813005646422
-0.29709996877405287   -0.026173751314230845   -0.02593813005646422
-0.29709996877405287   -0.026173751314230845   -0.02593813005646422
-0.29709996877405287   -0.026173751314230845   -0.02593813005646422
-0.25497785873707784   0.0018443741064168573   0.0016836328637753473
-0.25497785873707784   0.0018443741064168573   0.0016836328637753473
-0.25497785873707784   0.0018443741064168573   0.0016836328637753473
-0.25497785873707784   0.0018443741064168573   0.0016836328637753473
-0.2776080250911289   0.021441433239974564   0.023906403803948324
-0.2776080250911289   0.021441433239974564   0.023906403803948324
-0.2776080250911289   0.021441433239974564   0.023906403803948324
-0.2776080250911289   0.021441433239974564   0.023906403803948324
-0.23475670181281613   -0.01297708465956901   -0.022298063744391756
-0.23475670181281613   -0.01297708465956901   -0.022298063744391756
-0.23475670181281613   -0.01297708465956901   -0.022298063744391756
-0.23475670181281613   -0.01297708465956901   -0.022298063744391756
-0.21217508309643096   0.04198299135235072   0.019306364217119003
-0.21217508309643096   0.04198299135235072   0.019306364217119003
-0.21217508309643096   0.04198299135235072   0.019306364217119003
-0.21217508309643096   0.04198299135235072   0.019306364217119003
-0.277802484089239   -0.013662848290581175   -0.030003196422795437
-0.277802484089239   -0.013662848290581175   -0.030003196422795437
-0.277802484089239   -0.013662848290581175   -0.030003196422795437
-0.277802484089239   -0.013662848290581175   -0.030003196422795437
-0.23986487932647582   0.010749600408646656   0.008807880125003352
-0.23986487932647582   0.010749600408646656   0.008807880125003352
-0.23986487932647582   0.010749600408646656   0.008807880125003352
-0.23986487932647582   0.010749600408646656   0.008807880125003352
-0.2365551708372629   -0.017628007600037864   0.01476575259877961
-0.2365551708372629   -0.017628007600037864   0.01476575259877961
-0.2365551708372629   -0.017628007600037864   0.01476575259877961
-0.2365551708372629   -0.017628007600037864   0.01476575259877961
-0.1748920832112461   -0.023763837072126752   -0.004505098639363582
-0.1748920832112461   -0.023763837072126752   -0.004505098639363582
-0.1748920832112461   -0.023763837072126752   -0.004505098639363582
-0.1748920832112461   -0.023763837072126752   -0.004505098639363582
-0.1619455852930065   0.012005581375137048   0.013549949854911592
-0.1619455852930065   0.012005581375137048   0.013549949854911592
-0.1619455852930065   0.012005581375137048   0.013549949854911592
-0.1619455852930065   0.012005581375137048   0.013549949854911592
-0.24017892633528481   -0.02504368024316942   -0.01295313127214806
-0.24017892633528481   -0.02504368024316942   -0.01295313127214806
-0.24017892633528481   -0.02504368024316942   -0.01295313127214806
-0.24017892633528481   -0.02504368024316942   -0.01295313127214806
-0.2028613356887232   -0.012515386750446916   -0.005536971033316435
-0.2028613356887232   -0.012515386750446916   -0.005536971033316435
-0.2028613356887232   -0.012515386750446916   -0.005536971033316435
-0.2028613356887232   -0.012515386750446916   -0.005536971033316435
-0.23044526615010452   -0.0018917057376227411   0.012563195148203006
-0.23044526615010452   -0.0018917057376227411   0.012563195148203006
-0.23044526615010452   -0.0018917057376227411   0.012563195148203006
-0.23044526615010452   -0.0018917057376227411   0.012563195148203006
-0.17057713612862127   -0.010044283780842166   -0.007557939167182987
-0.17057713612862127   -0.010044283780842166   -0.007557939167182987
-0.17057713612862127   -0.010044283780842166   -0.007557939167182987
-0.17057713612862127   -0.010044283780842166   -0.007557939167182987
-0.1572680513402333   0.026035964268570314   0.010828427452411747
-0.1572680513402333   0.026035964268570314   0.010828427452411747
-0.1572680513402333   0.026035964268570314   0.010828427452411747
-0.1572680513402333   0.026035964268570314   0.010828427452411747
-0.23312261872952192   -0.011590308775043877   -0.015514424212443858
-0.23312261872952192   -0.011590308775043877   -0.015514424212443858
-0.23312261872952192   -0.011590308775043877   -0.015514424212443858
-0.23312261872952192   -0.011590308775043877   -0.015514424212443858
-0.19606122361848133   0.000976611097769163   0.0005052477795902937
-0.19606122361848133   0.000976611097769163   0.0005052477795902937
-0.19606122361848133   0.000976611097769163   0.0005052477795902937
-0.19606122361848133   0.000976611097769163   0.0005052477795902937
-0.2228161158100077   0.013038518505122894   0.011389263104956743
-0.2228161158100077   0.013038518505122894   0.011389263104956743
-0.2228161158100077   0.013038518505122894   0.011389263104956743
-0.2228161158100077   0.013038518505122894   0.011389263104956743
-0.16630241706668003   0.0026792741814687937   -0.010986711092722411
-0.16630241706668003   0.0026792741814687937   -0.010986711092722411
-0.16630241706668003   0.0026792741814687937   -0.010986711092722411
-0.16630241706668003   0.0026792741814687937   -0.010986711092722411
-0.15260404833112295   0.04129731347882469   0.008236099001128518
-0.15260404833112295   0.04129731347882469   0.008236099001128518
-0.15260404833112295   0.04129731347882469   0.008236099001128518
-0.15260404833112295   0.04129731347882469   0.008236099001128518
-0.2273234970124031   0.003136076535006853   -0.017588790545393973
-0.2273234970124031   0.003136076535006853   -0.017588790545393973
-0.2273234970124031   0.003136076535006853   -0.017588790545393973
-0.2273234970124031   0.003136076535006853   -0.017588790545393973
-0.19115518655142633   0.014241738207451178   0.006429327562457638
-0.19115518655142633   0.014241738207451178   0.006429327562457638
-0.19115518655142633   0.014241738207451178   0.006429327562457638
-0.19115518655142633   0.014241738207451178   0.006429327562457638
-0.17464469658848805   -0.02970084493207568   0.00266884233437274
-0.17464469658848805   -0.02970084493207568   0.00266884233437274
-0.17464469658848805   -0.02970084493207568   0.00266884233437274
-0.17464469658848805   -0.02970084493207568   0.00266884233437274
-0.10533829411089066   -0.0127117245339895   0.006378552043657592
-0.10533829411089066   -0.0127117245339895   0.006378552043657592
-0.10533829411089066   -0.0127117245339895   0.006378552043657592
-0.10533829411089066   -0.0127117245339895   0.006378552043657592
-0.10188477885142416   -0.00045168593590562064   0.0008112724055833473
-0.10188477885142416   -0.00045168593590562064   0.0008112724055833473
-0.10188477885142416   -0.00045168593590562064   0.0008112724055833473
-0.10188477885142416   -0.00045168593590562064   0.0008112724055833473
-0.1700466560204385   -0.013472147183612108   -0.0014776752234991319
-0.1700466560204385   -0.013472147183612108   -0.0014776752234991319
-0.1700466560204385   -0.013472147183612108   -0.0014776752234991319
-0.1700466560204385   -0.013472147183612108   -0.0014776752234991319
-0.13820065761780564   -0.013421182039894838   -0.004043468609398701
-0.13820065761780564   -0.013421182039894838   -0.004043468609398701
-0.13820065761780564   -0.013421182039894838   -0.004043468609398701
-0.13820065761780564   -0.013421182039894838   -0.004043468609398701
-0.16983025164890508   -0.014147162572007693   0.0002793620225615941
-0.16983025164890508   -0.014147162572007693   0.0002793620225615941
-0.16983025164890508   -0.014147162572007693   0.0002793620225615941
-0.16983025164890508   -0.014147162572007693   0.0002793620225615941
-0.10100421243975892   0.0013203002356870115   0.003442118292316885
-0.10100421243975892   0.0013203002356870115   0.003442118292316885
-0.10100421243975892   0.0013203002356870115   0.003442118292316885
-0.10100421243975892   0.0013203002356870115   0.003442118292316885
-0.09679352249566997   0.01523754356763804   -0.0014207212607631158
-0.09679352249566997   0.01523754356763804   -0.0014207212607631158
-0.09679352249566997   0.01523754356763804   -0.0014207212607631158
-0.09679352249566997   0.01523754356763804   -0.0014207212607631158
-0.16535925778194618   0.0007615552117459859   -0.004353195699330339
-0.16535925778194618   0.0007615552117459859   -0.004353195699330339
-0.16535925778194618   0.0007615552117459859   -0.004353195699330339
-0.16535925778194618   0.0007615552117459859   -0.004353195699330339
-0.1328246840851408   0.0006679082290634505   0.0018240915606833946
-0.1328246840851408   0.0006679082290634505   0.0018240915606833946
-0.1328246840851408   0.0006679082290634505   0.0018240915606833946
-0.1328246840851408   0.0006679082290634505   0.0018240915606833946
-0.1647738556797788   0.0014939126563493499   -0.0021585426330977195
-0.1647738556797788   0.0014939126563493499   -0.0021585426330977195
-0.1647738556797788   0.0014939126563493499   -0.0021585426330977195
-0.1647738556797788   0.0014939126563493499   -0.0021585426330977195
-0.09638626660782033   0.01549784411305168   0.0003552576330722781
-0.09638626660782033   0.01549784411305168   0.0003552576330722781
-0.09638626660782033   0.01549784411305168   0.0003552576330722781
-0.09638626660782033   0.01549784411305168   0.0003552576330722781
-0.09198311167785295   0.031074188563503923   -0.003956260417617197
-0.09198311167785295   0.031074188563503923   -0.003956260417617197
-0.09198311167785295   0.031074188563503923   -0.003956260417617197
-0.09198311167785295   0.031074188563503923   -0.003956260417617197
-0.1609773286020225   0.015103799467951158   -0.0074367883424946175
-0.1609773286020225   0.015103799467951158   -0.0074367883424946175
-0.1609773286020225   0.015103799467951158   -0.0074367883424946175
-0.1609773286020225   0.015103799467951158   -0.0074367883424946175
-0.12774615037919365   0.014808110568573507   0.007454623151805343
-0.12774615037919365   0.014808110568573507   0.007454623151805343
-0.12774615037919365   0.014808110568573507   0.007454623151805343
-0.12774615037919365   0.014808110568573507   0.007454623151805343
-0.1140112028416624   -0.04014503411575772   -0.00955268202843472
-0.1140112028416624   -0.04014503411575772   -0.00955268202843472
-0.1140112028416624   -0.04014503411575772   -0.00955268202843472
-0.1140112028416624   -0.04014503411575772   -0.00955268202843472
-0.03797694268979099   -0.000982437137675977   0.01670506852697937
-0.03797694268979099   -0.000982437137675977   0.01670506852697937
-0.03797694268979099   -0.000982437137675977   0.01670506852697937
-0.03797694268979099   -0.000982437137675977   0.01670506852697937
-0.042858743746765   -0.012269850120794405   -0.012460436394255823
-0.042858743746765   -0.012269850120794405   -0.012460436394255823
-0.042858743746765   -0.012269850120794405   -0.012460436394255823
-0.042858743746765   -0.012269850120794405   -0.012460436394255823
-0.10033803742540448   -0.0015230455731477521   0.00961633917292299
-0.10033803742540448   -0.0015230455731477521   0.00961633917292299
-0.10033803742540448   -0.0015230455731477521   0.00961633917292299
-0.10033803742540448   -0.0015230455731477521   0.00961633917292299
-0.07375575542252051   -0.01313486244637127   -0.002921267094284837
-0.07375575542252051   -0.01313486244637127   -0.002921267094284837
-0.07375575542252051   -0.01313486244637127   -0.002921267094284837
-0.07375575542252051   -0.01313486244637127   -0.002921267094284837
-0.109483978930329   -0.02552507721968807   -0.012111336705160142
-0.109483978930329   -0.02552507721968807   -0.012111336705160142
-0.109483978930329   -0.02552507721968807   -0.012111336705160142
-0.109483978930329   -0.02552507721968807   -0.012111336705160142
-0.03248526076400812   0.01295972300357813   0.014177405395156033
-0.03248526076400812   0.01295972300357813   0.014177405395156033
-0.03248526076400812   0.01295972300357813   0.014177405395156033
-0.03248526076400812   0.01295972300357813   0.014177405395156033
-0.03536163960791586   0.002570840397945808   -0.014031927086685006
-0.03536163960791586   0.002570840397945808   -0.014031927086685006
-0.03536163960791586   0.002570840397945808   -0.014031927086685006
-0.03536163960791586   0.002570840397945808   -0.014031927086685006
-0.09602087220436532   0.011254456225950008   0.006425617537448204
-0.09602087220436532   0.011254456225950008   0.006425617537448204
-0.09602087220436532   0.011254456225950008   0.006425617537448204
-0.09602087220436532   0.011254456225950008   0.006425617537448204
-0.06801404509538779   5.346854479367294e-06   0.00306469149140984
-0.06801404509538779   5.346854479367294e-06   0.00306469149140984
-0.06801404509538779   5.346854479367294e-06   0.00306469149140984
-0.06801404509538779   5.346854479367294e-06   0.00306469149140984
-0.10487568607946118   -0.011536985501202272   -0.015057010110880082
-0.10487568607946118   -0.011536985501202272   -0.015057010110880082
-0.10487568607946118   -0.011536985501202272   -0.015057010110880082
-0.10487568607946118   -0.011536985501202272   -0.015057010110880082
-0.025363569152737707   0.02650553870518017   0.012023726881971397
-0.025363569152737707   0.02650553870518017   0.012023726881971397
-0.025363569152737707   0.02650553870518017   0.012023726881971397
-0.025363569152737707   0.02650553870518017   0.012023726881971397
-0.029024518634117154   0.019115338986034583   -0.01573145549617465
-0.029024518634117154   0.019115338986034583   -0.01573145549617465
-0.029024518634117154   0.019115338986034583   -0.01573145549617465
-0.029024518634117154   0.019115338986034583   -0.01573145549617465
-0.0916006190202393   0.025681310921647445   0.0033490805123074455
-0.0916006190202393   0.025681310921647445   0.0033490805123074455
-0.0916006190202393   0.025681310921647445   0.0033490805123074455
-0.0916006190202393   0.025681310921647445   0.0033490805123074455
-0.06209632251246654   0.013662175981829687   0.009037463677611582
-0.06209632251246654   0.013662175981829687   0.009037463677611582
-0.06209632251246654   0.013662175981829687   0.009037463677611582
-0.06209632251246654   0.013662175981829687   0.009037463677611582
-0.0539137100112011   -0.04311978799563665   -0.02084141722211149
-0.0539137100112011   -0.04311978799563665   -0.02084141722211149
-0.0539137100112011   -0.04311978799563665   -0.02084141722211149
-0.0539137100112011   -0.04311978799563665   -0.02084141722211149
0.012016975722121579   0.012336525695532972   0.02560819905725979
0.012016975722121579   0.012336525695532972   0.02560819905725979
0.012016975722121579   0.012336525695532972   0.02560819905725979
0.012016975722121579   0.012336525695532972   0.02560819905725979
0.012022889056580529   -0.02161271613431833   -0.027635041023049374
0.012022889056580529   -0.02161271613431833   -0.027635041023049374
0.012022889056580529   -0.02161271613431833   -0.027635041023049374
0.012022889056580529   -0.02161271613431833   -0.027635041023049374
-0.031043465401503323   0.013381544832571726   0.02096456037868644
-0.031043465401503323   0.013381544832571726   0.02096456037868644
-0.031043465401503323   0.013381544832571726   0.02096456037868644
-0.031043465401503323   0.013381544832571726   0.02096456037868644
-0.015585680945395287   -0.009289195755099122   -0.004769607329711476
-0.015585680945395287   -0.009289195755099122   -0.004769607329711476
-0.015585680945395287   -0.009289195755099122   -0.004769607329711476
-0.015585680945395287   -0.009289195755099122   -0.004769607329711476
-0.04933744410020428   -0.03315211018126228   -0.023971678100984307
-0.04933744410020428   -0.03315211018126228   -0.023971678100984307
-0.04933744410020428   -0.03315211018126228   -0.023971678100984307
-0.04933744410020428   -0.03315211018126228   -0.023971678100984307
0.03162720293621212   0.026231274060445037   0.022542538180345226
0.03162720293621212   0.026231274060445037   0.022542538180345226
0.03162720293621212   0.026231274060445037   0.022542538180345226
0.03162720293621212   0.026231274060445037   0.022542538180345226
0.026460498811594155   -0.013127019242792201   -0.03286229635862315
0.026460498811594155   -0.013127019242792201   -0.03286229635862315
0.026460498811594155   -0.013127019242792201   -0.03286229635862315
0.026460498811594155   -0.013127019242792201   -0.03286229635862315
-0.02579508221667304   0.01954016980297195   0.016831530464502004
-0.02579508221667304   0.01954016980297195   0.016831530464502004
-0.02579508221667304   0.01954016980297195   0.016831530464502004
-0.02579508221667304   0.01954016980297195   0.016831530464502004
-0.003799049903672373   -0.0005394654534457443   0.0016962682646397068
-0.003799049903672373   -0.0005394654534457443   0.0016962682646397068
-0.003799049903672373   -0.0005394654534457443   0.0016962682646397068
-0.003799049903672373   -0.0005394654534457443   0.0016962682646397068
-0.043853880105726835   -0.02616824465840882   -0.027754044519385266
-0.043853880105726835   -0.02616824465840882   -0.027754044519385266
-0.043853880105726835   -0.02616824465840882   -0.027754044519385266
-0.043853880105726835   -0.02616824465840882   -0.027754044519385266
0.04583422115123451   0.033896319669175286   0.016982976427611138
0.04583422115123451   0.033896319669175286   0.016982976427611138
0.04583422115123451   0.033896319669175286   0.016982976427611138
0.04583422115123451   0.033896319669175286   0.016982976427611138
0.04677104125055412   0.003450735359819858   -0.03522510885134804
0.04677104125055412   0.003450735359819858   -0.03522510885134804
0.04677104125055412   0.003450735359819858   -0.03522510885134804
0.04677104125055412   0.003450735359819858   -0.03522510885134804
-0.0208984940495274   0.03033197687602704   0.01368202953678264
-0.0208984940495274   0.03033197687602704   0.01368202953678264
-0.0208984940495274   0.03033197687602704   0.01368202953678264
-0.0208984940495274   0.03033197687602704   0.01368202953678264
0.006958347877393042   0.008619169630916426   0.008046338848781502
0.006958347877393042   0.008619169630916426   0.008046338848781502
0.006958347877393042   0.008619169630916426   0.008046338848781502
0.006958347877393042   0.008619169630916426   0.008046338848781502
-0.10144218169892164   0.006310912488068247   0.029274966944688292
-0.10144218169892164   0.006310912488068247   0.029274966944688292
-0.10144218169892164   0.006310912488068247   0.029274966944688292
-0.10144218169892164   0.006310912488068247   0.029274966944688292
-0.12317662982693448   -0.03803326011008972   -0.017132312740992545
-0.12317662982693448   -0.03803326011008972   -0.017132312740992545
-0.12317662982693448   -0.03803326011008972   -0.017132312740992545
-0.12317662982693448   -0.03803326011008972   -0.017132312740992545
-0.09834395591478845   0.01759021395720202   0.0239406416520255
-0.09834395591478845   0.01759021395720202   0.0239406416520255
-0.09834395591478845   0.01759021395720202   0.0239406416520255
-0.09834395591478845   0.01759021395720202   0.0239406416520255
-0.09858089212739976   -0.024669739411396108   -0.022133021157104825
-0.09858089212739976   -0.024669739411396108   -0.022133021157104825
-0.09858089212739976   -0.024669739411396108   -0.022133021157104825
-0.09858089212739976   -0.024669739411396108   -0.022133021157104825
-0.10280439983649807   -0.007893226298604443   -0.008125653357378403
-0.10280439983649807   -0.007893226298604443   -0.008125653357378403
-0.10280439983649807   -0.007893226298604443   -0.008125653357378403
-0.10280439983649807   -0.007893226298604443   -0.008125653357378403
-0.07935940813440226   0.022049939218475596   0.027254720178007195
-0.07935940813440226   0.022049939218475596   0.027254720178007195
-0.07935940813440226   0.022049939218475596   0.027254720178007195
-0.07935940813440226   0.022049939218475596   0.027254720178007195
-0.11634297477945403   -0.027906999544338413   -0.020557239169762067
-0.11634297477945403   -0.027906999544338413   -0.020557239169762067
-0.11634297477945403   -0.027906999544338413   -0.020557239169762067
-0.11634297477945403   -0.027906999544338413   -0.020557239169762067
-0.09081039384243382   0.02429688144519148   0.02012545880902065
-0.09081039384243382   0.02429688144519148   0.02012545880902065
-0.09081039384243382   0.02429688144519148   0.02012545880902065
-0.09081039384243382   0.02429688144519148   0.02012545880902065
-0.08222332123762957   -0.01709033146812011   -0.02752668460812259
-0.08222332123762957   -0.01709033146812011   -0.02752668460812259
-0.08222332123762957   -0.01709033146812011   -0.02752668460812259
-0.08222332123762957   -0.01709033146812011   -0.02752668460812259
-0.09074154940642677   0.0006572232009986051   -0.0018025561404475298
-0.09074154940642677   0.0006572232009986051   -0.0018025561404475298
-0.09074154940642677   0.0006572232009986051   -0.0018025561404475298
-0.09074154940642677   0.0006572232009986051   -0.0018025561404475298
-0.06290998155124485   0.030201507177301114   0.02174817517837986
-0.06290998155124485   0.030201507177301114   0.02174817517837986
-0.06290998155124485   0.030201507177301114   0.02174817517837986
-0.06290998155124485   0.030201507177301114   0.02174817517837986
-0.1089765072260601   -0.02184773089747098   -0.024560495766446405
-0.1089765072260601   -0.02184773089747098   -0.024560495766446405
-0.1089765072260601   -0.02184773089747098   -0.024560495766446405
-0.1089765072260601   -0.02184773089747098   -0.024560495766446405
-0.08393651855646894   0.03458673132113566   0.017378736103018617
-0.08393651855646894   0.03458673132113566   0.017378736103018617
-0.08393651855646894   0.03458673132113566   0.017378736103018617
-0.08393651855646894   0.03458673132113566   0.017378736103018617
-0.060379887090771425   -0.0026874699168122594   -0.030995899227391883
-0.060379887090771425   -0.0026874699168122594   -0.030995899227391883
-0.060379887090771425   -0.0026874699168122594   -0.030995899227391883
-0.060379887090771425   -0.0026874699168122594   -0.030995899227391883
-0.0762921145762242   0.009622389764403022   0.004945371483239752
-0.0762921145762242   0.009622389764403022   0.004945371483239752
-0.0762921145762242   0.009622389764403022   0.004945371483239752
-0.0762921145762242   0.009622389764403022   0.004945371483239752
-0.1101019643570364   -0.006552702228109365   0.016760456726513634
-0.1101019643570364   -0.006552702228109365   0.016760456726513634
-0.1101019643570364   -0.006552702228109365   0.016760456726513634
-0.1101019643570364   -0.006552702228109365   0.016760456726513634
-0.13840304574708429   -0.031034994423844615   -0.006689865588704592
-0.13840304574708429   -0.031034994423844615   -0.006689865588704592
-0.13840304574708429   -0.031034994423844615   -0.006689865588704592
-0.13840304574708429   -0.031034994423844615   -0.006689865588704592
-0.12362760719287998   0.0030805444119684257   0.01111667286112868
-0.12362760719287998   0.0030805444119684257   0.01111667286112868
-0.12362760719287998   0.0030805444119684257   0.01111667286112868
-0.12362760719287998   0.0030805444119684257   0.01111667286112868
-0.11154500993191005   -0.014395898113674107   -0.010078516362704541
-0.11154500993191005   -0.014395898113674107   -0.010078516362704541
-0.11154500993191005   -0.014395898113674107   -0.010078516362704541
-0.11154500993191005   -0.014395898113674107   -0.010078516362704541
-0.12103361009456298   -0.011273191770676233   -0.0056587735346644245
-0.12103361009456298   -0.011273191770676233   -0.0056587735346644245
-0.12103361009456298   -0.011273191770676233   -0.0056587735346644245
-0.12103361009456298   -0.011273191770676233   -0.0056587735346644245
-0.10210822654993043   0.00808582204586216   0.014623680387655467
-0.10210822654993043   0.00808582204586216   0.014623680387655467
-0.10210822654993043   0.00808582204586216   0.014623680387655467
-0.10210822654993043   0.00808582204586216   0.014623680387655467
-0.13210486019969353   -0.018441645372403496   -0.009747402388568022
-0.13210486019969353   -0.018441645372403496   -0.009747402388568022
-0.13210486019969353   -0.018441645372403496   -0.009747402388568022
-0.13210486019969353   -0.018441645372403496   -0.009747402388568022
-0.11691125900431511   0.016449652724224585   0.008474023558691599
-0.11691125900431511   0.016449652724224585   0.008474023558691599
-0.11691125900431511   0.016449652724224585   0.008474023558691599
-0.11691125900431511   0.016449652724224585   0.008474023558691599
-0.10250785953102362   -0.0015468099812722819   -0.01251817820746276
-0.10250785953102362   -0.0015468099812722819   -0.01251817820746276
-0.10250785953102362   -0.0015468099812722819   -0.01251817820746276
-0.10250785953102362   -0.0015468099812722819   -0.01251817820746276
-0.11298416734196073   0.0011696885674184164   0.00016684575877356188
-0.11298416734196073   0.0011696885674184164   0.00016684575877356188
-0.11298416734196073   0.0011696885674184164   0.00016684575877356188
-0.11298416734196073   0.0011696885674184164   0.00016684575877356188
-0.09260934839157554   0.022250619697277787   0.013176947811225722
-0.09260934839157554   0.022250619697277787   0.013176947811225722
-0.09260934839157554   0.022250619697277787   0.013176947811225722
-0.09260934839157554   0.022250619697277787   0.013176947811225722
-0.12578629053484602   -0.006324297345410231   -0.013127184024330114
-0.12578629053484602   -0.006324297345410231   -0.013127184024330114
-0.12578629053484602   -0.006324297345410231   -0.013127184024330114
-0.12578629053484602   -0.006324297345410231   -0.013127184024330114
-0.11015931082437971   0.03127904473497824   0.005961864266439543
-0.11015931082437971   0.03127904473497824   0.005961864266439543
-0.11015931082437971   0.03127904473497824   0.005961864266439543
-0.11015931082437971   0.03127904473497824   0.005961864266439543
-0.0947389817898305   0.012747163130878855   -0.014794011873530518
-0.0947389817898305   0.012747163130878855   -0.014794011873530518
-0.0947389817898305   0.012747163130878855   -0.014794011873530518
-0.0947389817898305   0.012747163130878855   -0.014794011873530518
-0.10537065133145848   0.014055869903560114   0.0061090485241525935
-0.10537065133145848   0.014055869903560114   0.0061090485241525935
-0.10537065133145848   0.014055869903560114   0.0061090485241525935
-0.10537065133145848   0.014055869903560114   0.0061090485241525935
-0.13364610713375719   -0.018697525780396757   0.004757358834480197
-0.13364610713375719   -0.018697525780396757   0.004757358834480197
-0.13364610713375719   -0.018697525780396757   0.004757358834480197
-0.13364610713375719   -0.018697525780396757   0.004757358834480197
-0.15349303761532204   -0.01978819375241401   0.004024586407030425
-0.15349303761532204   -0.01978819375241401   0.004024586407030425
-0.15349303761532204   -0.01978819375241401   0.004024586407030425
-0.15349303761532204   -0.01978819375241401   0.004024586407030425
-0.14814544039086514   -0.009087995285524997   -0.001458131362644592
-0.14814544039086514   -0.009087995285524997   -0.001458131362644592
-0.14814544039086514   -0.009087995285524997   -0.001458131362644592
-0.14814544039086514   -0.009087995285524997   -0.001458131362644592
-0.12671698742506124   -0.0025866907068985145   0.001337006819089239
-0.12671698742506124   -0.0025866907068985145   0.001337006819089239
-0.12671698742506124   -0.0025866907068985145   0.001337006819089239
-0.12671698742506124   -0.0025866907068985145   0.001337006819089239
-0.14071162218004438   -0.011830300216579031   -0.0037743291089960673
-0.14071162218004438   -0.011830300216579031   -0.0037743291089960673
-0.14071162218004438   -0.011830300216579031   -0.0037743291089960673
-0.14071162218004438   -0.011830300216579031   -0.0037743291089960673
-0.1267969829750304   -0.004047174881133753   0.002397513243476872
-0.1267969829750304   -0.004047174881133753   0.002397513243476872
-0.1267969829750304   -0.004047174881133753   0.002397513243476872
-0.1267969829750304   -0.004047174881133753   0.002397513243476872
-0.1471583392646633   -0.006720405535057164   0.00110978451789805
-0.1471583392646633   -0.006720405535057164   0.00110978451789805
-0.1471583392646633   -0.006720405535057164   0.00110978451789805
-0.1471583392646633   -0.006720405535057164   0.00110978451789805
-0.14107952084904174   0.005750771927976628   -0.003686849051081567
-0.14107952084904174   0.005750771927976628   -0.003686849051081567
-0.14107952084904174   0.005750771927976628   -0.003686849051081567
-0.14107952084904174   0.005750771927976628   -0.003686849051081567
-0.12002296236530069   0.010839877687664284   -0.001474718209676094
-0.12002296236530069   0.010839877687664284   -0.001474718209676094
-0.12002296236530069   0.010839877687664284   -0.001474718209676094
-0.12002296236530069   0.010839877687664284   -0.001474718209676094
-0.1333229681695562   0.0014188776661349552   0.0019860273068631595
-0.1333229681695562   0.0014188776661349552   0.0019860273068631595
-0.1333229681695562   0.0014188776661349552   0.0019860273068631595
-0.1333229681695562   0.0014188776661349552   0.0019860273068631595
-0.11976167045868637   0.010738363015396348   -6.674400433835485e-05
-0.11976167045868637   0.010738363015396348   -6.674400433835485e-05
-0.11976167045868637   0.010738363015396348   -6.674400433835485e-05
-0.11976167045868637   0.010738363015396348   -6.674400433835485e-05
-0.14054796195610852   0.006645137399791827   -0.0019234200582305561
-0.14054796195610852   0.006645137399791827   -0.0019234200582305561
-0.14054796195610852   0.006645137399791827   -0.0019234200582305561
-0.14054796195610852   0.006645137399791827   -0.0019234200582305561
-0.13431257731413557   0.02068561742486167   -0.006192449845828956
-0.13431257731413557   0.02068561742486167   -0.006192449845828956
-0.13431257731413557   0.02068561742486167   -0.006192449845828956
-0.13431257731413557   0.02068561742486167   -0.006192449845828956
-0.1136576566690517   0.024321481300122412   -0.004572301522064524
-0.1136576566690517   0.024321481300122412   -0.004572301522064524
-0.1136576566690517   0.024321481300122412   -0.004572301522064524
-0.1136576566690517   0.024321481300122412   -0.004572301522064524
-0.1262845839383361   0.014693728443588475   0.0074758057477828654
-0.1262845839383361   0.014693728443588475   0.0074758057477828654
-0.1262845839383361   0.014693728443588475   0.0074758057477828654
-0.1262845839383361   0.014693728443588475   0.0074758057477828654
-0.1578057697548498   -0.02979555822057388   -0.0075317098224513025
-0.1578057697548498   -0.02979555822057388   -0.0075317098224513025
-0.1578057697548498   -0.02979555822057388   -0.0075317098224513025
-0.1578057697548498   -0.02979555822057388   -0.0075317098224513025
-0.16997536088265291   -0.00876578668261599   0.01424309325155139
-0.16997536088265291   -0.00876578668261599   0.01424309325155139
-0.16997536088265291   -0.00876578668261599   0.01424309325155139
-0.16997536088265291   -0.00876578668261599   0.01424309325155139
-0.17283348999340467   -0.020790994398514603   -0.014227952385911093
-0.17283348999340467   -0.020790994398514603   -0.014227952385911093
-0.17283348999340467   -0.020790994398514603   -0.014227952385911093
-0.17283348999340467   -0.020790994398514603   -0.014227952385911093
-0.14184387361732553   0.008874707718679976   0.01208699950084852
-0.14184387361732553   0.008874707718679976   0.01208699950084852
-0.14184387361732553   0.008874707718679976   0.01208699950084852
-0.14184387361732553   0.008874707718679976   0.01208699950084852
-0.15992944655768407   -0.011815073447920574   -0.0023798825941690723
-0.15992944655768407   -0.011815073447920574   -0.0023798825941690723
-0.15992944655768407   -0.011815073447920574   -0.0023798825941690723
-0.15992944655768407   -0.011815073447920574   -0.0023798825941690723
-0.15115129595401225   -0.015603371671862647   -0.00997203279204371
-0.15115129595401225   -0.015603371671862647   -0.00997203279204371
-0.15115129595401225   -0.015603371671862647   -0.00997203279204371
-0.15115129595401225   -0.015603371671862647   -0.00997203279204371
-0.16257538632818905   0.004637766320554147   0.011633805221098232
-0.16257538632818905   0.004637766320554147   0.011633805221098232
-0.16257538632818905   0.004637766320554147   0.011633805221098232
-0.16257538632818905   0.004637766320554147   0.011633805221098232
-0.16351797674334154   -0.0067232340308543   -0.015965729207597132
-0.16351797674334154   -0.0067232340308543   -0.015965729207597132
-0.16351797674334154   -0.0067232340308543   -0.015965729207597132
-0.16351797674334154   -0.0067232340308543   -0.015965729207597132
-0.13550013712252207   0.02097944621346222   0.008981395296029983
-0.13550013712252207   0.02097944621346222   0.008981395296029983
-0.13550013712252207   0.02097944621346222   0.008981395296029983
-0.13550013712252207   0.02097944621346222   0.008981395296029983
-0.15149549451848507   0.000957255605001088   0.0035726000156080084
-0.15149549451848507   0.000957255605001088   0.0035726000156080084
-0.15149549451848507   0.000957255605001088   0.0035726000156080084
-0.15149549451848507   0.000957255605001088   0.0035726000156080084
-0.14451743677953371   -0.0022959262930723895   -0.012829730482495397
-0.14451743677953371   -0.0022959262930723895   -0.012829730482495397
-0.14451743677953371   -0.0022959262930723895   -0.012829730482495397
-0.14451743677953371   -0.0022959262930723895   -0.012829730482495397
-0.1535400347718742   0.017512780790135858   0.00968796582875032
-0.1535400347718742   0.017512780790135858   0.00968796582875032
-0.1535400347718742   0.017512780790135858   0.00968796582875032
-0.1535400347718742   0.017512780790135858   0.00968796582875032
-0.1553742989549662   0.008750889029519274   -0.017529349013606484
-0.1553742989549662   0.008750889029519274   -0.017529349013606484
-0.1553742989549662   0.008750889029519274   -0.017529349013606484
-0.1553742989549662   0.008750889029519274   -0.017529349013606484
-0.12913953041870874   0.03444096940572988   0.0059174326504370135
-0.12913953041870874   0.03444096940572988   0.0059174326504370135
-0.12913953041870874   0.03444096940572988   0.0059174326504370135
-0.12913953041870874   0.03444096940572988   0.0059174326504370135
-0.1443842415590375   0.013595392322913326   0.009251634117099878
-0.1443842415590375   0.013595392322913326   0.009251634117099878
-0.1443842415590375   0.013595392322913326   0.009251634117099878
-0.1443842415590375   0.013595392322913326   0.009251634117099878
-0.18193745932045233   -0.03536886520703886   -0.01896432041302547
-0.18193745932045233   -0.03536886520703886   -0.01896432041302547
-0.18193745932045233   -0.03536886520703886   -0.01896432041302547
-0.18193745932045233   -0.03536886520703886   -0.01896432041302547
-0.20298732099361963   0.0023177475946348225   0.025790628444033535
-0.20298732099361963   0.0023177475946348225   0.025790628444033535
-0.20298732099361963   0.0023177475946348225   0.025790628444033535
-0.20298732099361963   0.0023177475946348225   0.025790628444033535
-0.2005215889307061   -0.029771203907800612   -0.025321059793972468
-0.2005215889307061   -0.029771203907800612   -0.025321059793972468
-0.2005215889307061   -0.029771203907800612   -0.025321059793972468
-0.2005215889307061   -0.029771203907800612   -0.025321059793972468
-0.1567372914529071   0.02234848453669626   0.02311356138136301
-0.1567372914529071   0.02234848453669626   0.02311356138136301
-0.1567372914529071   0.02234848453669626   0.02311356138136301
-0.1567372914529071   0.02234848453669626   0.02311356138136301
-0.17807305647290955   -0.007734102928709137   -0.0010383210071739854
-0.17807305647290955   -0.007734102928709137   -0.0010383210071739854
-0.17807305647290955   -0.007734102928709137   -0.0010383210071739854
-0.17807305647290955   -0.007734102928709137   -0.0010383210071739854
-0.17495526771158298   -0.023932745650206186   -0.0216950897251158
-0.17495526771158298   -0.023932745650206186   -0.0216950897251158
-0.17495526771158298   -0.023932745650206186   -0.0216950897251158
-0.17495526771158298   -0.023932745650206186   -0.0216950897251158
-0.18129953794413695   0.017514101006990634   0.02350389022408006
-0.18129953794413695   0.017514101006990634   0.02350389022408006
-0.18129953794413695   0.017514101006990634   0.02350389022408006
-0.18129953794413695   0.017514101006990634   0.02350389022408006
-0.18431923849159834   -0.021572467217056964   -0.030207498360717264
-0.18431923849159834   -0.021572467217056964   -0.030207498360717264
-0.18431923849159834   -0.021572467217056964   -0.030207498360717264
-0.18431923849159834   -0.021572467217056964   -0.030207498360717264
-0.14956885255415933   0.028124249163055275   0.018932408544404207
-0.14956885255415933   0.028124249163055275   0.018932408544404207
-0.14956885255415933   0.028124249163055275   0.018932408544404207
-0.14956885255415933   0.028124249163055275   0.018932408544404207
-0.1672268481625519   0.0008522052850582287   0.004655516807859866
-0.1672268481625519   0.0008522052850582287   0.004655516807859866
-0.1672268481625519   0.0008522052850582287   0.004655516807859866
-0.1672268481625519   0.0008522052850582287   0.004655516807859866
-0.1674423675715874   -0.017181480697373203   -0.025129436682309405
-0.1674423675715874   -0.017181480697373203   -0.025129436682309405
-0.1674423675715874   -0.017181480697373203   -0.025129436682309405
-0.1674423675715874   -0.017181480697373203   -0.025129436682309405
-0.16539185709678308   0.024787129020758393   0.01806981237554354
-0.16539185709678308   0.024787129020758393   0.01806981237554354
-0.16539185709678308   0.024787129020758393   0.01806981237554354
-0.16539185709678308   0.024787129020758393   0.01806981237554354
-0.16296810337710363   -0.007426772270023967   -0.03304210686589615
-0.16296810337710363   -0.007426772270023967   -0.03304210686589615
-0.16296810337710363   -0.007426772270023967   -0.03304210686589615
-0.16296810337710363   -0.007426772270023967   -0.03304210686589615
-0.14316602555014757   0.03666891293744635   0.015593994102557747
-0.14316602555014757   0.03666891293744635   0.015593994102557747
-0.14316602555014757   0.03666891293744635   0.015593994102557747
-0.14316602555014757   0.03666891293744635   0.015593994102557747
-0.1521450444449316   0.009399247089835028   0.011278245391635567
-0.1521450444449316   0.009399247089835028   0.011278245391635567
-0.1521450444449316   0.009399247089835028   0.011278245391635567
-0.1521450444449316   0.009399247089835028   0.011278245391635567
0.11042156726809824   0.01774283914371888   0.028149986433017773
0.11042156726809824   0.01774283914371888   0.028149986433017773
0.11042156726809824   0.01774283914371888   0.028149986433017773
0.11042156726809824   0.01774283914371888   0.028149986433017773
-0.0019445360598069252   -0.045126364690375675   -0.018494843774506255
-0.0019445360598069252   -0.045126364690375675   -0.018494843774506255
-0.0019445360598069252   -0.045126364690375675   -0.018494843774506255
-0.0019445360598069252   -0.045126364690375675   -0.018494843774506255
0.024363563252967332   0.008689824453645236   0.021720342787734808
0.024363563252967332   0.008689824453645236   0.021720342787734808
0.024363563252967332   0.008689824453645236   0.021720342787734808
0.024363563252967332   0.008689824453645236   0.021720342787734808
0.11487635814567018   -0.015441793856595984   -0.023199457301883566
0.11487635814567018   -0.015441793856595984   -0.023199457301883566
0.11487635814567018   -0.015441793856595984   -0.023199457301883566
0.11487635814567018   -0.015441793856595984   -0.023199457301883566
0.05642195474740179   -0.008627316128184171   -0.013480758677947922
0.05642195474740179   -0.008627316128184171   -0.013480758677947922
0.05642195474740179   -0.008627316128184171   -0.013480758677947922
0.05642195474740179   -0.008627316128184171   -0.013480758677947922
0.13395208963555458   0.03134245202567018   0.025394954265272298
0.13395208963555458   0.03134245202567018   0.025394954265272298
0.13395208963555458   0.03134245202567018   0.025394954265272298
0.13395208963555458   0.03134245202567018   0.025394954265272298
0.006479372551111485   -0.03690288064059237   -0.02210790562730682
0.006479372551111485   -0.03690288064059237   -0.02210790562730682
0.006479372551111485   -0.03690288064059237   -0.02210790562730682
0.006479372551111485   -0.03690288064059237   -0.02210790562730682
0.033817544889849456   0.015244199597493208   0.018105104592464956
0.033817544889849456   0.015244199597493208   0.018105104592464956
0.033817544889849456   0.015244199597493208   0.018105104592464956
0.033817544889849456   0.015244199597493208   0.018105104592464956
0.13318261084683605   -0.008042410041806343   -0.028968784785360108
0.13318261084683605   -0.008042410041806343   -0.028968784785360108
0.13318261084683605   -0.008042410041806343   -0.028968784785360108
0.13318261084683605   -0.008042410041806343   -0.028968784785360108
0.07296359577846176   -0.0004777140899647897   -0.006397736645640649
0.07296359577846176   -0.0004777140899647897   -0.006397736645640649
0.07296359577846176   -0.0004777140899647897   -0.006397736645640649
0.07296359577846176   -0.0004777140899647897   -0.006397736645640649
0.15244906697895336   0.03934475021958753   0.01997633561383265
0.15244906697895336   0.03934475021958753   0.01997633561383265
0.15244906697895336   0.03934475021958753   0.01997633561383265
0.15244906697895336   0.03934475021958753   0.01997633561383265
0.015708486307277288   -0.030985563114355505   -0.02621042560854716
0.015708486307277288   -0.030985563114355505   -0.02621042560854716
0.015708486307277288   -0.030985563114355505   -0.02621042560854716
0.015708486307277288   -0.030985563114355505   -0.02621042560854716
0.0429842263374096   0.02731747087442778   0.01566469130062729
0.0429842263374096   0.02731747087442778   0.01566469130062729
0.0429842263374096   0.02731747087442778   0.01566469130062729
0.0429842263374096   0.02731747087442778   0.01566469130062729
0.1575055445923406   0.008506756228680589   -0.03193002385968847
0.1575055445923406   0.008506756228680589   -0.03193002385968847
0.1575055445923406   0.008506756228680589   -0.03193002385968847
0.1575055445923406   0.008506756228680589   -0.03193002385968847
0.08674167456740094   0.008685976893131865   0.0002739328979478083
0.08674167456740094   0.008685976893131865   0.0002739328979478083
0.08674167456740094   0.008685976893131865   0.0002739328979478083
0.08674167456740094   0.008685976893131865   0.0002739328979478083
0.015614465450668436   0.0049510339591240776   0.0192227651283708
0.015614465450668436   0.0049510339591240776   0.0192227651283708
0.015614465450668436   0.0049510339591240776   0.0192227651283708
0.015614465450668436   0.0049510339591240776   0.0192227651283708
-0.10321819796795782   -0.03836557193704429   -0.008494621791592247
-0.10321819796795782   -0.03836557193704429   -0.008494621791592247
-0.10321819796795782   -0.03836557193704429   -0.008494621791592247
-0.10321819796795782   -0.03836557193704429   -0.008494621791592247
-0.08669786194163423   -0.005665761699632467   0.00872501771722785
-0.08669786194163423   -0.005665761699632467   0.00872501771722785
-0.08669786194163423   -0.005665761699632467   0.00872501771722785
-0.08669786194163423   -0.005665761699632467   0.00872501771722785
0.016120429633955206   -0.004124102630001571   -0.006681398223679008
0.016120429633955206   -0.004124102630001571   -0.006681398223679008
0.016120429633955206   -0.004124102630001571   -0.006681398223679008
0.016120429633955206   -0.004124102630001571   -0.006681398223679008
-0.04041214985969378   -0.009819543808492752   -0.006450603495564375
-0.04041214985969378   -0.009819543808492752   -0.006450603495564375
-0.04041214985969378   -0.009819543808492752   -0.006450603495564375
-0.04041214985969378   -0.009819543808492752   -0.006450603495564375
0.02537435612750335   0.01841375391130094   0.01705037770275728
0.02537435612750335   0.01841375391130094   0.01705037770275728
0.02537435612750335   0.01841375391130094   0.01705037770275728
0.02537435612750335   0.01841375391130094   0.01705037770275728
-0.09507879435631084   -0.027330624162063746   -0.011514781893723845
-0.09507879435631084   -0.027330624162063746   -0.011514781893723845
-0.09507879435631084   -0.027330624162063746   -0.011514781893723845
-0.09507879435631084   -0.027330624162063746   -0.011514781893723845
-0.07808784896400997   0.007072597458575917   0.00615884842476457
-0.07808784896400997   0.007072597458575917   0.00615884842476457
-0.07808784896400997   0.007072597458575917   0.00615884842476457
-0.07808784896400997   0.007072597458575917   0.00615884842476457
0.02692367992272756   0.007932039482678184   -0.009052060128329499
0.02692367992272756   0.007932039482678184   -0.009052060128329499
0.02692367992272756   0.007932039482678184   -0.009052060128329499
0.02692367992272756   0.007932039482678184   -0.009052060128329499
-0.031280287849728444   0.0013930035544041678   -0.0008103322790239034
-0.031280287849728444   0.0013930035544041678   -0.0008103322790239034
-0.031280287849728444   0.0013930035544041678   -0.0008103322790239034
-0.031280287849728444   0.0013930035544041678   -0.0008103322790239034
0.036570412675587805   0.03182934060439378   0.01528430251425613
0.036570412675587805   0.03182934060439378   0.01528430251425613
0.036570412675587805   0.03182934060439378   0.01528430251425613
0.036570412675587805   0.03182934060439378   0.01528430251425613
-0.08689218940544055   -0.015982311351710007   -0.014807944972102348
-0.08689218940544055   -0.015982311351710007   -0.014807944972102348
-0.08689218940544055   -0.015982311351710007   -0.014807944972102348
-0.08689218940544055   -0.015982311351710007   -0.014807944972102348
-0.06942180867599039   0.021511994262143327   0.0037129706689517285
-0.06942180867599039   0.021511994262143327   0.0037129706689517285
-0.06942180867599039   0.021511994262143327   0.0037129706689517285
-0.06942180867599039   0.021511994262143327   0.0037129706689517285
0.036406031222768934   0.02163749217035946   -0.01154630556850584
0.036406031222768934   0.02163749217035946   -0.01154630556850584
0.036406031222768934   0.02163749217035946   -0.01154630556850584
0.036406031222768934   0.02163749217035946   -0.01154630556850584
-0.021145711190840362   0.013807590748949293   0.005215806652236158
-0.021145711190840362   0.013807590748949293   0.005215806652236158
-0.021145711190840362   0.013807590748949293   0.005215806652236158
-0.021145711190840362   0.013807590748949293   0.005215806652236158
-0.09391149943172235   -0.0072851196721623775   0.006958418624704247
-0.09391149943172235   -0.0072851196721623775   0.006958418624704247
-0.09391149943172235   -0.0072851196721623775   0.006958418624704247
-0.09391149943172235   -0.0072851196721623775   0.006958418624704247
-0.20263066508109942   -0.027457055576621578   0.0017160365944215474
-0.20263066508109942   -0.027457055576621578   0.0017160365944215474
-0.20263066508109942   -0.027457055576621578   0.0017160365944215474
-0.20263066508109942   -0.027457055576621578   0.0017160365944215474
-0.19512990818792725   -0.017297610431969923   -0.003804671043401802
-0.19512990818792725   -0.017297610431969923   -0.003804671043401802
-0.19512990818792725   -0.017297610431969923   -0.003804671043401802
-0.19512990818792725   -0.017297610431969923   -0.003804671043401802
-0.08501751304285018   0.007201975775565361   0.0042590247359512124
-0.08501751304285018   0.007201975775565361   0.0042590247359512124
-0.08501751304285018   0.007201975775565361   0.0042590247359512124
-0.08501751304285018   0.007201975775565361   0.0042590247359512124
-0.1443816182111995   -0.010302859276871142   -0.0037811394011302984
-0.1443816182111995   -0.010302859276871142   -0.0037811394011302984
-0.1443816182111995   -0.010302859276871142   -0.0037811394011302984
-0.1443816182111995   -0.010302859276871142   -0.0037811394011302984
-0.08510768012235193   0.006391502010522566   0.004618663103485316
-0.08510768012235193   0.006391502010522566   0.004618663103485316
-0.08510768012235193   0.006391502010522566   0.004618663103485316
-0.08510768012235193   0.006391502010522566   0.004618663103485316
-0.19428589062646368   -0.015733286184965282   -0.0011489074830885225
-0.19428589062646368   -0.015733286184965282   -0.0011489074830885225
-0.19428589062646368   -0.015733286184965282   -0.0011489074830885225
-0.19428589062646368   -0.015733286184965282   -0.0011489074830885225
-0.1860672703626643   -0.003270442071678502   -0.005982009009026417
-0.1860672703626643   -0.003270442071678502   -0.005982009009026417
-0.1860672703626643   -0.003270442071678502   -0.005982009009026417
-0.1860672703626643   -0.003270442071678502   -0.005982009009026417
-0.0764945015054822   0.01960831805593811   0.0015898651200422532
-0.0764945015054822   0.01960831805593811   0.0015898651200422532
-0.0764945015054822   0.01960831805593811   0.0015898651200422532
-0.0764945015054822   0.01960831805593811   0.0015898651200422532
-0.13501792194585294   0.002005619533781134   0.0019102264816008904
-0.13501792194585294   0.002005619533781134   0.0019102264816008904
-0.13501792194585294   0.002005619533781134   0.0019102264816008904
-0.13501792194585294   0.002005619533781134   0.0019102264816008904
-0.07625061255787004   0.0203106807282449   0.002106947185796305
-0.07625061255787004   0.0203106807282449   0.002106947185796305
-0.07625061255787004   0.0203106807282449   0.002106947185796305
-0.07625061255787004   0.0203106807282449   0.002106947185796305
-0.1857049193013912   -0.0033665647351002748   -0.004074131039240661
-0.1857049193013912   -0.0033665647351002748   -0.004074131039240661
-0.1857049193013912   -0.0033665647351002748   -0.004074131039240661
-0.1857049193013912   -0.0033665647351002748   -0.004074131039240661
-0.1773682691820399   0.010802622192981906   -0.008455984544778819
-0.1773682691820399   0.010802622192981906   -0.008455984544778819
-0.1773682691820399   0.010802622192981906   -0.008455984544778819
-0.1773682691820399   0.010802622192981906   -0.008455984544778819
-0.06835538896719064   0.0320509884076708   -0.0014939249325760118
-0.06835538896719064   0.0320509884076708   -0.0014939249325760118
-0.06835538896719064   0.0320509884076708   -0.0014939249325760118
-0.06835538896719064   0.0320509884076708   -0.0014939249325760118
-0.12615165340968107   0.014283700453967981   0.007230328388865606
-0.12615165340968107   0.014283700453967981   0.007230328388865606
-0.12615165340968107   0.014283700453967981   0.007230328388865606
-0.12615165340968107   0.014283700453967981   0.007230328388865606
-0.20246342933734912   -0.019244155897129106   -0.005660684366318017
-0.20246342933734912   -0.019244155897129106   -0.005660684366318017
-0.20246342933734912   -0.019244155897129106   -0.005660684366318017
-0.20246342933734912   -0.019244155897129106   -0.005660684366318017
-0.3012948283992741   -0.017194972345538108   0.011718620347667363
-0.3012948283992741   -0.017194972345538108   0.011718620347667363
-0.3012948283992741   -0.017194972345538108   0.011718620347667363
-0.3012948283992741   -0.017194972345538108   0.011718620347667363
-0.3016224311841827   -0.028713579572195252   -0.016075879386670416
-0.3016224311841827   -0.028713579572195252   -0.016075879386670416
-0.3016224311841827   -0.028713579572195252   -0.016075879386670416
-0.3016224311841827   -0.028713579572195252   -0.016075879386670416
-0.1843991517474455   0.01808145862546691   0.014470042101570029
-0.1843991517474455   0.01808145862546691   0.014470042101570029
-0.1843991517474455   0.01808145862546691   0.014470042101570029
-0.1843991517474455   0.01808145862546691   0.014470042101570029
-0.24605013006110316   -0.010586367364288356   -0.001612097646403762
-0.24605013006110316   -0.010586367364288356   -0.001612097646403762
-0.24605013006110316   -0.010586367364288356   -0.001612097646403762
-0.24605013006110316   -0.010586367364288356   -0.001612097646403762
-0.19359060876433293   -0.0054776634019782985   -0.007928120955420103
-0.19359060876433293   -0.0054776634019782985   -0.007928120955420103
-0.19359060876433293   -0.0054776634019782985   -0.007928120955420103
-0.19359060876433293   -0.0054776634019782985   -0.007928120955420103
-0.291801214559016   -0.0045246979364726575   0.00884132210344266
-0.291801214559016   -0.0045246979364726575   0.00884132210344266
-0.291801214559016   -0.0045246979364726575   0.00884132210344266
-0.291801214559016   -0.0045246979364726575   0.00884132210344266
-0.2902194138767611   -0.015338748861601019   -0.0178903033250472
-0.2902194138767611   -0.015338748861601019   -0.0178903033250472
-0.2902194138767611   -0.015338748861601019   -0.0178903033250472
-0.2902194138767611   -0.015338748861601019   -0.0178903033250472
-0.1760398113775853   0.029364898534174927   0.011519945310515194
-0.1760398113775853   0.029364898534174927   0.011519945310515194
-0.1760398113775853   0.029364898534174927   0.011519945310515194
-0.1760398113775853   0.029364898534174927   0.011519945310515194
-0.2347641943966461   0.0018275409615961594   0.004261438446570362
-0.2347641943966461   0.0018275409615961594   0.004261438446570362
-0.2347641943966461   0.0018275409615961594   0.004261438446570362
-0.2347641943966461   0.0018275409615961594   0.004261438446570362
-0.18492410587619423   0.007159206394875599   -0.010695835043230946
-0.18492410587619423   0.007159206394875599   -0.010695835043230946
-0.18492410587619423   0.007159206394875599   -0.010695835043230946
-0.18492410587619423   0.007159206394875599   -0.010695835043230946
-0.2806284019624897   0.007573660693357992   0.007152346691350314
-0.2806284019624897   0.007573660693357992   0.007152346691350314
-0.2806284019624897   0.007573660693357992   0.007152346691350314
-0.2806284019624897   0.007573660693357992   0.007152346691350314
-0.28002534878196284   -0.0007729285659033858   -0.019266238844475255
-0.28002534878196284   -0.0007729285659033858   -0.019266238844475255
-0.28002534878196284   -0.0007729285659033858   -0.019266238844475255
-0.28002534878196284   -0.0007729285659033858   -0.019266238844475255
-0.16776926948436527   0.04179610355449305   0.008545532582083189
-0.16776926948436527   0.04179610355449305   0.008545532582083189
-0.16776926948436527   0.04179610355449305   0.008545532582083189
-0.16776926948436527   0.04179610355449305   0.008545532582083189
-0.22639663857464346   0.013375633247649586   0.009516659416374862
-0.22639663857464346   0.013375633247649586   0.009516659416374862
-0.22639663857464346   0.013375633247649586   0.009516659416374862
-0.22639663857464346   0.013375633247649586   0.009516659416374862
-0.3091805064249007   -0.027549969671357394   -0.017354772454646443
-0.3091805064249007   -0.027549969671357394   -0.017354772454646443
-0.3091805064249007   -0.027549969671357394   -0.017354772454646443
-0.3091805064249007   -0.027549969671357394   -0.017354772454646443
-0.414008729294535   -0.007611566781020707   0.025610820314043894
-0.414008729294535   -0.007611566781020707   0.025610820314043894
-0.414008729294535   -0.007611566781020707   0.025610820314043894
-0.414008729294535   -0.007611566781020707   0.025610820314043894
-0.4085773088178813   -0.03729209889637527   -0.023249338419020424
-0.4085773088178813   -0.03729209889637527   -0.023249338419020424
-0.4085773088178813   -0.03729209889637527   -0.023249338419020424
-0.4085773088178813   -0.03729209889637527   -0.023249338419020424
-0.2814885198371872   0.030634351039099672   0.025245746737012104
-0.2814885198371872   0.030634351039099672   0.025245746737012104
-0.2814885198371872   0.030634351039099672   0.025245746737012104
-0.2814885198371872   0.030634351039099672   0.025245746737012104
-0.338057502033263   -0.006035492783490012   0.002915547337412113
-0.338057502033263   -0.006035492783490012   0.002915547337412113
-0.338057502033263   -0.006035492783490012   0.002915547337412113
-0.338057502033263   -0.006035492783490012   0.002915547337412113
-0.2995454438322246   -0.014763968879378926   -0.019640553319695483
-0.2995454438322246   -0.014763968879378926   -0.019640553319695483
-0.2995454438322246   -0.014763968879378926   -0.019640553319695483
-0.2995454438322246   -0.014763968879378926   -0.019640553319695483
-0.3899442518583342   0.008682353986612032   0.02394149349572093
-0.3899442518583342   0.008682353986612032   0.02394149349572093
-0.3899442518583342   0.008682353986612032   0.02394149349572093
-0.3899442518583342   0.008682353986612032   0.02394149349572093
-0.39041302815775286   -0.02937020132349221   -0.02769566828473969
-0.39041302815775286   -0.02937020132349221   -0.02769566828473969
-0.39041302815775286   -0.02937020132349221   -0.02769566828473969
-0.39041302815775286   -0.02937020132349221   -0.02769566828473969
-0.2722389789541373   0.03584534467896287   0.02082777774750531
-0.2722389789541373   0.03584534467896287   0.02082777774750531
-0.2722389789541373   0.03584534467896287   0.02082777774750531
-0.2722389789541373   0.03584534467896287   0.02082777774750531
-0.32793090807003633   0.002295918240757297   0.007644187671021738
-0.32793090807003633   0.002295918240757297   0.007644187671021738
-0.32793090807003633   0.002295918240757297   0.007644187671021738
-0.32793090807003633   0.002295918240757297   0.007644187671021738
-0.28976373865767263   -0.008242787487307827   -0.022707888603898094
-0.28976373865767263   -0.008242787487307827   -0.022707888603898094
-0.28976373865767263   -0.008242787487307827   -0.022707888603898094
-0.28976373865767263   -0.008242787487307827   -0.022707888603898094
-0.37218811896875925   0.015418080328236897   0.018640596008497375
-0.37218811896875925   0.015418080328236897   0.018640596008497375
-0.37218811896875925   0.015418080328236897   0.018640596008497375
-0.37218811896875925   0.015418080328236897   0.018640596008497375
-0.36795273967826825   -0.017590819476739933   -0.030917953840252962
-0.36795273967826825   -0.017590819476739933   -0.030917953840252962
-0.36795273967826825   -0.017590819476739933   -0.030917953840252962
-0.36795273967826825   -0.017590819476739933   -0.030917953840252962
-0.26413771947417264   0.042052690065191786   0.017346289063380493
-0.26413771947417264   0.042052690065191786   0.017346289063380493
-0.26413771947417264   0.042052690065191786   0.017346289063380493
-0.26413771947417264   0.042052690065191786   0.017346289063380493
-0.30851956486456034   0.01007015745483765   0.014341573228758273
-0.30851956486456034   0.01007015745483765   0.014341573228758273
-0.30851956486456034   0.01007015745483765   0.014341573228758273
-0.30851956486456034   0.01007015745483765   0.014341573228758273
0.3254368099096237   0.029634449607142684   0.027927881743654875
0.3254368099096237   0.029634449607142684   0.027927881743654875
0.3254368099096237   0.029634449607142684   0.027927881743654875
0.3254368099096237   0.029634449607142684   0.027927881743654875
0.11882719037954982   -0.053486157870351686   -0.018367428965456466
0.11882719037954982   -0.053486157870351686   -0.018367428965456466
0.11882719037954982   -0.053486157870351686   -0.018367428965456466
0.11882719037954982   -0.053486157870351686   -0.018367428965456466
0.14623514685368422   -0.000517574484753168   0.02006285084931647
0.14623514685368422   -0.000517574484753168   0.02006285084931647
0.14623514685368422   -0.000517574484753168   0.02006285084931647
0.14623514685368422   -0.000517574484753168   0.02006285084931647
0.33105305613011166   -0.006963225636821127   -0.023470991293167678
0.33105305613011166   -0.006963225636821127   -0.023470991293167678
0.33105305613011166   -0.006963225636821127   -0.023470991293167678
0.33105305613011166   -0.006963225636821127   -0.023470991293167678
0.21622273300941483   -0.009537259932543132   -0.020732226587772278
0.21622273300941483   -0.009537259932543132   -0.020732226587772278
0.21622273300941483   -0.009537259932543132   -0.020732226587772278
0.21622273300941483   -0.009537259932543132   -0.020732226587772278
0.35021822197020036   0.04112066068564748   0.024270951584803524
0.35021822197020036   0.04112066068564748   0.024270951584803524
0.35021822197020036   0.04112066068564748   0.024270951584803524
0.35021822197020036   0.04112066068564748   0.024270951584803524
0.12844114421247757   -0.047230297608341916   -0.02219443923312216
0.12844114421247757   -0.047230297608341916   -0.02219443923312216
0.12844114421247757   -0.047230297608341916   -0.02219443923312216
0.12844114421247757   -0.047230297608341916   -0.02219443923312216
0.15691976859273638   0.00580305042320111   0.01652135979377685
0.15691976859273638   0.00580305042320111   0.01652135979377685
0.15691976859273638   0.00580305042320111   0.01652135979377685
0.15691976859273638   0.00580305042320111   0.01652135979377685
0.3507167816770145   0.00020991301226581938   -0.029499215525954393
0.3507167816770145   0.00020991301226581938   -0.029499215525954393
0.3507167816770145   0.00020991301226581938   -0.029499215525954393
0.3507167816770145   0.00020991301226581938   -0.029499215525954393
0.23682172510060326   -0.0018074481842374687   -0.012598372061883375
0.23682172510060326   -0.0018074481842374687   -0.012598372061883375
0.23682172510060326   -0.0018074481842374687   -0.012598372061883375
0.23682172510060326   -0.0018074481842374687   -0.012598372061883375
0.3700780304002826   0.048861515872070584   0.018655425230577942
0.3700780304002826   0.048861515872070584   0.018655425230577942
0.3700780304002826   0.048861515872070584   0.018655425230577942
0.3700780304002826   0.048861515872070584   0.018655425230577942
0.13900418529508235   -0.04140288701098981   -0.02585061926030042
0.13900418529508235   -0.04140288701098981   -0.02585061926030042
0.13900418529508235   -0.04140288701098981   -0.02585061926030042
0.13900418529508235   -0.04140288701098981   -0.02585061926030042
0.16759265940228021   0.019773841967990747   0.014318290026922677
0.16759265940228021   0.019773841967990747   0.014318290026922677
0.16759265940228021   0.019773841967990747   0.014318290026922677
0.16759265940228021   0.019773841967990747   0.014318290026922677
0.3765720117770881   0.018908767173965745   -0.03179953670530122
0.3765720117770881   0.018908767173965745   -0.03179953670530122
0.3765720117770881   0.018908767173965745   -0.03179953670530122
0.3765720117770881   0.018908767173965745   -0.03179953670530122
0.24936090729886032   0.007629532613359968   -0.005600941696607747
0.24936090729886032   0.007629532613359968   -0.005600941696607747
0.24936090729886032   0.007629532613359968   -0.005600941696607747
0.24936090729886032   0.007629532613359968   -0.005600941696607747
0.14102443316034538   0.01667367005047361   0.022458957017694063
0.14102443316034538   0.01667367005047361   0.022458957017694063
0.14102443316034538   0.01667367005047361   0.022458957017694063
0.14102443316034538   0.01667367005047361   0.022458957017694063
-0.06939352063681359   -0.0499306625832508   -0.0096460542420948
-0.06939352063681359   -0.0499306625832508   -0.0096460542420948
-0.06939352063681359   -0.0499306625832508   -0.0096460542420948
-0.06939352063681359   -0.0499306625832508   -0.0096460542420948
-0.0506338489379004   -0.014791256478407535   0.006737111106146781
-0.0506338489379004   -0.014791256478407535   0.006737111106146781
-0.0506338489379004   -0.014791256478407535   0.006737111106146781
-0.0506338489379004   -0.014791256478407535   0.006737111106146781
0.14192528344694122   0.0008721150906316859   -0.0028761557597813178
0.14192528344694122   0.0008721150906316859   -0.0028761557597813178
0.14192528344694122   0.0008721150906316859   -0.0028761557597813178
0.14192528344694122   0.0008721150906316859   -0.0028761557597813178
0.03887083637197084   -0.010420594123943801   -0.008783415273796644
0.03887083637197084   -0.010420594123943801   -0.008783415273796644
0.03887083637197084   -0.010420594123943801   -0.008783415273796644
0.03887083637197084   -0.010420594123943801   -0.008783415273796644
0.15201923705600476   0.028404236645314794   0.02006149073085326
0.15201923705600476   0.028404236645314794   0.02006149073085326
0.15201923705600476   0.028404236645314794   0.02006149073085326
0.15201923705600476   0.028404236645314794   0.02006149073085326
-0.059890014558543404   -0.041485590044670256   -0.012849383430806419
-0.059890014558543404   -0.041485590044670256   -0.012849383430806419
-0.059890014558543404   -0.041485590044670256   -0.012849383430806419
-0.059890014558543404   -0.041485590044670256   -0.012849383430806419
-0.04068917707120597   -0.002931527720104842   0.004242960851688909
-0.04068917707120597   -0.002931527720104842   0.004242960851688909
-0.04068917707120597   -0.002931527720104842   0.004242960851688909
-0.04068917707120597   -0.002931527720104842   0.004242960851688909
0.15367175183255843   0.011488820502939926   -0.005404494086849616
0.15367175183255843   0.011488820502939926   -0.005404494086849616
0.15367175183255843   0.011488820502939926   -0.005404494086849616
0.15367175183255843   0.011488820502939926   -0.005404494086849616
0.04846183287435216   -0.0010627406468345004   -0.0034856268987418274
0.04846183287435216   -0.0010627406468345004   -0.0034856268987418274
0.04846183287435216   -0.0010627406468345004   -0.0034856268987418274
0.04846183287435216   -0.0010627406468345004   -0.0034856268987418274
0.16417284763167503   0.04075853844372321   0.01783126696794813
0.16417284763167503   0.04075853844372321   0.01783126696794813
0.16417284763167503   0.04075853844372321   0.01783126696794813
0.16417284763167503   0.04075853844372321   0.01783126696794813
-0.05035258353961071   -0.03136355633017404   -0.01564204288026559
-0.05035258353961071   -0.03136355633017404   -0.01564204288026559
-0.05035258353961071   -0.03136355633017404   -0.01564204288026559
-0.05035258353961071   -0.03136355633017404   -0.01564204288026559
-0.030861612117551705   0.010845990799124986   0.0017638309156424179
-0.030861612117551705   0.010845990799124986   0.0017638309156424179
-0.030861612117551705   0.010845990799124986   0.0017638309156424179
-0.030861612117551705   0.010845990799124986   0.0017638309156424179
0.1640617232831776   0.024163321383236548   -0.0077258699838360905
0.1640617232831776   0.024163321383236548   -0.0077258699838360905
0.1640617232831776   0.024163321383236548   -0.0077258699838360905
0.1640617232831776   0.024163321383236548   -0.0077258699838360905
0.06038933002926197   0.01044517185585309   0.0027092958280567777
0.06038933002926197   0.01044517185585309   0.0027092958280567777
0.06038933002926197   0.01044517185585309   0.0027092958280567777
0.06038933002926197   0.01044517185585309   0.0027092958280567777
-0.0548235296602387   0.0036798431668076184   0.00959339489072215
-0.0548235296602387   0.0036798431668076184   0.00959339489072215
-0.0548235296602387   0.0036798431668076184   0.00959339489072215
-0.0548235296602387   0.0036798431668076184   0.00959339489072215
-0.25389371985807924   -0.04417328562779406   -0.001329538593406949
-0.25389371985807924   -0.04417328562779406   -0.001329538593406949
-0.25389371985807924   -0.04417328562779406   -0.001329538593406949
-0.25389371985807924   -0.04417328562779406   -0.001329538593406949
-0.24213952974225308   -0.0262636432875025   -0.00594705387998518
-0.24213952974225308   -0.0262636432875025   -0.00594705387998518
-0.24213952974225308   -0.0262636432875025   -0.00594705387998518
-0.24213952974225308   -0.0262636432875025   -0.00594705387998518
-0.04636302241510218   0.006961507769026496   0.006338479472702943
-0.04636302241510218   0.006961507769026496   0.006338479472702943
-0.04636302241510218   0.006961507769026496   0.006338479472702943
-0.04636302241510218   0.006961507769026496   0.006338479472702943
-0.1495627543298794   -0.01353616415801517   -0.005495032236668917
-0.1495627543298794   -0.01353616415801517   -0.005495032236668917
-0.1495627543298794   -0.01353616415801517   -0.005495032236668917
-0.1495627543298794   -0.01353616415801517   -0.005495032236668917
-0.04438091783524911   0.015932993248412068   0.007277516892583664
-0.04438091783524911   0.015932993248412068   0.007277516892583664
-0.04438091783524911   0.015932993248412068   0.007277516892583664
-0.04438091783524911   0.015932993248412068   0.007277516892583664
-0.24355083469726968   -0.03466432914205142   -0.00460289280051917
-0.24355083469726968   -0.03466432914205142   -0.00460289280051917
-0.24355083469726968   -0.03466432914205142   -0.00460289280051917
-0.24355083469726968   -0.03466432914205142   -0.00460289280051917
-0.23117171591894806   -0.013251021783002095   -0.008029619661192956
-0.23117171591894806   -0.013251021783002095   -0.008029619661192956
-0.23117171591894806   -0.013251021783002095   -0.008029619661192956
-0.23117171591894806   -0.013251021783002095   -0.008029619661192956
-0.0366878467453521   0.01769159718340626   0.003626487577447144
-0.0366878467453521   0.01769159718340626   0.003626487577447144
-0.0366878467453521   0.01769159718340626   0.003626487577447144
-0.0366878467453521   0.01769159718340626   0.003626487577447144
-0.13849483941212196   -0.0026536838075755347   -7.751385832354806e-05
-0.13849483941212196   -0.0026536838075755347   -7.751385832354806e-05
-0.13849483941212196   -0.0026536838075755347   -7.751385832354806e-05
-0.13849483941212196   -0.0026536838075755347   -7.751385832354806e-05
-0.03429157063270474   0.02865902022608599   0.004640445098004203
-0.03429157063270474   0.02865902022608599   0.004640445098004203
-0.03429157063270474   0.02865902022608599   0.004640445098004203
-0.03429157063270474   0.02865902022608599   0.004640445098004203
-0.23304015531085004   -0.023690608104936454   -0.00693223029876851
-0.23304015531085004   -0.023690608104936454   -0.00693223029876851
-0.23304015531085004   -0.023690608104936454   -0.00693223029876851
-0.23304015531085004   -0.023690608104936454   -0.00693223029876851
-0.22095775499139345   -0.00027185089239454424   -0.010505755408699963
-0.22095775499139345   -0.00027185089239454424   -0.010505755408699963
-0.22095775499139345   -0.00027185089239454424   -0.010505755408699963
-0.22095775499139345   -0.00027185089239454424   -0.010505755408699963
-0.02746840775966214   0.028640283302046765   0.0009355602021684766
-0.02746840775966214   0.028640283302046765   0.0009355602021684766
-0.02746840775966214   0.028640283302046765   0.0009355602021684766
-0.02746840775966214   0.028640283302046765   0.0009355602021684766
-0.12833687036359426   0.008190258594116193   0.005072974529062017
-0.12833687036359426   0.008190258594116193   0.005072974529062017
-0.12833687036359426   0.008190258594116193   0.005072974529062017
-0.12833687036359426   0.008190258594116193   0.005072974529062017
-0.2474218805735024   -0.009494027007983491   -0.0036496007903312373
-0.2474218805735024   -0.009494027007983491   -0.0036496007903312373
-0.2474218805735024   -0.009494027007983491   -0.0036496007903312373
-0.2474218805735024   -0.009494027007983491   -0.0036496007903312373
-0.43458316393078317   -0.03594545245978008   0.008128158505369937
-0.43458316393078317   -0.03594545245978008   0.008128158505369937
-0.43458316393078317   -0.03594545245978008   0.008128158505369937
-0.43458316393078317   -0.03594545245978008   0.008128158505369937
-0.4290682147167009   -0.03731851549795864   -0.017860765546302306
-0.4290682147167009   -0.03731851549795864   -0.017860765546302306
-0.4290682147167009   -0.03731851549795864   -0.017860765546302306
-0.4290682147167009   -0.03731851549795864   -0.017860765546302306
-0.22914622803132545   0.01691766207470812   0.015838149312444042
-0.22914622803132545   0.01691766207470812   0.015838149312444042
-0.22914622803132545   0.01691766207470812   0.015838149312444042
-0.22914622803132545   0.01691766207470812   0.015838149312444042
-0.33273829852410297   -0.014420518673488612   -0.0019275295793608743
-0.33273829852410297   -0.014420518673488612   -0.0019275295793608743
-0.33273829852410297   -0.014420518673488612   -0.0019275295793608743
-0.33273829852410297   -0.014420518673488612   -0.0019275295793608743
-0.23607426466699563   0.003729627719169272   -0.00561399951036801
-0.23607426466699563   0.003729627719169272   -0.00561399951036801
-0.23607426466699563   0.003729627719169272   -0.00561399951036801
-0.23607426466699563   0.003729627719169272   -0.00561399951036801
-0.422078175889235   -0.024068478950623487   0.003839392043695534
-0.422078175889235   -0.024068478950623487   0.003839392043695534
-0.422078175889235   -0.024068478950623487   0.003839392043695534
-0.422078175889235   -0.024068478950623487   0.003839392043695534
-0.4146970384546638   -0.02462199641773155   -0.019757302371938686
-0.4146970384546638   -0.02462199641773155   -0.019757302371938686
-0.4146970384546638   -0.02462199641773155   -0.019757302371938686
-0.4146970384546638   -0.02462199641773155   -0.019757302371938686
-0.21895462518683828   0.0271296644053155   0.012675147811040493
-0.21895462518683828   0.0271296644053155   0.012675147811040493
-0.21895462518683828   0.0271296644053155   0.012675147811040493
-0.21895462518683828   0.0271296644053155   0.012675147811040493
-0.31807701278389555   -0.0024020200919264018   0.003520031230226532
-0.31807701278389555   -0.0024020200919264018   0.003520031230226532
-0.31807701278389555   -0.0024020200919264018   0.003520031230226532
-0.31807701278389555   -0.0024020200919264018   0.003520031230226532
-0.22545925361244176   0.01552779586897339   -0.008246125780636042
-0.22545925361244176   0.01552779586897339   -0.008246125780636042
-0.22545925361244176   0.01552779586897339   -0.008246125780636042
-0.22545925361244176   0.01552779586897339   -0.008246125780636042
-0.4078147490578499   -0.012642466910179243   0.00267461510457841
-0.4078147490578499   -0.012642466910179243   0.00267461510457841
-0.4078147490578499   -0.012642466910179243   0.00267461510457841
-0.4078147490578499   -0.012642466910179243   0.00267461510457841
-0.40185077294852267   -0.010886120399646496   -0.02078408372445717
-0.40185077294852267   -0.010886120399646496   -0.02078408372445717
-0.40185077294852267   -0.010886120399646496   -0.02078408372445717
-0.40185077294852267   -0.010886120399646496   -0.02078408372445717
-0.20908434906532022   0.038326975631623815   0.010262447697649505
-0.20908434906532022   0.038326975631623815   0.010262447697649505
-0.20908434906532022   0.038326975631623815   0.010262447697649505
-0.20908434906532022   0.038326975631623815   0.010262447697649505
-0.3082739468323709   0.00784809349586843   0.00821045688626875
-0.3082739468323709   0.00784809349586843   0.00821045688626875
-0.3082739468323709   0.00784809349586843   0.00821045688626875
-0.3082739468323709   0.00784809349586843   0.00821045688626875
-0.4362761736244155   -0.020369740161933353   -0.015912602260638828
-0.4362761736244155   -0.020369740161933353   -0.015912602260638828
-0.4362761736244155   -0.020369740161933353   -0.015912602260638828
-0.4362761736244155   -0.020369740161933353   -0.015912602260638828
-0.6225982774309659   -0.022565022672385096   0.027527676964795317
-0.6225982774309659   -0.022565022672385096   0.027527676964795317
-0.6225982774309659   -0.022565022672385096   0.027527676964795317
-0.6225982774309659   -0.022565022672385096   0.027527676964795317
-0.6111424283564443   -0.04458781379227178   -0.021211168900588162
-0.6111424283564443   -0.04458781379227178   -0.021211168900588162
-0.6111424283564443   -0.04458781379227178   -0.021211168900588162
-0.6111424283564443   -0.04458781379227178   -0.021211168900588162
-0.4055117374060047   0.03455964267244915   0.02804346283677129
-0.4055117374060047   0.03455964267244915   0.02804346283677129
-0.4055117374060047   0.03455964267244915   0.02804346283677129
-0.4055117374060047   0.03455964267244915   0.02804346283677129
-0.49583873317023336   -0.006117891183502824   0.005914833963126472
-0.49583873317023336   -0.006117891183502824   0.005914833963126472
-0.49583873317023336   -0.006117891183502824   0.005914833963126472
-0.49583873317023336   -0.006117891183502824   0.005914833963126472
-0.42281667326936667   -0.006220619796880211   -0.017700954010707842
-0.42281667326936667   -0.006220619796880211   -0.017700954010707842
-0.42281667326936667   -0.006220619796880211   -0.017700954010707842
-0.42281667326936667   -0.006220619796880211   -0.017700954010707842
-0.5935248226971058   -0.00349488152696667   0.025783927130793298
-0.5935248226971058   -0.00349488152696667   0.025783927130793298
-0.5935248226971058   -0.00349488152696667   0.025783927130793298
-0.5935248226971058   -0.00349488152696667   0.025783927130793298
-0.5892633140811339   -0.03672587067205181   -0.02500396388057158
-0.5892633140811339   -0.03672587067205181   -0.02500396388057158
-0.5892633140811339   -0.03672587067205181   -0.02500396388057158
-0.5892633140811339   -0.03672587067205181   -0.02500396388057158
-0.393489844125002   0.03940493222664335   0.022251740631995504
-0.393489844125002   0.03940493222664335   0.022251740631995504
-0.393489844125002   0.03940493222664335   0.022251740631995504
-0.393489844125002   0.03940493222664335   0.022251740631995504
-0.48479663432873216   0.002474616023318707   0.010404560805546685
-0.48479663432873216   0.002474616023318707   0.010404560805546685
-0.48479663432873216   0.002474616023318707   0.010404560805546685
-0.48479663432873216   0.002474616023318707   0.010404560805546685
-0.4098316208115144   0.00012568220266810648   -0.02017789277659145
-0.4098316208115144   0.00012568220266810648   -0.02017789277659145
-0.4098316208115144   0.00012568220266810648   -0.02017789277659145
-0.4098316208115144   0.00012568220266810648   -0.02017789277659145
-0.5726041595470324   0.002870757199513324   0.018695180918360414
-0.5726041595470324   0.002870757199513324   0.018695180918360414
-0.5726041595470324   0.002870757199513324   0.018695180918360414
-0.5726041595470324   0.002870757199513324   0.018695180918360414
-0.56527335086364   -0.02734969511729475   -0.0285300054595849
-0.56527335086364   -0.02734969511729475   -0.0285300054595849
-0.56527335086364   -0.02734969511729475   -0.0285300054595849
-0.56527335086364   -0.02734969511729475   -0.0285300054595849
-0.38296112670304805   0.04383682845474576   0.01894119864852379
-0.38296112670304805   0.04383682845474576   0.01894119864852379
-0.38296112670304805   0.04383682845474576   0.01894119864852379
-0.38296112670304805   0.04383682845474576   0.01894119864852379
-0.46048279268346864   0.009587462754967913   0.017261178606583077
-0.46048279268346864   0.009587462754967913   0.017261178606583077
-0.46048279268346864   0.009587462754967913   0.017261178606583077
-0.46048279268346864   0.009587462754967913   0.017261178606583077
0.5428810621029024   0.040682867992872934   0.02842382862732929
0.5428810621029024   0.040682867992872934   0.02842382862732929
0.5428810621029024   0.040682867992872934   0.02842382862732929
0.5428810621029024   0.040682867992872934   0.02842382862732929
0.2389120290354982   -0.06330063037552121   -0.013205869776187585
0.2389120290354982   -0.06330063037552121   -0.013205869776187585
0.2389120290354982   -0.06330063037552121   -0.013205869776187585
0.2389120290354982   -0.06330063037552121   -0.013205869776187585
0.26592240443734655   -0.011401446492405251   0.01946855612169217
0.26592240443734655   -0.011401446492405251   0.01946855612169217
0.26592240443734655   -0.011401446492405251   0.01946855612169217
0.26592240443734655   -0.011401446492405251   0.01946855612169217
0.5486001871605195   -0.00036867453208357104   -0.020598817963558964
0.5486001871605195   -0.00036867453208357104   -0.020598817963558964
0.5486001871605195   -0.00036867453208357104   -0.020598817963558964
0.5486001871605195   -0.00036867453208357104   -0.020598817963558964
0.3757328963487494   -0.011134881076046002   -0.029161033816417516
0.3757328963487494   -0.011134881076046002   -0.029161033816417516
0.3757328963487494   -0.011134881076046002   -0.029161033816417516
0.3757328963487494   -0.011134881076046002   -0.029161033816417516
0.5675029304362698   0.049775160216384964   0.0237710636667201
0.5675029304362698   0.049775160216384964   0.0237710636667201
0.5675029304362698   0.049775160216384964   0.0237710636667201
0.5675029304362698   0.049775160216384964   0.0237710636667201
0.2488407491935522   -0.05972419320891821   -0.01761697338076486
0.2488407491935522   -0.05972419320891821   -0.01761697338076486
0.2488407491935522   -0.05972419320891821   -0.01761697338076486
0.2488407491935522   -0.05972419320891821   -0.01761697338076486
0.2763805233669206   -0.005614162834039774   0.015716663552626863
0.2763805233669206   -0.005614162834039774   0.015716663552626863
0.2763805233669206   -0.005614162834039774   0.015716663552626863
0.2763805233669206   -0.005614162834039774   0.015716663552626863
0.5670322693153612   0.006002368794700147   -0.025670700922658603
0.5670322693153612   0.006002368794700147   -0.025670700922658603
0.5670322693153612   0.006002368794700147   -0.025670700922658603
0.5670322693153612   0.006002368794700147   -0.025670700922658603
0.3989845045133154   -0.004348819564671633   -0.01987554142370988
0.3989845045133154   -0.004348819564671633   -0.01987554142370988
0.3989845045133154   -0.004348819564671633   -0.01987554142370988
0.3989845045133154   -0.004348819564671633   -0.01987554142370988
0.5858151250695419   0.05664884510379008   0.01759710153915477
0.5858151250695419   0.05664884510379008   0.01759710153915477
0.5858151250695419   0.05664884510379008   0.01759710153915477
0.5858151250695419   0.05664884510379008   0.01759710153915477
0.2591855864152766   -0.05467272034059556   -0.021199463699037125
0.2591855864152766   -0.05467272034059556   -0.021199463699037125
0.2591855864152766   -0.05467272034059556   -0.021199463699037125
0.2591855864152766   -0.05467272034059556   -0.021199463699037125
0.28586847227587986   0.009883885127495572   0.013779592563556166
0.28586847227587986   0.009883885127495572   0.013779592563556166
0.28586847227587986   0.009883885127495572   0.013779592563556166
0.28586847227587986   0.009883885127495572   0.013779592563556166
0.5897599411153589   0.024665311227482126   -0.026858999415692208
0.5897599411153589   0.024665311227482126   -0.026858999415692208
0.5897599411153589   0.024665311227482126   -0.026858999415692208
0.5897599411153589   0.024665311227482126   -0.026858999415692208
0.4074719711121317   0.004826908095610913   -0.0134846487273225
0.4074719711121317   0.004826908095610913   -0.0134846487273225
0.4074719711121317   0.004826908095610913   -0.0134846487273225
0.4074719711121317   0.004826908095610913   -0.0134846487273225
0.26424859255238786   0.02396852865796327   0.02620778877477413
0.26424859255238786   0.02396852865796327   0.02620778877477413
0.26424859255238786   0.02396852865796327   0.02620778877477413
0.26424859255238786   0.02396852865796327   0.02620778877477413
-0.03378586919751733   -0.07773825014624833   -0.007558249539356934
-0.03378586919751733   -0.07773825014624833   -0.007558249539356934
-0.03378586919751733   -0.07773825014624833   -0.007558249539356934
-0.03378586919751733   -0.07773825014624833   -0.007558249539356934
-0.010636028350423411   -0.027756875802623225   0.006540201571308751
-0.010636028350423411   -0.027756875802623225   0.006540201571308751
-0.010636028350423411   -0.027756875802623225   0.006540201571308751
-0.010636028350423411   -0.027756875802623225   0.006540201571308751
0.261910083079858   -0.013373636888287008   0.0013791397301312104
0.261910083079858   -0.013373636888287008   0.0013791397301312104
0.261910083079858   -0.013373636888287008   0.0013791397301312104
0.261910083079858   -0.013373636888287008   0.0013791397301312104
0.11716488177073991   -0.021388132040456094   -0.013777453495072013
0.11716488177073991   -0.021388132040456094   -0.013777453495072013
0.11716488177073991   -0.021388132040456094   -0.013777453495072013
0.11716488177073991   -0.021388132040456094   -0.013777453495072013
0.27551711417922387   0.03281153671398288   0.023229121624692046
0.27551711417922387   0.03281153671398288   0.023229121624692046
0.27551711417922387   0.03281153671398288   0.023229121624692046
0.27551711417922387   0.03281153671398288   0.023229121624692046
-0.023271759206769674   -0.0729707491618733   -0.011424579351172488
-0.023271759206769674   -0.0729707491618733   -0.011424579351172488
-0.023271759206769674   -0.0729707491618733   -0.011424579351172488
-0.023271759206769674   -0.0729707491618733   -0.011424579351172488
2.2268430920691258e-05   -0.017368894921677654   0.00395641219168492
2.2268430920691258e-05   -0.017368894921677654   0.00395641219168492
2.2268430920691258e-05   -0.017368894921677654   0.00395641219168492
2.2268430920691258e-05   -0.017368894921677654   0.00395641219168492
0.2728574207550186   -0.005536843261861948   -0.0019761690790605184
0.2728574207550186   -0.005536843261861948   -0.0019761690790605184
0.2728574207550186   -0.005536843261861948   -0.0019761690790605184
0.2728574207550186   -0.005536843261861948   -0.0019761690790605184
0.1263807178403891   -0.015000271071722825   -0.008908373649959563
0.1263807178403891   -0.015000271071722825   -0.008908373649959563
0.1263807178403891   -0.015000271071722825   -0.008908373649959563
0.1263807178403891   -0.015000271071722825   -0.008908373649959563
0.2871957174804152   0.04342517225591365   0.02075329903014685
0.2871957174804152   0.04342517225591365   0.02075329903014685
0.2871957174804152   0.04342517225591365   0.02075329903014685
0.2871957174804152   0.04342517225591365   0.02075329903014685
-0.013728032219990374   -0.06574291436496772   -0.016421071619580344
-0.013728032219990374   -0.06574291436496772   -0.016421071619580344
-0.013728032219990374   -0.06574291436496772   -0.016421071619580344
-0.013728032219990374   -0.06574291436496772   -0.016421071619580344
0.008395460782045065   -0.005154897573124588   0.0013492977354754546
0.008395460782045065   -0.005154897573124588   0.0013492977354754546
0.008395460782045065   -0.005154897573124588   0.0013492977354754546
0.008395460782045065   -0.005154897573124588   0.0013492977354754546
0.2810344468733238   0.004490415181311547   -0.004997064503046267
0.2810344468733238   0.004490415181311547   -0.004997064503046267
0.2810344468733238   0.004490415181311547   -0.004997064503046267
0.2810344468733238   0.004490415181311547   -0.004997064503046267
0.13778938306822155   -0.005426383610687466   -0.0036534701781120536
0.13778938306822155   -0.005426383610687466   -0.0036534701781120536
0.13778938306822155   -0.005426383610687466   -0.0036534701781120536
0.13778938306822155   -0.005426383610687466   -0.0036534701781120536
-0.012726702382545519   0.006938243719870695   0.013061090669383114
-0.012726702382545519   0.006938243719870695   0.013061090669383114
-0.012726702382545519   0.006938243719870695   0.013061090669383114
-0.012726702382545519   0.006938243719870695   0.013061090669383114
-0.304328349005395   -0.0972958349784728   -0.006006095498859745
-0.304328349005395   -0.0972958349784728   -0.006006095498859745
-0.304328349005395   -0.0972958349784728   -0.006006095498859745
-0.304328349005395   -0.0972958349784728   -0.006006095498859745
-0.28105090358036333   -0.04253023750107013   -0.006432365712518985
-0.28105090358036333   -0.04253023750107013   -0.006432365712518985
-0.28105090358036333   -0.04253023750107013   -0.006432365712518985
-0.28105090358036333   -0.04253023750107013   -0.006432365712518985
-0.01165757102162853   -0.032282873093675626   0.00595848550633556
-0.01165757102162853   -0.032282873093675626   0.00595848550633556
-0.01165757102162853   -0.032282873093675626   0.00595848550633556
-0.01165757102162853   -0.032282873093675626   0.00595848550633556
-0.1531107744167939   -0.03907493318803817   -0.012274420339333039
-0.1531107744167939   -0.03907493318803817   -0.012274420339333039
-0.1531107744167939   -0.03907493318803817   -0.012274420339333039
-0.1531107744167939   -0.03907493318803817   -0.012274420339333039
-0.0008829500470267631   0.01691630817103151   0.010632409114637262
-0.0008829500470267631   0.01691630817103151   0.010632409114637262
-0.0008829500470267631   0.01691630817103151   0.010632409114637262
-0.0008829500470267631   0.01691630817103151   0.010632409114637262
-0.2911196352741553   -0.09102352948496492   -0.008282732197584103
-0.2911196352741553   -0.09102352948496492   -0.008282732197584103
-0.2911196352741553   -0.09102352948496492   -0.008282732197584103
-0.2911196352741553   -0.09102352948496492   -0.008282732197584103
-0.2678206025223968   -0.031005257911373926   -0.008725032119409098
-0.2678206025223968   -0.031005257911373926   -0.008725032119409098
-0.2678206025223968   -0.031005257911373926   -0.008725032119409098
-0.2678206025223968   -0.031005257911373926   -0.008725032119409098
-0.0017382850046731126   -0.024742929357986027   0.0025276794500242753
-0.0017382850046731126   -0.024742929357986027   0.0025276794500242753
-0.0017382850046731126   -0.024742929357986027   0.0025276794500242753
-0.0017382850046731126   -0.024742929357986027   0.0025276794500242753
-0.14026714590646142   -0.03077221900673969   -0.00677455109555067
-0.14026714590646142   -0.03077221900673969   -0.00677455109555067
-0.14026714590646142   -0.03077221900673969   -0.00677455109555067
-0.14026714590646142   -0.03077221900673969   -0.00677455109555067
0.009951142782876544   0.02795039614959989   0.008281492880186645
0.009951142782876544   0.02795039614959989   0.008281492880186645
0.009951142782876544   0.02795039614959989   0.008281492880186645
0.009951142782876544   0.02795039614959989   0.008281492880186645
-0.2794886583983347   -0.08367721150734772   -0.014393357903122635
-0.2794886583983347   -0.08367721150734772   -0.014393357903122635
-0.2794886583983347   -0.08367721150734772   -0.014393357903122635
-0.2794886583983347   -0.08367721150734772   -0.014393357903122635
-0.25846530526110256   -0.020002120804418135   -0.011279562828715554
-0.25846530526110256   -0.020002120804418135   -0.011279562828715554
-0.25846530526110256   -0.020002120804418135   -0.011279562828715554
-0.25846530526110256   -0.020002120804418135   -0.011279562828715554
0.004759675715972597   -0.01867464834051439   -0.0033098768274970837
0.004759675715972597   -0.01867464834051439   -0.0033098768274970837
0.004759675715972597   -0.01867464834051439   -0.0033098768274970837
0.004759675715972597   -0.01867464834051439   -0.0033098768274970837
-0.13085328329480303   -0.023006139612116883   -0.003300093253392312
-0.13085328329480303   -0.023006139612116883   -0.003300093253392312
-0.13085328329480303   -0.023006139612116883   -0.003300093253392312
-0.13085328329480303   -0.023006139612116883   -0.003300093253392312
-0.28528956680851064   -0.007778307195816021   -0.00032971229709762885
-0.28528956680851064   -0.007778307195816021   -0.00032971229709762885
-0.28528956680851064   -0.007778307195816021   -0.00032971229709762885
-0.28528956680851064   -0.007778307195816021   -0.00032971229709762885
-0.5763695107520358   -0.10460454109381348   -0.004759877090597316
-0.5763695107520358   -0.10460454109381348   -0.004759877090597316
-0.5763695107520358   -0.10460454109381348   -0.004759877090597316
-0.5763695107520358   -0.10460454109381348   -0.004759877090597316
-0.551515149054934   -0.054518314164589896   -0.0189728108604222
-0.551515149054934   -0.054518314164589896   -0.0189728108604222
-0.551515149054934   -0.054518314164589896   -0.0189728108604222
-0.551515149054934   -0.054518314164589896   -0.0189728108604222
-0.2754734402014674   -0.033582782980610536   0.012507496661498219
-0.2754734402014674   -0.033582782980610536   0.012507496661498219
-0.2754734402014674   -0.033582782980610536   0.012507496661498219
-0.2754734402014674   -0.033582782980610536   0.012507496661498219
-0.4185023413133429   -0.04711573095607435   -0.008633052464968427
-0.4185023413133429   -0.04711573095607435   -0.008633052464968427
-0.4185023413133429   -0.04711573095607435   -0.008633052464968427
-0.4185023413133429   -0.04711573095607435   -0.008633052464968427
-0.27067058721243153   0.005027463417673739   -0.002088484791606511
-0.27067058721243153   0.005027463417673739   -0.002088484791606511
-0.27067058721243153   0.005027463417673739   -0.002088484791606511
-0.27067058721243153   0.005027463417673739   -0.002088484791606511
-0.5564982889262893   -0.09330884744519534   -0.005097976936588668
-0.5564982889262893   -0.09330884744519534   -0.005097976936588668
-0.5564982889262893   -0.09330884744519534   -0.005097976936588668
-0.5564982889262893   -0.09330884744519534   -0.005097976936588668
-0.5325628656577811   -0.04251644091151981   -0.021947138302193147
-0.5325628656577811   -0.04251644091151981   -0.021947138302193147
-0.5325628656577811   -0.04251644091151981   -0.021947138302193147
-0.5325628656577811   -0.04251644091151981   -0.021947138302193147
-0.2626547519888752   -0.024596656433031685   0.010695619069858567
-0.2626547519888752   -0.024596656433031685   0.010695619069858567
-0.2626547519888752   -0.024596656433031685   0.010695619069858567
-0.2626547519888752   -0.024596656433031685   0.010695619069858567
-0.3989596249471739   -0.035598086460490064   -0.0027454966807893
-0.3989596249471739   -0.035598086460490064   -0.0027454966807893
-0.3989596249471739   -0.035598086460490064   -0.0027454966807893
-0.3989596249471739   -0.035598086460490064   -0.0027454966807893
-0.25741630438891555   0.01613378260834695   -0.0038425819717249447
-0.25741630438891555   0.01613378260834695   -0.0038425819717249447
-0.25741630438891555   0.01613378260834695   -0.0038425819717249447
-0.25741630438891555   0.01613378260834695   -0.0038425819717249447
-0.5386786277996267   -0.08412419449478409   -0.010918195428151936
-0.5386786277996267   -0.08412419449478409   -0.010918195428151936
-0.5386786277996267   -0.08412419449478409   -0.010918195428151936
-0.5386786277996267   -0.08412419449478409   -0.010918195428151936
-0.5172556039068238   -0.029892476430047887   -0.0226635577691901
-0.5172556039068238   -0.029892476430047887   -0.0226635577691901
-0.5172556039068238   -0.029892476430047887   -0.0226635577691901
-0.5172556039068238   -0.029892476430047887   -0.0226635577691901
-0.2553052348963554   -0.018883417423449192   0.0034020856140529222
-0.2553052348963554   -0.018883417423449192   0.0034020856140529222
-0.2553052348963554   -0.018883417423449192   0.0034020856140529222
-0.2553052348963554   -0.018883417423449192   0.0034020856140529222
-0.38836219637484565   -0.028590262160282057   -0.0008036122816760388
-0.38836219637484565   -0.028590262160282057   -0.0008036122816760388
-0.38836219637484565   -0.028590262160282057   -0.0008036122816760388
-0.38836219637484565   -0.028590262160282057   -0.0008036122816760388
-0.5609176470156334   -0.01846287656896449   -0.0136422229334341
-0.5609176470156334   -0.01846287656896449   -0.0136422229334341
-0.5609176470156334   -0.01846287656896449   -0.0136422229334341
-0.5609176470156334   -0.01846287656896449   -0.0136422229334341
-0.845950694718679   -0.07135700223764056   0.03128801080290938
-0.845950694718679   -0.07135700223764056   0.03128801080290938
-0.845950694718679   -0.07135700223764056   0.03128801080290938
-0.845950694718679   -0.07135700223764056   0.03128801080290938
-0.8177323547327779   -0.057177500158831024   -0.018421633992856297
-0.8177323547327779   -0.057177500158831024   -0.018421633992856297
-0.8177323547327779   -0.057177500158831024   -0.018421633992856297
-0.8177323547327779   -0.057177500158831024   -0.018421633992856297
-0.5279489865090027   0.015412126439890234   0.02892756126474985
-0.5279489865090027   0.015412126439890234   0.02892756126474985
-0.5279489865090027   0.015412126439890234   0.02892756126474985
-0.5279489865090027   0.015412126439890234   0.02892756126474985
-0.6572759429473275   -0.02220518382725324   0.003531048272148684
-0.6572759429473275   -0.02220518382725324   0.003531048272148684
-0.6572759429473275   -0.02220518382725324   0.003531048272148684
-0.6572759429473275   -0.02220518382725324   0.003531048272148684
-0.5400404654449332   -0.000981947414740697   -0.015135759560264861
-0.5400404654449332   -0.000981947414740697   -0.015135759560264861
-0.5400404654449332   -0.000981947414740697   -0.015135759560264861
-0.5400404654449332   -0.000981947414740697   -0.015135759560264861
-0.8036935630654345   -0.038836113572783465   0.033430937757813334
-0.8036935630654345   -0.038836113572783465   0.033430937757813334
-0.8036935630654345   -0.038836113572783465   0.033430937757813334
-0.8036935630654345   -0.038836113572783465   0.033430937757813334
-0.7874134862526335   -0.0482178231044435   -0.021938393895807234
-0.7874134862526335   -0.0482178231044435   -0.021938393895807234
-0.7874134862526335   -0.0482178231044435   -0.021938393895807234
-0.7874134862526335   -0.0482178231044435   -0.021938393895807234
-0.509237621084435   0.024288931276830267   0.027873712376187118
-0.509237621084435   0.024288931276830267   0.027873712376187118
-0.509237621084435   0.024288931276830267   0.027873712376187118
-0.509237621084435   0.024288931276830267   0.027873712376187118
-0.6397210262907425   -0.00895218608072279   0.013197794069314636
-0.6397210262907425   -0.00895218608072279   0.013197794069314636
-0.6397210262907425   -0.00895218608072279   0.013197794069314636
-0.6397210262907425   -0.00895218608072279   0.013197794069314636
-0.521739441121313   0.006029477828923824   -0.016375934360291097
-0.521739441121313   0.006029477828923824   -0.016375934360291097
-0.521739441121313   0.006029477828923824   -0.016375934360291097
-0.521739441121313   0.006029477828923824   -0.016375934360291097
-0.7744946853866973   -0.029541388827479004   0.02397917615690308
-0.7744946853866973   -0.029541388827479004   0.02397917615690308
-0.7744946853866973   -0.029541388827479004   0.02397917615690308
-0.7744946853866973   -0.029541388827479004   0.02397917615690308
-0.7560213630301654   -0.039870771650020065   -0.02653656554817268
-0.7560213630301654   -0.039870771650020065   -0.02653656554817268
-0.7560213630301654   -0.039870771650020065   -0.02653656554817268
-0.7560213630301654   -0.039870771650020065   -0.02653656554817268
-0.49550180709705227   0.034725785198583686   0.021487164651036325
-0.49550180709705227   0.034725785198583686   0.021487164651036325
-0.49550180709705227   0.034725785198583686   0.021487164651036325
-0.49550180709705227   0.034725785198583686   0.021487164651036325
-0.605774651155596   0.002334327061887881   0.022994937217169317
-0.605774651155596   0.002334327061887881   0.022994937217169317
-0.605774651155596   0.002334327061887881   0.022994937217169317
-0.605774651155596   0.002334327061887881   0.022994937217169317
0.7386547409271349   0.0445690119763331   0.026399630091447284
0.7386547409271349   0.0445690119763331   0.026399630091447284
0.7386547409271349   0.0445690119763331   0.026399630091447284
0.7386547409271349   0.0445690119763331   0.026399630091447284
0.35138729915990846   -0.06536535233838735   0.005521960885466255
0.35138729915990846   -0.06536535233838735   0.005521960885466255
0.35138729915990846   -0.06536535233838735   0.005521960885466255
0.35138729915990846   -0.06536535233838735   0.005521960885466255
0.37043675708140145   -0.02784349643080826   0.02019050262193565
0.37043675708140145   -0.02784349643080826   0.02019050262193565
0.37043675708140145   -0.02784349643080826   0.02019050262193565
0.37043675708140145   -0.02784349643080826   0.02019050262193565
0.7423398972492566   0.007057398511067042   -0.006198875135395965
0.7423398972492566   0.007057398511067042   -0.006198875135395965
0.7423398972492566   0.007057398511067042   -0.006198875135395965
0.7423398972492566   0.007057398511067042   -0.006198875135395965
0.5188929692679055   -0.013823508438045085   -0.034225425936806685
0.5188929692679055   -0.013823508438045085   -0.034225425936806685
0.5188929692679055   -0.013823508438045085   -0.034225425936806685
0.5188929692679055   -0.013823508438045085   -0.034225425936806685
0.7562294981612064   0.04944854737320807   0.02085798056221223
0.7562294981612064   0.04944854737320807   0.02085798056221223
0.7562294981612064   0.04944854737320807   0.02085798056221223
0.7562294981612064   0.04944854737320807   0.02085798056221223
0.3598542877130171   -0.06692751374938381   0.0063621730985892536
0.3598542877130171   -0.06692751374938381   0.0063621730985892536
0.3598542877130171   -0.06692751374938381   0.0063621730985892536
0.3598542877130171   -0.06692751374938381   0.0063621730985892536
0.3775692006644437   -0.02368895170824513   0.015335765213547865
0.3775692006644437   -0.02368895170824513   0.015335765213547865
0.3775692006644437   -0.02368895170824513   0.015335765213547865
0.3775692006644437   -0.02368895170824513   0.015335765213547865
0.7550814590412158   0.011727041622693862   -0.002201550568582053
0.7550814590412158   0.011727041622693862   -0.002201550568582053
0.7550814590412158   0.011727041622693862   -0.002201550568582053
0.7550814590412158   0.011727041622693862   -0.002201550568582053
0.5400293898656681   -0.010876759656708618   -0.02345595528256908
0.5400293898656681   -0.010876759656708618   -0.02345595528256908
0.5400293898656681   -0.010876759656708618   -0.02345595528256908
0.5400293898656681   -0.010876759656708618   -0.02345595528256908
0.7668587357092972   0.05398681428076639   0.014425060113752091
0.7668587357092972   0.05398681428076639   0.014425060113752091
0.7668587357092972   0.05398681428076639   0.014425060113752091
0.7668587357092972   0.05398681428076639   0.014425060113752091
0.36809169891713384   -0.0636489494455462   0.00790825421429956
0.36809169891713384   -0.0636489494455462   0.00790825421429956
0.36809169891713384   -0.0636489494455462   0.00790825421429956
0.36809169891713384   -0.0636489494455462   0.00790825421429956
0.3881050107407272   -0.007489668664035873   0.014021031501364922
0.3881050107407272   -0.007489668664035873   0.014021031501364922
0.3881050107407272   -0.007489668664035873   0.014021031501364922
0.3881050107407272   -0.007489668664035873   0.014021031501364922
0.76839306421539   0.022566111987679605   -0.0006948539449255012
0.76839306421539   0.022566111987679605   -0.0006948539449255012
0.76839306421539   0.022566111987679605   -0.0006948539449255012
0.76839306421539   0.022566111987679605   -0.0006948539449255012
0.5424129255345884   -0.004858049773330014   -0.017635911314720656
0.5424129255345884   -0.004858049773330014   -0.017635911314720656
0.5424129255345884   -0.004858049773330014   -0.017635911314720656
0.5424129255345884   -0.004858049773330014   -0.017635911314720656
0.3710073149708104   0.01031947842967447   0.02793720917191398
0.3710073149708104   0.01031947842967447   0.02793720917191398
0.3710073149708104   0.01031947842967447   0.02793720917191398
0.3710073149708104   0.01031947842967447   0.02793720917191398
0.017719061534386342   -0.1291366755126822   0.01289614975757359
0.017719061534386342   -0.1291366755126822   0.01289614975757359
0.017719061534386342   -0.1291366755126822   0.01289614975757359
0.017719061534386342   -0.1291366755126822   0.01289614975757359
0.042396704633706955   -0.055111414033662445   0.012203632449405102
0.042396704633706955   -0.055111414033662445   0.012203632449405102
0.042396704633706955   -0.055111414033662445   0.012203632449405102
0.042396704633706955   -0.055111414033662445   0.012203632449405102
0.3615903712139701   -0.0604338074249913   0.008548884278957593
0.3615903712139701   -0.0604338074249913   0.008548884278957593
0.3615903712139701   -0.0604338074249913   0.008548884278957593
0.3615903712139701   -0.0604338074249913   0.008548884278957593
0.19178417815412868   -0.057331150728241326   -0.0216175157652379
0.19178417815412868   -0.057331150728241326   -0.0216175157652379
0.19178417815412868   -0.057331150728241326   -0.0216175157652379
0.19178417815412868   -0.057331150728241326   -0.0216175157652379
0.3795549048179796   0.014555873740095704   0.0233818711339232
0.3795549048179796   0.014555873740095704   0.0233818711339232
0.3795549048179796   0.014555873740095704   0.0233818711339232
0.3795549048179796   0.014555873740095704   0.0233818711339232
0.029178783411274785   -0.12535448281717623   0.016357095120758967
0.029178783411274785   -0.12535448281717623   0.016357095120758967
0.029178783411274785   -0.12535448281717623   0.016357095120758967
0.029178783411274785   -0.12535448281717623   0.016357095120758967
0.05226603650635368   -0.04750464621980986   0.008776200379864863
0.05226603650635368   -0.04750464621980986   0.008776200379864863
0.05226603650635368   -0.04750464621980986   0.008776200379864863
0.05226603650635368   -0.04750464621980986   0.008776200379864863
0.3700610443235879   -0.05640249614129725   0.010508527942320725
0.3700610443235879   -0.05640249614129725   0.010508527942320725
0.3700610443235879   -0.05640249614129725   0.010508527942320725
0.3700610443235879   -0.05640249614129725   0.010508527942320725
0.20012890404842926   -0.05438221251982318   -0.010814880657849576
0.20012890404842926   -0.05438221251982318   -0.010814880657849576
0.20012890404842926   -0.05438221251982318   -0.010814880657849576
0.20012890404842926   -0.05438221251982318   -0.010814880657849576
0.3875400614840294   0.021745951850332096   0.019755165752898967
0.3875400614840294   0.021745951850332096   0.019755165752898967
0.3875400614840294   0.021745951850332096   0.019755165752898967
0.3875400614840294   0.021745951850332096   0.019755165752898967
0.03934892234066222   -0.12109119121668899   0.01777717454828772
0.03934892234066222   -0.12109119121668899   0.01777717454828772
0.03934892234066222   -0.12109119121668899   0.01777717454828772
0.03934892234066222   -0.12109119121668899   0.01777717454828772
0.0674493801165884   -0.03607769429716717   0.00574745486129552
0.0674493801165884   -0.03607769429716717   0.00574745486129552
0.0674493801165884   -0.03607769429716717   0.00574745486129552
0.0674493801165884   -0.03607769429716717   0.00574745486129552
0.3793037692569718   -0.050296085627353396   0.012821241045905707
0.3793037692569718   -0.050296085627353396   0.012821241045905707
0.3793037692569718   -0.050296085627353396   0.012821241045905707
0.3793037692569718   -0.050296085627353396   0.012821241045905707
0.21495817654676896   -0.047301282303156965   0.0017785852757023178
0.21495817654676896   -0.047301282303156965   0.0017785852757023178
0.21495817654676896   -0.047301282303156965   0.0017785852757023178
0.21495817654676896   -0.047301282303156965   0.0017785852757023178
0.039829526387057446   -0.02366723424880082   0.01797903275704772
0.039829526387057446   -0.02366723424880082   0.01797903275704772
0.039829526387057446   -0.02366723424880082   0.01797903275704772
0.039829526387057446   -0.02366723424880082   0.01797903275704772
-0.31841255413382663   -0.22102028779446897   0.018951205081605416
-0.31841255413382663   -0.22102028779446897   0.018951205081605416
-0.31841255413382663   -0.22102028779446897   0.018951205081605416
-0.31841255413382663   -0.22102028779446897   0.018951205081605416
-0.2795414151155007   -0.08684296599870249   0.0010418650750733671
-0.2795414151155007   -0.08684296599870249   0.0010418650750733671
-0.2795414151155007   -0.08684296599870249   0.0010418650750733671
-0.2795414151155007   -0.08684296599870249   0.0010418650750733671
0.020711211683920427   -0.15888096768600474   0.0075457213528157124
0.020711211683920427   -0.15888096768600474   0.0075457213528157124
0.020711211683920427   -0.15888096768600474   0.0075457213528157124
0.020711211683920427   -0.15888096768600474   0.0075457213528157124
-0.1383951639701663   -0.1234634507650576   -0.02592442095097971
-0.1383951639701663   -0.1234634507650576   -0.02592442095097971
-0.1383951639701663   -0.1234634507650576   -0.02592442095097971
-0.1383951639701663   -0.1234634507650576   -0.02592442095097971
0.05016497503727   -0.018269455747042716   0.014203026180601562
0.05016497503727   -0.018269455747042716   0.014203026180601562
0.05016497503727   -0.018269455747042716   0.014203026180601562
0.05016497503727   -0.018269455747042716   0.014203026180601562
-0.302081978367729   -0.22054127783654806   0.022037360651779206
-0.302081978367729   -0.22054127783654806   0.022037360651779206
-0.302081978367729   -0.22054127783654806   0.022037360651779206
-0.302081978367729   -0.22054127783654806   0.022037360651779206
-0.26453906069079675   -0.0778760444395797   -0.00033712027183573166
-0.26453906069079675   -0.0778760444395797   -0.00033712027183573166
-0.26453906069079675   -0.0778760444395797   -0.00033712027183573166
-0.26453906069079675   -0.0778760444395797   -0.00033712027183573166
0.03113010746142738   -0.15518862296566685   0.010780531901091357
0.03113010746142738   -0.15518862296566685   0.010780531901091357
0.03113010746142738   -0.15518862296566685   0.010780531901091357
0.03113010746142738   -0.15518862296566685   0.010780531901091357
-0.12316215210900032   -0.1190575506484972   -0.009552878373412458
-0.12316215210900032   -0.1190575506484972   -0.009552878373412458
-0.12316215210900032   -0.1190575506484972   -0.009552878373412458
-0.12316215210900032   -0.1190575506484972   -0.009552878373412458
0.059616447818813326   -0.011143997115683063   0.009167607838037328
0.059616447818813326   -0.011143997115683063   0.009167607838037328
0.059616447818813326   -0.011143997115683063   0.009167607838037328
0.059616447818813326   -0.011143997115683063   0.009167607838037328
-0.2868255603595905   -0.2157208296009705   0.02607516654559109
-0.2868255603595905   -0.2157208296009705   0.02607516654559109
-0.2868255603595905   -0.2157208296009705   0.02607516654559109
-0.2868255603595905   -0.2157208296009705   0.02607516654559109
-0.23977187184182394   -0.06756447306733483   -0.0032274529038180946
-0.23977187184182394   -0.06756447306733483   -0.0032274529038180946
-0.23977187184182394   -0.06756447306733483   -0.0032274529038180946
-0.23977187184182394   -0.06756447306733483   -0.0032274529038180946
0.04738250244769306   -0.14522229716115095   0.014557669380801684
0.04738250244769306   -0.14522229716115095   0.014557669380801684
0.04738250244769306   -0.14522229716115095   0.014557669380801684
0.04738250244769306   -0.14522229716115095   0.014557669380801684
-0.10343678735928108   -0.1094813984309441   0.007467138259509509
-0.10343678735928108   -0.1094813984309441   0.007467138259509509
-0.10343678735928108   -0.1094813984309441   0.007467138259509509
-0.10343678735928108   -0.1094813984309441   0.007467138259509509
-0.2850152423867748   -0.043665180665138616   0.008582656687531326
-0.2850152423867748   -0.043665180665138616   0.008582656687531326
-0.2850152423867748   -0.043665180665138616   0.008582656687531326
-0.2850152423867748   -0.043665180665138616   0.008582656687531326
-0.7046825460374143   -0.34290655557388794   -0.015311512313533435
-0.7046825460374143   -0.34290655557388794   -0.015311512313533435
-0.7046825460374143   -0.34290655557388794   -0.015311512313533435
-0.7046825460374143   -0.34290655557388794   -0.015311512313533435
-0.6406875531418157   -0.11298710455306035   -0.019299998260402663
-0.6406875531418157   -0.11298710455306035   -0.019299998260402663
-0.6406875531418157   -0.11298710455306035   -0.019299998260402663
-0.6406875531418157   -0.11298710455306035   -0.019299998260402663
-0.3182226890607184   -0.2853339219206988   0.0061264512709808955
-0.3182226890607184   -0.2853339219206988   0.0061264512709808955
-0.3182226890607184   -0.2853339219206988   0.0061264512709808955
-0.3182226890607184   -0.2853339219206988   0.0061264512709808955
-0.48663372699277824   -0.20290135286744904   -0.027319708656826504
-0.48663372699277824   -0.20290135286744904   -0.027319708656826504
-0.48663372699277824   -0.20290135286744904   -0.027319708656826504
-0.48663372699277824   -0.20290135286744904   -0.027319708656826504
-0.2673245759004101   -0.03283157535194497   0.008114670503768734
-0.2673245759004101   -0.03283157535194497   0.008114670503768734
-0.2673245759004101   -0.03283157535194497   0.008114670503768734
-0.2673245759004101   -0.03283157535194497   0.008114670503768734
-0.6898170075124651   -0.36372079233215016   -0.014213582334560042
-0.6898170075124651   -0.36372079233215016   -0.014213582334560042
-0.6898170075124651   -0.36372079233215016   -0.014213582334560042
-0.6898170075124651   -0.36372079233215016   -0.014213582334560042
-0.6206145350041193   -0.1022704460236202   -0.01971354586783984
-0.6206145350041193   -0.1022704460236202   -0.01971354586783984
-0.6206145350041193   -0.1022704460236202   -0.01971354586783984
-0.6206145350041193   -0.1022704460236202   -0.01971354586783984
-0.30360775435297455   -0.2828309117036181   0.009274278681315688
-0.30360775435297455   -0.2828309117036181   0.009274278681315688
-0.30360775435297455   -0.2828309117036181   0.009274278681315688
-0.30360775435297455   -0.2828309117036181   0.009274278681315688
-0.4654118152285258   -0.19710367263571651   -0.01873220443624647
-0.4654118152285258   -0.19710367263571651   -0.01873220443624647
-0.4654118152285258   -0.19710367263571651   -0.01873220443624647
-0.4654118152285258   -0.19710367263571651   -0.01873220443624647
-0.2532085346570195   -0.024298869740948175   0.0027383351984203172
-0.2532085346570195   -0.024298869740948175   0.0027383351984203172
-0.2532085346570195   -0.024298869740948175   0.0027383351984203172
-0.2532085346570195   -0.024298869740948175   0.0027383351984203172
-0.6708272370038627   -0.36061597029007253   -0.012431531600099043
-0.6708272370038627   -0.36061597029007253   -0.012431531600099043
-0.6708272370038627   -0.36061597029007253   -0.012431531600099043
-0.6708272370038627   -0.36061597029007253   -0.012431531600099043
-0.589207840296443   -0.09081687024165203   -0.02236257307688897
-0.589207840296443   -0.09081687024165203   -0.02236257307688897
-0.589207840296443   -0.09081687024165203   -0.02236257307688897
-0.589207840296443   -0.09081687024165203   -0.02236257307688897
-0.27197334671597184   -0.2533242296136638   0.02152492927177617
-0.27197334671597184   -0.2533242296136638   0.02152492927177617
-0.27197334671597184   -0.2533242296136638   0.02152492927177617
-0.27197334671597184   -0.2533242296136638   0.02152492927177617
-0.44187362781648054   -0.17809148208106956   -0.009886396989728336
-0.44187362781648054   -0.17809148208106956   -0.009886396989728336
-0.44187362781648054   -0.17809148208106956   -0.009886396989728336
-0.44187362781648054   -0.17809148208106956   -0.009886396989728336
-0.6414292394487873   -0.037583850277584444   -0.004367684666701812
-0.6414292394487873   -0.037583850277584444   -0.004367684666701812
-0.6414292394487873   -0.037583850277584444   -0.004367684666701812
-0.6414292394487873   -0.037583850277584444   -0.004367684666701812
-1.1278046813446923   -0.2232470280893849   0.011569540897767683
-1.1278046813446923   -0.2232470280893849   0.011569540897767683
-1.1278046813446923   -0.2232470280893849   0.011569540897767683
-1.1278046813446923   -0.2232470280893849   0.011569540897767683
-1.0840019675384165   -0.10624390696004635   -0.02329962470551908
-1.0840019675384165   -0.10624390696004635   -0.02329962470551908
-1.0840019675384165   -0.10624390696004635   -0.02329962470551908
-1.0840019675384165   -0.10624390696004635   -0.02329962470551908
-0.6285317284188223   -0.11667328460288745   0.04516530540438507
-0.6285317284188223   -0.11667328460288745   0.04516530540438507
-0.6285317284188223   -0.11667328460288745   0.04516530540438507
-0.6285317284188223   -0.11667328460288745   0.04516530540438507
-0.8352765171244212   -0.12914645624818857   0.011415382766532376
-0.8352765171244212   -0.12914645624818857   0.011415382766532376
-0.8352765171244212   -0.12914645624818857   0.011415382766532376
-0.8352765171244212   -0.12914645624818857   0.011415382766532376
-0.6157890745805678   -0.007916954524017555   0.00012224451679120063
-0.6157890745805678   -0.007916954524017555   0.00012224451679120063
-0.6157890745805678   -0.007916954524017555   0.00012224451679120063
-0.6157890745805678   -0.007916954524017555   0.00012224451679120063
-1.100794961015078   -0.2190505766773267   0.005542077628444719
-1.100794961015078   -0.2190505766773267   0.005542077628444719
-1.100794961015078   -0.2190505766773267   0.005542077628444719
-1.100794961015078   -0.2190505766773267   0.005542077628444719
-1.0602410089399104   -0.09740495261459076   -0.029592319225442712
-1.0602410089399104   -0.09740495261459076   -0.029592319225442712
-1.0602410089399104   -0.09740495261459076   -0.029592319225442712
-1.0602410089399104   -0.09740495261459076   -0.029592319225442712
-0.6078824913524862   -0.11103437749762922   0.05271060386434012
-0.6078824913524862   -0.11103437749762922   0.05271060386434012
-0.6078824913524862   -0.11103437749762922   0.05271060386434012
-0.6078824913524862   -0.11103437749762922   0.05271060386434012
-0.8230433764392812   -0.10649525831192197   0.011101639141680414
-0.8230433764392812   -0.10649525831192197   0.011101639141680414
-0.8230433764392812   -0.10649525831192197   0.011101639141680414
-0.8230433764392812   -0.10649525831192197   0.011101639141680414
-0.5974074623483612   -9.125431143511276e-05   -0.005857374301229033
-0.5974074623483612   -9.125431143511276e-05   -0.005857374301229033
-0.5974074623483612   -9.125431143511276e-05   -0.005857374301229033
-0.5974074623483612   -9.125431143511276e-05   -0.005857374301229033
-1.0720952837934943   -0.2097273216502429   0.02345867554227976
-1.0720952837934943   -0.2097273216502429   0.02345867554227976
-1.0720952837934943   -0.2097273216502429   0.02345867554227976
-1.0720952837934943   -0.2097273216502429   0.02345867554227976
-1.0108621251004932   -0.07929262305873627   -0.03324455863210716
-1.0108621251004932   -0.07929262305873627   -0.03324455863210716
-1.0108621251004932   -0.07929262305873627   -0.03324455863210716
-1.0108621251004932   -0.07929262305873627   -0.03324455863210716
-0.5756751935200707   -0.10353190049279097   0.05801569105611587
-0.5756751935200707   -0.10353190049279097   0.05801569105611587
-0.5756751935200707   -0.10353190049279097   0.05801569105611587
-0.5756751935200707   -0.10353190049279097   0.05801569105611587
-0.7747088838784375   -0.08151031870905978   0.023282883045390203
-0.7747088838784375   -0.08151031870905978   0.023282883045390203
-0.7747088838784375   -0.08151031870905978   0.023282883045390203
-0.7747088838784375   -0.08151031870905978   0.023282883045390203
0.8091397668882779   0.02732361755024193   0.011214342600243267
0.8091397668882779   0.02732361755024193   0.011214342600243267
0.8091397668882779   0.02732361755024193   0.011214342600243267
0.8091397668882779   0.02732361755024193   0.011214342600243267
0.4119239511510938   -0.022201553853031283   0.007922931584729741
0.4119239511510938   -0.022201553853031283   0.007922931584729741
0.4119239511510938   -0.022201553853031283   0.007922931584729741
0.4119239511510938   -0.022201553853031283   0.007922931584729741
0.3962130966008274   -0.057725154607577184   0.016015159919812075
0.3962130966008274   -0.057725154607577184   0.016015159919812075
0.3962130966008274   -0.057725154607577184   0.016015159919812075
0.3962130966008274   -0.057725154607577184   0.016015159919812075
0.8033154319439242   0.04520372019714647   0.005613825437494412
0.8033154319439242   0.04520372019714647   0.005613825437494412
0.8033154319439242   0.04520372019714647   0.005613825437494412
0.8033154319439242   0.04520372019714647   0.005613825437494412
0.5729039121346293   -0.007924686535279307   -0.0212272844358192
0.5729039121346293   -0.007924686535279307   -0.0212272844358192
0.5729039121346293   -0.007924686535279307   -0.0212272844358192
0.5729039121346293   -0.007924686535279307   -0.0212272844358192
0.7991315651819207   0.02136262457466989   0.008535587249954152
0.7991315651819207   0.02136262457466989   0.008535587249954152
0.7991315651819207   0.02136262457466989   0.008535587249954152
0.7991315651819207   0.02136262457466989   0.008535587249954152
0.39913303069456224   -0.03514799165336917   0.008037667434278147
0.39913303069456224   -0.03514799165336917   0.008037667434278147
0.39913303069456224   -0.03514799165336917   0.008037667434278147
0.39913303069456224   -0.03514799165336917   0.008037667434278147
0.3861310457501996   -0.058981380656887974   0.013206751324524917
0.3861310457501996   -0.058981380656887974   0.013206751324524917
0.3861310457501996   -0.058981380656887974   0.013206751324524917
0.3861310457501996   -0.058981380656887974   0.013206751324524917
0.7941529624027512   0.04333676941989123   0.00992919211092732
0.7941529624027512   0.04333676941989123   0.00992919211092732
0.7941529624027512   0.04333676941989123   0.00992919211092732
0.7941529624027512   0.04333676941989123   0.00992919211092732
0.5714826979495179   -0.010916625126338078   -0.024384993793936625
0.5714826979495179   -0.010916625126338078   -0.024384993793936625
0.5714826979495179   -0.010916625126338078   -0.024384993793936625
0.5714826979495179   -0.010916625126338078   -0.024384993793936625
0.7878509586469419   0.019227033506595242   0.002528909245167993
0.7878509586469419   0.019227033506595242   0.002528909245167993
0.7878509586469419   0.019227033506595242   0.002528909245167993
0.7878509586469419   0.019227033506595242   0.002528909245167993
0.3901358928272728   -0.037168801422324385   0.011418407475327581
0.3901358928272728   -0.037168801422324385   0.011418407475327581
0.3901358928272728   -0.037168801422324385   0.011418407475327581
0.3901358928272728   -0.037168801422324385   0.011418407475327581
0.37553142397067585   -0.053585466093181974   0.011408895895480803
0.37553142397067585   -0.053585466093181974   0.011408895895480803
0.37553142397067585   -0.053585466093181974   0.011408895895480803
0.37553142397067585   -0.053585466093181974   0.011408895895480803
0.7800761554982268   0.04408259837640682   0.01445024292519613
0.7800761554982268   0.04408259837640682   0.01445024292519613
0.7800761554982268   0.04408259837640682   0.01445024292519613
0.7800761554982268   0.04408259837640682   0.01445024292519613
0.5502844088771057   -0.010899983010029757   -0.032756205206888704
0.5502844088771057   -0.010899983010029757   -0.032756205206888704
0.5502844088771057   -0.010899983010029757   -0.032756205206888704
0.5502844088771057   -0.010899983010029757   -0.032756205206888704
0.4089379322691956   -0.04942822887732795   0.020219512199535564
0.4089379322691956   -0.04942822887732795   0.020219512199535564
0.4089379322691956   -0.04942822887732795   0.020219512199535564
0.4089379322691956   -0.04942822887732795   0.020219512199535564
0.07650001791372218   -0.048640863670155354   0.003968434310997557
0.07650001791372218   -0.048640863670155354   0.003968434310997557
0.07650001791372218   -0.048640863670155354   0.003968434310997557
0.07650001791372218   -0.048640863670155354   0.003968434310997557
0.04937433580078348   -0.12039154522994625   0.02097623066740021
0.04937433580078348   -0.12039154522994625   0.02097623066740021
0.04937433580078348   -0.12039154522994625   0.02097623066740021
0.04937433580078348   -0.12039154522994625   0.02097623066740021
0.41100067972660326   0.01670777739223009   0.015520143548883904
0.41100067972660326   0.01670777739223009   0.015520143548883904
0.41100067972660326   0.01670777739223009   0.015520143548883904
0.41100067972660326   0.01670777739223009   0.015520143548883904
0.23280510798523565   -0.05064687850110708   -0.000953518310493947
0.23280510798523565   -0.05064687850110708   -0.000953518310493947
0.23280510798523565   -0.05064687850110708   -0.000953518310493947
0.23280510798523565   -0.05064687850110708   -0.000953518310493947
0.3976487616488358   -0.05153186673612892   0.01700019728840378
0.3976487616488358   -0.05153186673612892   0.01700019728840378
0.3976487616488358   -0.05153186673612892   0.01700019728840378
0.3976487616488358   -0.05153186673612892   0.01700019728840378
0.05934722404144321   -0.055530930938690146   0.0059800575794427754
0.05934722404144321   -0.055530930938690146   0.0059800575794427754
0.05934722404144321   -0.055530930938690146   0.0059800575794427754
0.05934722404144321   -0.055530930938690146   0.0059800575794427754
0.03717571799331295   -0.12132894924551668   0.018761588751498505
0.03717571799331295   -0.12132894924551668   0.018761588751498505
0.03717571799331295   -0.12132894924551668   0.018761588751498505
0.03717571799331295   -0.12132894924551668   0.018761588751498505
0.401708811187392   0.013776479991734092   0.01833771786186474
0.401708811187392   0.013776479991734092   0.01833771786186474
0.401708811187392   0.013776479991734092   0.01833771786186474
0.401708811187392   0.013776479991734092   0.01833771786186474
0.2161917705005651   -0.05393263657864695   -0.011015591129733646
0.2161917705005651   -0.05393263657864695   -0.011015591129733646
0.2161917705005651   -0.05393263657864695   -0.011015591129733646
0.2161917705005651   -0.05393263657864695   -0.011015591129733646
0.38767977227560796   -0.0521555462336904   0.014124549528365539
0.38767977227560796   -0.0521555462336904   0.014124549528365539
0.38767977227560796   -0.0521555462336904   0.014124549528365539
0.38767977227560796   -0.0521555462336904   0.014124549528365539
0.04752672058568763   -0.059074959339507224   0.008262611807362489
0.04752672058568763   -0.059074959339507224   0.008262611807362489
0.04752672058568763   -0.059074959339507224   0.008262611807362489
0.04752672058568763   -0.059074959339507224   0.008262611807362489
0.023538944083014803   -0.1210902244201111   0.014615372256074198
0.023538944083014803   -0.1210902244201111   0.014615372256074198
0.023538944083014803   -0.1210902244201111   0.014615372256074198
0.023538944083014803   -0.1210902244201111   0.014615372256074198
0.39116294410053876   0.014102877030975847   0.02187815342064062
0.39116294410053876   0.014102877030975847   0.02187815342064062
0.39116294410053876   0.014102877030975847   0.02187815342064062
0.39116294410053876   0.014102877030975847   0.02187815342064062
0.20613664460734935   -0.053369465057663976   -0.01953444737911567
0.20613664460734935   -0.053369465057663976   -0.01953444737911567
0.20613664460734935   -0.053369465057663976   -0.01953444737911567
0.20613664460734935   -0.053369465057663976   -0.01953444737911567
0.059941574919839716   -0.1455271932214757   0.018062548892905567
0.059941574919839716   -0.1455271932214757   0.018062548892905567
0.059941574919839716   -0.1455271932214757   0.018062548892905567
0.059941574919839716   -0.1455271932214757   0.018062548892905567
-0.24616986546444217   -0.0750526146291057   -3.7309543316177765e-05
-0.24616986546444217   -0.0750526146291057   -3.7309543316177765e-05
-0.24616986546444217   -0.0750526146291057   -3.7309543316177765e-05
-0.24616986546444217   -0.0750526146291057   -3.7309543316177765e-05
-0.29524084598305245   -0.21877354441233102   0.024034895388187844
-0.29524084598305245   -0.21877354441233102   0.024034895388187844
-0.29524084598305245   -0.21877354441233102   0.024034895388187844
-0.29524084598305245   -0.21877354441233102   0.024034895388187844
0.06894883143533757   -0.01144100511593939   0.00989816872616383
0.06894883143533757   -0.01144100511593939   0.00989816872616383
0.06894883143533757   -0.01144100511593939   0.00989816872616383
0.06894883143533757   -0.01144100511593939   0.00989816872616383
-0.10180791925610116   -0.11110095607268224   0.004244647306907122
-0.10180791925610116   -0.11110095607268224   0.004244647306907122
-0.10180791925610116   -0.11110095607268224   0.004244647306907122
-0.10180791925610116   -0.11110095607268224   0.004244647306907122
0.04113596543382168   -0.1536888287383822   0.013081662341027152
0.04113596543382168   -0.1536888287383822   0.013081662341027152
0.04113596543382168   -0.1536888287383822   0.013081662341027152
0.04113596543382168   -0.1536888287383822   0.013081662341027152
-0.2721842990911822   -0.08128203989952908   0.0018261253347351784
-0.2721842990911822   -0.08128203989952908   0.0018261253347351784
-0.2721842990911822   -0.08128203989952908   0.0018261253347351784
-0.2721842990911822   -0.08128203989952908   0.0018261253347351784
-0.31218348844509924   -0.2220649850900703   0.019712317185600715
-0.31218348844509924   -0.2220649850900703   0.019712317185600715
-0.31218348844509924   -0.2220649850900703   0.019712317185600715
-0.31218348844509924   -0.2220649850900703   0.019712317185600715
0.05750765401181117   -0.014688341802317866   0.013780661400790824
0.05750765401181117   -0.014688341802317866   0.013780661400790824
0.05750765401181117   -0.014688341802317866   0.013780661400790824
0.05750765401181117   -0.014688341802317866   0.013780661400790824
-0.12300501226260299   -0.11772796506375038   -0.009881547489972893
-0.12300501226260299   -0.11772796506375038   -0.009881547489972893
-0.12300501226260299   -0.11772796506375038   -0.009881547489972893
-0.12300501226260299   -0.11772796506375038   -0.009881547489972893
0.028142121626052292   -0.1562411624825202   0.008505820152199674
0.028142121626052292   -0.1562411624825202   0.008505820152199674
0.028142121626052292   -0.1562411624825202   0.008505820152199674
0.028142121626052292   -0.1562411624825202   0.008505820152199674
-0.28851679136382463   -0.08621099971435242   0.002191817216253847
-0.28851679136382463   -0.08621099971435242   0.002191817216253847
-0.28851679136382463   -0.08621099971435242   0.002191817216253847
-0.28851679136382463   -0.08621099971435242   0.002191817216253847
-0.33060210525589456   -0.22045619570908745   0.016372784344706882
-0.33060210525589456   -0.22045619570908745   0.016372784344706882
-0.33060210525589456   -0.22045619570908745   0.016372784344706882
-0.33060210525589456   -0.22045619570908745   0.016372784344706882
0.044791238127940974   -0.016453240935933887   0.01623985899652782
0.044791238127940974   -0.016453240935933887   0.01623985899652782
0.044791238127940974   -0.016453240935933887   0.01623985899652782
0.044791238127940974   -0.016453240935933887   0.01623985899652782
-0.14024642125412065   -0.12019350579721612   -0.024080840983041415
-0.14024642125412065   -0.12019350579721612   -0.024080840983041415
-0.14024642125412065   -0.12019350579721612   -0.024080840983041415
-0.14024642125412065   -0.12019350579721612   -0.024080840983041415
-0.2768548591545183   -0.24998474521596864   0.021469852593167152
-0.2768548591545183   -0.24998474521596864   0.021469852593167152
-0.2768548591545183   -0.24998474521596864   0.021469852593167152
-0.2768548591545183   -0.24998474521596864   0.021469852593167152
-0.6115268709025705   -0.09330919941342974   -0.013945515698030903
-0.6115268709025705   -0.09330919941342974   -0.013945515698030903
-0.6115268709025705   -0.09330919941342974   -0.013945515698030903
-0.6115268709025705   -0.09330919941342974   -0.013945515698030903
-0.6974040371233411   -0.3660941475735433   -0.01849332893064986
-0.6974040371233411   -0.3660941475735433   -0.01849332893064986
-0.6974040371233411   -0.3660941475735433   -0.01849332893064986
-0.6974040371233411   -0.3660941475735433   -0.01849332893064986
-0.25853103751285306   -0.019742154704975673   0.008552548031827659
-0.25853103751285306   -0.019742154704975673   0.008552548031827659
-0.25853103751285306   -0.019742154704975673   0.008552548031827659
-0.25853103751285306   -0.019742154704975673   0.008552548031827659
-0.45658512570126125   -0.17495593641779106   -0.014476380994507973
-0.45658512570126125   -0.17495593641779106   -0.014476380994507973
-0.45658512570126125   -0.17495593641779106   -0.014476380994507973
-0.45658512570126125   -0.17495593641779106   -0.014476380994507973
-0.311534757550835   -0.28371938937126945   0.007511182508213539
-0.311534757550835   -0.28371938937126945   0.007511182508213539
-0.311534757550835   -0.28371938937126945   0.007511182508213539
-0.311534757550835   -0.28371938937126945   0.007511182508213539
-0.6431530271266005   -0.10086962294849061   -0.012462803571999567
-0.6431530271266005   -0.10086962294849061   -0.012462803571999567
-0.6431530271266005   -0.10086962294849061   -0.012462803571999567
-0.6431530271266005   -0.10086962294849061   -0.012462803571999567
-0.717611270891634   -0.37176263130874976   -0.021380802805713743
-0.717611270891634   -0.37176263130874976   -0.021380802805713743
-0.717611270891634   -0.37176263130874976   -0.021380802805713743
-0.717611270891634   -0.37176263130874976   -0.021380802805713743
-0.2742101030926762   -0.025135928047248762   0.012650186904892443
-0.2742101030926762   -0.025135928047248762   0.012650186904892443
-0.2742101030926762   -0.025135928047248762   0.012650186904892443
-0.2742101030926762   -0.025135928047248762   0.012650186904892443
-0.4813414640128818   -0.19409994312326323   -0.021011328072160478
-0.4813414640128818   -0.19409994312326323   -0.021011328072160478
-0.4813414640128818   -0.19409994312326323   -0.021011328072160478
-0.4813414640128818   -0.19409994312326323   -0.021011328072160478
-0.32895321985788956   -0.28916260461212423   0.002961279643700139
-0.32895321985788956   -0.28916260461212423   0.002961279643700139
-0.32895321985788956   -0.28916260461212423   0.002961279643700139
-0.32895321985788956   -0.28916260461212423   0.002961279643700139
-0.6631361226154378   -0.10800392323289766   -0.012763769500590525
-0.6631361226154378   -0.10800392323289766   -0.012763769500590525
-0.6631361226154378   -0.10800392323289766   -0.012763769500590525
-0.6631361226154378   -0.10800392323289766   -0.012763769500590525
-0.7347791662430988   -0.35501054588690706   -0.024100832567313157
-0.7347791662430988   -0.35501054588690706   -0.024100832567313157
-0.7347791662430988   -0.35501054588690706   -0.024100832567313157
-0.7347791662430988   -0.35501054588690706   -0.024100832567313157
-0.29398490111590975   -0.03278148822764047   0.011784097563179208
-0.29398490111590975   -0.03278148822764047   0.011784097563179208
-0.29398490111590975   -0.03278148822764047   0.011784097563179208
-0.29398490111590975   -0.03278148822764047   0.011784097563179208
-0.5042770831687906   -0.20053149492986355   -0.02736710554489262
-0.5042770831687906   -0.20053149492986355   -0.02736710554489262
-0.5042770831687906   -0.20053149492986355   -0.02736710554489262
-0.5042770831687906   -0.20053149492986355   -0.02736710554489262
-0.6016937231978833   -0.10996378329765284   0.051874806709619053
-0.6016937231978833   -0.10996378329765284   0.051874806709619053
-0.6016937231978833   -0.10996378329765284   0.051874806709619053
-0.6016937231978833   -0.10996378329765284   0.051874806709619053
-1.0538003292794131   -0.07818787371609628   -0.018092353319599512
-1.0538003292794131   -0.07818787371609628   -0.018092353319599512
-1.0538003292794131   -0.07818787371609628   -0.018092353319599512
-1.0538003292794131   -0.07818787371609628   -0.018092353319599512
-1.1174041092203124   -0.22064688505828994   0.014169683928862642
-1.1174041092203124   -0.22064688505828994   0.014169683928862642
-1.1174041092203124   -0.22064688505828994   0.014169683928862642
-1.1174041092203124   -0.22064688505828994   0.014169683928862642
-0.6175084094723341   0.009475537733445366   0.0054151240173912
-0.6175084094723341   0.009475537733445366   0.0054151240173912
-0.6175084094723341   0.009475537733445366   0.0054151240173912
-0.6175084094723341   0.009475537733445366   0.0054151240173912
-0.8072481788413464   -0.07746392618775234   0.016087745094503312
-0.8072481788413464   -0.07746392618775234   0.016087745094503312
-0.8072481788413464   -0.07746392618775234   0.016087745094503312
-0.8072481788413464   -0.07746392618775234   0.016087745094503312
-0.6348478304599001   -0.11777571227448279   0.04596926908748622
-0.6348478304599001   -0.11777571227448279   0.04596926908748622
-0.6348478304599001   -0.11777571227448279   0.04596926908748622
-0.6348478304599001   -0.11777571227448279   0.04596926908748622
-1.0973921766550752   -0.0907231234726896   -0.01569441483054248
-1.0973921766550752   -0.0907231234726896   -0.01569441483054248
-1.0973921766550752   -0.0907231234726896   -0.01569441483054248
-1.0973921766550752   -0.0907231234726896   -0.01569441483054248
-1.144019919562883   -0.22985681631427796   -0.0052641620085065455
-1.144019919562883   -0.22985681631427796   -0.0052641620085065455
-1.144019919562883   -0.22985681631427796   -0.0052641620085065455
-1.144019919562883   -0.22985681631427796   -0.0052641620085065455
-0.6363639772034385   0.003353419436814248   0.00973961488969359
-0.6363639772034385   0.003353419436814248   0.00973961488969359
-0.6363639772034385   0.003353419436814248   0.00973961488969359
-0.6363639772034385   0.003353419436814248   0.00973961488969359
-0.8546653781465661   -0.10206922441103522   0.006493766428613344
-0.8546653781465661   -0.10206922441103522   0.006493766428613344
-0.8546653781465661   -0.10206922441103522   0.006493766428613344
-0.8546653781465661   -0.10206922441103522   0.006493766428613344
-0.6561314517822979   -0.12364596505834786   0.03790162649055864
-0.6561314517822979   -0.12364596505834786   0.03790162649055864
-0.6561314517822979   -0.12364596505834786   0.03790162649055864
-0.6561314517822979   -0.12364596505834786   0.03790162649055864
-1.1187656993080308   -0.09737068614311473   -0.011479190905389791
-1.1187656993080308   -0.09737068614311473   -0.011479190905389791
-1.1187656993080308   -0.09737068614311473   -0.011479190905389791
-1.1187656993080308   -0.09737068614311473   -0.011479190905389791
-1.1668026871487993   -0.23340417248906917   -0.0002181752965464967
-1.1668026871487993   -0.23340417248906917   -0.0002181752965464967
-1.1668026871487993   -0.23340417248906917   -0.0002181752965464967
-1.1668026871487993   -0.23340417248906917   -0.0002181752965464967
-0.6629176462757307   -0.023903740859425274   0.0040999622420455455
-0.6629176462757307   -0.023903740859425274   0.0040999622420455455
-0.6629176462757307   -0.023903740859425274   0.0040999622420455455
-0.6629176462757307   -0.023903740859425274   0.0040999622420455455
-0.8644652395787966   -0.12309563063931778   0.010204655113301856
-0.8644652395787966   -0.12309563063931778   0.010204655113301856
-0.8644652395787966   -0.12309563063931778   0.010204655113301856
-0.8644652395787966   -0.12309563063931778   0.010204655113301856
0.7120108095227692   0.033222565507421545   -0.015043329984681556
0.7120108095227692   0.033222565507421545   -0.015043329984681556
0.7120108095227692   0.033222565507421545   -0.015043329984681556
0.7120108095227692   0.033222565507421545   -0.015043329984681556
0.357429172340496   -0.00779673571718921   0.007228598135241647
0.357429172340496   -0.00779673571718921   0.007228598135241647
0.357429172340496   -0.00779673571718921   0.007228598135241647
0.357429172340496   -0.00779673571718921   0.007228598135241647
0.3351767506248046   -0.052233354900160955   -0.013432868729953841
0.3351767506248046   -0.052233354900160955   -0.013432868729953841
0.3351767506248046   -0.052233354900160955   -0.013432868729953841
0.3351767506248046   -0.052233354900160955   -0.013432868729953841
0.7039013683134656   0.05115056322746746   0.008457273552805598
0.7039013683134656   0.05115056322746746   0.008457273552805598
0.7039013683134656   0.05115056322746746   0.008457273552805598
0.7039013683134656   0.05115056322746746   0.008457273552805598
0.4995024938672758   0.0012371312479913243   -0.019279591924106457
0.4995024938672758   0.0012371312479913243   -0.019279591924106457
0.4995024938672758   0.0012371312479913243   -0.019279591924106457
0.4995024938672758   0.0012371312479913243   -0.019279591924106457
0.6927134217491407   0.018911811552023428   -0.01524370759336812
0.6927134217491407   0.018911811552023428   -0.01524370759336812
0.6927134217491407   0.018911811552023428   -0.01524370759336812
0.6927134217491407   0.018911811552023428   -0.01524370759336812
0.3457574176392598   -0.02060188277458598   0.007838994216744128
0.3457574176392598   -0.02060188277458598   0.007838994216744128
0.3457574176392598   -0.02060188277458598   0.007838994216744128
0.3457574176392598   -0.02060188277458598   0.007838994216744128
0.3231746355005945   -0.05507251774738946   -0.01113891682331946
0.3231746355005945   -0.05507251774738946   -0.01113891682331946
0.3231746355005945   -0.05507251774738946   -0.01113891682331946
0.3231746355005945   -0.05507251774738946   -0.01113891682331946
0.6872701760946874   0.04709483622163366   0.012472093460305957
0.6872701760946874   0.04709483622163366   0.012472093460305957
0.6872701760946874   0.04709483622163366   0.012472093460305957
0.6872701760946874   0.04709483622163366   0.012472093460305957
0.49317469846210316   -0.0048421502131580085   -0.022854110487134774
0.49317469846210316   -0.0048421502131580085   -0.022854110487134774
0.49317469846210316   -0.0048421502131580085   -0.022854110487134774
0.49317469846210316   -0.0048421502131580085   -0.022854110487134774
0.6759905531390619   0.015293510104775254   -0.012124695200963188
0.6759905531390619   0.015293510104775254   -0.012124695200963188
0.6759905531390619   0.015293510104775254   -0.012124695200963188
0.6759905531390619   0.015293510104775254   -0.012124695200963188
0.3335951691650073   -0.02413028092174377   0.010021514673098898
0.3335951691650073   -0.02413028092174377   0.010021514673098898
0.3335951691650073   -0.02413028092174377   0.010021514673098898
0.3335951691650073   -0.02413028092174377   0.010021514673098898
0.31158244197439056   -0.054039476453704605   -0.007666417701524722
0.31158244197439056   -0.054039476453704605   -0.007666417701524722
0.31158244197439056   -0.054039476453704605   -0.007666417701524722
0.31158244197439056   -0.054039476453704605   -0.007666417701524722
0.6667075455473562   0.044528435895174134   0.016331395753986427
0.6667075455473562   0.044528435895174134   0.016331395753986427
0.6667075455473562   0.044528435895174134   0.016331395753986427
0.6667075455473562   0.044528435895174134   0.016331395753986427
0.46916406871103755   -0.008404876834381889   -0.029915142485775727
0.46916406871103755   -0.008404876834381889   -0.029915142485775727
0.46916406871103755   -0.008404876834381889   -0.029915142485775727
0.46916406871103755   -0.008404876834381889   -0.029915142485775727
0.35983752706598954   0.00793973208933503   0.0035339039561821453
0.35983752706598954   0.00793973208933503   0.0035339039561821453
0.35983752706598954   0.00793973208933503   0.0035339039561821453
0.35983752706598954   0.00793973208933503   0.0035339039561821453
0.032867299871425504   -0.021885042127866287   -0.0010111278648571144
0.032867299871425504   -0.021885042127866287   -0.0010111278648571144
0.032867299871425504   -0.021885042127866287   -0.0010111278648571144
0.032867299871425504   -0.021885042127866287   -0.0010111278648571144
0.011893642221012166   -0.06881520045559124   -0.012987708184631623
0.011893642221012166   -0.06881520045559124   -0.012987708184631623
0.011893642221012166   -0.06881520045559124   -0.012987708184631623
0.011893642221012166   -0.06881520045559124   -0.012987708184631623
0.3601762741931941   0.041661690468842216   0.017669703742987555
0.3601762741931941   0.041661690468842216   0.017669703742987555
0.3601762741931941   0.041661690468842216   0.017669703742987555
0.3601762741931941   0.041661690468842216   0.017669703742987555
0.1876884973189799   -0.009396642514536292   -0.00730536883336182
0.1876884973189799   -0.009396642514536292   -0.00730536883336182
0.1876884973189799   -0.009396642514536292   -0.00730536883336182
0.1876884973189799   -0.009396642514536292   -0.00730536883336182
0.3499678482684676   0.002545862757054984   0.005743401831144045
0.3499678482684676   0.002545862757054984   0.005743401831144045
0.3499678482684676   0.002545862757054984   0.005743401831144045
0.3499678482684676   0.002545862757054984   0.005743401831144045
0.022501331520584693   -0.02930010936895769   0.0005356472265974702
0.022501331520584693   -0.02930010936895769   0.0005356472265974702
0.022501331520584693   -0.02930010936895769   0.0005356472265974702
0.022501331520584693   -0.02930010936895769   0.0005356472265974702
0.0003200926198072898   -0.07199233728915111   -0.009117649974976601
0.0003200926198072898   -0.07199233728915111   -0.009117649974976601
0.0003200926198072898   -0.07199233728915111   -0.009117649974976601
0.0003200926198072898   -0.07199233728915111   -0.009117649974976601
0.3474774722130848   0.035832806087763396   0.019469942903979
0.3474774722130848   0.035832806087763396   0.019469942903979
0.3474774722130848   0.035832806087763396   0.019469942903979
0.3474774722130848   0.035832806087763396   0.019469942903979
0.17430990056759235   -0.014788566250813269   -0.010340798856171353
0.17430990056759235   -0.014788566250813269   -0.010340798856171353
0.17430990056759235   -0.014788566250813269   -0.010340798856171353
0.17430990056759235   -0.014788566250813269   -0.010340798856171353
0.33784995917643434   -0.0010248310176097924   0.00819001482610299
0.33784995917643434   -0.0010248310176097924   0.00819001482610299
0.33784995917643434   -0.0010248310176097924   0.00819001482610299
0.33784995917643434   -0.0010248310176097924   0.00819001482610299
0.009899901871733717   -0.03518240396850143   0.00197146296400587
0.009899901871733717   -0.03518240396850143   0.00197146296400587
0.009899901871733717   -0.03518240396850143   0.00197146296400587
0.009899901871733717   -0.03518240396850143   0.00197146296400587
-0.012085452259886047   -0.07217854073333466   -0.006280539040517737
-0.012085452259886047   -0.07217854073333466   -0.006280539040517737
-0.012085452259886047   -0.07217854073333466   -0.006280539040517737
-0.012085452259886047   -0.07217854073333466   -0.006280539040517737
0.33466261164945427   0.032194912388128126   0.021500041831962857
0.33466261164945427   0.032194912388128126   0.021500041831962857
0.33466261164945427   0.032194912388128126   0.021500041831962857
0.33466261164945427   0.032194912388128126   0.021500041831962857
0.16395048811600552   -0.016843545835741797   -0.012909544075976533
0.16395048811600552   -0.016843545835741797   -0.012909544075976533
0.16395048811600552   -0.016843545835741797   -0.012909544075976533
0.16395048811600552   -0.016843545835741797   -0.012909544075976533
0.03399209980961605   -0.01872266143831585   0.0014504911365442316
0.03399209980961605   -0.01872266143831585   0.0014504911365442316
0.03399209980961605   -0.01872266143831585   0.0014504911365442316
0.03399209980961605   -0.01872266143831585   0.0014504911365442316
-0.28106108226283594   -0.032365991541703554   -0.008809813399537923
-0.28106108226283594   -0.032365991541703554   -0.008809813399537923
-0.28106108226283594   -0.032365991541703554   -0.008809813399537923
-0.28106108226283594   -0.032365991541703554   -0.008809813399537923
-0.30438028501759157   -0.09106274610143415   -0.014881419748411555
-0.30438028501759157   -0.09106274610143415   -0.014881419748411555
-0.30438028501759157   -0.09106274610143415   -0.014881419748411555
-0.30438028501759157   -0.09106274610143415   -0.014881419748411555
0.03643532704481775   0.03068835790284205   0.010217157575963002
0.03643532704481775   0.03068835790284205   0.010217157575963002
0.03643532704481775   0.03068835790284205   0.010217157575963002
0.03643532704481775   0.03068835790284205   0.010217157575963002
-0.1291113378410465   -0.0265377712632351   -0.007209540274800379
-0.1291113378410465   -0.0265377712632351   -0.007209540274800379
-0.1291113378410465   -0.0265377712632351   -0.007209540274800379
-0.1291113378410465   -0.0265377712632351   -0.007209540274800379
0.025284247113023982   -0.02093627713471807   0.0060863929545533465
0.025284247113023982   -0.02093627713471807   0.0060863929545533465
0.025284247113023982   -0.02093627713471807   0.0060863929545533465
0.025284247113023982   -0.02093627713471807   0.0060863929545533465
-0.292364780900799   -0.03857368687887797   -0.007292958387005026
-0.292364780900799   -0.03857368687887797   -0.007292958387005026
-0.292364780900799   -0.03857368687887797   -0.007292958387005026
-0.292364780900799   -0.03857368687887797   -0.007292958387005026
-0.31793835625486655   -0.09452847058274041   -0.009973972234644149
-0.31793835625486655   -0.09452847058274041   -0.009973972234644149
-0.31793835625486655   -0.09452847058274041   -0.009973972234644149
-0.31793835625486655   -0.09452847058274041   -0.009973972234644149
0.02374046330012588   0.024456975567639996   0.011534890569825245
0.02374046330012588   0.024456975567639996   0.011534890569825245
0.02374046330012588   0.024456975567639996   0.011534890569825245
0.02374046330012588   0.024456975567639996   0.011534890569825245
-0.14034225015082363   -0.030211835752626967   -0.008634572101635226
-0.14034225015082363   -0.030211835752626967   -0.008634572101635226
-0.14034225015082363   -0.030211835752626967   -0.008634572101635226
-0.14034225015082363   -0.030211835752626967   -0.008634572101635226
0.013276281934394295   -0.024630463863498285   0.008301423172305606
0.013276281934394295   -0.024630463863498285   0.008301423172305606
0.013276281934394295   -0.024630463863498285   0.008301423172305606
0.013276281934394295   -0.024630463863498285   0.008301423172305606
-0.3072849157768947   -0.04525177203936217   -0.005983468388165011
-0.3072849157768947   -0.04525177203936217   -0.005983468388165011
-0.3072849157768947   -0.04525177203936217   -0.005983468388165011
-0.3072849157768947   -0.04525177203936217   -0.005983468388165011
-0.33296608301032765   -0.09702483874680676   -0.008860808919537244
-0.33296608301032765   -0.09702483874680676   -0.008860808919537244
-0.33296608301032765   -0.09702483874680676   -0.008860808919537244
-0.33296608301032765   -0.09702483874680676   -0.008860808919537244
0.010006806639261262   0.019144075008893573   0.01285813971299057
0.010006806639261262   0.019144075008893573   0.01285813971299057
0.010006806639261262   0.019144075008893573   0.01285813971299057
0.010006806639261262   0.019144075008893573   0.01285813971299057
-0.1549147574266025   -0.03460869166527164   -0.012087778337288208
-0.1549147574266025   -0.03460869166527164   -0.012087778337288208
-0.1549147574266025   -0.03460869166527164   -0.012087778337288208
-0.1549147574266025   -0.03460869166527164   -0.012087778337288208
-0.2764753390878508   -0.022632673103453127   0.004385584037132406
-0.2764753390878508   -0.022632673103453127   0.004385584037132406
-0.2764753390878508   -0.022632673103453127   0.004385584037132406
-0.2764753390878508   -0.022632673103453127   0.004385584037132406
-0.5880330018933358   -0.03791100015413963   -0.015405229256249233
-0.5880330018933358   -0.03791100015413963   -0.015405229256249233
-0.5880330018933358   -0.03791100015413963   -0.015405229256249233
-0.5880330018933358   -0.03791100015413963   -0.015405229256249233
-0.614489962296155   -0.09564552925710429   -0.01500539994548272
-0.614489962296155   -0.09564552925710429   -0.01500539994548272
-0.614489962296155   -0.09564552925710429   -0.01500539994548272
-0.614489962296155   -0.09564552925710429   -0.01500539994548272
-0.2778702364372907   0.023587102481451003   0.0030189745702018447
-0.2778702364372907   0.023587102481451003   0.0030189745702018447
-0.2778702364372907   0.023587102481451003   0.0030189745702018447
-0.2778702364372907   0.023587102481451003   0.0030189745702018447
-0.4356258377955916   -0.03162098898383171   -0.00597325472081545
-0.4356258377955916   -0.03162098898383171   -0.00597325472081545
-0.4356258377955916   -0.03162098898383171   -0.00597325472081545
-0.4356258377955916   -0.03162098898383171   -0.00597325472081545
-0.28610913085177236   -0.024904968319396377   0.010316573298643494
-0.28610913085177236   -0.024904968319396377   0.010316573298643494
-0.28610913085177236   -0.024904968319396377   0.010316573298643494
-0.28610913085177236   -0.024904968319396377   0.010316573298643494
-0.6045757863549528   -0.04547817692953185   -0.015601872567050222
-0.6045757863549528   -0.04547817692953185   -0.015601872567050222
-0.6045757863549528   -0.04547817692953185   -0.015601872567050222
-0.6045757863549528   -0.04547817692953185   -0.015601872567050222
-0.6332081074925877   -0.10158910970761391   -0.01061771699702169
-0.6332081074925877   -0.10158910970761391   -0.01061771699702169
-0.6332081074925877   -0.10158910970761391   -0.01061771699702169
-0.6332081074925877   -0.10158910970761391   -0.01061771699702169
-0.2929555341892444   0.016756699316369   0.0036549681943552903
-0.2929555341892444   0.016756699316369   0.0036549681943552903
-0.2929555341892444   0.016756699316369   0.0036549681943552903
-0.2929555341892444   0.016756699316369   0.0036549681943552903
-0.44735828828693075   -0.03484884084166864   -0.005949808442557955
-0.44735828828693075   -0.03484884084166864   -0.005949808442557955
-0.44735828828693075   -0.03484884084166864   -0.005949808442557955
-0.44735828828693075   -0.03484884084166864   -0.005949808442557955
-0.301066122262044   -0.03088785319396324   0.010746580340687813
-0.301066122262044   -0.03088785319396324   0.010746580340687813
-0.301066122262044   -0.03088785319396324   0.010746580340687813
-0.301066122262044   -0.03088785319396324   0.010746580340687813
-0.6239708927972369   -0.052817930574730776   -0.01320282265315098
-0.6239708927972369   -0.052817930574730776   -0.01320282265315098
-0.6239708927972369   -0.052817930574730776   -0.01320282265315098
-0.6239708927972369   -0.052817930574730776   -0.01320282265315098
-0.6543565944020262   -0.10947298149974916   -0.011301675511278335
-0.6543565944020262   -0.10947298149974916   -0.011301675511278335
-0.6543565944020262   -0.10947298149974916   -0.011301675511278335
-0.6543565944020262   -0.10947298149974916   -0.011301675511278335
-0.3092656052615374   0.008288327462352446   0.004328413615249167
-0.3092656052615374   0.008288327462352446   0.004328413615249167
-0.3092656052615374   0.008288327462352446   0.004328413615249167
-0.3092656052615374   0.008288327462352446   0.004328413615249167
-0.46849068069679106   -0.043007656817102696   -0.009780122199025514
-0.46849068069679106   -0.043007656817102696   -0.009780122199025514
-0.46849068069679106   -0.043007656817102696   -0.009780122199025514
-0.46849068069679106   -0.043007656817102696   -0.009780122199025514
-0.5684074063544879   0.026226275991315523   0.018585472292534273
-0.5684074063544879   0.026226275991315523   0.018585472292534273
-0.5684074063544879   0.026226275991315523   0.018585472292534273
-0.5684074063544879   0.026226275991315523   0.018585472292534273
-0.8808141678380201   -0.04383674808914789   -0.011486838612922885
-0.8808141678380201   -0.04383674808914789   -0.011486838612922885
-0.8808141678380201   -0.04383674808914789   -0.011486838612922885
-0.8808141678380201   -0.04383674808914789   -0.011486838612922885
-0.9018552196130939   -0.04467708377791871   0.01899882660129986
-0.9018552196130939   -0.04467708377791871   0.01899882660129986
-0.9018552196130939   -0.04467708377791871   0.01899882660129986
-0.9018552196130939   -0.04467708377791871   0.01899882660129986
-0.5895155152571946   0.018617364908668582   -0.004396058916459153
-0.5895155152571946   0.018617364908668582   -0.004396058916459153
-0.5895155152571946   0.018617364908668582   -0.004396058916459153
-0.5895155152571946   0.018617364908668582   -0.004396058916459153
-0.700852520493599   0.00038172786417103866   0.017866629016950998
-0.700852520493599   0.00038172786417103866   0.017866629016950998
-0.700852520493599   0.00038172786417103866   0.017866629016950998
-0.700852520493599   0.00038172786417103866   0.017866629016950998
-0.5836675512653029   0.01987742480142185   0.02358370115024242
-0.5836675512653029   0.01987742480142185   0.02358370115024242
-0.5836675512653029   0.01987742480142185   0.02358370115024242
-0.5836675512653029   0.01987742480142185   0.02358370115024242
-0.907299843074524   -0.04553380314021613   -0.007367571343553231
-0.907299843074524   -0.04553380314021613   -0.007367571343553231
-0.907299843074524   -0.04553380314021613   -0.007367571343553231
-0.907299843074524   -0.04553380314021613   -0.007367571343553231
-0.9283463729342888   -0.05181157142256032   0.02589705632364031
-0.9283463729342888   -0.05181157142256032   0.02589705632364031
-0.9283463729342888   -0.05181157142256032   0.02589705632364031
-0.9283463729342888   -0.05181157142256032   0.02589705632364031
-0.6089401817013653   0.013759932084914467   -0.004627129833443253
-0.6089401817013653   0.013759932084914467   -0.004627129833443253
-0.6089401817013653   0.013759932084914467   -0.004627129833443253
-0.6089401817013653   0.013759932084914467   -0.004627129833443253
-0.7353467956185586   -0.007933336207424535   0.010030774132472275
-0.7353467956185586   -0.007933336207424535   0.010030774132472275
-0.7353467956185586   -0.007933336207424535   0.010030774132472275
-0.7353467956185586   -0.007933336207424535   0.010030774132472275
-0.6035901213994439   0.012614073643241686   0.02326903011783628
-0.6035901213994439   0.012614073643241686   0.02326903011783628
-0.6035901213994439   0.012614073643241686   0.02326903011783628
-0.6035901213994439   0.012614073643241686   0.02326903011783628
-0.9347046813465208   -0.05167396109120592   -0.006032096068874372
-0.9347046813465208   -0.05167396109120592   -0.006032096068874372
-0.9347046813465208   -0.05167396109120592   -0.006032096068874372
-0.9347046813465208   -0.05167396109120592   -0.006032096068874372
-0.9660897268473979   -0.08088762631156478   0.022352615553046015
-0.9660897268473979   -0.08088762631156478   0.022352615553046015
-0.9660897268473979   -0.08088762631156478   0.022352615553046015
-0.9660897268473979   -0.08088762631156478   0.022352615553046015
-0.6313403082778115   -0.0013167556297035699   -0.004376470760260626
-0.6313403082778115   -0.0013167556297035699   -0.004376470760260626
-0.6313403082778115   -0.0013167556297035699   -0.004376470760260626
-0.6313403082778115   -0.0013167556297035699   -0.004376470760260626
-0.7495302004130938   -0.018491302101718537   0.003267653396151683
-0.7495302004130938   -0.018491302101718537   0.003267653396151683
-0.7495302004130938   -0.018491302101718537   0.003267653396151683
-0.7495302004130938   -0.018491302101718537   0.003267653396151683
0.5805624582682983   0.03135008085518601   -0.020170604930684545
0.5805624582682983   0.03135008085518601   -0.020170604930684545
0.5805624582682983   0.03135008085518601   -0.020170604930684545
0.5805624582682983   0.03135008085518601   -0.020170604930684545
0.28699554237558145   -0.0008628775974868774   0.00716047359545937
0.28699554237558145   -0.0008628775974868774   0.00716047359545937
0.28699554237558145   -0.0008628775974868774   0.00716047359545937
0.28699554237558145   -0.0008628775974868774   0.00716047359545937
0.2628720510327712   -0.042470261183127606   -0.018617531219490797
0.2628720510327712   -0.042470261183127606   -0.018617531219490797
0.2628720510327712   -0.042470261183127606   -0.018617531219490797
0.2628720510327712   -0.042470261183127606   -0.018617531219490797
0.569910051677884   0.04667719459807597   0.008999143021343758
0.569910051677884   0.04667719459807597   0.008999143021343758
0.569910051677884   0.04667719459807597   0.008999143021343758
0.569910051677884   0.04667719459807597   0.008999143021343758
0.40310836276699624   0.0035343997606943622   -0.013281445394196265
0.40310836276699624   0.0035343997606943622   -0.013281445394196265
0.40310836276699624   0.0035343997606943622   -0.013281445394196265
0.40310836276699624   0.0035343997606943622   -0.013281445394196265
0.5581602951297921   0.01641367071330388   -0.019486115834338843
0.5581602951297921   0.01641367071330388   -0.019486115834338843
0.5581602951297921   0.01641367071330388   -0.019486115834338843
0.5581602951297921   0.01641367071330388   -0.019486115834338843
0.27412924967622454   -0.012699295202996591   0.007897496017640376
0.27412924967622454   -0.012699295202996591   0.007897496017640376
0.27412924967622454   -0.012699295202996591   0.007897496017640376
0.27412924967622454   -0.012699295202996591   0.007897496017640376
0.2508121024579801   -0.045934516302799926   -0.016216595525154608
0.2508121024579801   -0.045934516302799926   -0.016216595525154608
0.2508121024579801   -0.045934516302799926   -0.016216595525154608
0.2508121024579801   -0.045934516302799926   -0.016216595525154608
0.5518890021568807   0.04188816104743594   0.012385020026280273
0.5518890021568807   0.04188816104743594   0.012385020026280273
0.5518890021568807   0.04188816104743594   0.012385020026280273
0.5518890021568807   0.04188816104743594   0.012385020026280273
0.39388021271502316   -0.0027699487681043244   -0.01727454933869832
0.39388021271502316   -0.0027699487681043244   -0.01727454933869832
0.39388021271502316   -0.0027699487681043244   -0.01727454933869832
0.39388021271502316   -0.0027699487681043244   -0.01727454933869832
0.5403800126512948   0.01214002629171343   -0.015411792745918002
0.5403800126512948   0.01214002629171343   -0.015411792745918002
0.5403800126512948   0.01214002629171343   -0.015411792745918002
0.5403800126512948   0.01214002629171343   -0.015411792745918002
0.2618693585942883   -0.016638114916351546   0.009773283769935422
0.2618693585942883   -0.016638114916351546   0.009773283769935422
0.2618693585942883   -0.016638114916351546   0.009773283769935422
0.2618693585942883   -0.016638114916351546   0.009773283769935422
0.23982660493576557   -0.046765895599605624   -0.013259321108321627
0.23982660493576557   -0.046765895599605624   -0.013259321108321627
0.23982660493576557   -0.046765895599605624   -0.013259321108321627
0.23982660493576557   -0.046765895599605624   -0.013259321108321627
0.5315738381966988   0.03783876599475276   0.015489229563077411
0.5315738381966988   0.03783876599475276   0.015489229563077411
0.5315738381966988   0.03783876599475276   0.015489229563077411
0.5315738381966988   0.03783876599475276   0.015489229563077411
0.3716993194821189   -0.007048073863716961   -0.023379473069100737
0.3716993194821189   -0.007048073863716961   -0.023379473069100737
0.3716993194821189   -0.007048073863716961   -0.023379473069100737
0.3716993194821189   -0.007048073863716961   -0.023379473069100737
0.29221942416259666   0.030559174408290937   0.0018578305247578114
0.29221942416259666   0.030559174408290937   0.0018578305247578114
0.29221942416259666   0.030559174408290937   0.0018578305247578114
0.29221942416259666   0.030559174408290937   0.0018578305247578114
0.008800619714649825   -0.00998381355799153   -0.0013444531227953694
0.008800619714649825   -0.00998381355799153   -0.0013444531227953694
0.008800619714649825   -0.00998381355799153   -0.0013444531227953694
0.008800619714649825   -0.00998381355799153   -0.0013444531227953694
-0.009389775149892117   -0.03833600733029057   -0.012752735909605496
-0.009389775149892117   -0.03833600733029057   -0.012752735909605496
-0.009389775149892117   -0.03833600733029057   -0.012752735909605496
-0.009389775149892117   -0.03833600733029057   -0.012752735909605496
0.28671692005889426   0.04238269006364437   0.01575386266434819
0.28671692005889426   0.04238269006364437   0.01575386266434819
0.28671692005889426   0.04238269006364437   0.01575386266434819
0.28671692005889426   0.04238269006364437   0.01575386266434819
0.14232845945894282   0.006045238154430987   -0.0015661074357040646
0.14232845945894282   0.006045238154430987   -0.0015661074357040646
0.14232845945894282   0.006045238154430987   -0.0015661074357040646
0.14232845945894282   0.006045238154430987   -0.0015661074357040646
0.2803496722718327   0.022852076745424575   0.003448237047260813
0.2803496722718327   0.022852076745424575   0.003448237047260813
0.2803496722718327   0.022852076745424575   0.003448237047260813
0.2803496722718327   0.022852076745424575   0.003448237047260813
-0.002905293775406782   -0.018688160424649474   2.18240571800846e-05
-0.002905293775406782   -0.018688160424649474   2.18240571800846e-05
-0.002905293775406782   -0.018688160424649474   2.18240571800846e-05
-0.002905293775406782   -0.018688160424649474   2.18240571800846e-05
-0.02081193744071448   -0.04392964725225352   -0.011052914142321721
-0.02081193744071448   -0.04392964725225352   -0.011052914142321721
-0.02081193744071448   -0.04392964725225352   -0.011052914142321721
-0.02081193744071448   -0.04392964725225352   -0.011052914142321721
0.273773779292286   0.03524250946843391   0.017414762875138767
0.273773779292286   0.03524250946843391   0.017414762875138767
0.273773779292286   0.03524250946843391   0.017414762875138767
0.273773779292286   0.03524250946843391   0.017414762875138767
0.1283211226002302   -0.0010127066100704303   -0.005568143302982469
0.1283211226002302   -0.0010127066100704303   -0.005568143302982469
0.1283211226002302   -0.0010127066100704303   -0.005568143302982469
0.1283211226002302   -0.0010127066100704303   -0.005568143302982469
0.26765032205085665   0.01698448725150896   0.0050554988849195095
0.26765032205085665   0.01698448725150896   0.0050554988849195095
0.26765032205085665   0.01698448725150896   0.0050554988849195095
0.26765032205085665   0.01698448725150896   0.0050554988849195095
-0.014678973327279585   -0.02566211816332004   0.0013443773359192758
-0.014678973327279585   -0.02566211816332004   0.0013443773359192758
-0.014678973327279585   -0.02566211816332004   0.0013443773359192758
-0.014678973327279585   -0.02566211816332004   0.0013443773359192758
-0.03210985658752575   -0.04722749084634332   -0.008839506103414399
-0.03210985658752575   -0.04722749084634332   -0.008839506103414399
-0.03210985658752575   -0.04722749084634332   -0.008839506103414399
-0.03210985658752575   -0.04722749084634332   -0.008839506103414399
0.2614614858644604   0.029274879773586254   0.018874308161957412
0.2614614858644604   0.029274879773586254   0.018874308161957412
0.2614614858644604   0.029274879773586254   0.018874308161957412
0.2614614858644604   0.029274879773586254   0.018874308161957412
0.11805236125138881   -0.00545156185290957   -0.00849255425170921
0.11805236125138881   -0.00545156185290957   -0.00849255425170921
0.11805236125138881   -0.00545156185290957   -0.00849255425170921
0.11805236125138881   -0.00545156185290957   -0.00849255425170921
0.018518250105675354   0.03063651222231203   0.006623373052028711
0.018518250105675354   0.03063651222231203   0.006623373052028711
0.018518250105675354   0.03063651222231203   0.006623373052028711
0.018518250105675354   0.03063651222231203   0.006623373052028711
-0.2609288782537435   -0.017174362618460122   -0.008939716218569442
-0.2609288782537435   -0.017174362618460122   -0.008939716218569442
-0.2609288782537435   -0.017174362618460122   -0.008939716218569442
-0.2609288782537435   -0.017174362618460122   -0.008939716218569442
-0.2751174674396611   -0.03530751139016857   -0.008209394404595954
-0.2751174674396611   -0.03530751139016857   -0.008209394404595954
-0.2751174674396611   -0.03530751139016857   -0.008209394404595954
-0.2751174674396611   -0.03530751139016857   -0.008209394404595954
0.009315093825974253   0.03473366435697346   0.007701937282462323
0.009315093825974253   0.03473366435697346   0.007701937282462323
0.009315093825974253   0.03473366435697346   0.007701937282462323
0.009315093825974253   0.03473366435697346   0.007701937282462323
-0.12688996056862845   0.0037793728445506304   0.0005204917404306696
-0.12688996056862845   0.0037793728445506304   0.0005204917404306696
-0.12688996056862845   0.0037793728445506304   0.0005204917404306696
-0.12688996056862845   0.0037793728445506304   0.0005204917404306696
0.007379210490917526   0.02448745005808064   0.008268734906071511
0.007379210490917526   0.02448745005808064   0.008268734906071511
0.007379210490917526   0.02448745005808064   0.008268734906071511
0.007379210490917526   0.02448745005808064   0.008268734906071511
-0.27286736870711076   -0.02474708169378219   -0.007519330438230911
-0.27286736870711076   -0.02474708169378219   -0.007519330438230911
-0.27286736870711076   -0.02474708169378219   -0.007519330438230911
-0.27286736870711076   -0.02474708169378219   -0.007519330438230911
-0.28737021857605005   -0.04144583399043351   -0.006868475344366345
-0.28737021857605005   -0.04144583399043351   -0.006868475344366345
-0.28737021857605005   -0.04144583399043351   -0.006868475344366345
-0.28737021857605005   -0.04144583399043351   -0.006868475344366345
-0.002471947121282005   0.027392720608043507   0.009324669594543636
-0.002471947121282005   0.027392720608043507   0.009324669594543636
-0.002471947121282005   0.027392720608043507   0.009324669594543636
-0.002471947121282005   0.027392720608043507   0.009324669594543636
-0.13863414789064968   -0.002260175321635239   -0.002470667641722348
-0.13863414789064968   -0.002260175321635239   -0.002470667641722348
-0.13863414789064968   -0.002260175321635239   -0.002470667641722348
-0.13863414789064968   -0.002260175321635239   -0.002470667641722348
-0.004119953463941209   0.01856115483226646   0.009916203657024655
-0.004119953463941209   0.01856115483226646   0.009916203657024655
-0.004119953463941209   0.01856115483226646   0.009916203657024655
-0.004119953463941209   0.01856115483226646   0.009916203657024655
-0.28545642962060613   -0.03234848560187123   -0.006396878955705913
-0.28545642962060613   -0.03234848560187123   -0.006396878955705913
-0.28545642962060613   -0.03234848560187123   -0.006396878955705913
-0.28545642962060613   -0.03234848560187123   -0.006396878955705913
-0.29953252350570536   -0.046262443820738394   -0.004635124290202595
-0.29953252350570536   -0.046262443820738394   -0.004635124290202595
-0.29953252350570536   -0.046262443820738394   -0.004635124290202595
-0.29953252350570536   -0.046262443820738394   -0.004635124290202595
-0.014686816051929463   0.02047747775380866   0.01057072797441504
-0.014686816051929463   0.02047747775380866   0.01057072797441504
-0.014686816051929463   0.02047747775380866   0.01057072797441504
-0.014686816051929463   0.02047747775380866   0.01057072797441504
-0.15127359017583458   -0.008400161496059298   -0.005748144630630603
-0.15127359017583458   -0.008400161496059298   -0.005748144630630603
-0.15127359017583458   -0.008400161496059298   -0.005748144630630603
-0.15127359017583458   -0.008400161496059298   -0.005748144630630603
-0.246158889585612   0.03591003421615366   0.011825830287478117
-0.246158889585612   0.03591003421615366   0.011825830287478117
-0.246158889585612   0.03591003421615366   0.011825830287478117
-0.246158889585612   0.03591003421615366   0.011825830287478117
-0.5222420008736633   -0.02352795353864101   -0.014583049988015469
-0.5222420008736633   -0.02352795353864101   -0.014583049988015469
-0.5222420008736633   -0.02352795353864101   -0.014583049988015469
-0.5222420008736633   -0.02352795353864101   -0.014583049988015469
-0.5332876882710221   -0.02861976677033777   -0.002597919855025929
-0.5332876882710221   -0.02861976677033777   -0.002597919855025929
-0.5332876882710221   -0.02861976677033777   -0.002597919855025929
-0.5332876882710221   -0.02861976677033777   -0.002597919855025929
-0.26119821832894585   0.026365042890609536   -0.0002857031317959821
-0.26119821832894585   0.026365042890609536   -0.0002857031317959821
-0.26119821832894585   0.026365042890609536   -0.0002857031317959821
-0.26119821832894585   0.026365042890609536   -0.0002857031317959821
-0.3878927613215007   0.003686727389730249   0.002856925209591396
-0.3878927613215007   0.003686727389730249   0.002856925209591396
-0.3878927613215007   0.003686727389730249   0.002856925209591396
-0.3878927613215007   0.003686727389730249   0.002856925209591396
-0.25783451530528667   0.029641685641030383   0.013256169236079321
-0.25783451530528667   0.029641685641030383   0.013256169236079321
-0.25783451530528667   0.029641685641030383   0.013256169236079321
-0.25783451530528667   0.029641685641030383   0.013256169236079321
-0.5362364124241618   -0.031481430650242295   -0.014479876740823835
-0.5362364124241618   -0.031481430650242295   -0.014479876740823835
-0.5362364124241618   -0.031481430650242295   -0.014479876740823835
-0.5362364124241618   -0.031481430650242295   -0.014479876740823835
-0.5483683700675865   -0.03553105446135893   -0.002370964815942178
-0.5483683700675865   -0.03553105446135893   -0.002370964815942178
-0.5483683700675865   -0.03553105446135893   -0.002370964815942178
-0.5483683700675865   -0.03553105446135893   -0.002370964815942178
-0.27360437410273286   0.019360190175323158   0.0011547228564659333
-0.27360437410273286   0.019360190175323158   0.0011547228564659333
-0.27360437410273286   0.019360190175323158   0.0011547228564659333
-0.27360437410273286   0.019360190175323158   0.0011547228564659333
-0.3983776423580494   -0.0017949702221429775   0.0004105714468421312
-0.3983776423580494   -0.0017949702221429775   0.0004105714468421312
-0.3983776423580494   -0.0017949702221429775   0.0004105714468421312
-0.3983776423580494   -0.0017949702221429775   0.0004105714468421312
-0.26991354031831377   0.02368993403538415   0.015279147918500435
-0.26991354031831377   0.02368993403538415   0.015279147918500435
-0.26991354031831377   0.02368993403538415   0.015279147918500435
-0.26991354031831377   0.02368993403538415   0.015279147918500435
-0.5511998093165535   -0.03900140378596596   -0.013057811736174287
-0.5511998093165535   -0.03900140378596596   -0.013057811736174287
-0.5511998093165535   -0.03900140378596596   -0.013057811736174287
-0.5511998093165535   -0.03900140378596596   -0.013057811736174287
-0.5622367059962678   -0.04294797421171104   0.0011180059796467995
-0.5622367059962678   -0.04294797421171104   0.0011180059796467995
-0.5622367059962678   -0.04294797421171104   0.0011180059796467995
-0.5622367059962678   -0.04294797421171104   0.0011180059796467995
-0.2867530517046557   0.010988580955378024   0.002011209938934014
-0.2867530517046557   0.010988580955378024   0.002011209938934014
-0.2867530517046557   0.010988580955378024   0.002011209938934014
-0.2867530517046557   0.010988580955378024   0.002011209938934014
-0.4149446685713241   -0.00958737935471389   -0.002914405458516324
-0.4149446685713241   -0.00958737935471389   -0.002914405458516324
-0.4149446685713241   -0.00958737935471389   -0.002914405458516324
-0.4149446685713241   -0.00958737935471389   -0.002914405458516324
-0.5039089378663991   0.03712710660807721   0.016427204901581484
-0.5039089378663991   0.03712710660807721   0.016427204901581484
-0.5039089378663991   0.03712710660807721   0.016427204901581484
-0.5039089378663991   0.03712710660807721   0.016427204901581484
-0.7713984775908196   -0.03575715624228498   -0.01323024684497099
-0.7713984775908196   -0.03575715624228498   -0.01323024684497099
-0.7713984775908196   -0.03575715624228498   -0.01323024684497099
-0.7713984775908196   -0.03575715624228498   -0.01323024684497099
-0.7816301326008906   -0.01614883663157865   0.01388755072601628
-0.7816301326008906   -0.01614883663157865   0.01388755072601628
-0.7816301326008906   -0.01614883663157865   0.01388755072601628
-0.7816301326008906   -0.01614883663157865   0.01388755072601628
-0.5252785660585558   0.016093913961861384   -0.007265989524893497
-0.5252785660585558   0.016093913961861384   -0.007265989524893497
-0.5252785660585558   0.016093913961861384   -0.007265989524893497
-0.5252785660585558   0.016093913961861384   -0.007265989524893497
-0.6169668760825071   0.007579994079895236   0.014317706443851615
-0.6169668760825071   0.007579994079895236   0.014317706443851615
-0.6169668760825071   0.007579994079895236   0.014317706443851615
-0.6169668760825071   0.007579994079895236   0.014317706443851615
-0.5156577788751515   0.03804541336597114   0.018886446988010647
-0.5156577788751515   0.03804541336597114   0.018886446988010647
-0.5156577788751515   0.03804541336597114   0.018886446988010647
-0.5156577788751515   0.03804541336597114   0.018886446988010647
-0.7906847116645852   -0.037534127915975185   -0.010000053308046868
-0.7906847116645852   -0.037534127915975185   -0.010000053308046868
-0.7906847116645852   -0.037534127915975185   -0.010000053308046868
-0.7906847116645852   -0.037534127915975185   -0.010000053308046868
-0.8003737965247031   -0.019767172077264167   0.01917096417900134
-0.8003737965247031   -0.019767172077264167   0.01917096417900134
-0.8003737965247031   -0.019767172077264167   0.01917096417900134
-0.8003737965247031   -0.019767172077264167   0.01917096417900134
-0.5396647094560736   0.012071278164517224   -0.006454994384253919
-0.5396647094560736   0.012071278164517224   -0.006454994384253919
-0.5396647094560736   0.012071278164517224   -0.006454994384253919
-0.5396647094560736   0.012071278164517224   -0.006454994384253919
-0.643046970285701   0.003768908408787769   0.009358645084469368
-0.643046970285701   0.003768908408787769   0.009358645084469368
-0.643046970285701   0.003768908408787769   0.009358645084469368
-0.643046970285701   0.003768908408787769   0.009358645084469368
-0.529034313454274   0.035350153715728055   0.02341811007353338
-0.529034313454274   0.035350153715728055   0.02341811007353338
-0.529034313454274   0.035350153715728055   0.02341811007353338
-0.529034313454274   0.035350153715728055   0.02341811007353338
-0.8104504379043617   -0.04249229300633206   -0.00848712179021232
-0.8104504379043617   -0.04249229300633206   -0.00848712179021232
-0.8104504379043617   -0.04249229300633206   -0.00848712179021232
-0.8104504379043617   -0.04249229300633206   -0.00848712179021232
-0.8258076423426352   -0.0355401119797818   0.018974081554187373
-0.8258076423426352   -0.0355401119797818   0.018974081554187373
-0.8258076423426352   -0.0355401119797818   0.018974081554187373
-0.8258076423426352   -0.0355401119797818   0.018974081554187373
-0.555125511660796   -0.0001927709223961266   -0.006081225632308607
-0.555125511660796   -0.0001927709223961266   -0.006081225632308607
-0.555125511660796   -0.0001927709223961266   -0.006081225632308607
-0.555125511660796   -0.0001927709223961266   -0.006081225632308607
-0.6502452578365667   -0.0018064384558632574   0.007800676521224251
-0.6502452578365667   -0.0018064384558632574   0.007800676521224251
-0.6502452578365667   -0.0018064384558632574   0.007800676521224251
-0.6502452578365667   -0.0018064384558632574   0.007800676521224251
0.4434845700357625   0.02487349455220661   -0.020646693316254287
0.4434845700357625   0.02487349455220661   -0.020646693316254287
0.4434845700357625   0.02487349455220661   -0.020646693316254287
0.4434845700357625   0.02487349455220661   -0.020646693316254287
0.21035699042233305   0.0037270858014061964   0.007754579899748527
0.21035699042233305   0.0037270858014061964   0.007754579899748527
0.21035699042233305   0.0037270858014061964   0.007754579899748527
0.21035699042233305   0.0037270858014061964   0.007754579899748527
0.18747647240746562   -0.03554531545417681   -0.019679827969501778
0.18747647240746562   -0.03554531545417681   -0.019679827969501778
0.18747647240746562   -0.03554531545417681   -0.019679827969501778
0.18747647240746562   -0.03554531545417681   -0.019679827969501778
0.4341787844483442   0.04049739267952469   0.009606357215902259
0.4341787844483442   0.04049739267952469   0.009606357215902259
0.4341787844483442   0.04049739267952469   0.009606357215902259
0.4341787844483442   0.04049739267952469   0.009606357215902259
0.3024055449525917   0.0040697759255017285   -0.008955669507997057
0.3024055449525917   0.0040697759255017285   -0.008955669507997057
0.3024055449525917   0.0040697759255017285   -0.008955669507997057
0.3024055449525917   0.0040697759255017285   -0.008955669507997057
0.4225436335890784   0.01149140124655483   -0.019563405647456417
0.4225436335890784   0.01149140124655483   -0.019563405647456417
0.4225436335890784   0.01149140124655483   -0.019563405647456417
0.4225436335890784   0.01149140124655483   -0.019563405647456417
0.19888623946290526   -0.006764707825033342   0.00858839967855104
0.19888623946290526   -0.006764707825033342   0.00858839967855104
0.19888623946290526   -0.006764707825033342   0.00858839967855104
0.19888623946290526   -0.006764707825033342   0.00858839967855104
0.17681077671881007   -0.038968495783419654   -0.016820038689926944
0.17681077671881007   -0.038968495783419654   -0.016820038689926944
0.17681077671881007   -0.038968495783419654   -0.016820038689926944
0.17681077671881007   -0.038968495783419654   -0.016820038689926944
0.41758833266078504   0.03558781514911107   0.012700721263714332
0.41758833266078504   0.03558781514911107   0.012700721263714332
0.41758833266078504   0.03558781514911107   0.012700721263714332
0.41758833266078504   0.03558781514911107   0.012700721263714332
0.29302159957732815   -0.0019098464570862506   -0.012434073906454911
0.29302159957732815   -0.0019098464570862506   -0.012434073906454911
0.29302159957732815   -0.0019098464570862506   -0.012434073906454911
0.29302159957732815   -0.0019098464570862506   -0.012434073906454911
0.4062118241245745   0.007130766818394918   -0.015724773086618453
0.4062118241245745   0.007130766818394918   -0.015724773086618453
0.4062118241245745   0.007130766818394918   -0.015724773086618453
0.4062118241245745   0.007130766818394918   -0.015724773086618453
0.1878929442835231   -0.010805788424200637   0.010428091774417671
0.1878929442835231   -0.010805788424200637   0.010428091774417671
0.1878929442835231   -0.010805788424200637   0.010428091774417671
0.1878929442835231   -0.010805788424200637   0.010428091774417671
0.16722098923974832   -0.040932711596659656   -0.014015309437034183
0.16722098923974832   -0.040932711596659656   -0.014015309437034183
0.16722098923974832   -0.040932711596659656   -0.014015309437034183
0.16722098923974832   -0.040932711596659656   -0.014015309437034183
0.39885931731849217   0.030377151514868868   0.015144022146492188
0.39885931731849217   0.030377151514868868   0.015144022146492188
0.39885931731849217   0.030377151514868868   0.015144022146492188
0.39885931731849217   0.030377151514868868   0.015144022146492188
0.27397114274615875   -0.006377548477216749   -0.017667519425409513
0.27397114274615875   -0.006377548477216749   -0.017667519425409513
0.27397114274615875   -0.006377548477216749   -0.017667519425409513
0.27397114274615875   -0.006377548477216749   -0.017667519425409513
0.21408375635885651   0.03113733622680337   -0.0010218408430275661
0.21408375635885651   0.03113733622680337   -0.0010218408430275661
0.21408375635885651   0.03113733622680337   -0.0010218408430275661
0.21408375635885651   0.03113733622680337   -0.0010218408430275661
-0.014517344868833812   -0.003391808716450072   -0.00024989721749275277
-0.014517344868833812   -0.003391808716450072   -0.00024989721749275277
-0.014517344868833812   -0.003391808716450072   -0.00024989721749275277
-0.014517344868833812   -0.003391808716450072   -0.00024989721749275277
-0.030639383480592884   -0.026756751444967464   -0.012587041339239097
-0.030639383480592884   -0.026756751444967464   -0.012587041339239097
-0.030639383480592884   -0.026756751444967464   -0.012587041339239097
-0.030639383480592884   -0.026756751444967464   -0.012587041339239097
0.20870894491002098   0.03688138787674292   0.014055831212353457
0.20870894491002098   0.03688138787674292   0.014055831212353457
0.20870894491002098   0.03688138787674292   0.014055831212353457
0.20870894491002098   0.03688138787674292   0.014055831212353457
0.09294682878671857   0.009035763632223361   0.0006998392397633232
0.09294682878671857   0.009035763632223361   0.0006998392397633232
0.09294682878671857   0.009035763632223361   0.0006998392397633232
0.09294682878671857   0.009035763632223361   0.0006998392397633232
0.2032183452807765   0.02269087230310544   0.0007933486397713628
0.2032183452807765   0.02269087230310544   0.0007933486397713628
0.2032183452807765   0.02269087230310544   0.0007933486397713628
0.2032183452807765   0.02269087230310544   0.0007933486397713628
-0.025057408735162327   -0.012474860755145993   0.0010409416980922035
-0.025057408735162327   -0.012474860755145993   0.0010409416980922035
-0.025057408735162327   -0.012474860755145993   0.0010409416980922035
-0.025057408735162327   -0.012474860755145993   0.0010409416980922035
-0.040680582897832704   -0.033219204042801626   -0.01043944249093553
-0.040680582897832704   -0.033219204042801626   -0.01043944249093553
-0.040680582897832704   -0.033219204042801626   -0.01043944249093553
-0.040680582897832704   -0.033219204042801626   -0.01043944249093553
0.1968625775242187   0.02911155058156225   0.015358918972132847
0.1968625775242187   0.02911155058156225   0.015358918972132847
0.1968625775242187   0.02911155058156225   0.015358918972132847
0.1968625775242187   0.02911155058156225   0.015358918972132847
0.08052370694056572   0.001336384572295058   -0.0031601857323153596
0.08052370694056572   0.001336384572295058   -0.0031601857323153596
0.08052370694056572   0.001336384572295058   -0.0031601857323153596
0.08052370694056572   0.001336384572295058   -0.0031601857323153596
0.19155715847867072   0.01575408966322869   0.0021892846627279633
0.19155715847867072   0.01575408966322869   0.0021892846627279633
0.19155715847867072   0.01575408966322869   0.0021892846627279633
0.19155715847867072   0.01575408966322869   0.0021892846627279633
-0.03545784521619959   -0.019944424488385244   0.002399466362813683
-0.03545784521619959   -0.019944424488385244   0.002399466362813683
-0.03545784521619959   -0.019944424488385244   0.002399466362813683
-0.03545784521619959   -0.019944424488385244   0.002399466362813683
-0.0505835246231146   -0.03859354772337185   -0.008422818835258089
-0.0505835246231146   -0.03859354772337185   -0.008422818835258089
-0.0505835246231146   -0.03859354772337185   -0.008422818835258089
-0.0505835246231146   -0.03859354772337185   -0.008422818835258089
0.18592423197220248   0.021977238026318496   0.016590954602257374
0.18592423197220248   0.021977238026318496   0.016590954602257374
0.18592423197220248   0.021977238026318496   0.016590954602257374
0.18592423197220248   0.021977238026318496   0.016590954602257374
0.07106968752797488   -0.004433678919748678   -0.0063538287682868054
0.07106968752797488   -0.004433678919748678   -0.0063538287682868054
0.07106968752797488   -0.004433678919748678   -0.0063538287682868054
0.07106968752797488   -0.004433678919748678   -0.0063538287682868054
-0.0054067980017515945   0.03675016862995483   0.005160859771513427
-0.0054067980017515945   0.03675016862995483   0.005160859771513427
-0.0054067980017515945   0.03675016862995483   0.005160859771513427
-0.0054067980017515945   0.03675016862995483   0.005160859771513427
-0.23463738410739418   -0.01051505192883189   -0.007778304167239134
-0.23463738410739418   -0.01051505192883189   -0.007778304167239134
-0.23463738410739418   -0.01051505192883189   -0.007778304167239134
-0.23463738410739418   -0.01051505192883189   -0.007778304167239134
-0.24502164775719604   -0.018894532224236052   -0.0061023040404149555
-0.24502164775719604   -0.018894532224236052   -0.0061023040404149555
-0.24502164775719604   -0.018894532224236052   -0.0061023040404149555
-0.24502164775719604   -0.018894532224236052   -0.0061023040404149555
-0.01558138020727794   0.02977547177021643   0.006170751812151722
-0.01558138020727794   0.02977547177021643   0.006170751812151722
-0.01558138020727794   0.02977547177021643   0.006170751812151722
-0.01558138020727794   0.02977547177021643   0.006170751812151722
-0.12486291433336467   0.009325711803548013   0.0024423719529026427
-0.12486291433336467   0.009325711803548013   0.0024423719529026427
-0.12486291433336467   0.009325711803548013   0.0024423719529026427
-0.12486291433336467   0.009325711803548013   0.0024423719529026427
-0.015392146295146888   0.029691922920717876   0.007200470222305533
-0.015392146295146888   0.029691922920717876   0.007200470222305533
-0.015392146295146888   0.029691922920717876   0.007200470222305533
-0.015392146295146888   0.029691922920717876   0.007200470222305533
-0.24501989843963973   -0.018620000145050122   -0.006368089531819259
-0.24501989843963973   -0.018620000145050122   -0.006368089531819259
-0.24501989843963973   -0.018620000145050122   -0.006368089531819259
-0.24501989843963973   -0.018620000145050122   -0.006368089531819259
-0.25530872802567633   -0.025886673629567366   -0.00423552068910106
-0.25530872802567633   -0.025886673629567366   -0.00423552068910106
-0.25530872802567633   -0.025886673629567366   -0.00423552068910106
-0.25530872802567633   -0.025886673629567366   -0.00423552068910106
-0.02605517859797933   0.021776679240809917   0.007691695724719793
-0.02605517859797933   0.021776679240809917   0.007691695724719793
-0.02605517859797933   0.021776679240809917   0.007691695724719793
-0.02605517859797933   0.021776679240809917   0.007691695724719793
-0.13525618326210256   0.0024001176395516514   -0.0006776308522069303
-0.13525618326210256   0.0024001176395516514   -0.0006776308522069303
-0.13525618326210256   0.0024001176395516514   -0.0006776308522069303
-0.13525618326210256   0.0024001176395516514   -0.0006776308522069303
-0.025655734060252976   0.02265345736014407   0.008812140294017418
-0.025655734060252976   0.02265345736014407   0.008812140294017418
-0.025655734060252976   0.02265345736014407   0.008812140294017418
-0.025655734060252976   0.02265345736014407   0.008812140294017418
-0.25565720190354746   -0.026712481089043748   -0.005152082618980371
-0.25565720190354746   -0.026712481089043748   -0.005152082618980371
-0.25565720190354746   -0.026712481089043748   -0.005152082618980371
-0.25565720190354746   -0.026712481089043748   -0.005152082618980371
-0.26546627967230574   -0.03226915722320922   -0.0023829832903134365
-0.26546627967230574   -0.03226915722320922   -0.0023829832903134365
-0.26546627967230574   -0.03226915722320922   -0.0023829832903134365
-0.26546627967230574   -0.03226915722320922   -0.0023829832903134365
-0.03657758371886486   0.014040778668884231   0.008972559293734523
-0.03657758371886486   0.014040778668884231   0.008972559293734523
-0.03657758371886486   0.014040778668884231   0.008972559293734523
-0.03657758371886486   0.014040778668884231   0.008972559293734523
-0.1461318127259231   -0.004580131380777282   -0.00415705936129897
-0.1461318127259231   -0.004580131380777282   -0.00415705936129897
-0.1461318127259231   -0.004580131380777282   -0.00415705936129897
-0.1461318127259231   -0.004580131380777282   -0.00415705936129897
-0.22038801748976367   0.041958457111800795   0.010995019880278702
-0.22038801748976367   0.041958457111800795   0.010995019880278702
-0.22038801748976367   0.041958457111800795   0.010995019880278702
-0.22038801748976367   0.041958457111800795   0.010995019880278702
-0.4501090750282455   -0.017818805059480608   -0.01394550172151688
-0.4501090750282455   -0.017818805059480608   -0.01394550172151688
-0.4501090750282455   -0.017818805059480608   -0.01394550172151688
-0.4501090750282455   -0.017818805059480608   -0.01394550172151688
-0.45576733368336564   -0.012300150752459132   0.0009574440072804349
-0.45576733368336564   -0.012300150752459132   0.0009574440072804349
-0.45576733368336564   -0.012300150752459132   0.0009574440072804349
-0.45576733368336564   -0.012300150752459132   0.0009574440072804349
-0.2360692504538093   0.021439014419200486   -0.0016738641669156798
-0.2360692504538093   0.021439014419200486   -0.0016738641669156798
-0.2360692504538093   0.021439014419200486   -0.0016738641669156798
-0.2360692504538093   0.021439014419200486   -0.0016738641669156798
-0.3383511987840395   0.008729048353934177   0.0041314638663677294
-0.3383511987840395   0.008729048353934177   0.0041314638663677294
-0.3383511987840395   0.008729048353934177   0.0041314638663677294
-0.3383511987840395   0.008729048353934177   0.0041314638663677294
-0.23039548199787802   0.035174607741305874   0.01295938479063325
-0.23039548199787802   0.035174607741305874   0.01295938479063325
-0.23039548199787802   0.035174607741305874   0.01295938479063325
-0.23039548199787802   0.035174607741305874   0.01295938479063325
-0.4613983429287778   -0.025992984864048288   -0.013504768108191116
-0.4613983429287778   -0.025992984864048288   -0.013504768108191116
-0.4613983429287778   -0.025992984864048288   -0.013504768108191116
-0.4613983429287778   -0.025992984864048288   -0.013504768108191116
-0.4677522116902292   -0.019372575006528142   0.0016387345347057235
-0.4677522116902292   -0.019372575006528142   0.0016387345347057235
-0.4677522116902292   -0.019372575006528142   0.0016387345347057235
-0.4677522116902292   -0.019372575006528142   0.0016387345347057235
-0.24650577367205279   0.014028201665619439   -0.00013562421616815368
-0.24650577367205279   0.014028201665619439   -0.00013562421616815368
-0.24650577367205279   0.014028201665619439   -0.00013562421616815368
-0.24650577367205279   0.014028201665619439   -0.00013562421616815368
-0.34707402079908467   0.0025884948006154734   0.0012357553316303047
-0.34707402079908467   0.0025884948006154734   0.0012357553316303047
-0.34707402079908467   0.0025884948006154734   0.0012357553316303047
-0.34707402079908467   0.0025884948006154734   0.0012357553316303047
-0.24058970337066707   0.028688971284768154   0.014783957671609772
-0.24058970337066707   0.028688971284768154   0.014783957671609772
-0.24058970337066707   0.028688971284768154   0.014783957671609772
-0.24058970337066707   0.028688971284768154   0.014783957671609772
-0.47336781344568607   -0.03373287607974579   -0.012078973169361046
-0.47336781344568607   -0.03373287607974579   -0.012078973169361046
-0.47336781344568607   -0.03373287607974579   -0.012078973169361046
-0.47336781344568607   -0.03373287607974579   -0.012078973169361046
-0.4786038636506714   -0.027011970615388348   0.0038592640311178594
-0.4786038636506714   -0.027011970615388348   0.0038592640311178594
-0.4786038636506714   -0.027011970615388348   0.0038592640311178594
-0.4786038636506714   -0.027011970615388348   0.0038592640311178594
-0.2572378084608884   0.005513269380171187   0.0009769461633946201
-0.2572378084608884   0.005513269380171187   0.0009769461633946201
-0.2572378084608884   0.005513269380171187   0.0009769461633946201
-0.2572378084608884   0.005513269380171187   0.0009769461633946201
-0.3605351179845959   -0.005190936413648081   -0.0024715069656552555
-0.3605351179845959   -0.005190936413648081   -0.0024715069656552555
-0.3605351179845959   -0.005190936413648081   -0.0024715069656552555
-0.3605351179845959   -0.005190936413648081   -0.0024715069656552555
-0.43313481254135155   0.037635856056081066   0.015471149597391105
-0.43313481254135155   0.037635856056081066   0.015471149597391105
-0.43313481254135155   0.037635856056081066   0.015471149597391105
-0.43313481254135155   0.037635856056081066   0.015471149597391105
-0.655796876543417   -0.03036014837796687   -0.015150474137426598
-0.655796876543417   -0.03036014837796687   -0.015150474137426598
-0.655796876543417   -0.03036014837796687   -0.015150474137426598
-0.655796876543417   -0.03036014837796687   -0.015150474137426598
-0.662829411114437   -0.007120893338108003   0.014210819031140916
-0.662829411114437   -0.007120893338108003   0.014210819031140916
-0.662829411114437   -0.007120893338108003   0.014210819031140916
-0.662829411114437   -0.007120893338108003   0.014210819031140916
-0.4530290019163345   0.01109556514767955   -0.008746613057702655
-0.4530290019163345   0.01109556514767955   -0.008746613057702655
-0.4530290019163345   0.01109556514767955   -0.008746613057702655
-0.4530290019163345   0.01109556514767955   -0.008746613057702655
-0.5267616161358921   0.008306144018007847   0.01301401125324753
-0.5267616161358921   0.008306144018007847   0.01301401125324753
-0.5267616161358921   0.008306144018007847   0.01301401125324753
-0.5267616161358921   0.008306144018007847   0.01301401125324753
-0.4423135145513082   0.03777116662609241   0.018155222289014027
-0.4423135145513082   0.03777116662609241   0.018155222289014027
-0.4423135145513082   0.03777116662609241   0.018155222289014027
-0.4423135145513082   0.03777116662609241   0.018155222289014027
-0.6733738366946714   -0.03362543303172855   -0.012006769176406189
-0.6733738366946714   -0.03362543303172855   -0.012006769176406189
-0.6733738366946714   -0.03362543303172855   -0.012006769176406189
-0.6733738366946714   -0.03362543303172855   -0.012006769176406189
-0.6785422804988217   -0.010860609859921405   0.01776313653631622
-0.6785422804988217   -0.010860609859921405   0.01776313653631622
-0.6785422804988217   -0.010860609859921405   0.01776313653631622
-0.6785422804988217   -0.010860609859921405   0.01776313653631622
-0.46429416531856754   0.007034772499854208   -0.007478381113368574
-0.46429416531856754   0.007034772499854208   -0.007478381113368574
-0.46429416531856754   0.007034772499854208   -0.007478381113368574
-0.46429416531856754   0.007034772499854208   -0.007478381113368574
-0.548959738244019   0.004151654835278407   0.00805140020770273
-0.548959738244019   0.004151654835278407   0.00805140020770273
-0.548959738244019   0.004151654835278407   0.00805140020770273
-0.548959738244019   0.004151654835278407   0.00805140020770273
-0.4529289234907081   0.034988295282995546   0.0213943052427873
-0.4529289234907081   0.034988295282995546   0.0213943052427873
-0.4529289234907081   0.034988295282995546   0.0213943052427873
-0.4529289234907081   0.034988295282995546   0.0213943052427873
-0.6896145497619348   -0.03852116007831517   -0.00993765956084815
-0.6896145497619348   -0.03852116007831517   -0.00993765956084815
-0.6896145497619348   -0.03852116007831517   -0.00993765956084815
-0.6896145497619348   -0.03852116007831517   -0.00993765956084815
-0.6992870798538403   -0.02433337265657466   0.01737733388984308
-0.6992870798538403   -0.02433337265657466   0.01737733388984308
-0.6992870798538403   -0.02433337265657466   0.01737733388984308
-0.6992870798538403   -0.02433337265657466   0.01737733388984308
-0.4762134195783325   -0.004415805868862213   -0.006784680353713619
-0.4762134195783325   -0.004415805868862213   -0.006784680353713619
-0.4762134195783325   -0.004415805868862213   -0.006784680353713619
-0.4762134195783325   -0.004415805868862213   -0.006784680353713619
-0.5543569336860813   -0.0010775007894662514   0.006453480610887508
-0.5543569336860813   -0.0010775007894662514   0.006453480610887508
-0.5543569336860813   -0.0010775007894662514   0.006453480610887508
-0.5543569336860813   -0.0010775007894662514   0.006453480610887508
0.30786547522443547   0.017631989738461654   -0.0202293852170919
0.30786547522443547   0.017631989738461654   -0.0202293852170919
0.30786547522443547   0.017631989738461654   -0.0202293852170919
0.30786547522443547   0.017631989738461654   -0.0202293852170919
0.13147380352434257   0.007909282338785219   0.008581751298663747
0.13147380352434257   0.007909282338785219   0.008581751298663747
0.13147380352434257   0.007909282338785219   0.008581751298663747
0.13147380352434257   0.007909282338785219   0.008581751298663747
0.11069955754933698   -0.029900196781753742   -0.018902363191482682
0.11069955754933698   -0.029900196781753742   -0.018902363191482682
0.11069955754933698   -0.029900196781753742   -0.018902363191482682
0.11069955754933698   -0.029900196781753742   -0.018902363191482682
0.3009205787479269   0.03463482711832809   0.010438670438186613
0.3009205787479269   0.03463482711832809   0.010438670438186613
0.3009205787479269   0.03463482711832809   0.010438670438186613
0.3009205787479269   0.03463482711832809   0.010438670438186613
0.20148481043962008   0.0044402397681544345   -0.00549563619747123
0.20148481043962008   0.0044402397681544345   -0.00549563619747123
0.20148481043962008   0.0044402397681544345   -0.00549563619747123
0.20148481043962008   0.0044402397681544345   -0.00549563619747123
0.28928593694302934   0.005814674534735838   -0.018914386002711753
0.28928593694302934   0.005814674534735838   -0.018914386002711753
0.28928593694302934   0.005814674534735838   -0.018914386002711753
0.28928593694302934   0.005814674534735838   -0.018914386002711753
0.1221147837952015   -0.0012994597571972348   0.009573031013285327
0.1221147837952015   -0.0012994597571972348   0.009573031013285327
0.1221147837952015   -0.0012994597571972348   0.009573031013285327
0.1221147837952015   -0.0012994597571972348   0.009573031013285327
0.10187839989272371   -0.03331912603264559   -0.016124051877007717
0.10187839989272371   -0.03331912603264559   -0.016124051877007717
0.10187839989272371   -0.03331912603264559   -0.016124051877007717
0.10187839989272371   -0.03331912603264559   -0.016124051877007717
0.2863895586681016   0.029777840984382256   0.013511727011083816
0.2863895586681016   0.029777840984382256   0.013511727011083816
0.2863895586681016   0.029777840984382256   0.013511727011083816
0.2863895586681016   0.029777840984382256   0.013511727011083816
0.19248988931131178   -0.0012306882606220523   -0.008823754035146564
0.19248988931131178   -0.0012306882606220523   -0.008823754035146564
0.19248988931131178   -0.0012306882606220523   -0.008823754035146564
0.19248988931131178   -0.0012306882606220523   -0.008823754035146564
0.2749314758389076   0.0014301085849094189   -0.015430954735416525
0.2749314758389076   0.0014301085849094189   -0.015430954735416525
0.2749314758389076   0.0014301085849094189   -0.015430954735416525
0.2749314758389076   0.0014301085849094189   -0.015430954735416525
0.11300656223526093   -0.005301314119829939   0.01149894792286357
0.11300656223526093   -0.005301314119829939   0.01149894792286357
0.11300656223526093   -0.005301314119829939   0.01149894792286357
0.11300656223526093   -0.005301314119829939   0.01149894792286357
0.09401093274975773   -0.03631120874757866   -0.013449394597011005
0.09401093274975773   -0.03631120874757866   -0.013449394597011005
0.09401093274975773   -0.03631120874757866   -0.013449394597011005
0.09401093274975773   -0.03631120874757866   -0.013449394597011005
0.26939517893031806   0.023470896134457096   0.015468259782898825
0.26939517893031806   0.023470896134457096   0.015468259782898825
0.26939517893031806   0.023470896134457096   0.015468259782898825
0.26939517893031806   0.023470896134457096   0.015468259782898825
0.17690669276099488   -0.00583919664945122   -0.013455951898958905
0.17690669276099488   -0.00583919664945122   -0.013455951898958905
0.17690669276099488   -0.00583919664945122   -0.013455951898958905
0.17690669276099488   -0.00583919664945122   -0.013455951898958905
0.13255605320645245   0.025377755626420816   -0.003475473578424579
0.13255605320645245   0.025377755626420816   -0.003475473578424579
0.13255605320645245   0.025377755626420816   -0.003475473578424579
0.13255605320645245   0.025377755626420816   -0.003475473578424579
-0.04008804912489624   0.0018832326567640202   0.0010598833098536325
-0.04008804912489624   0.0018832326567640202   0.0010598833098536325
-0.04008804912489624   0.0018832326567640202   0.0010598833098536325
-0.04008804912489624   0.0018832326567640202   0.0010598833098536325
-0.05429225965402689   -0.02087012808831835   -0.011700544048905024
-0.05429225965402689   -0.02087012808831835   -0.011700544048905024
-0.05429225965402689   -0.02087012808831835   -0.011700544048905024
-0.05429225965402689   -0.02087012808831835   -0.011700544048905024
0.1290712702702111   0.03044717954254638   0.012608824088589684
0.1290712702702111   0.03044717954254638   0.012608824088589684
0.1290712702702111   0.03044717954254638   0.012608824088589684
0.1290712702702111   0.03044717954254638   0.012608824088589684
0.040900284964035555   0.008756403257965244   0.0015840451003196947
0.040900284964035555   0.008756403257965244   0.0015840451003196947
0.040900284964035555   0.008756403257965244   0.0015840451003196947
0.040900284964035555   0.008756403257965244   0.0015840451003196947
0.12342577893866233   0.01664941486223478   -0.0018208678888439215
0.12342577893866233   0.01664941486223478   -0.0018208678888439215
0.12342577893866233   0.01664941486223478   -0.0018208678888439215
0.12342577893866233   0.01664941486223478   -0.0018208678888439215
-0.04873551836114191   -0.007161113446668048   0.0023741477738705593
-0.04873551836114191   -0.007161113446668048   0.0023741477738705593
-0.04873551836114191   -0.007161113446668048   0.0023741477738705593
-0.04873551836114191   -0.007161113446668048   0.0023741477738705593
-0.062490368793079544   -0.027730164696683726   -0.009496711101798786
-0.062490368793079544   -0.027730164696683726   -0.009496711101798786
-0.062490368793079544   -0.027730164696683726   -0.009496711101798786
-0.062490368793079544   -0.027730164696683726   -0.009496711101798786
0.11900742516880558   0.02249208102609273   0.013709867444664134
0.11900742516880558   0.02249208102609273   0.013709867444664134
0.11900742516880558   0.02249208102609273   0.013709867444664134
0.11900742516880558   0.02249208102609273   0.013709867444664134
0.03075260609935323   0.0009451441462838151   -0.0021674925645495608
0.03075260609935323   0.0009451441462838151   -0.0021674925645495608
0.03075260609935323   0.0009451441462838151   -0.0021674925645495608
0.03075260609935323   0.0009451441462838151   -0.0021674925645495608
0.11354057049540651   0.00929075033510431   -0.0004230752313446554
0.11354057049540651   0.00929075033510431   -0.0004230752313446554
0.11354057049540651   0.00929075033510431   -0.0004230752313446554
0.11354057049540651   0.00929075033510431   -0.0004230752313446554
-0.0572418669311043   -0.014747186817119118   0.003762820328514758
-0.0572418669311043   -0.014747186817119118   0.003762820328514758
-0.0572418669311043   -0.014747186817119118   0.003762820328514758
-0.0572418669311043   -0.014747186817119118   0.003762820328514758
-0.07057439389109468   -0.03413298933509378   -0.007461556341506853
-0.07057439389109468   -0.03413298933509378   -0.007461556341506853
-0.07057439389109468   -0.03413298933509378   -0.007461556341506853
-0.07057439389109468   -0.03413298933509378   -0.007461556341506853
0.10992614105291221   0.014893593050687545   0.014921845120497323
0.10992614105291221   0.014893593050687545   0.014921845120497323
0.10992614105291221   0.014893593050687545   0.014921845120497323
0.10992614105291221   0.014893593050687545   0.014921845120497323
0.022663207029757958   -0.005480834224605402   -0.005463603113209269
0.022663207029757958   -0.005480834224605402   -0.005463603113209269
0.022663207029757958   -0.005480834224605402   -0.005463603113209269
0.022663207029757958   -0.005480834224605402   -0.005463603113209269
-0.033724075013116535   0.03181322335714543   0.0029497631683698036
-0.033724075013116535   0.03181322335714543   0.0029497631683698036
-0.033724075013116535   0.03181322335714543   0.0029497631683698036
-0.033724075013116535   0.03181322335714543   0.0029497631683698036
-0.2090484364474042   -0.0055942340198993495   -0.006390417257028935
-0.2090484364474042   -0.0055942340198993495   -0.006390417257028935
-0.2090484364474042   -0.0055942340198993495   -0.006390417257028935
-0.2090484364474042   -0.0055942340198993495   -0.006390417257028935
-0.21715958852921874   -0.012719028322676712   -0.004723540330373203
-0.21715958852921874   -0.012719028322676712   -0.004723540330373203
-0.21715958852921874   -0.012719028322676712   -0.004723540330373203
-0.21715958852921874   -0.012719028322676712   -0.004723540330373203
-0.04215598758042677   0.02320086595281963   0.004909822277958553
-0.04215598758042677   0.02320086595281963   0.004909822277958553
-0.04215598758042677   0.02320086595281963   0.004909822277958553
-0.04215598758042677   0.02320086595281963   0.004909822277958553
-0.1252114996417214   0.009018263788179551   0.002502916688729503
-0.1252114996417214   0.009018263788179551   0.002502916688729503
-0.1252114996417214   0.009018263788179551   0.002502916688729503
-0.1252114996417214   0.009018263788179551   0.002502916688729503
-0.041918752183592645   0.024277683379593934   0.005019181835353935
-0.041918752183592645   0.024277683379593934   0.005019181835353935
-0.041918752183592645   0.024277683379593934   0.005019181835353935
-0.041918752183592645   0.024277683379593934   0.005019181835353935
-0.21742632493261388   -0.013825346756009618   -0.004950903914015941
-0.21742632493261388   -0.013825346756009618   -0.004950903914015941
-0.21742632493261388   -0.013825346756009618   -0.004950903914015941
-0.21742632493261388   -0.013825346756009618   -0.004950903914015941
-0.22544638208456008   -0.02019351859146755   -0.002768089950086811
-0.22544638208456008   -0.02019351859146755   -0.002768089950086811
-0.22544638208456008   -0.02019351859146755   -0.002768089950086811
-0.22544638208456008   -0.02019351859146755   -0.002768089950086811
-0.050761110494773755   0.015015136380473769   0.006404279312572649
-0.050761110494773755   0.015015136380473769   0.006404279312572649
-0.050761110494773755   0.015015136380473769   0.006404279312572649
-0.050761110494773755   0.015015136380473769   0.006404279312572649
-0.13372927720826547   0.0017225326827133985   -0.0007128868574843572
-0.13372927720826547   0.0017225326827133985   -0.0007128868574843572
-0.13372927720826547   0.0017225326827133985   -0.0007128868574843572
-0.13372927720826547   0.0017225326827133985   -0.0007128868574843572
-0.05034741067065013   0.01673123053672075   0.006756684276944773
-0.05034741067065013   0.01673123053672075   0.006756684276944773
-0.05034741067065013   0.01673123053672075   0.006756684276944773
-0.05034741067065013   0.01673123053672075   0.006756684276944773
-0.22600153358999178   -0.022051064429022472   -0.0036863016396905136
-0.22600153358999178   -0.022051064429022472   -0.0036863016396905136
-0.22600153358999178   -0.022051064429022472   -0.0036863016396905136
-0.22600153358999178   -0.022051064429022472   -0.0036863016396905136
-0.2335856853943079   -0.02732751056751665   -0.000860785212826851
-0.2335856853943079   -0.02732751056751665   -0.000860785212826851
-0.2335856853943079   -0.02732751056751665   -0.000860785212826851
-0.2335856853943079   -0.02732751056751665   -0.000860785212826851
-0.05930006311517316   0.007063741456566894   0.0077133667464381874
-0.05930006311517316   0.007063741456566894   0.0077133667464381874
-0.05930006311517316   0.007063741456566894   0.0077133667464381874
-0.05930006311517316   0.007063741456566894   0.0077133667464381874
-0.14260487400771704   -0.005578477395874148   -0.004202821259446318
-0.14260487400771704   -0.005578477395874148   -0.004202821259446318
-0.14260487400771704   -0.005578477395874148   -0.004202821259446318
-0.14260487400771704   -0.005578477395874148   -0.004202821259446318
-0.19732270317711104   0.037380310558295084   0.009263704516242505
-0.19732270317711104   0.037380310558295084   0.009263704516242505
-0.19732270317711104   0.037380310558295084   0.009263704516242505
-0.19732270317711104   0.037380310558295084   0.009263704516242505
-0.37531394046203825   -0.013069546935605067   -0.012911284722956107
-0.37531394046203825   -0.013069546935605067   -0.012911284722956107
-0.37531394046203825   -0.013069546935605067   -0.012911284722956107
-0.37531394046203825   -0.013069546935605067   -0.012911284722956107
-0.37834051737205987   -0.00613132496535751   0.0027457058285448657
-0.37834051737205987   -0.00613132496535751   0.0027457058285448657
-0.37834051737205987   -0.00613132496535751   0.0027457058285448657
-0.37834051737205987   -0.00613132496535751   0.0027457058285448657
-0.21117401304869649   0.015151662102387567   -0.0026663533528301017
-0.21117401304869649   0.015151662102387567   -0.0026663533528301017
-0.21117401304869649   0.015151662102387567   -0.0026663533528301017
-0.21117401304869649   0.015151662102387567   -0.0026663533528301017
-0.28878749998947545   0.00840570012597941   0.0036143199681510363
-0.28878749998947545   0.00840570012597941   0.0036143199681510363
-0.28878749998947545   0.00840570012597941   0.0036143199681510363
-0.28878749998947545   0.00840570012597941   0.0036143199681510363
-0.2053713254627706   0.030177601322188725   0.011321145357002148
-0.2053713254627706   0.030177601322188725   0.011321145357002148
-0.2053713254627706   0.030177601322188725   0.011321145357002148
-0.2053713254627706   0.030177601322188725   0.011321145357002148
-0.3844066880526522   -0.02142074727982768   -0.012295725259950568
-0.3844066880526522   -0.02142074727982768   -0.012295725259950568
-0.3844066880526522   -0.02142074727982768   -0.012295725259950568
-0.3844066880526522   -0.02142074727982768   -0.012295725259950568
-0.38812035626279473   -0.01353927580180446   0.003641571037454258
-0.38812035626279473   -0.01353927580180446   0.003641571037454258
-0.38812035626279473   -0.01353927580180446   0.003641571037454258
-0.38812035626279473   -0.01353927580180446   0.003641571037454258
-0.21955193085125396   0.007601336142927136   -0.0010906885179567082
-0.21955193085125396   0.007601336142927136   -0.0010906885179567082
-0.21955193085125396   0.007601336142927136   -0.0010906885179567082
-0.21955193085125396   0.007601336142927136   -0.0010906885179567082
-0.29591019816518827   0.0018175117458045092   0.00039787308657548634
-0.29591019816518827   0.0018175117458045092   0.00039787308657548634
-0.29591019816518827   0.0018175117458045092   0.00039787308657548634
-0.29591019816518827   0.0018175117458045092   0.00039787308657548634
-0.21353830730060933   0.023303810715651047   0.013274954662546405
-0.21353830730060933   0.023303810715651047   0.013274954662546405
-0.21353830730060933   0.023303810715651047   0.013274954662546405
-0.21353830730060933   0.023303810715651047   0.013274954662546405
-0.3941622652929403   -0.029270035854029   -0.010837214061051034
-0.3941622652929403   -0.029270035854029   -0.010837214061051034
-0.3941622652929403   -0.029270035854029   -0.010837214061051034
-0.3941622652929403   -0.029270035854029   -0.010837214061051034
-0.3968089175877651   -0.021458818160675658   0.005687617586037159
-0.3968089175877651   -0.021458818160675658   0.005687617586037159
-0.3968089175877651   -0.021458818160675658   0.005687617586037159
-0.3968089175877651   -0.021458818160675658   0.005687617586037159
-0.22808010930751527   -0.0008071762074960825   0.00014676086110996557
-0.22808010930751527   -0.0008071762074960825   0.00014676086110996557
-0.22808010930751527   -0.0008071762074960825   0.00014676086110996557
-0.22808010930751527   -0.0008071762074960825   0.00014676086110996557
-0.30673694448893357   -0.005892564001254853   -0.0033604051906864687
-0.30673694448893357   -0.005892564001254853   -0.0033604051906864687
-0.30673694448893357   -0.005892564001254853   -0.0033604051906864687
-0.30673694448893357   -0.005892564001254853   -0.0033604051906864687
-0.3602782501297428   0.0346776631106971   0.014519956892219198
-0.3602782501297428   0.0346776631106971   0.014519956892219198
-0.3602782501297428   0.0346776631106971   0.014519956892219198
-0.3602782501297428   0.0346776631106971   0.014519956892219198
-0.5324623342569917   -0.024641896493741933   -0.01655225981105099
-0.5324623342569917   -0.024641896493741933   -0.01655225981105099
-0.5324623342569917   -0.024641896493741933   -0.01655225981105099
-0.5324623342569917   -0.024641896493741933   -0.01655225981105099
-0.537419433101716   -0.0011601975339113196   0.014365004719724496
-0.537419433101716   -0.0011601975339113196   0.014365004719724496
-0.537419433101716   -0.0011601975339113196   0.014365004719724496
-0.537419433101716   -0.0011601975339113196   0.014365004719724496
-0.3785507195304538   0.005423417683939974   -0.009860047612730204
-0.3785507195304538   0.005423417683939974   -0.009860047612730204
-0.3785507195304538   0.005423417683939974   -0.009860047612730204
-0.3785507195304538   0.005423417683939974   -0.009860047612730204
-0.43223118256218734   0.007888962588377749   0.01104492128774864
-0.43223118256218734   0.007888962588377749   0.01104492128774864
-0.43223118256218734   0.007888962588377749   0.01104492128774864
-0.43223118256218734   0.007888962588377749   0.01104492128774864
-0.36756371905164625   0.033364682354340314   0.017133690110912904
-0.36756371905164625   0.033364682354340314   0.017133690110912904
-0.36756371905164625   0.033364682354340314   0.017133690110912904
-0.36756371905164625   0.033364682354340314   0.017133690110912904
-0.5486346191459949   -0.02932964776978085   -0.013541475265793183
-0.5486346191459949   -0.02932964776978085   -0.013541475265793183
-0.5486346191459949   -0.02932964776978085   -0.013541475265793183
-0.5486346191459949   -0.02932964776978085   -0.013541475265793183
-0.5512691667858741   -0.005246563842281851   0.018089938643242407
-0.5512691667858741   -0.005246563842281851   0.018089938643242407
-0.5512691667858741   -0.005246563842281851   0.018089938643242407
-0.5512691667858741   -0.005246563842281851   0.018089938643242407
-0.38756083105992506   0.0012852713795265536   -0.008385350129534404
-0.38756083105992506   0.0012852713795265536   -0.008385350129534404
-0.38756083105992506   0.0012852713795265536   -0.008385350129534404
-0.38756083105992506   0.0012852713795265536   -0.008385350129534404
-0.45109752508361123   0.003209986001426829   0.005925123448230162
-0.45109752508361123   0.003209986001426829   0.005925123448230162
-0.45109752508361123   0.003209986001426829   0.005925123448230162
-0.45109752508361123   0.003209986001426829   0.005925123448230162
-0.37606467075492556   0.03021041015854621   0.020170312616449453
-0.37606467075492556   0.03021041015854621   0.020170312616449453
-0.37606467075492556   0.03021041015854621   0.020170312616449453
-0.37606467075492556   0.03021041015854621   0.020170312616449453
-0.5629286739415966   -0.03433504947202601   -0.011119111505625702
-0.5629286739415966   -0.03433504947202601   -0.011119111505625702
-0.5629286739415966   -0.03433504947202601   -0.011119111505625702
-0.5629286739415966   -0.03433504947202601   -0.011119111505625702
-0.5697960769845575   -0.018155570705527563   0.01809915286918466
-0.5697960769845575   -0.018155570705527563   0.01809915286918466
-0.5697960769845575   -0.018155570705527563   0.01809915286918466
-0.5697960769845575   -0.018155570705527563   0.01809915286918466
-0.3970046217991924   -0.009331702866905614   -0.0074180187648767645
-0.3970046217991924   -0.009331702866905614   -0.0074180187648767645
-0.3970046217991924   -0.009331702866905614   -0.0074180187648767645
-0.3970046217991924   -0.009331702866905614   -0.0074180187648767645
-0.456174612295598   -0.0021769552518116075   0.0035382934238875237
-0.456174612295598   -0.0021769552518116075   0.0035382934238875237
-0.456174612295598   -0.0021769552518116075   0.0035382934238875237
-0.456174612295598   -0.0021769552518116075   0.0035382934238875237
0.1730235804871598   0.010509738066759818   -0.01996574702428046
0.1730235804871598   0.010509738066759818   -0.01996574702428046
0.1730235804871598   0.010509738066759818   -0.01996574702428046
0.1730235804871598   0.010509738066759818   -0.01996574702428046
0.05141266229842431   0.011823157835065736   0.00945986020810527
0.05141266229842431   0.011823157835065736   0.00945986020810527
0.05141266229842431   0.011823157835065736   0.00945986020810527
0.05141266229842431   0.011823157835065736   0.00945986020810527
0.03288166711060423   -0.024587912278272842   -0.017636114907495438
0.03288166711060423   -0.024587912278272842   -0.017636114907495438
0.03288166711060423   -0.024587912278272842   -0.017636114907495438
0.03288166711060423   -0.024587912278272842   -0.017636114907495438
0.16850648345298078   0.028838175306733854   0.011377814508142792
0.16850648345298078   0.028838175306733854   0.011377814508142792
0.16850648345298078   0.028838175306733854   0.011377814508142792
0.16850648345298078   0.028838175306733854   0.011377814508142792
0.10028533724232944   0.00483290401871099   -0.0022851134168425285
0.10028533724232944   0.00483290401871099   -0.0022851134168425285
0.10028533724232944   0.00483290401871099   -0.0022851134168425285
0.10028533724232944   0.00483290401871099   -0.0022851134168425285
0.15680399064492093   5.37338041706574e-05   -0.01835020802959465
0.15680399064492093   5.37338041706574e-05   -0.01835020802959465
0.15680399064492093   5.37338041706574e-05   -0.01835020802959465
0.15680399064492093   5.37338041706574e-05   -0.01835020802959465
0.04421958569779744   0.0038319550034235355   0.010633610746774522
0.04421958569779744   0.0038319550034235355   0.010633610746774522
0.04421958569779744   0.0038319550034235355   0.010633610746774522
0.04421958569779744   0.0038319550034235355   0.010633610746774522
0.025898851704119076   -0.02802572760554825   -0.015015408974601458
0.025898851704119076   -0.02802572760554825   -0.015015408974601458
0.025898851704119076   -0.02802572760554825   -0.015015408974601458
0.025898851704119076   -0.02802572760554825   -0.015015408974601458
0.1559515376588759   0.024099357059395157   0.01466819811093103
0.1559515376588759   0.024099357059395157   0.01466819811093103
0.1559515376588759   0.024099357059395157   0.01466819811093103
0.1559515376588759   0.024099357059395157   0.01466819811093103
0.09162821847517327   -0.0005583913731575796   -0.005751029846207626
0.09162821847517327   -0.0005583913731575796   -0.005751029846207626
0.09162821847517327   -0.0005583913731575796   -0.005751029846207626
0.09162821847517327   -0.0005583913731575796   -0.005751029846207626
0.1443013153104811   -0.004365720336406916   -0.015117836235241468
0.1443013153104811   -0.004365720336406916   -0.015117836235241468
0.1443013153104811   -0.004365720336406916   -0.015117836235241468
0.1443013153104811   -0.004365720336406916   -0.015117836235241468
0.03705656561146346   -5.315865079911705e-05   0.012800591607372076
0.03705656561146346   -5.315865079911705e-05   0.012800591607372076
0.03705656561146346   -5.315865079911705e-05   0.012800591607372076
0.03705656561146346   -5.315865079911705e-05   0.012800591607372076
0.019666009595138645   -0.03207330171395895   -0.012523560123986689
0.019666009595138645   -0.03207330171395895   -0.012523560123986689
0.019666009595138645   -0.03207330171395895   -0.012523560123986689
0.019666009595138645   -0.03207330171395895   -0.012523560123986689
0.14037602036314983   0.016585715171364854   0.01632778138660132
0.14037602036314983   0.016585715171364854   0.01632778138660132
0.14037602036314983   0.016585715171364854   0.01632778138660132
0.14037602036314983   0.016585715171364854   0.01632778138660132
0.0793997761754438   -0.005317283054872078   -0.010035011836385398
0.0793997761754438   -0.005317283054872078   -0.010035011836385398
0.0793997761754438   -0.005317283054872078   -0.010035011836385398
0.0793997761754438   -0.005317283054872078   -0.010035011836385398
0.04972728741804765   0.018504626693032933   -0.005648483051745696
0.04972728741804765   0.018504626693032933   -0.005648483051745696
0.04972728741804765   0.018504626693032933   -0.005648483051745696
0.04972728741804765   0.018504626693032933   -0.005648483051745696
-0.06741887043532649   0.005675739967008958   0.002223128661531866
-0.06741887043532649   0.005675739967008958   0.002223128661531866
-0.06741887043532649   0.005675739967008958   0.002223128661531866
-0.06741887043532649   0.005675739967008958   0.002223128661531866
-0.07936743789426091   -0.015830057399107762   -0.010338652455193659
-0.07936743789426091   -0.015830057399107762   -0.010338652455193659
-0.07936743789426091   -0.015830057399107762   -0.010338652455193659
-0.07936743789426091   -0.015830057399107762   -0.010338652455193659
0.04811602038538907   0.02292653244139231   0.011021206746763873
0.04811602038538907   0.02292653244139231   0.011021206746763873
0.04811602038538907   0.02292653244139231   0.011021206746763873
0.04811602038538907   0.02292653244139231   0.011021206746763873
-0.012657714621063   0.00748340396298452   0.0019696326182449464
-0.012657714621063   0.00748340396298452   0.0019696326182449464
-0.012657714621063   0.00748340396298452   0.0019696326182449464
-0.012657714621063   0.00748340396298452   0.0019696326182449464
0.042451949185417254   0.009772522621274206   -0.00414513943297733
0.042451949185417254   0.009772522621274206   -0.00414513943297733
0.042451949185417254   0.009772522621274206   -0.00414513943297733
0.042451949185417254   0.009772522621274206   -0.00414513943297733
-0.07401893732329076   -0.002991618207988796   0.0035654112085381647
-0.07401893732329076   -0.002991618207988796   0.0035654112085381647
-0.07401893732329076   -0.002991618207988796   0.0035654112085381647
-0.07401893732329076   -0.002991618207988796   0.0035654112085381647
-0.08561001248843787   -0.022799047569520614   -0.008128337876159146
-0.08561001248843787   -0.022799047569520614   -0.008128337876159146
-0.08561001248843787   -0.022799047569520614   -0.008128337876159146
-0.08561001248843787   -0.022799047569520614   -0.008128337876159146
0.03992675312295621   0.015074764402428987   0.012023606111607701
0.03992675312295621   0.015074764402428987   0.012023606111607701
0.03992675312295621   0.015074764402428987   0.012023606111607701
0.03992675312295621   0.015074764402428987   0.012023606111607701
-0.020392924365800483   -7.537561624183266e-05   -0.001657192378752431
-0.020392924365800483   -7.537561624183266e-05   -0.001657192378752431
-0.020392924365800483   -7.537561624183266e-05   -0.001657192378752431
-0.020392924365800483   -7.537561624183266e-05   -0.001657192378752431
0.03442634357882562   0.0022942964815337646   -0.00269797368815075
0.03442634357882562   0.0022942964815337646   -0.00269797368815075
0.03442634357882562   0.0022942964815337646   -0.00269797368815075
0.03442634357882562   0.0022942964815337646   -0.00269797368815075
-0.08051873691031425   -0.010427713614632326   0.004956706059571602
-0.08051873691031425   -0.010427713614632326   0.004956706059571602
-0.08051873691031425   -0.010427713614632326   0.004956706059571602
-0.08051873691031425   -0.010427713614632326   0.004956706059571602
-0.09180216758511343   -0.02966291477998925   -0.006132385394861001
-0.09180216758511343   -0.02966291477998925   -0.006132385394861001
-0.09180216758511343   -0.02966291477998925   -0.006132385394861001
-0.09180216758511343   -0.02966291477998925   -0.006132385394861001
0.03275556635978917   0.0074165820817583775   0.013434339903549052
0.03275556635978917   0.0074165820817583775   0.013434339903549052
0.03275556635978917   0.0074165820817583775   0.013434339903549052
0.03275556635978917   0.0074165820817583775   0.013434339903549052
-0.027045334879864283   -0.0067857380004823   -0.005066188097225816
-0.027045334879864283   -0.0067857380004823   -0.005066188097225816
-0.027045334879864283   -0.0067857380004823   -0.005066188097225816
-0.027045334879864283   -0.0067857380004823   -0.005066188097225816
-0.06383338703324203   0.024910097035109588   0.0009161886038535905
-0.06383338703324203   0.024910097035109588   0.0009161886038535905
-0.06383338703324203   0.024910097035109588   0.0009161886038535905
-0.06383338703324203   0.024910097035109588   0.0009161886038535905
-0.18454925668876787   -0.002466002377045459   -0.005137716768050152
-0.18454925668876787   -0.002466002377045459   -0.005137716768050152
-0.18454925668876787   -0.002466002377045459   -0.005137716768050152
-0.18454925668876787   -0.002466002377045459   -0.005137716768050152
-0.19018987114915684   -0.008008173640828058   -0.0031014921215652014
-0.19018987114915684   -0.008008173640828058   -0.0031014921215652014
-0.19018987114915684   -0.008008173640828058   -0.0031014921215652014
-0.19018987114915684   -0.008008173640828058   -0.0031014921215652014
-0.07040889743591999   0.015111680974491594   0.003512311462909692
-0.07040889743591999   0.015111680974491594   0.003512311462909692
-0.07040889743591999   0.015111680974491594   0.003512311462909692
-0.07040889743591999   0.015111680974491594   0.003512311462909692
-0.12693628150847733   0.007217447173998168   0.002022200816910477
-0.12693628150847733   0.007217447173998168   0.002022200816910477
-0.12693628150847733   0.007217447173998168   0.002022200816910477
-0.12693628150847733   0.007217447173998168   0.002022200816910477
-0.07009200292912685   0.01722782618480142   0.0029806387865675636
-0.07009200292912685   0.01722782618480142   0.0029806387865675636
-0.07009200292912685   0.01722782618480142   0.0029806387865675636
-0.07009200292912685   0.01722782618480142   0.0029806387865675636
-0.1907849097102402   -0.010402462905433243   -0.003682395662378912
-0.1907849097102402   -0.010402462905433243   -0.003682395662378912
-0.1907849097102402   -0.010402462905433243   -0.003682395662378912
-0.1907849097102402   -0.010402462905433243   -0.003682395662378912
-0.1964089330682211   -0.015616411702830547   -0.001105638530501574
-0.1964089330682211   -0.015616411702830547   -0.001105638530501574
-0.1964089330682211   -0.015616411702830547   -0.001105638530501574
-0.1964089330682211   -0.015616411702830547   -0.001105638530501574
-0.07699529724975604   0.007148106569072096   0.004998084178657286
-0.07699529724975604   0.007148106569072096   0.004998084178657286
-0.07699529724975604   0.007148106569072096   0.004998084178657286
-0.07699529724975604   0.007148106569072096   0.004998084178657286
-0.1334206114059144   -1.9029154591603675e-05   -0.0012226197260142542
-0.1334206114059144   -1.9029154591603675e-05   -0.0012226197260142542
-0.1334206114059144   -1.9029154591603675e-05   -0.0012226197260142542
-0.1334206114059144   -1.9029154591603675e-05   -0.0012226197260142542
-0.07656972441725969   0.009522807262920385   0.0047512476472916735
-0.07656972441725969   0.009522807262920385   0.0047512476472916735
-0.07656972441725969   0.009522807262920385   0.0047512476472916735
-0.07656972441725969   0.009522807262920385   0.0047512476472916735
-0.19722917438623788   -0.01838578088219655   -0.002437475941219463
-0.19722917438623788   -0.01838578088219655   -0.002437475941219463
-0.19722917438623788   -0.01838578088219655   -0.002437475941219463
-0.19722917438623788   -0.01838578088219655   -0.002437475941219463
-0.20250213155060115   -0.022952695051053094   0.0008332526437815832
-0.20250213155060115   -0.022952695051053094   0.0008332526437815832
-0.20250213155060115   -0.022952695051053094   0.0008332526437815832
-0.20250213155060115   -0.022952695051053094   0.0008332526437815832
-0.08347688461257552   -0.0005162537951720336   0.006347368483011311
-0.08347688461257552   -0.0005162537951720336   0.006347368483011311
-0.08347688461257552   -0.0005162537951720336   0.006347368483011311
-0.08347688461257552   -0.0005162537951720336   0.006347368483011311
-0.14024881117619684   -0.007269203361304353   -0.004748697795351226
-0.14024881117619684   -0.007269203361304353   -0.004748697795351226
-0.14024881117619684   -0.007269203361304353   -0.004748697795351226
-0.14024881117619684   -0.007269203361304353   -0.004748697795351226
-0.1752778990281026   0.03105877677284953   0.007694292385381163
-0.1752778990281026   0.03105877677284953   0.007694292385381163
-0.1752778990281026   0.03105877677284953   0.007694292385381163
-0.1752778990281026   0.03105877677284953   0.007694292385381163
-0.2993740791421232   -0.00922758638467392   -0.011620092573568342
-0.2993740791421232   -0.00922758638467392   -0.011620092573568342
-0.2993740791421232   -0.00922758638467392   -0.011620092573568342
-0.2993740791421232   -0.00922758638467392   -0.011620092573568342
-0.2999230747136736   -0.00115491666382736   0.004549814481072376
-0.2999230747136736   -0.00115491666382736   0.004549814481072376
-0.2999230747136736   -0.00115491666382736   0.004549814481072376
-0.2999230747136736   -0.00115491666382736   0.004549814481072376
-0.18712671514896387   0.0078051018527051305   -0.003598987614139331
-0.18712671514896387   0.0078051018527051305   -0.003598987614139331
-0.18712671514896387   0.0078051018527051305   -0.003598987614139331
-0.18712671514896387   0.0078051018527051305   -0.003598987614139331
-0.2391682799124859   0.00709401259927997   0.002626403399638353
-0.2391682799124859   0.00709401259927997   0.002626403399638353
-0.2391682799124859   0.00709401259927997   0.002626403399638353
-0.2391682799124859   0.00709401259927997   0.002626403399638353
-0.1812923850500864   0.023614009432722807   0.009763755300236036
-0.1812923850500864   0.023614009432722807   0.009763755300236036
-0.1812923850500864   0.023614009432722807   0.009763755300236036
-0.1812923850500864   0.023614009432722807   0.009763755300236036
-0.3062881442819183   -0.01749456371321194   -0.010935886310770273
-0.3062881442819183   -0.01749456371321194   -0.010935886310770273
-0.3062881442819183   -0.01749456371321194   -0.010935886310770273
-0.3062881442819183   -0.01749456371321194   -0.010935886310770273
-0.30758664536760927   -0.008663523448070656   0.0056197280434097
-0.30758664536760927   -0.008663523448070656   0.0056197280434097
-0.30758664536760927   -0.008663523448070656   0.0056197280434097
-0.30758664536760927   -0.008663523448070656   0.0056197280434097
-0.19337845255601188   0.0004591366484655024   -0.0020287843207533983
-0.19337845255601188   0.0004591366484655024   -0.0020287843207533983
-0.19337845255601188   0.0004591366484655024   -0.0020287843207533983
-0.19337845255601188   0.0004591366484655024   -0.0020287843207533983
-0.2446480247366695   0.0003673808424262126   -0.000770202961429536
-0.2446480247366695   0.0003673808424262126   -0.000770202961429536
-0.2446480247366695   0.0003673808424262126   -0.000770202961429536
-0.2446480247366695   0.0003673808424262126   -0.000770202961429536
-0.1873900039181492   0.016605315280454093   0.011767280236573318
-0.1873900039181492   0.016605315280454093   0.011767280236573318
-0.1873900039181492   0.016605315280454093   0.011767280236573318
-0.1873900039181492   0.016605315280454093   0.011767280236573318
-0.31390700684898015   -0.025141614923567757   -0.009503987887951437
-0.31390700684898015   -0.025141614923567757   -0.009503987887951437
-0.31390700684898015   -0.025141614923567757   -0.009503987887951437
-0.31390700684898015   -0.025141614923567757   -0.009503987887951437
-0.31419037378573816   -0.01651702811783387   0.007707765787628516
-0.31419037378573816   -0.01651702811783387   0.007707765787628516
-0.31419037378573816   -0.01651702811783387   0.007707765787628516
-0.31419037378573816   -0.01651702811783387   0.007707765787628516
-0.19971236644797666   -0.007428048930852547   -0.0007425679632985117
-0.19971236644797666   -0.007428048930852547   -0.0007425679632985117
-0.19971236644797666   -0.007428048930852547   -0.0007425679632985117
-0.19971236644797666   -0.007428048930852547   -0.0007425679632985117
-0.25288970639693464   -0.007014010974120084   -0.004492260775107124
-0.25288970639693464   -0.007014010974120084   -0.004492260775107124
-0.25288970639693464   -0.007014010974120084   -0.004492260775107124
-0.25288970639693464   -0.007014010974120084   -0.004492260775107124
-0.2863588162015175   0.03061248852376766   0.013616147221022792
-0.2863588162015175   0.03061248852376766   0.013616147221022792
-0.2863588162015175   0.03061248852376766   0.013616147221022792
-0.2863588162015175   0.03061248852376766   0.013616147221022792
-0.4044509620414456   -0.01876970023136061   -0.01741686340455269
-0.4044509620414456   -0.01876970023136061   -0.01741686340455269
-0.4044509620414456   -0.01876970023136061   -0.01741686340455269
-0.4044509620414456   -0.01876970023136061   -0.01741686340455269
-0.40732632502581667   0.004501010806458261   0.014303523495224076
-0.40732632502581667   0.004501010806458261   0.014303523495224076
-0.40732632502581667   0.004501010806458261   0.014303523495224076
-0.40732632502581667   0.004501010806458261   0.014303523495224076
-0.30284992241136194   -0.0006413306005993574   -0.010598010070601165
-0.30284992241136194   -0.0006413306005993574   -0.010598010070601165
-0.30284992241136194   -0.0006413306005993574   -0.010598010070601165
-0.30284992241136194   -0.0006413306005993574   -0.010598010070601165
-0.33513673480941103   0.0071815435443093045   0.008236775835445985
-0.33513673480941103   0.0071815435443093045   0.008236775835445985
-0.33513673480941103   0.0071815435443093045   0.008236775835445985
-0.33513673480941103   0.0071815435443093045   0.008236775835445985
-0.2917869122748237   0.027969442216591867   0.01610626779489905
-0.2917869122748237   0.027969442216591867   0.01610626779489905
-0.2917869122748237   0.027969442216591867   0.01610626779489905
-0.2917869122748237   0.027969442216591867   0.01610626779489905
-0.4189569449479875   -0.02467737179636552   -0.014671193512806425
-0.4189569449479875   -0.02467737179636552   -0.014671193512806425
-0.4189569449479875   -0.02467737179636552   -0.014671193512806425
-0.4189569449479875   -0.02467737179636552   -0.014671193512806425
-0.4192925660269638   0.00026517436918693793   0.018245899785806312
-0.4192925660269638   0.00026517436918693793   0.018245899785806312
-0.4192925660269638   0.00026517436918693793   0.018245899785806312
-0.4192925660269638   0.00026517436918693793   0.018245899785806312
-0.3097409186414561   -0.0047396944448862   -0.00907546732901279
-0.3097409186414561   -0.0047396944448862   -0.00907546732901279
-0.3097409186414561   -0.0047396944448862   -0.00907546732901279
-0.3097409186414561   -0.0047396944448862   -0.00907546732901279
-0.3505577138584752   0.002190545907005459   0.003132682884033615
-0.3505577138584752   0.002190545907005459   0.003132682884033615
-0.3505577138584752   0.002190545907005459   0.003132682884033615
-0.3505577138584752   0.002190545907005459   0.003132682884033615
-0.2982188309335947   0.024658163986486833   0.019137112778921352
-0.2982188309335947   0.024658163986486833   0.019137112778921352
-0.2982188309335947   0.024658163986486833   0.019137112778921352
-0.2982188309335947   0.024658163986486833   0.019137112778921352
-0.4313464806116744   -0.029664510939032704   -0.012093987829527027
-0.4313464806116744   -0.029664510939032704   -0.012093987829527027
-0.4313464806116744   -0.029664510939032704   -0.012093987829527027
-0.4313464806116744   -0.029664510939032704   -0.012093987829527027
-0.43581450132300714   -0.01184992545436847   0.0188007478216237
-0.43581450132300714   -0.01184992545436847   0.0188007478216237
-0.43581450132300714   -0.01184992545436847   0.0188007478216237
-0.43581450132300714   -0.01184992545436847   0.0188007478216237
-0.3168609156629927   -0.014246270875371267   -0.007915700841114648
-0.3168609156629927   -0.014246270875371267   -0.007915700841114648
-0.3168609156629927   -0.014246270875371267   -0.007915700841114648
-0.3168609156629927   -0.014246270875371267   -0.007915700841114648
-0.3553957315621101   -0.003157381486235525   0.00013820548632832025
-0.3553957315621101   -0.003157381486235525   0.00013820548632832025
-0.3553957315621101   -0.003157381486235525   0.00013820548632832025
-0.3553957315621101   -0.003157381486235525   0.00013820548632832025
0.03697616805462961   0.0030257398105353814   -0.02009073567076716
0.03697616805462961   0.0030257398105353814   -0.02009073567076716
0.03697616805462961   0.0030257398105353814   -0.02009073567076716
0.03697616805462961   0.0030257398105353814   -0.02009073567076716
-0.029292200441248216   0.01492377309129215   0.010189807746018706
-0.029292200441248216   0.01492377309129215   0.010189807746018706
-0.029292200441248216   0.01492377309129215   0.010189807746018706
-0.029292200441248216   0.01492377309129215   0.010189807746018706
-0.04567412543322649   -0.01951868245122982   -0.016225865395483666
-0.04567412543322649   -0.01951868245122982   -0.016225865395483666
-0.04567412543322649   -0.01951868245122982   -0.016225865395483666
-0.04567412543322649   -0.01951868245122982   -0.016225865395483666
0.034495124857735385   0.021798813224628802   0.012464161071980555
0.034495124857735385   0.021798813224628802   0.012464161071980555
0.034495124857735385   0.021798813224628802   0.012464161071980555
0.034495124857735385   0.021798813224628802   0.012464161071980555
-0.0018009643962298575   0.004792739128204885   0.0017120253233764502
-0.0018009643962298575   0.004792739128204885   0.0017120253233764502
-0.0018009643962298575   0.004792739128204885   0.0017120253233764502
-0.0018009643962298575   0.004792739128204885   0.0017120253233764502
0.022802626354289746   -0.006181718882294674   -0.018017799338324165
0.022802626354289746   -0.006181718882294674   -0.018017799338324165
0.022802626354289746   -0.006181718882294674   -0.018017799338324165
0.022802626354289746   -0.006181718882294674   -0.018017799338324165
-0.03466061979457077   0.007782856790903742   0.0115401235556614
-0.03466061979457077   0.007782856790903742   0.0115401235556614
-0.03466061979457077   0.007782856790903742   0.0115401235556614
-0.03466061979457077   0.007782856790903742   0.0115401235556614
-0.051100326595294114   -0.023004174954302792   -0.013797597703388719
-0.051100326595294114   -0.023004174954302792   -0.013797597703388719
-0.051100326595294114   -0.023004174954302792   -0.013797597703388719
-0.051100326595294114   -0.023004174954302792   -0.013797597703388719
0.023392466723696353   0.017084159201101443   0.017148588844761174
0.023392466723696353   0.017084159201101443   0.017148588844761174
0.023392466723696353   0.017084159201101443   0.017148588844761174
0.023392466723696353   0.017084159201101443   0.017148588844761174
-0.010465952404545818   -0.00043642938552843633   -0.002288993137655242
-0.010465952404545818   -0.00043642938552843633   -0.002288993137655242
-0.010465952404545818   -0.00043642938552843633   -0.002288993137655242
-0.010465952404545818   -0.00043642938552843633   -0.002288993137655242
0.011415142400896508   -0.010726946940011873   -0.014926926628124743
0.011415142400896508   -0.010726946940011873   -0.014926926628124743
0.011415142400896508   -0.010726946940011873   -0.014926926628124743
0.011415142400896508   -0.010726946940011873   -0.014926926628124743
-0.0400708250148882   0.003859108444416474   0.01448662679992089
-0.0400708250148882   0.003859108444416474   0.01448662679992089
-0.0400708250148882   0.003859108444416474   0.01448662679992089
-0.0400708250148882   0.003859108444416474   0.01448662679992089
-0.05606689138100439   -0.028261580278102633   -0.011465784116581862
-0.05606689138100439   -0.028261580278102633   -0.011465784116581862
-0.05606689138100439   -0.028261580278102633   -0.011465784116581862
-0.05606689138100439   -0.028261580278102633   -0.011465784116581862
0.00797022368456736   0.007268783744021077   0.019601016955119833
0.00797022368456736   0.007268783744021077   0.019601016955119833
0.00797022368456736   0.007268783744021077   0.019601016955119833
0.00797022368456736   0.007268783744021077   0.019601016955119833
-0.01998831960321718   -0.005658965416537638   -0.00694405471990072
-0.01998831960321718   -0.005658965416537638   -0.00694405471990072
-0.01998831960321718   -0.005658965416537638   -0.00694405471990072
-0.01998831960321718   -0.005658965416537638   -0.00694405471990072
-0.03381446720324058   0.010377036905491315   -0.007874789878142257
-0.03381446720324058   0.010377036905491315   -0.007874789878142257
-0.03381446720324058   0.010377036905491315   -0.007874789878142257
-0.03381446720324058   0.010377036905491315   -0.007874789878142257
-0.09540022470696079   0.004034309256076285   0.0026120738446812836
-0.09540022470696079   0.004034309256076285   0.0026120738446812836
-0.09540022470696079   0.004034309256076285   0.0026120738446812836
-0.09540022470696079   0.004034309256076285   0.0026120738446812836
-0.10390638253280071   -0.011379264418615991   -0.00848537463508787
-0.10390638253280071   -0.011379264418615991   -0.00848537463508787
-0.10390638253280071   -0.011379264418615991   -0.00848537463508787
-0.10390638253280071   -0.011379264418615991   -0.00848537463508787
-0.034858769289694974   0.010200411260727623   0.008131821610216448
-0.034858769289694974   0.010200411260727623   0.008131821610216448
-0.034858769289694974   0.010200411260727623   0.008131821610216448
-0.034858769289694974   0.010200411260727623   0.008131821610216448
-0.06687860218905814   0.0031001558322758943   0.0016889422027112503
-0.06687860218905814   0.0031001558322758943   0.0016889422027112503
-0.06687860218905814   0.0031001558322758943   0.0016889422027112503
-0.06687860218905814   0.0031001558322758943   0.0016889422027112503
-0.039438464953900826   0.0019151207784704766   -0.006481366228555408
-0.039438464953900826   0.0019151207784704766   -0.006481366228555408
-0.039438464953900826   0.0019151207784704766   -0.006481366228555408
-0.039438464953900826   0.0019151207784704766   -0.006481366228555408
-0.09989259582774465   -0.0036598828955087606   0.0038641773670842127
-0.09989259582774465   -0.0036598828955087606   0.0038641773670842127
-0.09989259582774465   -0.0036598828955087606   0.0038641773670842127
-0.09989259582774465   -0.0036598828955087606   0.0038641773670842127
-0.1081435764536301   -0.018204438885832577   -0.00630208075309846
-0.1081435764536301   -0.018204438885832577   -0.00630208075309846
-0.1081435764536301   -0.018204438885832577   -0.00630208075309846
-0.1081435764536301   -0.018204438885832577   -0.00630208075309846
-0.041375296741424476   0.0026522998362883783   0.009171076775367586
-0.041375296741424476   0.0026522998362883783   0.009171076775367586
-0.041375296741424476   0.0026522998362883783   0.009171076775367586
-0.041375296741424476   0.0026522998362883783   0.009171076775367586
-0.07222830514430024   -0.0037813562417007666   -0.0017759369296023461
-0.07222830514430024   -0.0037813562417007666   -0.0017759369296023461
-0.07222830514430024   -0.0037813562417007666   -0.0017759369296023461
-0.07222830514430024   -0.0037813562417007666   -0.0017759369296023461
-0.04579869041229652   -0.005444803229569833   -0.004848788513133679
-0.04579869041229652   -0.005444803229569833   -0.004848788513133679
-0.04579869041229652   -0.005444803229569833   -0.004848788513133679
-0.04579869041229652   -0.005444803229569833   -0.004848788513133679
-0.10432950469312877   -0.010716657730342392   0.0052804968939180194
-0.10432950469312877   -0.010716657730342392   0.0052804968939180194
-0.10432950469312877   -0.010716657730342392   0.0052804968939180194
-0.10432950469312877   -0.010716657730342392   0.0052804968939180194
-0.11240862804869259   -0.025177365280916915   -0.004371202501360983
-0.11240862804869259   -0.025177365280916915   -0.004371202501360983
-0.11240862804869259   -0.025177365280916915   -0.004371202501360983
-0.11240862804869259   -0.025177365280916915   -0.004371202501360983
-0.046833188377617574   -0.0049343181802021865   0.011375468802451282
-0.046833188377617574   -0.0049343181802021865   0.011375468802451282
-0.046833188377617574   -0.0049343181802021865   0.011375468802451282
-0.046833188377617574   -0.0049343181802021865   0.011375468802451282
-0.07753667550898698   -0.010525981043255457   -0.0052833154015191515
-0.07753667550898698   -0.010525981043255457   -0.0052833154015191515
-0.07753667550898698   -0.010525981043255457   -0.0052833154015191515
-0.07753667550898698   -0.010525981043255457   -0.0052833154015191515
-0.0935763495108144   0.016591061857046705   -0.0008253027755581663
-0.0935763495108144   0.016591061857046705   -0.0008253027755581663
-0.0935763495108144   0.016591061857046705   -0.0008253027755581663
-0.0935763495108144   0.016591061857046705   -0.0008253027755581663
-0.16069071393278464   -0.005628022672633671   -0.004615347976353302
-0.16069071393278464   -0.005628022672633671   -0.004615347976353302
-0.16069071393278464   -0.005628022672633671   -0.004615347976353302
-0.16069071393278464   -0.005628022672633671   -0.004615347976353302
-0.1624262041173355   -0.004206483135462881   -0.0010612024054471644
-0.1624262041173355   -0.004206483135462881   -0.0010612024054471644
-0.1624262041173355   -0.004206483135462881   -0.0010612024054471644
-0.1624262041173355   -0.004206483135462881   -0.0010612024054471644
-0.09941781261386799   0.0013137634407284944   0.0012644471002302834
-0.09941781261386799   0.0013137634407284944   0.0012644471002302834
-0.09941781261386799   0.0013137634407284944   0.0012644471002302834
-0.09941781261386799   0.0013137634407284944   0.0012644471002302834
-0.12874993515118485   0.0018789647820686775   0.0006423138780935053
-0.12874993515118485   0.0018789647820686775   0.0006423138780935053
-0.12874993515118485   0.0018789647820686775   0.0006423138780935053
-0.12874993515118485   0.0018789647820686775   0.0006423138780935053
-0.09785424955676424   0.009166127852530261   0.0012298979739472794
-0.09785424955676424   0.009166127852530261   0.0012298979739472794
-0.09785424955676424   0.009166127852530261   0.0012298979739472794
-0.09785424955676424   0.009166127852530261   0.0012298979739472794
-0.1645371370114305   -0.012606217384255897   -0.003216132627129155
-0.1645371370114305   -0.012606217384255897   -0.003216132627129155
-0.1645371370114305   -0.012606217384255897   -0.003216132627129155
-0.1645371370114305   -0.012606217384255897   -0.003216132627129155
-0.16640634183211978   -0.011540580296110128   0.0009656944351098982
-0.16640634183211978   -0.011540580296110128   0.0009656944351098982
-0.16640634183211978   -0.011540580296110128   0.0009656944351098982
-0.16640634183211978   -0.011540580296110128   0.0009656944351098982
-0.10390015072139805   -0.005903361621021754   0.0026139706432509345
-0.10390015072139805   -0.005903361621021754   0.0026139706432509345
-0.10390015072139805   -0.005903361621021754   0.0026139706432509345
-0.10390015072139805   -0.005903361621021754   0.0026139706432509345
-0.13305441512971583   -0.004791801461669121   -0.002538001072944502
-0.13305441512971583   -0.004791801461669121   -0.002538001072944502
-0.13305441512971583   -0.004791801461669121   -0.002538001072944502
-0.13305441512971583   -0.004791801461669121   -0.002538001072944502
-0.10229876243208966   0.0016927556588567823   0.0030247948099143404
-0.10229876243208966   0.0016927556588567823   0.0030247948099143404
-0.10229876243208966   0.0016927556588567823   0.0030247948099143404
-0.10229876243208966   0.0016927556588567823   0.0030247948099143404
-0.1686686679932123   -0.01979763544777312   -0.0020888812186916845
-0.1686686679932123   -0.01979763544777312   -0.0020888812186916845
-0.1686686679932123   -0.01979763544777312   -0.0020888812186916845
-0.1686686679932123   -0.01979763544777312   -0.0020888812186916845
-0.17027940162487157   -0.018562816600765482   0.0029170714673401113
-0.17027940162487157   -0.018562816600765482   0.0029170714673401113
-0.17027940162487157   -0.018562816600765482   0.0029170714673401113
-0.17027940162487157   -0.018562816600765482   0.0029170714673401113
-0.10821653019317362   -0.012695418203884583   0.004107339699200612
-0.10821653019317362   -0.012695418203884583   0.004107339699200612
-0.10821653019317362   -0.012695418203884583   0.004107339699200612
-0.10821653019317362   -0.012695418203884583   0.004107339699200612
-0.1376861192942656   -0.011497112986197666   -0.005995092379972344
-0.1376861192942656   -0.011497112986197666   -0.005995092379972344
-0.1376861192942656   -0.011497112986197666   -0.005995092379972344
-0.1376861192942656   -0.011497112986197666   -0.005995092379972344
-0.15259210450232646   0.023752301965550567   0.006497374537757334
-0.15259210450232646   0.023752301965550567   0.006497374537757334
-0.15259210450232646   0.023752301965550567   0.006497374537757334
-0.15259210450232646   0.023752301965550567   0.006497374537757334
-0.22362827979898936   -0.00947855352219322   -0.010305030562936676
-0.22362827979898936   -0.00947855352219322   -0.010305030562936676
-0.22362827979898936   -0.00947855352219322   -0.010305030562936676
-0.22362827979898936   -0.00947855352219322   -0.010305030562936676
-0.22073974952957928   0.0031174485672760197   0.006575780339330543
-0.22073974952957928   0.0031174485672760197   0.006575780339330543
-0.22073974952957928   0.0031174485672760197   0.006575780339330543
-0.22073974952957928   0.0031174485672760197   0.006575780339330543
-0.16287663900376304   -0.002994109597521194   -0.00452575037552648
-0.16287663900376304   -0.002994109597521194   -0.00452575037552648
-0.16287663900376304   -0.002994109597521194   -0.00452575037552648
-0.16287663900376304   -0.002994109597521194   -0.00452575037552648
-0.18926587255735364   0.003612080118963301   0.0009902570724554197
-0.18926587255735364   0.003612080118963301   0.0009902570724554197
-0.18926587255735364   0.003612080118963301   0.0009902570724554197
-0.18926587255735364   0.003612080118963301   0.0009902570724554197
-0.15638481854737007   0.016384272631362627   0.008554969677554387
-0.15638481854737007   0.016384272631362627   0.008554969677554387
-0.15638481854737007   0.016384272631362627   0.008554969677554387
-0.15638481854737007   0.016384272631362627   0.008554969677554387
-0.22803194159962725   -0.01706130527526349   -0.009706426168373715
-0.22803194159962725   -0.01706130527526349   -0.009706426168373715
-0.22803194159962725   -0.01706130527526349   -0.009706426168373715
-0.22803194159962725   -0.01706130527526349   -0.009706426168373715
-0.22606045524505808   -0.004114368934733562   0.007785690452297444
-0.22606045524505808   -0.004114368934733562   0.007785690452297444
-0.22606045524505808   -0.004114368934733562   0.007785690452297444
-0.22606045524505808   -0.004114368934733562   0.007785690452297444
-0.16682106172613947   -0.009580676031565892   -0.0030678092995329535
-0.16682106172613947   -0.009580676031565892   -0.0030678092995329535
-0.16682106172613947   -0.009580676031565892   -0.0030678092995329535
-0.16682106172613947   -0.009580676031565892   -0.0030678092995329535
-0.19287132053030057   -0.002811133740858965   -0.0024561441986790146
-0.19287132053030057   -0.002811133740858965   -0.0024561441986790146
-0.19287132053030057   -0.002811133740858965   -0.0024561441986790146
-0.19287132053030057   -0.002811133740858965   -0.0024561441986790146
-0.16026093319538692   0.009599024041061652   0.01055313328160237
-0.16026093319538692   0.009599024041061652   0.01055313328160237
-0.16026093319538692   0.009599024041061652   0.01055313328160237
-0.16026093319538692   0.009599024041061652   0.01055313328160237
-0.2332526509629663   -0.02392613619451741   -0.008363520877463728
-0.2332526509629663   -0.02392613619451741   -0.008363520877463728
-0.2332526509629663   -0.02392613619451741   -0.008363520877463728
-0.2332526509629663   -0.02392613619451741   -0.008363520877463728
-0.2303815864955772   -0.011424474493983712   0.00994452426864617
-0.2303815864955772   -0.011424474493983712   0.00994452426864617
-0.2303815864955772   -0.011424474493983712   0.00994452426864617
-0.2303815864955772   -0.011424474493983712   0.00994452426864617
-0.17078458863817061   -0.016349284951494666   -0.0018223952484276544
-0.17078458863817061   -0.016349284951494666   -0.0018223952484276544
-0.17078458863817061   -0.016349284951494666   -0.0018223952484276544
-0.17078458863817061   -0.016349284951494666   -0.0018223952484276544
-0.1983303140605824   -0.009403161322921079   -0.006004069358029437
-0.1983303140605824   -0.009403161322921079   -0.006004069358029437
-0.1983303140605824   -0.009403161322921079   -0.006004069358029437
-0.1983303140605824   -0.009403161322921079   -0.006004069358029437
-0.21193948514950653   0.02579003805032886   0.012870351111955562
-0.21193948514950653   0.02579003805032886   0.012870351111955562
-0.21193948514950653   0.02579003805032886   0.012870351111955562
-0.21193948514950653   0.02579003805032886   0.012870351111955562
-0.2747812901129519   -0.013901528017664748   -0.01703732271758527
-0.2747812901129519   -0.013901528017664748   -0.01703732271758527
-0.2747812901129519   -0.013901528017664748   -0.01703732271758527
-0.2747812901129519   -0.013901528017664748   -0.01703732271758527
-0.2750604788551133   0.009874161229761251   0.01419000552493795
-0.2750604788551133   0.009874161229761251   0.01419000552493795
-0.2750604788551133   0.009874161229761251   0.01419000552493795
-0.2750604788551133   0.009874161229761251   0.01419000552493795
-0.22624129144167485   -0.007402132055696814   -0.010412348598174487
-0.22624129144167485   -0.007402132055696814   -0.010412348598174487
-0.22624129144167485   -0.007402132055696814   -0.010412348598174487
-0.22624129144167485   -0.007402132055696814   -0.010412348598174487
-0.2369455096362489   0.0059621925528505   0.004735181684297016
-0.2369455096362489   0.0059621925528505   0.004735181684297016
-0.2369455096362489   0.0059621925528505   0.004735181684297016
-0.2369455096362489   0.0059621925528505   0.004735181684297016
-0.2152346305720973   0.022037578766813608   0.015181244927199033
-0.2152346305720973   0.022037578766813608   0.015181244927199033
-0.2152346305720973   0.022037578766813608   0.015181244927199033
-0.2152346305720973   0.022037578766813608   0.015181244927199033
-0.2869044113129225   -0.02040282118098135   -0.014752674353357234
-0.2869044113129225   -0.02040282118098135   -0.014752674353357234
-0.2869044113129225   -0.02040282118098135   -0.014752674353357234
-0.2869044113129225   -0.02040282118098135   -0.014752674353357234
-0.2847313701692677   0.0057283207039543135   0.018255059943001393
-0.2847313701692677   0.0057283207039543135   0.018255059943001393
-0.2847313701692677   0.0057283207039543135   0.018255059943001393
-0.2847313701692677   0.0057283207039543135   0.018255059943001393
-0.23085280504289088   -0.011193408058021999   -0.009097019413578192
-0.23085280504289088   -0.011193408058021999   -0.009097019413578192
-0.23085280504289088   -0.011193408058021999   -0.009097019413578192
-0.23085280504289088   -0.011193408058021999   -0.009097019413578192
-0.24852334435545537   0.0009402479390749063   -9.186304111399521e-05
-0.24852334435545537   0.0009402479390749063   -9.186304111399521e-05
-0.24852334435545537   0.0009402479390749063   -9.186304111399521e-05
-0.24852334435545537   0.0009402479390749063   -9.186304111399521e-05
-0.21940265527181044   0.0187792633096716   0.018181058074130483
-0.21940265527181044   0.0187792633096716   0.018181058074130483
-0.21940265527181044   0.0187792633096716   0.018181058074130483
-0.21940265527181044   0.0187792633096716   0.018181058074130483
-0.29702706812974927   -0.025089898853140315   -0.012405210302311414
-0.29702706812974927   -0.025089898853140315   -0.012405210302311414
-0.29702706812974927   -0.025089898853140315   -0.012405210302311414
-0.29702706812974927   -0.025089898853140315   -0.012405210302311414
-0.29894709430935296   -0.00522563345069961   0.019273664928603884
-0.29894709430935296   -0.00522563345069961   0.019273664928603884
-0.29894709430935296   -0.00522563345069961   0.019273664928603884
-0.29894709430935296   -0.00522563345069961   0.019273664928603884
-0.2354880035822185   -0.019155559580114327   -0.007856476078433547
-0.2354880035822185   -0.019155559580114327   -0.007856476078433547
-0.2354880035822185   -0.019155559580114327   -0.007856476078433547
-0.2354880035822185   -0.019155559580114327   -0.007856476078433547
-0.25286635973612226   -0.004067932903640874   -0.003484089026712338
-0.25286635973612226   -0.004067932903640874   -0.003484089026712338
-0.25286635973612226   -0.004067932903640874   -0.003484089026712338
-0.25286635973612226   -0.004067932903640874   -0.003484089026712338
-0.10658993232642594   -0.006871101496773571   -0.02148683330913219
-0.10658993232642594   -0.006871101496773571   -0.02148683330913219
-0.10658993232642594   -0.006871101496773571   -0.02148683330913219
-0.10658993232642594   -0.006871101496773571   -0.02148683330913219
-0.10914374777055356   0.0162144190030798   0.009606897349927819
-0.10914374777055356   0.0162144190030798   0.009606897349927819
-0.10914374777055356   0.0162144190030798   0.009606897349927819
-0.10914374777055356   0.0162144190030798   0.009606897349927819
-0.12342063200193058   -0.015209684373516394   -0.014662570059079475
-0.12342063200193058   -0.015209684373516394   -0.014662570059079475
-0.12342063200193058   -0.015209684373516394   -0.014662570059079475
-0.12342063200193058   -0.015209684373516394   -0.014662570059079475
-0.10905550663264381   0.009121455659639541   0.014274818848087085
-0.10905550663264381   0.009121455659639541   0.014274818848087085
-0.10905550663264381   0.009121455659639541   0.014274818848087085
-0.10905550663264381   0.009121455659639541   0.014274818848087085
-0.10640977427519181   0.0028860430359750992   0.009805021696694706
-0.10640977427519181   0.0028860430359750992   0.009805021696694706
-0.10640977427519181   0.0028860430359750992   0.009805021696694706
-0.10640977427519181   0.0028860430359750992   0.009805021696694706
-0.12041078512174146   -0.015292687144345842   -0.018087430793415824
-0.12041078512174146   -0.015292687144345842   -0.018087430793415824
-0.12041078512174146   -0.015292687144345842   -0.018087430793415824
-0.12041078512174146   -0.015292687144345842   -0.018087430793415824
-0.11343644101402565   0.007833370929276249   0.012215329577652482
-0.11343644101402565   0.007833370929276249   0.012215329577652482
-0.11343644101402565   0.007833370929276249   0.012215329577652482
-0.11343644101402565   0.007833370929276249   0.012215329577652482
-0.12782076063453862   -0.019081145035000385   -0.012464704977512994
-0.12782076063453862   -0.019081145035000385   -0.012464704977512994
-0.12782076063453862   -0.019081145035000385   -0.012464704977512994
-0.12782076063453862   -0.019081145035000385   -0.012464704977512994
-0.12012455484707077   0.0038912241203003517   0.026714623258094684
-0.12012455484707077   0.0038912241203003517   0.026714623258094684
-0.12012455484707077   0.0038912241203003517   0.026714623258094684
-0.12012455484707077   0.0038912241203003517   0.026714623258094684
-0.11650598040686276   -0.0037487861280197862   0.0039908571354146626
-0.11650598040686276   -0.0037487861280197862   0.0039908571354146626
-0.11650598040686276   -0.0037487861280197862   0.0039908571354146626
-0.11650598040686276   -0.0037487861280197862   0.0039908571354146626
-0.13318159270394117   -0.020496865695474487   -0.014182476210480955
-0.13318159270394117   -0.020496865695474487   -0.014182476210480955
-0.13318159270394117   -0.020496865695474487   -0.014182476210480955
-0.13318159270394117   -0.020496865695474487   -0.014182476210480955
-0.1180658487506678   0.002004818807775109   0.015223890599065528
-0.1180658487506678   0.002004818807775109   0.015223890599065528
-0.1180658487506678   0.002004818807775109   0.015223890599065528
-0.1180658487506678   0.002004818807775109   0.015223890599065528
-0.1314446404516601   -0.02650665007240647   -0.009861287990798082
-0.1314446404516601   -0.02650665007240647   -0.009861287990798082
-0.1314446404516601   -0.02650665007240647   -0.009861287990798082
-0.1314446404516601   -0.02650665007240647   -0.009861287990798082
-0.13728043620761401   -0.013395953188851433   0.024970849709876772
-0.13728043620761401   -0.013395953188851433   0.024970849709876772
-0.13728043620761401   -0.013395953188851433   0.024970849709876772
-0.13728043620761401   -0.013395953188851433   0.024970849709876772
-0.12548086126042407   -0.011570723545416252   -0.00531233327017564
-0.12548086126042407   -0.011570723545416252   -0.00531233327017564
-0.12548086126042407   -0.011570723545416252   -0.00531233327017564
-0.12548086126042407   -0.011570723545416252   -0.00531233327017564
-0.11710461431113302   -0.003021322253061766   -0.010961694096829063
-0.11710461431113302   -0.003021322253061766   -0.010961694096829063
-0.11710461431113302   -0.003021322253061766   -0.010961694096829063
-0.11710461431113302   -0.003021322253061766   -0.010961694096829063
-0.12141697190397344   -0.015028107839387142   -0.0006551815906776018
-0.12141697190397344   -0.015028107839387142   -0.0006551815906776018
-0.12141697190397344   -0.015028107839387142   -0.0006551815906776018
-0.12141697190397344   -0.015028107839387142   -0.0006551815906776018
-0.12249911635362402   -0.010080141397162852   -0.005630594615299194
-0.12249911635362402   -0.010080141397162852   -0.005630594615299194
-0.12249911635362402   -0.010080141397162852   -0.005630594615299194
-0.12249911635362402   -0.010080141397162852   -0.005630594615299194
-0.12144508871541769   -0.01991523613364212   -7.930186638939072e-05
-0.12144508871541769   -0.01991523613364212   -7.930186638939072e-05
-0.12144508871541769   -0.01991523613364212   -7.930186638939072e-05
-0.12144508871541769   -0.01991523613364212   -7.930186638939072e-05
-0.11960083309000029   -0.01253836226412291   -0.00025803670237381027
-0.11960083309000029   -0.01253836226412291   -0.00025803670237381027
-0.11960083309000029   -0.01253836226412291   -0.00025803670237381027
-0.11960083309000029   -0.01253836226412291   -0.00025803670237381027
-0.12147867986350744   -0.010652028270145306   -0.009510465470335721
-0.12147867986350744   -0.010652028270145306   -0.009510465470335721
-0.12147867986350744   -0.010652028270145306   -0.009510465470335721
-0.12147867986350744   -0.010652028270145306   -0.009510465470335721
-0.12324588053370622   -0.020123704588830622   0.0006791476759566259
-0.12324588053370622   -0.020123704588830622   0.0006791476759566259
-0.12324588053370622   -0.020123704588830622   0.0006791476759566259
-0.12324588053370622   -0.020123704588830622   0.0006791476759566259
-0.12472583693906443   -0.01658971084742575   -0.0036884364455630923
-0.12472583693906443   -0.01658971084742575   -0.0036884364455630923
-0.12472583693906443   -0.01658971084742575   -0.0036884364455630923
-0.12472583693906443   -0.01658971084742575   -0.0036884364455630923
-0.12611504998641976   -0.02594185864103125   0.0029245618691121624
-0.12611504998641976   -0.02594185864103125   0.0029245618691121624
-0.12611504998641976   -0.02594185864103125   0.0029245618691121624
-0.12611504998641976   -0.02594185864103125   0.0029245618691121624
-0.12256657197742524   -0.017827559328355946   -0.0033136634834164346
-0.12256657197742524   -0.017827559328355946   -0.0033136634834164346
-0.12256657197742524   -0.017827559328355946   -0.0033136634834164346
-0.12256657197742524   -0.017827559328355946   -0.0033136634834164346
-0.12645118016239687   -0.01761390144445046   -0.007084046207354206
-0.12645118016239687   -0.01761390144445046   -0.007084046207354206
-0.12645118016239687   -0.01761390144445046   -0.007084046207354206
-0.12645118016239687   -0.01761390144445046   -0.007084046207354206
-0.12538512653614994   -0.025913087817070732   0.0023384925386526023
-0.12538512653614994   -0.025913087817070732   0.0023384925386526023
-0.12538512653614994   -0.025913087817070732   0.0023384925386526023
-0.12538512653614994   -0.025913087817070732   0.0023384925386526023
-0.12674924458562067   -0.023546507385411905   -0.0017694210155942201
-0.12674924458562067   -0.023546507385411905   -0.0017694210155942201
-0.12674924458562067   -0.023546507385411905   -0.0017694210155942201
-0.12674924458562067   -0.023546507385411905   -0.0017694210155942201
-0.12971432948383413   -0.03350801159579392   0.005791628371718455
-0.12971432948383413   -0.03350801159579392   0.005791628371718455
-0.12971432948383413   -0.03350801159579392   0.005791628371718455
-0.12971432948383413   -0.03350801159579392   0.005791628371718455
-0.126551360042031   -0.02413413167829602   -0.007163691157838152
-0.126551360042031   -0.02413413167829602   -0.007163691157838152
-0.126551360042031   -0.02413413167829602   -0.007163691157838152
-0.126551360042031   -0.02413413167829602   -0.007163691157838152
-0.11800078039660872   0.003427139376020287   -0.002029471269259452
-0.11800078039660872   0.003427139376020287   -0.002029471269259452
-0.11800078039660872   0.003427139376020287   -0.002029471269259452
-0.11800078039660872   0.003427139376020287   -0.002029471269259452
-0.13580141688640934   -0.02581066527438502   -0.006569894012116991
-0.13580141688640934   -0.02581066527438502   -0.006569894012116991
-0.13580141688640934   -0.02581066527438502   -0.006569894012116991
-0.13580141688640934   -0.02581066527438502   -0.006569894012116991
-0.13043775755139456   -0.004823901458263096   0.0015960675427988845
-0.13043775755139456   -0.004823901458263096   0.0015960675427988845
-0.13043775755139456   -0.004823901458263096   0.0015960675427988845
-0.13043775755139456   -0.004823901458263096   0.0015960675427988845
-0.12563580018857104   -0.0274173579228987   -0.003976797264299411
-0.12563580018857104   -0.0274173579228987   -0.003976797264299411
-0.12563580018857104   -0.0274173579228987   -0.003976797264299411
-0.12563580018857104   -0.0274173579228987   -0.003976797264299411
-0.12737829151137461   -0.014095606912600494   -0.0027823705751485656
-0.12737829151137461   -0.014095606912600494   -0.0027823705751485656
-0.12737829151137461   -0.014095606912600494   -0.0027823705751485656
-0.12737829151137461   -0.014095606912600494   -0.0027823705751485656
-0.11997465748592652   -0.0030568194071034817   -3.162226687105588e-05
-0.11997465748592652   -0.0030568194071034817   -3.162226687105588e-05
-0.11997465748592652   -0.0030568194071034817   -3.162226687105588e-05
-0.11997465748592652   -0.0030568194071034817   -3.162226687105588e-05
-0.13681121484309297   -0.029896754563111083   -0.005198365810847089
-0.13681121484309297   -0.029896754563111083   -0.005198365810847089
-0.13681121484309297   -0.029896754563111083   -0.005198365810847089
-0.13681121484309297   -0.029896754563111083   -0.005198365810847089
-0.13208672260302376   -0.011358782687204572   0.003523437193962551
-0.13208672260302376   -0.011358782687204572   0.003523437193962551
-0.13208672260302376   -0.011358782687204572   0.003523437193962551
-0.13208672260302376   -0.011358782687204572   0.003523437193962551
-0.1277215265302188   -0.0325544622026522   -0.0027021330461102083
-0.1277215265302188   -0.0325544622026522   -0.0027021330461102083
-0.1277215265302188   -0.0325544622026522   -0.0027021330461102083
-0.1277215265302188   -0.0325544622026522   -0.0027021330461102083
-0.12911180386030657   -0.019058683719650735   -0.005403854666643136
-0.12911180386030657   -0.019058683719650735   -0.005403854666643136
-0.12911180386030657   -0.019058683719650735   -0.005403854666643136
-0.12911180386030657   -0.019058683719650735   -0.005403854666643136
-0.12223256281906851   -0.009712494589839901   0.0019007178968306606
-0.12223256281906851   -0.009712494589839901   0.0019007178968306606
-0.12223256281906851   -0.009712494589839901   0.0019007178968306606
-0.12223256281906851   -0.009712494589839901   0.0019007178968306606
-0.13837162075092826   -0.03499668473676982   -0.004263151495996525
-0.13837162075092826   -0.03499668473676982   -0.004263151495996525
-0.13837162075092826   -0.03499668473676982   -0.004263151495996525
-0.13837162075092826   -0.03499668473676982   -0.004263151495996525
-0.13345895075761396   -0.017482137909391907   0.005416161736104319
-0.13345895075761396   -0.017482137909391907   0.005416161736104319
-0.13345895075761396   -0.017482137909391907   0.005416161736104319
-0.13345895075761396   -0.017482137909391907   0.005416161736104319
-0.12932564469938482   -0.03744244619937222   -0.0007554827704546489
-0.12932564469938482   -0.03744244619937222   -0.0007554827704546489
-0.12932564469938482   -0.03744244619937222   -0.0007554827704546489
-0.12932564469938482   -0.03744244619937222   -0.0007554827704546489
-0.13115515185439466   -0.024241407525800715   -0.008281751012849132
-0.13115515185439466   -0.024241407525800715   -0.008281751012849132
-0.13115515185439466   -0.024241407525800715   -0.008281751012849132
-0.13115515185439466   -0.024241407525800715   -0.008281751012849132
-0.1253735311726426   0.013487646810108167   0.0062712224722234755
-0.1253735311726426   0.013487646810108167   0.0062712224722234755
-0.1253735311726426   0.013487646810108167   0.0062712224722234755
-0.1253735311726426   0.013487646810108167   0.0062712224722234755
-0.15018435279648448   -0.019527794219958674   -0.009244801040101312
-0.15018435279648448   -0.019527794219958674   -0.009244801040101312
-0.15018435279648448   -0.019527794219958674   -0.009244801040101312
-0.15018435279648448   -0.019527794219958674   -0.009244801040101312
-0.14236015994996853   0.003732496990212733   0.008590803509348682
-0.14236015994996853   0.003732496990212733   0.008590803509348682
-0.14236015994996853   0.003732496990212733   0.008590803509348682
-0.14236015994996853   0.003732496990212733   0.008590803509348682
-0.13515503062889597   -0.021279762997694976   -0.005534436305276355
-0.13515503062889597   -0.021279762997694976   -0.005534436305276355
-0.13515503062889597   -0.021279762997694976   -0.005534436305276355
-0.13515503062889597   -0.021279762997694976   -0.005534436305276355
-0.1382232999457931   -0.005760870121163792   -0.0016591919099345478
-0.1382232999457931   -0.005760870121163792   -0.0016591919099345478
-0.1382232999457931   -0.005760870121163792   -0.0016591919099345478
-0.1382232999457931   -0.005760870121163792   -0.0016591919099345478
-0.1267971823730172   0.0067682834991814565   0.00820675847724097
-0.1267971823730172   0.0067682834991814565   0.00820675847724097
-0.1267971823730172   0.0067682834991814565   0.00820675847724097
-0.1267971823730172   0.0067682834991814565   0.00820675847724097
-0.15166890638932362   -0.025266447690140012   -0.008953984007073907
-0.15166890638932362   -0.025266447690140012   -0.008953984007073907
-0.15166890638932362   -0.025266447690140012   -0.008953984007073907
-0.15166890638932362   -0.025266447690140012   -0.008953984007073907
-0.14510654116914684   -0.0026729448601101637   0.00975632600075303
-0.14510654116914684   -0.0026729448601101637   0.00975632600075303
-0.14510654116914684   -0.0026729448601101637   0.00975632600075303
-0.14510654116914684   -0.0026729448601101637   0.00975632600075303
-0.1366107157929013   -0.02606366362870273   -0.004391647813927063
-0.1366107157929013   -0.02606366362870273   -0.004391647813927063
-0.1366107157929013   -0.02606366362870273   -0.004391647813927063
-0.1366107157929013   -0.02606366362870273   -0.004391647813927063
-0.13966950335994086   -0.011155163585051225   -0.004738908015798975
-0.13966950335994086   -0.011155163585051225   -0.004738908015798975
-0.13966950335994086   -0.011155163585051225   -0.004738908015798975
-0.13966950335994086   -0.011155163585051225   -0.004738908015798975
-0.1283547601040072   0.0007425329609457854   0.010081934040893114
-0.1283547601040072   0.0007425329609457854   0.010081934040893114
-0.1283547601040072   0.0007425329609457854   0.010081934040893114
-0.1283547601040072   0.0007425329609457854   0.010081934040893114
-0.15418544712242707   -0.030302091714145094   -0.00800905691161314
-0.15418544712242707   -0.030302091714145094   -0.00800905691161314
-0.15418544712242707   -0.030302091714145094   -0.00800905691161314
-0.15418544712242707   -0.030302091714145094   -0.00800905691161314
-0.14696421918980432   -0.00883838903012648   0.011911714910047003
-0.14696421918980432   -0.00883838903012648   0.011911714910047003
-0.14696421918980432   -0.00883838903012648   0.011911714910047003
-0.14696421918980432   -0.00883838903012648   0.011911714910047003
-0.13788968527749204   -0.030876851098935572   -0.003342797673742433
-0.13788968527749204   -0.030876851098935572   -0.003342797673742433
-0.13788968527749204   -0.030876851098935572   -0.003342797673742433
-0.13788968527749204   -0.030876851098935572   -0.003342797673742433
-0.1421269133807647   -0.0162713709954139   -0.0077349419779319415
-0.1421269133807647   -0.0162713709954139   -0.0077349419779319415
-0.1421269133807647   -0.0162713709954139   -0.0077349419779319415
-0.1421269133807647   -0.0162713709954139   -0.0077349419779319415
-0.1380391123133743   0.019370911264055032   0.012582695891435998
-0.1380391123133743   0.019370911264055032   0.012582695891435998
-0.1380391123133743   0.019370911264055032   0.012582695891435998
-0.1380391123133743   0.019370911264055032   0.012582695891435998
-0.1499422547407103   -0.012019253006747353   -0.013319215453713533
-0.1499422547407103   -0.012019253006747353   -0.013319215453713533
-0.1499422547407103   -0.012019253006747353   -0.013319215453713533
-0.1499422547407103   -0.012019253006747353   -0.013319215453713533
-0.14686489039864992   0.013355073373235618   0.013997277503455105
-0.14686489039864992   0.013355073373235618   0.013997277503455105
-0.14686489039864992   0.013355073373235618   0.013997277503455105
-0.14686489039864992   0.013355073373235618   0.013997277503455105
-0.14941511439586988   -0.014805064344968671   -0.008146407384980391
-0.14941511439586988   -0.014805064344968671   -0.008146407384980391
-0.14941511439586988   -0.014805064344968671   -0.008146407384980391
-0.14941511439586988   -0.014805064344968671   -0.008146407384980391
-0.14101974521751187   0.003321727383708145   0.0007376665512678435
-0.14101974521751187   0.003321727383708145   0.0007376665512678435
-0.14101974521751187   0.003321727383708145   0.0007376665512678435
-0.14101974521751187   0.003321727383708145   0.0007376665512678435
-0.1389051280668452   0.015056051934949053   0.014542407980225203
-0.1389051280668452   0.015056051934949053   0.014542407980225203
-0.1389051280668452   0.015056051934949053   0.014542407980225203
-0.1389051280668452   0.015056051934949053   0.014542407980225203
-0.15816131311408735   -0.017292479293097403   -0.011837283407398935
-0.15816131311408735   -0.017292479293097403   -0.011837283407398935
-0.15816131311408735   -0.017292479293097403   -0.011837283407398935
-0.15816131311408735   -0.017292479293097403   -0.011837283407398935
-0.1533258678042991   0.00972927394721165   0.017989453374005936
-0.1533258678042991   0.00972927394721165   0.017989453374005936
-0.1533258678042991   0.00972927394721165   0.017989453374005936
-0.1533258678042991   0.00972927394721165   0.017989453374005936
-0.15153085880014153   -0.01763760171927063   -0.007400605295063656
-0.15153085880014153   -0.01763760171927063   -0.007400605295063656
-0.15153085880014153   -0.01763760171927063   -0.007400605295063656
-0.15153085880014153   -0.01763760171927063   -0.007400605295063656
-0.14800712664181495   -0.001053984932055177   -0.002950537692286882
-0.14800712664181495   -0.001053984932055177   -0.002950537692286882
-0.14800712664181495   -0.001053984932055177   -0.002950537692286882
-0.14800712664181495   -0.001053984932055177   -0.002950537692286882
-0.14061779894494186   0.012148679580512876   0.017378412681147218
-0.14061779894494186   0.012148679580512876   0.017378412681147218
-0.14061779894494186   0.012148679580512876   0.017378412681147218
-0.14061779894494186   0.012148679580512876   0.017378412681147218
-0.16524944580001072   -0.02106752549308254   -0.010831637164254015
-0.16524944580001072   -0.02106752549308254   -0.010831637164254015
-0.16524944580001072   -0.02106752549308254   -0.010831637164254015
-0.16524944580001072   -0.02106752549308254   -0.010831637164254015
-0.16452062490202507   0.0004500239524826699   0.01920406290435797
-0.16452062490202507   0.0004500239524826699   0.01920406290435797
-0.16452062490202507   0.0004500239524826699   0.01920406290435797
-0.16452062490202507   0.0004500239524826699   0.01920406290435797
-0.15347838198408456   -0.023075218791970897   -0.006422269299509848
-0.15347838198408456   -0.023075218791970897   -0.006422269299509848
-0.15347838198408456   -0.023075218791970897   -0.006422269299509848
-0.15347838198408456   -0.023075218791970897   -0.006422269299509848
-0.15130717486320777   -0.005112393549128361   -0.0062411617129023815
-0.15130717486320777   -0.005112393549128361   -0.0062411617129023815
-0.15130717486320777   -0.005112393549128361   -0.0062411617129023815
-0.15130717486320777   -0.005112393549128361   -0.0062411617129023815
-0.2831499964273382   -0.026022796090434466   -0.02757292946086663
-0.2831499964273382   -0.026022796090434466   -0.02757292946086663
-0.2831499964273382   -0.026022796090434466   -0.02757292946086663
-0.2831499964273382   -0.026022796090434466   -0.02757292946086663
-0.1814783118267819   0.014788765530060068   0.006441659637967586
-0.1814783118267819   0.014788765530060068   0.006441659637967586
-0.1814783118267819   0.014788765530060068   0.006441659637967586
-0.1814783118267819   0.014788765530060068   0.006441659637967586
-0.19077003618908558   -0.012571523800151193   -0.012475548894424784
-0.19077003618908558   -0.012571523800151193   -0.012475548894424784
-0.19077003618908558   -0.012571523800151193   -0.012475548894424784
-0.19077003618908558   -0.012571523800151193   -0.012475548894424784
-0.3019970298474888   -0.03502155139491981   0.030480182261788426
-0.3019970298474888   -0.03502155139491981   0.030480182261788426
-0.3019970298474888   -0.03502155139491981   0.030480182261788426
-0.3019970298474888   -0.03502155139491981   0.030480182261788426
-0.21980785736106898   -0.00870462036804822   0.02977702065109416
-0.21980785736106898   -0.00870462036804822   0.02977702065109416
-0.21980785736106898   -0.00870462036804822   0.02977702065109416
-0.21980785736106898   -0.00870462036804822   0.02977702065109416
-0.3128655948509586   -0.03856030381977904   -0.02032389033069871
-0.3128655948509586   -0.03856030381977904   -0.02032389033069871
-0.3128655948509586   -0.03856030381977904   -0.02032389033069871
-0.3128655948509586   -0.03856030381977904   -0.02032389033069871
-0.1875723242560905   -0.01670362444576496   0.007645111416164431
-0.1875723242560905   -0.01670362444576496   0.007645111416164431
-0.1875723242560905   -0.01670362444576496   0.007645111416164431
-0.1875723242560905   -0.01670362444576496   0.007645111416164431
-0.19403845821745436   -0.01805086543247187   -0.009081921135382824
-0.19403845821745436   -0.01805086543247187   -0.009081921135382824
-0.19403845821745436   -0.01805086543247187   -0.009081921135382824
-0.19403845821745436   -0.01805086543247187   -0.009081921135382824
-0.31209927299902906   -0.04880253453963694   0.00048671606054732615
-0.31209927299902906   -0.04880253453963694   0.00048671606054732615
-0.31209927299902906   -0.04880253453963694   0.00048671606054732615
-0.31209927299902906   -0.04880253453963694   0.00048671606054732615
-0.24405137816570327   -0.029437286756056377   0.006974247685711379
-0.24405137816570327   -0.029437286756056377   0.006974247685711379
-0.24405137816570327   -0.029437286756056377   0.006974247685711379
-0.24405137816570327   -0.029437286756056377   0.006974247685711379
-0.31446252755155046   -0.04362142776712768   -0.016510663474565743
-0.31446252755155046   -0.04362142776712768   -0.016510663474565743
-0.31446252755155046   -0.04362142776712768   -0.016510663474565743
-0.31446252755155046   -0.04362142776712768   -0.016510663474565743
-0.1939651695567488   -0.025521938096796745   -0.0012444051675320161
-0.1939651695567488   -0.025521938096796745   -0.0012444051675320161
-0.1939651695567488   -0.025521938096796745   -0.0012444051675320161
-0.1939651695567488   -0.025521938096796745   -0.0012444051675320161
-0.19448396739196264   -0.031169759110256445   -0.006694648712799684
-0.19448396739196264   -0.031169759110256445   -0.006694648712799684
-0.19448396739196264   -0.031169759110256445   -0.006694648712799684
-0.19448396739196264   -0.031169759110256445   -0.006694648712799684
-0.32016854254605515   -0.07430553176605856   0.0044902108319377545
-0.32016854254605515   -0.07430553176605856   0.0044902108319377545
-0.32016854254605515   -0.07430553176605856   0.0044902108319377545
-0.32016854254605515   -0.07430553176605856   0.0044902108319377545
-0.2441736123531686   -0.040384716172254635   0.0006383763597106406
-0.2441736123531686   -0.040384716172254635   0.0006383763597106406
-0.2441736123531686   -0.040384716172254635   0.0006383763597106406
-0.2441736123531686   -0.040384716172254635   0.0006383763597106406
-0.19592180596627368   -0.03332953953299801   -0.017657505996431705
-0.19592180596627368   -0.03332953953299801   -0.017657505996431705
-0.19592180596627368   -0.03332953953299801   -0.017657505996431705
-0.19592180596627368   -0.03332953953299801   -0.017657505996431705
-0.13610303311736044   -0.08966204263313776   -0.016728660888361085
-0.13610303311736044   -0.08966204263313776   -0.016728660888361085
-0.13610303311736044   -0.08966204263313776   -0.016728660888361085
-0.13610303311736044   -0.08966204263313776   -0.016728660888361085
-0.11945023861931381   -0.019741300431581916   -0.0012044734521846057
-0.11945023861931381   -0.019741300431581916   -0.0012044734521846057
-0.11945023861931381   -0.019741300431581916   -0.0012044734521846057
-0.11945023861931381   -0.019741300431581916   -0.0012044734521846057
-0.20887315579970686   -0.09463967373754413   -0.020922997010138243
-0.20887315579970686   -0.09463967373754413   -0.020922997010138243
-0.20887315579970686   -0.09463967373754413   -0.020922997010138243
-0.20887315579970686   -0.09463967373754413   -0.020922997010138243
-0.16320839676777976   -0.06288448984675224   -0.00480226358470235
-0.16320839676777976   -0.06288448984675224   -0.00480226358470235
-0.16320839676777976   -0.06288448984675224   -0.00480226358470235
-0.16320839676777976   -0.06288448984675224   -0.00480226358470235
-0.19592136139537827   -0.03746280836797139   -0.013340890358067512
-0.19592136139537827   -0.03746280836797139   -0.013340890358067512
-0.19592136139537827   -0.03746280836797139   -0.013340890358067512
-0.19592136139537827   -0.03746280836797139   -0.013340890358067512
-0.13318825953016145   -0.07770439230767376   -0.011931486130331855
-0.13318825953016145   -0.07770439230767376   -0.011931486130331855
-0.13318825953016145   -0.07770439230767376   -0.011931486130331855
-0.13318825953016145   -0.07770439230767376   -0.011931486130331855
-0.12110190582803274   -0.025518339037713323   2.9015727314777272e-05
-0.12110190582803274   -0.025518339037713323   2.9015727314777272e-05
-0.12110190582803274   -0.025518339037713323   2.9015727314777272e-05
-0.12110190582803274   -0.025518339037713323   2.9015727314777272e-05
-0.20989832797243616   -0.09412730908734487   -0.012304826255420682
-0.20989832797243616   -0.09412730908734487   -0.012304826255420682
-0.20989832797243616   -0.09412730908734487   -0.012304826255420682
-0.20989832797243616   -0.09412730908734487   -0.012304826255420682
-0.1615950841026303   -0.058938012551125775   -0.005105513304281615
-0.1615950841026303   -0.058938012551125775   -0.005105513304281615
-0.1615950841026303   -0.058938012551125775   -0.005105513304281615
-0.1615950841026303   -0.058938012551125775   -0.005105513304281615
-0.19925424112373868   -0.04316412455181061   -0.010047576547465728
-0.19925424112373868   -0.04316412455181061   -0.010047576547465728
-0.19925424112373868   -0.04316412455181061   -0.010047576547465728
-0.19925424112373868   -0.04316412455181061   -0.010047576547465728
-0.1334019069806857   -0.07813743787720295   -0.0088518911964615
-0.1334019069806857   -0.07813743787720295   -0.0088518911964615
-0.1334019069806857   -0.07813743787720295   -0.0088518911964615
-0.1334019069806857   -0.07813743787720295   -0.0088518911964615
-0.12139022558878912   -0.03264322753418835   0.0017914447847012659
-0.12139022558878912   -0.03264322753418835   0.0017914447847012659
-0.12139022558878912   -0.03264322753418835   0.0017914447847012659
-0.12139022558878912   -0.03264322753418835   0.0017914447847012659
-0.20968216655757743   -0.09547665558566179   -0.018378748065470754
-0.20968216655757743   -0.09547665558566179   -0.018378748065470754
-0.20968216655757743   -0.09547665558566179   -0.018378748065470754
-0.20968216655757743   -0.09547665558566179   -0.018378748065470754
-0.16435624921074912   -0.063329337548919   -0.009516657072583605
-0.16435624921074912   -0.063329337548919   -0.009516657072583605
-0.16435624921074912   -0.063329337548919   -0.009516657072583605
-0.16435624921074912   -0.063329337548919   -0.009516657072583605
-0.11944503844136885   -0.02153796400938475   -0.0015627661321561334
-0.11944503844136885   -0.02153796400938475   -0.0015627661321561334
-0.11944503844136885   -0.02153796400938475   -0.0015627661321561334
-0.11944503844136885   -0.02153796400938475   -0.0015627661321561334
-0.10169395717770635   -0.0689146189312613   -0.011892686288241647
-0.10169395717770635   -0.0689146189312613   -0.011892686288241647
-0.10169395717770635   -0.0689146189312613   -0.011892686288241647
-0.10169395717770635   -0.0689146189312613   -0.011892686288241647
-0.0877090230365796   -0.018119270288640982   0.004586863754997719
-0.0877090230365796   -0.018119270288640982   0.004586863754997719
-0.0877090230365796   -0.018119270288640982   0.004586863754997719
-0.0877090230365796   -0.018119270288640982   0.004586863754997719
-0.1327756844227477   -0.0745351835651049   -0.013037819335832042
-0.1327756844227477   -0.0745351835651049   -0.013037819335832042
-0.1327756844227477   -0.0745351835651049   -0.013037819335832042
-0.1327756844227477   -0.0745351835651049   -0.013037819335832042
-0.10993988347106277   -0.046363628313140656   -0.005459409066371259
-0.10993988347106277   -0.046363628313140656   -0.005459409066371259
-0.10993988347106277   -0.046363628313140656   -0.005459409066371259
-0.10993988347106277   -0.046363628313140656   -0.005459409066371259
-0.12032947475058386   -0.025524270242054104   0.00018231570193638148
-0.12032947475058386   -0.025524270242054104   0.00018231570193638148
-0.12032947475058386   -0.025524270242054104   0.00018231570193638148
-0.12032947475058386   -0.025524270242054104   0.00018231570193638148
-0.10086329923296534   -0.06783825013591434   -0.011465537379657746
-0.10086329923296534   -0.06783825013591434   -0.011465537379657746
-0.10086329923296534   -0.06783825013591434   -0.011465537379657746
-0.10086329923296534   -0.06783825013591434   -0.011465537379657746
-0.08800947790235186   -0.02287849934361677   0.005965632621200041
-0.08800947790235186   -0.02287849934361677   0.005965632621200041
-0.08800947790235186   -0.02287849934361677   0.005965632621200041
-0.08800947790235186   -0.02287849934361677   0.005965632621200041
-0.1334640478073383   -0.07571188990224581   -0.01158814330468167
-0.1334640478073383   -0.07571188990224581   -0.01158814330468167
-0.1334640478073383   -0.07571188990224581   -0.01158814330468167
-0.1334640478073383   -0.07571188990224581   -0.01158814330468167
-0.1099737576438603   -0.04811696161917353   -0.007091370305736437
-0.1099737576438603   -0.04811696161917353   -0.007091370305736437
-0.1099737576438603   -0.04811696161917353   -0.007091370305736437
-0.1099737576438603   -0.04811696161917353   -0.007091370305736437
-0.12163548876163872   -0.030356896362832085   0.00219965838440261
-0.12163548876163872   -0.030356896362832085   0.00219965838440261
-0.12163548876163872   -0.030356896362832085   0.00219965838440261
-0.12163548876163872   -0.030356896362832085   0.00219965838440261
-0.10023153289180098   -0.06862698882677903   -0.009396152842881308
-0.10023153289180098   -0.06862698882677903   -0.009396152842881308
-0.10023153289180098   -0.06862698882677903   -0.009396152842881308
-0.10023153289180098   -0.06862698882677903   -0.009396152842881308
-0.08727820788099562   -0.027386342371390267   0.0074775995510659105
-0.08727820788099562   -0.027386342371390267   0.0074775995510659105
-0.08727820788099562   -0.027386342371390267   0.0074775995510659105
-0.08727820788099562   -0.027386342371390267   0.0074775995510659105
-0.13219870820201782   -0.07659202662528608   -0.008302169190344575
-0.13219870820201782   -0.07659202662528608   -0.008302169190344575
-0.13219870820201782   -0.07659202662528608   -0.008302169190344575
-0.13219870820201782   -0.07659202662528608   -0.008302169190344575
-0.10994545780180408   -0.05047258948394606   -0.008265128609028458
-0.10994545780180408   -0.05047258948394606   -0.008265128609028458
-0.10994545780180408   -0.05047258948394606   -0.008265128609028458
-0.10994545780180408   -0.05047258948394606   -0.008265128609028458
-0.08444984043550716   -0.002874396534537905   0.008287675026032868
-0.08444984043550716   -0.002874396534537905   0.008287675026032868
-0.08444984043550716   -0.002874396534537905   0.008287675026032868
-0.08444984043550716   -0.002874396534537905   0.008287675026032868
-0.0813636124326209   -0.036787286108784414   -0.0072582784195441225
-0.0813636124326209   -0.036787286108784414   -0.0072582784195441225
-0.0813636124326209   -0.036787286108784414   -0.0072582784195441225
-0.0813636124326209   -0.036787286108784414   -0.0072582784195441225
-0.07041871262956342   -0.0053154530930398704   0.009550795218666612
-0.07041871262956342   -0.0053154530930398704   0.009550795218666612
-0.07041871262956342   -0.0053154530930398704   0.009550795218666612
-0.07041871262956342   -0.0053154530930398704   0.009550795218666612
-0.09444341898774374   -0.04212060952122253   -0.005083776768241437
-0.09444341898774374   -0.04212060952122253   -0.005083776768241437
-0.09444341898774374   -0.04212060952122253   -0.005083776768241437
-0.09444341898774374   -0.04212060952122253   -0.005083776768241437
-0.08293264908028358   -0.021548364500581015   -0.002977811513667876
-0.08293264908028358   -0.021548364500581015   -0.002977811513667876
-0.08293264908028358   -0.021548364500581015   -0.002977811513667876
-0.08293264908028358   -0.021548364500581015   -0.002977811513667876
-0.0847246690166307   -0.008174108917472016   0.009563472483573176
-0.0847246690166307   -0.008174108917472016   0.009563472483573176
-0.0847246690166307   -0.008174108917472016   0.009563472483573176
-0.0847246690166307   -0.008174108917472016   0.009563472483573176
-0.0809069051422173   -0.04003139623833122   -0.00817422419931137
-0.0809069051422173   -0.04003139623833122   -0.00817422419931137
-0.0809069051422173   -0.04003139623833122   -0.00817422419931137
-0.0809069051422173   -0.04003139623833122   -0.00817422419931137
-0.07077705008326221   -0.00996152663078933   0.010285371466008508
-0.07077705008326221   -0.00996152663078933   0.010285371466008508
-0.07077705008326221   -0.00996152663078933   0.010285371466008508
-0.07077705008326221   -0.00996152663078933   0.010285371466008508
-0.09468910614080953   -0.044706632650549444   -0.005604375264153637
-0.09468910614080953   -0.044706632650549444   -0.005604375264153637
-0.09468910614080953   -0.044706632650549444   -0.005604375264153637
-0.09468910614080953   -0.044706632650549444   -0.005604375264153637
-0.08280746345895301   -0.025255046639248296   -0.005079107391908769
-0.08280746345895301   -0.025255046639248296   -0.005079107391908769
-0.08280746345895301   -0.025255046639248296   -0.005079107391908769
-0.08280746345895301   -0.025255046639248296   -0.005079107391908769
-0.084988972093686   -0.012685877384911053   0.010875539705823677
-0.084988972093686   -0.012685877384911053   0.010875539705823677
-0.084988972093686   -0.012685877384911053   0.010875539705823677
-0.084988972093686   -0.012685877384911053   0.010875539705823677
-0.08094437855238365   -0.04244947631842595   -0.008063321191962056
-0.08094437855238365   -0.04244947631842595   -0.008063321191962056
-0.08094437855238365   -0.04244947631842595   -0.008063321191962056
-0.08094437855238365   -0.04244947631842595   -0.008063321191962056
-0.07045089699903781   -0.0143342496013708   0.011931421535619524
-0.07045089699903781   -0.0143342496013708   0.011931421535619524
-0.07045089699903781   -0.0143342496013708   0.011931421535619524
-0.07045089699903781   -0.0143342496013708   0.011931421535619524
-0.09350660883371621   -0.04727081443168221   -0.0037799331522450795
-0.09350660883371621   -0.04727081443168221   -0.0037799331522450795
-0.09350660883371621   -0.04727081443168221   -0.0037799331522450795
-0.09350660883371621   -0.04727081443168221   -0.0037799331522450795
-0.08285324138982435   -0.02849090987500098   -0.006576385584830618
-0.08285324138982435   -0.02849090987500098   -0.006576385584830618
-0.08285324138982435   -0.02849090987500098   -0.006576385584830618
-0.08285324138982435   -0.02849090987500098   -0.006576385584830618
-0.06802425797569335   0.00963202582355048   0.013019181932758696
-0.06802425797569335   0.00963202582355048   0.013019181932758696
-0.06802425797569335   0.00963202582355048   0.013019181932758696
-0.06802425797569335   0.00963202582355048   0.013019181932758696
-0.04726189936458849   -0.012326214453223345   -0.004565675134818782
-0.04726189936458849   -0.012326214453223345   -0.004565675134818782
-0.04726189936458849   -0.012326214453223345   -0.004565675134818782
-0.04726189936458849   -0.012326214453223345   -0.004565675134818782
-0.041825247670897965   0.010920622697229102   0.01289216110104422
-0.041825247670897965   0.010920622697229102   0.01289216110104422
-0.041825247670897965   0.010920622697229102   0.01289216110104422
-0.041825247670897965   0.010920622697229102   0.01289216110104422
-0.07541587197598011   -0.018365984583331295   -0.0023844700231253897
-0.07541587197598011   -0.018365984583331295   -0.0023844700231253897
-0.07541587197598011   -0.018365984583331295   -0.0023844700231253897
-0.07541587197598011   -0.018365984583331295   -0.0023844700231253897
-0.05724911298314496   -0.0012468094405267433   -0.002233328305138727
-0.05724911298314496   -0.0012468094405267433   -0.002233328305138727
-0.05724911298314496   -0.0012468094405267433   -0.002233328305138727
-0.05724911298314496   -0.0012468094405267433   -0.002233328305138727
-0.06720077705520328   0.006110073833037872   0.014214946164385735
-0.06720077705520328   0.006110073833037872   0.014214946164385735
-0.06720077705520328   0.006110073833037872   0.014214946164385735
-0.06720077705520328   0.006110073833037872   0.014214946164385735
-0.05013853539396939   -0.013653628521435299   -0.004100026295652295
-0.05013853539396939   -0.013653628521435299   -0.004100026295652295
-0.05013853539396939   -0.013653628521435299   -0.004100026295652295
-0.05013853539396939   -0.013653628521435299   -0.004100026295652295
-0.04387970900414281   0.008612766618316392   0.01620008659687273
-0.04387970900414281   0.008612766618316392   0.01620008659687273
-0.04387970900414281   0.008612766618316392   0.01620008659687273
-0.04387970900414281   0.008612766618316392   0.01620008659687273
-0.07535554713503365   -0.019592472561191284   -0.0029761678624467026
-0.07535554713503365   -0.019592472561191284   -0.0029761678624467026
-0.07535554713503365   -0.019592472561191284   -0.0029761678624467026
-0.07535554713503365   -0.019592472561191284   -0.0029761678624467026
-0.05924520594421655   -0.003759400213709952   -0.0033118120961233874
-0.05924520594421655   -0.003759400213709952   -0.0033118120961233874
-0.05924520594421655   -0.003759400213709952   -0.0033118120961233874
-0.05924520594421655   -0.003759400213709952   -0.0033118120961233874
-0.06675837062382016   0.004067054501243559   0.016350187631185925
-0.06675837062382016   0.004067054501243559   0.016350187631185925
-0.06675837062382016   0.004067054501243559   0.016350187631185925
-0.06675837062382016   0.004067054501243559   0.016350187631185925
-0.0530657980426123   -0.015635672971375095   -0.0054819190057871035
-0.0530657980426123   -0.015635672971375095   -0.0054819190057871035
-0.0530657980426123   -0.015635672971375095   -0.0054819190057871035
-0.0530657980426123   -0.015635672971375095   -0.0054819190057871035
-0.05010396094892503   0.0022565752665405225   0.01686227995788773
-0.05010396094892503   0.0022565752665405225   0.01686227995788773
-0.05010396094892503   0.0022565752665405225   0.01686227995788773
-0.05010396094892503   0.0022565752665405225   0.01686227995788773
-0.07462020912615726   -0.020783997215264045   -0.002465391486084486
-0.07462020912615726   -0.020783997215264045   -0.002465391486084486
-0.07462020912615726   -0.020783997215264045   -0.002465391486084486
-0.07462020912615726   -0.020783997215264045   -0.002465391486084486
-0.06031495208718047   -0.0056299033553279376   -0.004959904502102106
-0.06031495208718047   -0.0056299033553279376   -0.004959904502102106
-0.06031495208718047   -0.0056299033553279376   -0.004959904502102106
-0.06031495208718047   -0.0056299033553279376   -0.004959904502102106
-0.6791836071308475   -0.09753248962659075   -0.05745932084121716
-0.6791836071308475   -0.09753248962659075   -0.05745932084121716
-0.6791836071308475   -0.09753248962659075   -0.05745932084121716
-0.6791836071308475   -0.09753248962659075   -0.05745932084121716
-0.23747617036927002   -0.387499977431664   -0.04470469375733599
-0.23747617036927002   -0.387499977431664   -0.04470469375733599
-0.23747617036927002   -0.387499977431664   -0.04470469375733599
-0.23747617036927002   -0.387499977431664   -0.04470469375733599
-0.18159162453573238   -0.017025268736347   5.619024289611578e-05
-0.18159162453573238   -0.017025268736347   5.619024289611578e-05
-0.18159162453573238   -0.017025268736347   5.619024289611578e-05
-0.18159162453573238   -0.017025268736347   5.619024289611578e-05
-0.7289376289680094   -0.4525291430876218   -0.23629335441112626
-0.7289376289680094   -0.4525291430876218   -0.23629335441112626
-0.7289376289680094   -0.4525291430876218   -0.23629335441112626
-0.7289376289680094   -0.4525291430876218   -0.23629335441112626
-0.44530831746361726   -0.2247084187279047   -0.032796729019099906
-0.44530831746361726   -0.2247084187279047   -0.032796729019099906
-0.44530831746361726   -0.2247084187279047   -0.032796729019099906
-0.44530831746361726   -0.2247084187279047   -0.032796729019099906
-0.6313176728284817   -0.12260521650308254   -0.07811750029803224
-0.6313176728284817   -0.12260521650308254   -0.07811750029803224
-0.6313176728284817   -0.12260521650308254   -0.07811750029803224
-0.6313176728284817   -0.12260521650308254   -0.07811750029803224
-0.2570190827838649   -0.3247566974294917   -0.06934967230462039
-0.2570190827838649   -0.3247566974294917   -0.06934967230462039
-0.2570190827838649   -0.3247566974294917   -0.06934967230462039
-0.2570190827838649   -0.3247566974294917   -0.06934967230462039
-0.18575834236361466   -0.022252046966563528   0.006898223290499907
-0.18575834236361466   -0.022252046966563528   0.006898223290499907
-0.18575834236361466   -0.022252046966563528   0.006898223290499907
-0.18575834236361466   -0.022252046966563528   0.006898223290499907
-0.6824552189244386   -0.40528044742753755   -0.21754713327039524
-0.6824552189244386   -0.40528044742753755   -0.21754713327039524
-0.6824552189244386   -0.40528044742753755   -0.21754713327039524
-0.6824552189244386   -0.40528044742753755   -0.21754713327039524
-0.41970455615085406   -0.2031509931928721   0.016582004554969013
-0.41970455615085406   -0.2031509931928721   0.016582004554969013
-0.41970455615085406   -0.2031509931928721   0.016582004554969013
-0.41970455615085406   -0.2031509931928721   0.016582004554969013
-0.5929593912769401   -0.11678465824951466   -0.05856378421093031
-0.5929593912769401   -0.11678465824951466   -0.05856378421093031
-0.5929593912769401   -0.11678465824951466   -0.05856378421093031
-0.5929593912769401   -0.11678465824951466   -0.05856378421093031
-0.250541616235073   -0.2860352823685467   -0.053234910664806706
-0.250541616235073   -0.2860352823685467   -0.053234910664806706
-0.250541616235073   -0.2860352823685467   -0.053234910664806706
-0.250541616235073   -0.2860352823685467   -0.053234910664806706
-0.21464727998724167   -0.05641105140368426   -0.011558649915008056
-0.21464727998724167   -0.05641105140368426   -0.011558649915008056
-0.21464727998724167   -0.05641105140368426   -0.011558649915008056
-0.21464727998724167   -0.05641105140368426   -0.011558649915008056
-0.6222111346306956   -0.34271272289403004   -0.19298477150494514
-0.6222111346306956   -0.34271272289403004   -0.19298477150494514
-0.6222111346306956   -0.34271272289403004   -0.19298477150494514
-0.6222111346306956   -0.34271272289403004   -0.19298477150494514
-0.38908835831340904   -0.17651995921545943   0.0725140477148117
-0.38908835831340904   -0.17651995921545943   0.0725140477148117
-0.38908835831340904   -0.17651995921545943   0.0725140477148117
-0.38908835831340904   -0.17651995921545943   0.0725140477148117
-0.1731825220723779   -0.09656624515614767   -0.014170184548393118
-0.1731825220723779   -0.09656624515614767   -0.014170184548393118
-0.1731825220723779   -0.09656624515614767   -0.014170184548393118
-0.1731825220723779   -0.09656624515614767   -0.014170184548393118
-0.08166249951619825   -0.1269696811140079   -0.02025283099843503
-0.08166249951619825   -0.1269696811140079   -0.02025283099843503
-0.08166249951619825   -0.1269696811140079   -0.02025283099843503
-0.08166249951619825   -0.1269696811140079   -0.02025283099843503
-0.0710426110602218   -0.06254770726841734   0.0017062905960106706
-0.0710426110602218   -0.06254770726841734   0.0017062905960106706
-0.0710426110602218   -0.06254770726841734   0.0017062905960106706
-0.0710426110602218   -0.06254770726841734   0.0017062905960106706
-0.2144895576090162   -0.18237614011743   0.0009173962575615494
-0.2144895576090162   -0.18237614011743   0.0009173962575615494
-0.2144895576090162   -0.18237614011743   0.0009173962575615494
-0.2144895576090162   -0.18237614011743   0.0009173962575615494
-0.11448861496351456   -0.08802365750550428   0.03724593758032298
-0.11448861496351456   -0.08802365750550428   0.03724593758032298
-0.11448861496351456   -0.08802365750550428   0.03724593758032298
-0.11448861496351456   -0.08802365750550428   0.03724593758032298
-0.19804760482422445   -0.09011646677300195   -0.009132513162909736
-0.19804760482422445   -0.09011646677300195   -0.009132513162909736
-0.19804760482422445   -0.09011646677300195   -0.009132513162909736
-0.19804760482422445   -0.09011646677300195   -0.009132513162909736
-0.09371401344078042   -0.1610368302086126   -0.013161598366587153
-0.09371401344078042   -0.1610368302086126   -0.013161598366587153
-0.09371401344078042   -0.1610368302086126   -0.013161598366587153
-0.09371401344078042   -0.1610368302086126   -0.013161598366587153
-0.07719848178933651   -0.06475510939975673   0.0018563259994165329
-0.07719848178933651   -0.06475510939975673   0.0018563259994165329
-0.07719848178933651   -0.06475510939975673   0.0018563259994165329
-0.07719848178933651   -0.06475510939975673   0.0018563259994165329
-0.22566455091699822   -0.18063119999802574   -0.034253666444953784
-0.22566455091699822   -0.18063119999802574   -0.034253666444953784
-0.22566455091699822   -0.18063119999802574   -0.034253666444953784
-0.22566455091699822   -0.18063119999802574   -0.034253666444953784
-0.137418397018504   -0.11237743402762916   0.016576216592519073
-0.137418397018504   -0.11237743402762916   0.016576216592519073
-0.137418397018504   -0.11237743402762916   0.016576216592519073
-0.137418397018504   -0.11237743402762916   0.016576216592519073
-0.20493999233116755   -0.0941059095089766   -0.017156164004851697
-0.20493999233116755   -0.0941059095089766   -0.017156164004851697
-0.20493999233116755   -0.0941059095089766   -0.017156164004851697
-0.20493999233116755   -0.0941059095089766   -0.017156164004851697
-0.09736603830383138   -0.15072339781747043   -0.013013168155344118
-0.09736603830383138   -0.15072339781747043   -0.013013168155344118
-0.09736603830383138   -0.15072339781747043   -0.013013168155344118
-0.09736603830383138   -0.15072339781747043   -0.013013168155344118
-0.08683963626119201   -0.06668207271741222   0.0027516359793954524
-0.08683963626119201   -0.06668207271741222   0.0027516359793954524
-0.08683963626119201   -0.06668207271741222   0.0027516359793954524
-0.08683963626119201   -0.06668207271741222   0.0027516359793954524
-0.24214893281439762   -0.17594053995625739   -0.02953742549821365
-0.24214893281439762   -0.17594053995625739   -0.02953742549821365
-0.24214893281439762   -0.17594053995625739   -0.02953742549821365
-0.24214893281439762   -0.17594053995625739   -0.02953742549821365
-0.14441315635294683   -0.10601740560028032   0.017451874139503908
-0.14441315635294683   -0.10601740560028032   0.017451874139503908
-0.14441315635294683   -0.10601740560028032   0.017451874139503908
-0.14441315635294683   -0.10601740560028032   0.017451874139503908
-0.06295692343088105   -0.057939667717849426   0.00424503603199246
-0.06295692343088105   -0.057939667717849426   0.00424503603199246
-0.06295692343088105   -0.057939667717849426   0.00424503603199246
-0.06295692343088105   -0.057939667717849426   0.00424503603199246
-0.039773197904262925   -0.041972325472487   -0.010006738192377698
-0.039773197904262925   -0.041972325472487   -0.010006738192377698
-0.039773197904262925   -0.041972325472487   -0.010006738192377698
-0.039773197904262925   -0.041972325472487   -0.010006738192377698
-0.038116612516417764   -0.05216110836522796   0.004173484757222741
-0.038116612516417764   -0.05216110836522796   0.004173484757222741
-0.038116612516417764   -0.05216110836522796   0.004173484757222741
-0.038116612516417764   -0.05216110836522796   0.004173484757222741
-0.07088800015673546   -0.05613697270936175   -0.003931389445613205
-0.07088800015673546   -0.05613697270936175   -0.003931389445613205
-0.07088800015673546   -0.05613697270936175   -0.003931389445613205
-0.07088800015673546   -0.05613697270936175   -0.003931389445613205
-0.044546598975403084   -0.04377972980688639   0.018781877186072313
-0.044546598975403084   -0.04377972980688639   0.018781877186072313
-0.044546598975403084   -0.04377972980688639   0.018781877186072313
-0.044546598975403084   -0.04377972980688639   0.018781877186072313
-0.06961743041086525   -0.05836589298390662   0.004650379558280756
-0.06961743041086525   -0.05836589298390662   0.004650379558280756
-0.06961743041086525   -0.05836589298390662   0.004650379558280756
-0.06961743041086525   -0.05836589298390662   0.004650379558280756
-0.04009580909665133   -0.050640814925047406   -0.007242791584125613
-0.04009580909665133   -0.050640814925047406   -0.007242791584125613
-0.04009580909665133   -0.050640814925047406   -0.007242791584125613
-0.04009580909665133   -0.050640814925047406   -0.007242791584125613
-0.038851470223950406   -0.05371963545288153   0.0037605513587518156
-0.038851470223950406   -0.05371963545288153   0.0037605513587518156
-0.038851470223950406   -0.05371963545288153   0.0037605513587518156
-0.038851470223950406   -0.05371963545288153   0.0037605513587518156
-0.07574316399578539   -0.0652184433305992   0.009596248898014597
-0.07574316399578539   -0.0652184433305992   0.009596248898014597
-0.07574316399578539   -0.0652184433305992   0.009596248898014597
-0.07574316399578539   -0.0652184433305992   0.009596248898014597
-0.04895197870143158   -0.048885133771252046   0.015604192146139131
-0.04895197870143158   -0.048885133771252046   0.015604192146139131
-0.04895197870143158   -0.048885133771252046   0.015604192146139131
-0.04895197870143158   -0.048885133771252046   0.015604192146139131
-0.07547788176161117   -0.06054682057042293   0.006251037308709417
-0.07547788176161117   -0.06054682057042293   0.006251037308709417
-0.07547788176161117   -0.06054682057042293   0.006251037308709417
-0.07547788176161117   -0.06054682057042293   0.006251037308709417
-0.042499106425211576   -0.06177361218014539   -0.006423652920290169
-0.042499106425211576   -0.06177361218014539   -0.006423652920290169
-0.042499106425211576   -0.06177361218014539   -0.006423652920290169
-0.042499106425211576   -0.06177361218014539   -0.006423652920290169
-0.0398394549013146   -0.055393968773918924   0.005328866765787973
-0.0398394549013146   -0.055393968773918924   0.005328866765787973
-0.0398394549013146   -0.055393968773918924   0.005328866765787973
-0.0398394549013146   -0.055393968773918924   0.005328866765787973
-0.0893982219112891   -0.07954036639596725   0.0028170014074650404
-0.0893982219112891   -0.07954036639596725   0.0028170014074650404
-0.0893982219112891   -0.07954036639596725   0.0028170014074650404
-0.0893982219112891   -0.07954036639596725   0.0028170014074650404
-0.05520471466918906   -0.0554837266379081   0.00694568923850036
-0.05520471466918906   -0.0554837266379081   0.00694568923850036
-0.05520471466918906   -0.0554837266379081   0.00694568923850036
-0.05520471466918906   -0.0554837266379081   0.00694568923850036
-0.031762061024988755   -0.023166663330873274   0.011243284062379434
-0.031762061024988755   -0.023166663330873274   0.011243284062379434
-0.031762061024988755   -0.023166663330873274   0.011243284062379434
-0.031762061024988755   -0.023166663330873274   0.011243284062379434
-0.02326512606791039   -0.0021613252309648978   -0.0023103546181619736
-0.02326512606791039   -0.0021613252309648978   -0.0023103546181619736
-0.02326512606791039   -0.0021613252309648978   -0.0023103546181619736
-0.02326512606791039   -0.0021613252309648978   -0.0023103546181619736
-0.02200797120128841   -0.025231982500611795   0.006923910548356876
-0.02200797120128841   -0.025231982500611795   0.006923910548356876
-0.02200797120128841   -0.025231982500611795   0.006923910548356876
-0.02200797120128841   -0.025231982500611795   0.006923910548356876
-0.03007268930293654   -0.0067465301358200554   -0.0010214774047790204
-0.03007268930293654   -0.0067465301358200554   -0.0010214774047790204
-0.03007268930293654   -0.0067465301358200554   -0.0010214774047790204
-0.03007268930293654   -0.0067465301358200554   -0.0010214774047790204
-0.02470739900606107   -0.013554826541032261   0.00557165271119914
-0.02470739900606107   -0.013554826541032261   0.00557165271119914
-0.02470739900606107   -0.013554826541032261   0.00557165271119914
-0.02470739900606107   -0.013554826541032261   0.00557165271119914
-0.031671319181992834   -0.02641805466133347   0.010656897725452932
-0.031671319181992834   -0.02641805466133347   0.010656897725452932
-0.031671319181992834   -0.02641805466133347   0.010656897725452932
-0.031671319181992834   -0.02641805466133347   0.010656897725452932
-0.01990280775350647   -0.005053924406372733   -0.002728330306972477
-0.01990280775350647   -0.005053924406372733   -0.002728330306972477
-0.01990280775350647   -0.005053924406372733   -0.002728330306972477
-0.01990280775350647   -0.005053924406372733   -0.002728330306972477
-0.02044670959853787   -0.027450478601923164   0.006433998436706099
-0.02044670959853787   -0.027450478601923164   0.006433998436706099
-0.02044670959853787   -0.027450478601923164   0.006433998436706099
-0.02044670959853787   -0.027450478601923164   0.006433998436706099
-0.030651653752503772   -0.011445170172174956   0.0024851684352783987
-0.030651653752503772   -0.011445170172174956   0.0024851684352783987
-0.030651653752503772   -0.011445170172174956   0.0024851684352783987
-0.030651653752503772   -0.011445170172174956   0.0024851684352783987
-0.023016146896465164   -0.015613050595303404   0.006410018745970277
-0.023016146896465164   -0.015613050595303404   0.006410018745970277
-0.023016146896465164   -0.015613050595303404   0.006410018745970277
-0.023016146896465164   -0.015613050595303404   0.006410018745970277
-0.032141944024783764   -0.028632179828477065   0.012220726730182485
-0.032141944024783764   -0.028632179828477065   0.012220726730182485
-0.032141944024783764   -0.028632179828477065   0.012220726730182485
-0.032141944024783764   -0.028632179828477065   0.012220726730182485
-0.019203838905887723   -0.01051088852525058   -0.004291238176715769
-0.019203838905887723   -0.01051088852525058   -0.004291238176715769
-0.019203838905887723   -0.01051088852525058   -0.004291238176715769
-0.019203838905887723   -0.01051088852525058   -0.004291238176715769
-0.017591626975806855   -0.029908756825253784   0.007115373021987693
-0.017591626975806855   -0.029908756825253784   0.007115373021987693
-0.017591626975806855   -0.029908756825253784   0.007115373021987693
-0.017591626975806855   -0.029908756825253784   0.007115373021987693
-0.0336793605681214   -0.022466374191101566   0.003201743848936637
-0.0336793605681214   -0.022466374191101566   0.003201743848936637
-0.0336793605681214   -0.022466374191101566   0.003201743848936637
-0.0336793605681214   -0.022466374191101566   0.003201743848936637
-0.022577260035492857   -0.019563855457886973   0.005262279902315074
-0.022577260035492857   -0.019563855457886973   0.005262279902315074
-0.022577260035492857   -0.019563855457886973   0.005262279902315074
-0.022577260035492857   -0.019563855457886973   0.005262279902315074
-0.0208533218491514   -0.0038449130618654595   0.011432254306533546
-0.0208533218491514   -0.0038449130618654595   0.011432254306533546
-0.0208533218491514   -0.0038449130618654595   0.011432254306533546
-0.0208533218491514   -0.0038449130618654595   0.011432254306533546
-0.004385564168676796   0.0020438319759579823   -0.00023151095569785385
-0.004385564168676796   0.0020438319759579823   -0.00023151095569785385
-0.004385564168676796   0.0020438319759579823   -0.00023151095569785385
-0.004385564168676796   0.0020438319759579823   -0.00023151095569785385
0.00035417989389295395   -0.0013026286283624356   0.00716225788184969
0.00035417989389295395   -0.0013026286283624356   0.00716225788184969
0.00035417989389295395   -0.0013026286283624356   0.00716225788184969
0.00035417989389295395   -0.0013026286283624356   0.00716225788184969
-0.018213971987985838   0.0012748190585350249   -0.0006128949442770783
-0.018213971987985838   0.0012748190585350249   -0.0006128949442770783
-0.018213971987985838   0.0012748190585350249   -0.0006128949442770783
-0.018213971987985838   0.0012748190585350249   -0.0006128949442770783
-0.010914283926018576   -0.0009013913374579018   -0.0008065172395239596
-0.010914283926018576   -0.0009013913374579018   -0.0008065172395239596
-0.010914283926018576   -0.0009013913374579018   -0.0008065172395239596
-0.010914283926018576   -0.0009013913374579018   -0.0008065172395239596
-0.016716085375017314   -0.0037657181855785976   0.011917075364679149
-0.016716085375017314   -0.0037657181855785976   0.011917075364679149
-0.016716085375017314   -0.0037657181855785976   0.011917075364679149
-0.016716085375017314   -0.0037657181855785976   0.011917075364679149
-0.0005386670589115376   0.004342948275915855   -0.0029475537864472236
-0.0005386670589115376   0.004342948275915855   -0.0029475537864472236
-0.0005386670589115376   0.004342948275915855   -0.0029475537864472236
-0.0005386670589115376   0.004342948275915855   -0.0029475537864472236
0.0025707999814895193   -0.0016431836131791766   0.008843929761090661
0.0025707999814895193   -0.0016431836131791766   0.008843929761090661
0.0025707999814895193   -0.0016431836131791766   0.008843929761090661
0.0025707999814895193   -0.0016431836131791766   0.008843929761090661
-0.016292906074499174   0.0006234187873940598   -0.0008708813324176349
-0.016292906074499174   0.0006234187873940598   -0.0008708813324176349
-0.016292906074499174   0.0006234187873940598   -0.0008708813324176349
-0.016292906074499174   0.0006234187873940598   -0.0008708813324176349
-0.007591446728980564   -0.0003871747034539519   0.0010499649149812082
-0.007591446728980564   -0.0003871747034539519   0.0010499649149812082
-0.007591446728980564   -0.0003871747034539519   0.0010499649149812082
-0.007591446728980564   -0.0003871747034539519   0.0010499649149812082
-0.01452342612263145   -0.00425902278613208   0.012858960000447114
-0.01452342612263145   -0.00425902278613208   0.012858960000447114
-0.01452342612263145   -0.00425902278613208   0.012858960000447114
-0.01452342612263145   -0.00425902278613208   0.012858960000447114
0.0013136390360282168   0.003751576966754022   -0.002836635546145214
0.0013136390360282168   0.003751576966754022   -0.002836635546145214
0.0013136390360282168   0.003751576966754022   -0.002836635546145214
0.0013136390360282168   0.003751576966754022   -0.002836635546145214
0.004672556071103377   -0.0027018631211958794   0.008652513786991875
0.004672556071103377   -0.0027018631211958794   0.008652513786991875
0.004672556071103377   -0.0027018631211958794   0.008652513786991875
0.004672556071103377   -0.0027018631211958794   0.008652513786991875
-0.013193848775026768   0.0001521413717731888   -0.0009566341711388479
-0.013193848775026768   0.0001521413717731888   -0.0009566341711388479
-0.013193848775026768   0.0001521413717731888   -0.0009566341711388479
-0.013193848775026768   0.0001521413717731888   -0.0009566341711388479
-0.004688046527423739   -0.00017882723329958066   0.002594488660856548
-0.004688046527423739   -0.00017882723329958066   0.002594488660856548
-0.004688046527423739   -0.00017882723329958066   0.002594488660856548
-0.004688046527423739   -0.00017882723329958066   0.002594488660856548
              </DataArray>   
             <DataArray type="Float64" NumberOfComponents="3" Name="Displacements" format="ascii">   
0.0   0.0   0.0
-0.0019022974232711296   -0.0012563070229923345   -0.000637761146656473
0.0   0.0   0.0
0.0   0.0   0.0
-0.0019022974232711296   -0.0012563070229923345   -0.000637761146656473
-0.0012096945796596739   -0.0011304872240838692   -0.00046866224993268014
0.0   0.0   0.0
-0.0011852386401799875   -0.0011867366777907657   -0.00039281051594796865
0.0   0.0   0.0
0.0   0.0   0.0
-0.0011852386401799875   -0.0011867366777907657   -0.00039281051594796865
0.0   0.0   0.0
0.0   0.0   0.0
-0.0011852386401799875   -0.0011867366777907657   -0.00039281051594796865
-0.0019901862908301574   -0.0013380241105899317   -0.0005122917070120831
-0.0019022974232711296   -0.0012563070229923345   -0.000637761146656473
0.0   0.0   0.0
-0.0011852386401799875   -0.0011867366777907657   -0.00039281051594796865
-0.0019022974232711296   -0.0012563070229923345   -0.000637761146656473
0.0   0.0   0.0
0.0   0.0   0.0
-0.0019901862908301574   -0.0013380241105899317   -0.0005122917070120831
0.0   0.0   0.0
0.0   0.0   0.0
-0.0019901862908301574   -0.0013380241105899317   -0.0005122917070120831
-0.0011852386401799875   -0.0011867366777907657   -0.00039281051594796865
0.0   0.0   0.0
-0.0011880058530794055   -0.0012156289544589278   -0.00031713364311303146
0.0   0.0   0.0
0.0   0.0   0.0
-0.0011880058530794055   -0.0012156289544589278   -0.00031713364311303146
0.0   0.0   0.0
0.0   0.0   0.0
-0.0011880058530794055   -0.0012156289544589278   -0.00031713364311303146
-0.0020516456405147033   -0.0013777916008922877   -0.00039219698028857155
-0.0019901862908301574   -0.0013380241105899317   -0.0005122917070120831
0.0   0.0   0.0
-0.0011880058530794055   -0.0012156289544589278   -0.00031713364311303146
-0.0019901862908301574   -0.0013380241105899317   -0.0005122917070120831
0.0   0.0   0.0
0.0   0.0   0.0
-0.0020516456405147033   -0.0013777916008922877   -0.00039219698028857155
0.0   0.0   0.0
0.0   0.0   0.0
-0.0020516456405147033   -0.0013777916008922877   -0.00039219698028857155
-0.0011880058530794055   -0.0012156289544589278   -0.00031713364311303146
0.0   0.0   0.0
-0.0011867328085002457   -0.0012231438470449874   -0.00023896455260212293
0.0   0.0   0.0
0.0   0.0   0.0
-0.0011867328085002457   -0.0012231438470449874   -0.00023896455260212293
0.0   0.0   0.0
0.0   0.0   0.0
-0.0011867328085002457   -0.0012231438470449874   -0.00023896455260212293
-0.0021846170030031557   -0.001408133163170321   -0.0002529510186801556
-0.0020516456405147033   -0.0013777916008922877   -0.00039219698028857155
0.0   0.0   0.0
-0.0011867328085002457   -0.0012231438470449874   -0.00023896455260212293
-0.0020516456405147033   -0.0013777916008922877   -0.00039219698028857155
0.0   0.0   0.0
0.0   0.0   0.0
-0.0012096945796596739   -0.0011304872240838692   -0.00046866224993268014
0.0   0.0   0.0
0.0   0.0   0.0
-0.0012096945796596739   -0.0011304872240838692   -0.00046866224993268014
-0.0005515668263308406   -0.0010844616817685365   -0.0003567209578814204
0.0   0.0   0.0
-0.0005299283929432147   -0.0011210053147438052   -0.00032084280729405843
0.0   0.0   0.0
0.0   0.0   0.0
-0.0005299283929432147   -0.0011210053147438052   -0.00032084280729405843
0.0   0.0   0.0
0.0   0.0   0.0
-0.0005299283929432147   -0.0011210053147438052   -0.00032084280729405843
-0.0011852386401799875   -0.0011867366777907657   -0.00039281051594796865
-0.0012096945796596739   -0.0011304872240838692   -0.00046866224993268014
0.0   0.0   0.0
-0.0005299283929432147   -0.0011210053147438052   -0.00032084280729405843
-0.0012096945796596739   -0.0011304872240838692   -0.00046866224993268014
0.0   0.0   0.0
0.0   0.0   0.0
-0.0011852386401799875   -0.0011867366777907657   -0.00039281051594796865
0.0   0.0   0.0
0.0   0.0   0.0
-0.0011852386401799875   -0.0011867366777907657   -0.00039281051594796865
-0.0005299283929432147   -0.0011210053147438052   -0.00032084280729405843
0.0   0.0   0.0
-0.0005175403858094509   -0.0011349579683847654   -0.0002859662159387372
0.0   0.0   0.0
0.0   0.0   0.0
-0.0005175403858094509   -0.0011349579683847654   -0.0002859662159387372
0.0   0.0   0.0
0.0   0.0   0.0
-0.0005175403858094509   -0.0011349579683847654   -0.0002859662159387372
-0.0011880058530794055   -0.0012156289544589278   -0.00031713364311303146
-0.0011852386401799875   -0.0011867366777907657   -0.00039281051594796865
0.0   0.0   0.0
-0.0005175403858094509   -0.0011349579683847654   -0.0002859662159387372
-0.0011852386401799875   -0.0011867366777907657   -0.00039281051594796865
0.0   0.0   0.0
0.0   0.0   0.0
-0.0011880058530794055   -0.0012156289544589278   -0.00031713364311303146
0.0   0.0   0.0
0.0   0.0   0.0
-0.0011880058530794055   -0.0012156289544589278   -0.00031713364311303146
-0.0005175403858094509   -0.0011349579683847654   -0.0002859662159387372
0.0   0.0   0.0
-0.0005061650871285136   -0.0011291918533921504   -0.00024997754788988995
0.0   0.0   0.0
0.0   0.0   0.0
-0.0005061650871285136   -0.0011291918533921504   -0.00024997754788988995
0.0   0.0   0.0
0.0   0.0   0.0
-0.0005061650871285136   -0.0011291918533921504   -0.00024997754788988995
-0.0011867328085002457   -0.0012231438470449874   -0.00023896455260212293
-0.0011880058530794055   -0.0012156289544589278   -0.00031713364311303146
0.0   0.0   0.0
-0.0005061650871285136   -0.0011291918533921504   -0.00024997754788988995
-0.0011880058530794055   -0.0012156289544589278   -0.00031713364311303146
0.0   0.0   0.0
0.0   0.0   0.0
-0.0005515668263308406   -0.0010844616817685365   -0.0003567209578814204
0.0   0.0   0.0
0.0   0.0   0.0
-0.0005515668263308406   -0.0010844616817685365   -0.0003567209578814204
6.974853738956123e-05   -0.0010904487079499395   -0.00028555879801290727
0.0   0.0   0.0
8.382702981739658e-05   -0.0011093123666596487   -0.00029035725482749205
0.0   0.0   0.0
0.0   0.0   0.0
8.382702981739658e-05   -0.0011093123666596487   -0.00029035725482749205
0.0   0.0   0.0
0.0   0.0   0.0
8.382702981739658e-05   -0.0011093123666596487   -0.00029035725482749205
-0.0005299283929432147   -0.0011210053147438052   -0.00032084280729405843
-0.0005515668263308406   -0.0010844616817685365   -0.0003567209578814204
0.0   0.0   0.0
8.382702981739658e-05   -0.0011093123666596487   -0.00029035725482749205
-0.0005515668263308406   -0.0010844616817685365   -0.0003567209578814204
0.0   0.0   0.0
0.0   0.0   0.0
-0.0005299283929432147   -0.0011210053147438052   -0.00032084280729405843
0.0   0.0   0.0
0.0   0.0   0.0
-0.0005299283929432147   -0.0011210053147438052   -0.00032084280729405843
8.382702981739658e-05   -0.0011093123666596487   -0.00029035725482749205
0.0   0.0   0.0
9.501471758187768e-05   -0.001107681143449045   -0.000294747390304917
0.0   0.0   0.0
0.0   0.0   0.0
9.501471758187768e-05   -0.001107681143449045   -0.000294747390304917
0.0   0.0   0.0
0.0   0.0   0.0
9.501471758187768e-05   -0.001107681143449045   -0.000294747390304917
-0.0005175403858094509   -0.0011349579683847654   -0.0002859662159387372
-0.0005299283929432147   -0.0011210053147438052   -0.00032084280729405843
0.0   0.0   0.0
9.501471758187768e-05   -0.001107681143449045   -0.000294747390304917
-0.0005299283929432147   -0.0011210053147438052   -0.00032084280729405843
0.0   0.0   0.0
0.0   0.0   0.0
-0.0005175403858094509   -0.0011349579683847654   -0.0002859662159387372
0.0   0.0   0.0
0.0   0.0   0.0
-0.0005175403858094509   -0.0011349579683847654   -0.0002859662159387372
9.501471758187768e-05   -0.001107681143449045   -0.000294747390304917
0.0   0.0   0.0
0.0001098768074028626   -0.0010838854530024304   -0.00029932683361050684
0.0   0.0   0.0
0.0   0.0   0.0
0.0001098768074028626   -0.0010838854530024304   -0.00029932683361050684
0.0   0.0   0.0
0.0   0.0   0.0
0.0001098768074028626   -0.0010838854530024304   -0.00029932683361050684
-0.0005061650871285136   -0.0011291918533921504   -0.00024997754788988995
-0.0005175403858094509   -0.0011349579683847654   -0.0002859662159387372
0.0   0.0   0.0
0.0001098768074028626   -0.0010838854530024304   -0.00029932683361050684
-0.0005175403858094509   -0.0011349579683847654   -0.0002859662159387372
0.0   0.0   0.0
0.0   0.0   0.0
6.974853738956123e-05   -0.0010904487079499395   -0.00028555879801290727
0.0   0.0   0.0
0.0   0.0   0.0
6.974853738956123e-05   -0.0010904487079499395   -0.00028555879801290727
0.0007446664740960403   -0.0011428555897183654   -0.0002505898161959962
0.0   0.0   0.0
0.0007467020103061484   -0.0011487229123624209   -0.0002981944102151611
0.0   0.0   0.0
0.0   0.0   0.0
0.0007467020103061484   -0.0011487229123624209   -0.0002981944102151611
0.0   0.0   0.0
0.0   0.0   0.0
0.0007467020103061484   -0.0011487229123624209   -0.0002981944102151611
8.382702981739658e-05   -0.0011093123666596487   -0.00029035725482749205
6.974853738956123e-05   -0.0010904487079499395   -0.00028555879801290727
0.0   0.0   0.0
0.0007467020103061484   -0.0011487229123624209   -0.0002981944102151611
6.974853738956123e-05   -0.0010904487079499395   -0.00028555879801290727
0.0   0.0   0.0
0.0   0.0   0.0
8.382702981739658e-05   -0.0011093123666596487   -0.00029035725482749205
0.0   0.0   0.0
0.0   0.0   0.0
8.382702981739658e-05   -0.0011093123666596487   -0.00029035725482749205
0.0007467020103061484   -0.0011487229123624209   -0.0002981944102151611
0.0   0.0   0.0
0.0007441170596650842   -0.001132324679417457   -0.0003439440503770479
0.0   0.0   0.0
0.0   0.0   0.0
0.0007441170596650842   -0.001132324679417457   -0.0003439440503770479
0.0   0.0   0.0
0.0   0.0   0.0
0.0007441170596650842   -0.001132324679417457   -0.0003439440503770479
9.501471758187768e-05   -0.001107681143449045   -0.000294747390304917
8.382702981739658e-05   -0.0011093123666596487   -0.00029035725482749205
0.0   0.0   0.0
0.0007441170596650842   -0.001132324679417457   -0.0003439440503770479
8.382702981739658e-05   -0.0011093123666596487   -0.00029035725482749205
0.0   0.0   0.0
0.0   0.0   0.0
9.501471758187768e-05   -0.001107681143449045   -0.000294747390304917
0.0   0.0   0.0
0.0   0.0   0.0
9.501471758187768e-05   -0.001107681143449045   -0.000294747390304917
0.0007441170596650842   -0.001132324679417457   -0.0003439440503770479
0.0   0.0   0.0
0.0007591174428375218   -0.0010887078406397587   -0.00038888717720436547
0.0   0.0   0.0
0.0   0.0   0.0
0.0007591174428375218   -0.0010887078406397587   -0.00038888717720436547
0.0   0.0   0.0
0.0   0.0   0.0
0.0007591174428375218   -0.0010887078406397587   -0.00038888717720436547
0.0001098768074028626   -0.0010838854530024304   -0.00029932683361050684
9.501471758187768e-05   -0.001107681143449045   -0.000294747390304917
0.0   0.0   0.0
0.0007591174428375218   -0.0010887078406397587   -0.00038888717720436547
9.501471758187768e-05   -0.001107681143449045   -0.000294747390304917
0.0   0.0   0.0
0.0   0.0   0.0
0.0007446664740960403   -0.0011428555897183654   -0.0002505898161959962
0.0   0.0   0.0
0.0   0.0   0.0
0.0007446664740960403   -0.0011428555897183654   -0.0002505898161959962
0.001684952317790339   -0.0012759939422862807   -0.00023701167533661917
0.0   0.0   0.0
0.0015833661906232484   -0.0012617770206526607   -0.0003451707385540213
0.0   0.0   0.0
0.0   0.0   0.0
0.0015833661906232484   -0.0012617770206526607   -0.0003451707385540213
0.0   0.0   0.0
0.0   0.0   0.0
0.0015833661906232484   -0.0012617770206526607   -0.0003451707385540213
0.0007467020103061484   -0.0011487229123624209   -0.0002981944102151611
0.0007446664740960403   -0.0011428555897183654   -0.0002505898161959962
0.0   0.0   0.0
0.0015833661906232484   -0.0012617770206526607   -0.0003451707385540213
0.0007446664740960403   -0.0011428555897183654   -0.0002505898161959962
0.0   0.0   0.0
0.0   0.0   0.0
0.0007467020103061484   -0.0011487229123624209   -0.0002981944102151611
0.0   0.0   0.0
0.0   0.0   0.0
0.0007467020103061484   -0.0011487229123624209   -0.0002981944102151611
0.0015833661906232484   -0.0012617770206526607   -0.0003451707385540213
0.0   0.0   0.0
0.0015367976811274738   -0.0012355507063028885   -0.0004366977314827514
0.0   0.0   0.0
0.0   0.0   0.0
0.0015367976811274738   -0.0012355507063028885   -0.0004366977314827514
0.0   0.0   0.0
0.0   0.0   0.0
0.0015367976811274738   -0.0012355507063028885   -0.0004366977314827514
0.0007441170596650842   -0.001132324679417457   -0.0003439440503770479
0.0007467020103061484   -0.0011487229123624209   -0.0002981944102151611
0.0   0.0   0.0
0.0015367976811274738   -0.0012355507063028885   -0.0004366977314827514
0.0007467020103061484   -0.0011487229123624209   -0.0002981944102151611
0.0   0.0   0.0
0.0   0.0   0.0
0.0007441170596650842   -0.001132324679417457   -0.0003439440503770479
0.0   0.0   0.0
0.0   0.0   0.0
0.0007441170596650842   -0.001132324679417457   -0.0003439440503770479
0.0015367976811274738   -0.0012355507063028885   -0.0004366977314827514
0.0   0.0   0.0
0.00146704177093407   -0.0011686726098593205   -0.0005336960225101982
0.0   0.0   0.0
0.0   0.0   0.0
0.00146704177093407   -0.0011686726098593205   -0.0005336960225101982
0.0   0.0   0.0
0.0   0.0   0.0
0.00146704177093407   -0.0011686726098593205   -0.0005336960225101982
0.0007591174428375218   -0.0010887078406397587   -0.00038888717720436547
0.0007441170596650842   -0.001132324679417457   -0.0003439440503770479
0.0   0.0   0.0
0.00146704177093407   -0.0011686726098593205   -0.0005336960225101982
0.0007441170596650842   -0.001132324679417457   -0.0003439440503770479
0.0   0.0   0.0
-0.0019022974232711296   -0.0012563070229923345   -0.000637761146656473
-0.0035470172693591586   -0.003494998315665735   -0.0008595277100723937
-0.0012096945796596739   -0.0011304872240838692   -0.00046866224993268014
-0.0019901862908301574   -0.0013380241105899317   -0.0005122917070120831
-0.0035470172693591586   -0.003494998315665735   -0.0008595277100723937
-0.0022636451661449506   -0.003382061188266851   -0.0007081153572856845
-0.0012096945796596739   -0.0011304872240838692   -0.00046866224993268014
-0.002265400018230238   -0.003439492587996203   -0.0006381212682904265
-0.0019901862908301574   -0.0013380241105899317   -0.0005122917070120831
-0.0011852386401799875   -0.0011867366777907657   -0.00039281051594796865
-0.002265400018230238   -0.003439492587996203   -0.0006381212682904265
-0.0012096945796596739   -0.0011304872240838692   -0.00046866224993268014
-0.0019901862908301574   -0.0013380241105899317   -0.0005122917070120831
-0.002265400018230238   -0.003439492587996203   -0.0006381212682904265
-0.003652067347244509   -0.003575234318530834   -0.0007460068835437428
-0.0035470172693591586   -0.003494998315665735   -0.0008595277100723937
-0.0019901862908301574   -0.0013380241105899317   -0.0005122917070120831
-0.002265400018230238   -0.003439492587996203   -0.0006381212682904265
-0.0035470172693591586   -0.003494998315665735   -0.0008595277100723937
-0.0012096945796596739   -0.0011304872240838692   -0.00046866224993268014
-0.0019901862908301574   -0.0013380241105899317   -0.0005122917070120831
-0.003652067347244509   -0.003575234318530834   -0.0007460068835437428
-0.0011852386401799875   -0.0011867366777907657   -0.00039281051594796865
-0.0020516456405147033   -0.0013777916008922877   -0.00039219698028857155
-0.003652067347244509   -0.003575234318530834   -0.0007460068835437428
-0.002265400018230238   -0.003439492587996203   -0.0006381212682904265
-0.0011852386401799875   -0.0011867366777907657   -0.00039281051594796865
-0.0022733339291004405   -0.0034745877414850933   -0.0005709197395834897
-0.0020516456405147033   -0.0013777916008922877   -0.00039219698028857155
-0.0011880058530794055   -0.0012156289544589278   -0.00031713364311303146
-0.0022733339291004405   -0.0034745877414850933   -0.0005709197395834897
-0.0011852386401799875   -0.0011867366777907657   -0.00039281051594796865
-0.0020516456405147033   -0.0013777916008922877   -0.00039219698028857155
-0.0022733339291004405   -0.0034745877414850933   -0.0005709197395834897
-0.003724667338393452   -0.0036206292234489466   -0.0006349333719102554
-0.003652067347244509   -0.003575234318530834   -0.0007460068835437428
-0.0020516456405147033   -0.0013777916008922877   -0.00039219698028857155
-0.0022733339291004405   -0.0034745877414850933   -0.0005709197395834897
-0.003652067347244509   -0.003575234318530834   -0.0007460068835437428
-0.0011852386401799875   -0.0011867366777907657   -0.00039281051594796865
-0.0020516456405147033   -0.0013777916008922877   -0.00039219698028857155
-0.003724667338393452   -0.0036206292234489466   -0.0006349333719102554
-0.0011880058530794055   -0.0012156289544589278   -0.00031713364311303146
-0.0021846170030031557   -0.001408133163170321   -0.0002529510186801556
-0.003724667338393452   -0.0036206292234489466   -0.0006349333719102554
-0.0022733339291004405   -0.0034745877414850933   -0.0005709197395834897
-0.0011880058530794055   -0.0012156289544589278   -0.00031713364311303146
-0.0022655360042629375   -0.0034929402023559167   -0.0005080766639197306
-0.0021846170030031557   -0.001408133163170321   -0.0002529510186801556
-0.0011867328085002457   -0.0012231438470449874   -0.00023896455260212293
-0.0022655360042629375   -0.0034929402023559167   -0.0005080766639197306
-0.0011880058530794055   -0.0012156289544589278   -0.00031713364311303146
-0.0021846170030031557   -0.001408133163170321   -0.0002529510186801556
-0.0022655360042629375   -0.0034929402023559167   -0.0005080766639197306
-0.003810435507465621   -0.0036472745204429364   -0.0005340100416479479
-0.003724667338393452   -0.0036206292234489466   -0.0006349333719102554
-0.0021846170030031557   -0.001408133163170321   -0.0002529510186801556
-0.0022655360042629375   -0.0034929402023559167   -0.0005080766639197306
-0.003724667338393452   -0.0036206292234489466   -0.0006349333719102554
-0.0011880058530794055   -0.0012156289544589278   -0.00031713364311303146
-0.0012096945796596739   -0.0011304872240838692   -0.00046866224993268014
-0.0022636451661449506   -0.003382061188266851   -0.0007081153572856845
-0.0005515668263308406   -0.0010844616817685365   -0.0003567209578814204
-0.0011852386401799875   -0.0011867366777907657   -0.00039281051594796865
-0.0022636451661449506   -0.003382061188266851   -0.0007081153572856845
-0.0010519180390803511   -0.003329503198739998   -0.0006048439628683234
-0.0005515668263308406   -0.0010844616817685365   -0.0003567209578814204
-0.0010419068757627763   -0.0033659687898687615   -0.0005688892446649942
-0.0011852386401799875   -0.0011867366777907657   -0.00039281051594796865
-0.0005299283929432147   -0.0011210053147438052   -0.00032084280729405843
-0.0010419068757627763   -0.0033659687898687615   -0.0005688892446649942
-0.0005515668263308406   -0.0010844616817685365   -0.0003567209578814204
-0.0011852386401799875   -0.0011867366777907657   -0.00039281051594796865
-0.0010419068757627763   -0.0033659687898687615   -0.0005688892446649942
-0.002265400018230238   -0.003439492587996203   -0.0006381212682904265
-0.0022636451661449506   -0.003382061188266851   -0.0007081153572856845
-0.0011852386401799875   -0.0011867366777907657   -0.00039281051594796865
-0.0010419068757627763   -0.0033659687898687615   -0.0005688892446649942
-0.0022636451661449506   -0.003382061188266851   -0.0007081153572856845
-0.0005515668263308406   -0.0010844616817685365   -0.0003567209578814204
-0.0011852386401799875   -0.0011867366777907657   -0.00039281051594796865
-0.002265400018230238   -0.003439492587996203   -0.0006381212682904265
-0.0005299283929432147   -0.0011210053147438052   -0.00032084280729405843
-0.0011880058530794055   -0.0012156289544589278   -0.00031713364311303146
-0.002265400018230238   -0.003439492587996203   -0.0006381212682904265
-0.0010419068757627763   -0.0033659687898687615   -0.0005688892446649942
-0.0005299283929432147   -0.0011210053147438052   -0.00032084280729405843
-0.0010329299477664054   -0.0033836865518071953   -0.0005363357140878549
-0.0011880058530794055   -0.0012156289544589278   -0.00031713364311303146
-0.0005175403858094509   -0.0011349579683847654   -0.0002859662159387372
-0.0010329299477664054   -0.0033836865518071953   -0.0005363357140878549
-0.0005299283929432147   -0.0011210053147438052   -0.00032084280729405843
-0.0011880058530794055   -0.0012156289544589278   -0.00031713364311303146
-0.0010329299477664054   -0.0033836865518071953   -0.0005363357140878549
-0.0022733339291004405   -0.0034745877414850933   -0.0005709197395834897
-0.002265400018230238   -0.003439492587996203   -0.0006381212682904265
-0.0011880058530794055   -0.0012156289544589278   -0.00031713364311303146
-0.0010329299477664054   -0.0033836865518071953   -0.0005363357140878549
-0.002265400018230238   -0.003439492587996203   -0.0006381212682904265
-0.0005299283929432147   -0.0011210053147438052   -0.00032084280729405843
-0.0011880058530794055   -0.0012156289544589278   -0.00031713364311303146
-0.0022733339291004405   -0.0034745877414850933   -0.0005709197395834897
-0.0005175403858094509   -0.0011349579683847654   -0.0002859662159387372
-0.0011867328085002457   -0.0012231438470449874   -0.00023896455260212293
-0.0022733339291004405   -0.0034745877414850933   -0.0005709197395834897
-0.0010329299477664054   -0.0033836865518071953   -0.0005363357140878549
-0.0005175403858094509   -0.0011349579683847654   -0.0002859662159387372
-0.00101997030623395   -0.0033833219712067386   -0.0005080415876750418
-0.0011867328085002457   -0.0012231438470449874   -0.00023896455260212293
-0.0005061650871285136   -0.0011291918533921504   -0.00024997754788988995
-0.00101997030623395   -0.0033833219712067386   -0.0005080415876750418
-0.0005175403858094509   -0.0011349579683847654   -0.0002859662159387372
-0.0011867328085002457   -0.0012231438470449874   -0.00023896455260212293
-0.00101997030623395   -0.0033833219712067386   -0.0005080415876750418
-0.0022655360042629375   -0.0034929402023559167   -0.0005080766639197306
-0.0022733339291004405   -0.0034745877414850933   -0.0005709197395834897
-0.0011867328085002457   -0.0012231438470449874   -0.00023896455260212293
-0.00101997030623395   -0.0033833219712067386   -0.0005080415876750418
-0.0022733339291004405   -0.0034745877414850933   -0.0005709197395834897
-0.0005175403858094509   -0.0011349579683847654   -0.0002859662159387372
-0.0005515668263308406   -0.0010844616817685365   -0.0003567209578814204
-0.0010519180390803511   -0.003329503198739998   -0.0006048439628683234
6.974853738956123e-05   -0.0010904487079499395   -0.00028555879801290727
-0.0005299283929432147   -0.0011210053147438052   -0.00032084280729405843
-0.0010519180390803511   -0.003329503198739998   -0.0006048439628683234
0.00011595739628403998   -0.003331124196117692   -0.0005397664552402472
6.974853738956123e-05   -0.0010904487079499395   -0.00028555879801290727
0.00012809975523967436   -0.003348262130737855   -0.0005372125998743171
-0.0005299283929432147   -0.0011210053147438052   -0.00032084280729405843
8.382702981739658e-05   -0.0011093123666596487   -0.00029035725482749205
0.00012809975523967436   -0.003348262130737855   -0.0005372125998743171
6.974853738956123e-05   -0.0010904487079499395   -0.00028555879801290727
-0.0005299283929432147   -0.0011210053147438052   -0.00032084280729405843
0.00012809975523967436   -0.003348262130737855   -0.0005372125998743171
-0.0010419068757627763   -0.0033659687898687615   -0.0005688892446649942
-0.0010519180390803511   -0.003329503198739998   -0.0006048439628683234
-0.0005299283929432147   -0.0011210053147438052   -0.00032084280729405843
0.00012809975523967436   -0.003348262130737855   -0.0005372125998743171
-0.0010519180390803511   -0.003329503198739998   -0.0006048439628683234
6.974853738956123e-05   -0.0010904487079499395   -0.00028555879801290727
-0.0005299283929432147   -0.0011210053147438052   -0.00032084280729405843
-0.0010419068757627763   -0.0033659687898687615   -0.0005688892446649942
8.382702981739658e-05   -0.0011093123666596487   -0.00029035725482749205
-0.0005175403858094509   -0.0011349579683847654   -0.0002859662159387372
-0.0010419068757627763   -0.0033659687898687615   -0.0005688892446649942
0.00012809975523967436   -0.003348262130737855   -0.0005372125998743171
8.382702981739658e-05   -0.0011093123666596487   -0.00029035725482749205
0.0001365669509415411   -0.0033470884655002467   -0.0005385154738848871
-0.0005175403858094509   -0.0011349579683847654   -0.0002859662159387372
9.501471758187768e-05   -0.001107681143449045   -0.000294747390304917
0.0001365669509415411   -0.0033470884655002467   -0.0005385154738848871
8.382702981739658e-05   -0.0011093123666596487   -0.00029035725482749205
-0.0005175403858094509   -0.0011349579683847654   -0.0002859662159387372
0.0001365669509415411   -0.0033470884655002467   -0.0005385154738848871
-0.0010329299477664054   -0.0033836865518071953   -0.0005363357140878549
-0.0010419068757627763   -0.0033659687898687615   -0.0005688892446649942
-0.0005175403858094509   -0.0011349579683847654   -0.0002859662159387372
0.0001365669509415411   -0.0033470884655002467   -0.0005385154738848871
-0.0010419068757627763   -0.0033659687898687615   -0.0005688892446649942
8.382702981739658e-05   -0.0011093123666596487   -0.00029035725482749205
-0.0005175403858094509   -0.0011349579683847654   -0.0002859662159387372
-0.0010329299477664054   -0.0033836865518071953   -0.0005363357140878549
9.501471758187768e-05   -0.001107681143449045   -0.000294747390304917
-0.0005061650871285136   -0.0011291918533921504   -0.00024997754788988995
-0.0010329299477664054   -0.0033836865518071953   -0.0005363357140878549
0.0001365669509415411   -0.0033470884655002467   -0.0005385154738848871
9.501471758187768e-05   -0.001107681143449045   -0.000294747390304917
0.00014558124670116746   -0.0033270489831617304   -0.0005437348811602446
-0.0005061650871285136   -0.0011291918533921504   -0.00024997754788988995
0.0001098768074028626   -0.0010838854530024304   -0.00029932683361050684
0.00014558124670116746   -0.0033270489831617304   -0.0005437348811602446
9.501471758187768e-05   -0.001107681143449045   -0.000294747390304917
-0.0005061650871285136   -0.0011291918533921504   -0.00024997754788988995
0.00014558124670116746   -0.0033270489831617304   -0.0005437348811602446
-0.00101997030623395   -0.0033833219712067386   -0.0005080415876750418
-0.0010329299477664054   -0.0033836865518071953   -0.0005363357140878549
-0.0005061650871285136   -0.0011291918533921504   -0.00024997754788988995
0.00014558124670116746   -0.0033270489831617304   -0.0005437348811602446
-0.0010329299477664054   -0.0033836865518071953   -0.0005363357140878549
9.501471758187768e-05   -0.001107681143449045   -0.000294747390304917
6.974853738956123e-05   -0.0010904487079499395   -0.00028555879801290727
0.00011595739628403998   -0.003331124196117692   -0.0005397664552402472
0.0007446664740960403   -0.0011428555897183654   -0.0002505898161959962
8.382702981739658e-05   -0.0011093123666596487   -0.00029035725482749205
0.00011595739628403998   -0.003331124196117692   -0.0005397664552402472
0.0013540982101964384   -0.00338498682556862   -0.0005097493982576725
0.0007446664740960403   -0.0011428555897183654   -0.0002505898161959962
0.0013615070290641158   -0.003384524792140544   -0.0005416730265174637
8.382702981739658e-05   -0.0011093123666596487   -0.00029035725482749205
0.0007467020103061484   -0.0011487229123624209   -0.0002981944102151611
0.0013615070290641158   -0.003384524792140544   -0.0005416730265174637
0.0007446664740960403   -0.0011428555897183654   -0.0002505898161959962
8.382702981739658e-05   -0.0011093123666596487   -0.00029035725482749205
0.0013615070290641158   -0.003384524792140544   -0.0005416730265174637
0.00012809975523967436   -0.003348262130737855   -0.0005372125998743171
0.00011595739628403998   -0.003331124196117692   -0.0005397664552402472
8.382702981739658e-05   -0.0011093123666596487   -0.00029035725482749205
0.0013615070290641158   -0.003384524792140544   -0.0005416730265174637
0.00011595739628403998   -0.003331124196117692   -0.0005397664552402472
0.0007446664740960403   -0.0011428555897183654   -0.0002505898161959962
8.382702981739658e-05   -0.0011093123666596487   -0.00029035725482749205
0.00012809975523967436   -0.003348262130737855   -0.0005372125998743171
0.0007467020103061484   -0.0011487229123624209   -0.0002981944102151611
9.501471758187768e-05   -0.001107681143449045   -0.000294747390304917
0.00012809975523967436   -0.003348262130737855   -0.0005372125998743171
0.0013615070290641158   -0.003384524792140544   -0.0005416730265174637
0.0007467020103061484   -0.0011487229123624209   -0.0002981944102151611
0.001356279544830388   -0.0033661353967908104   -0.0005779593264359378
9.501471758187768e-05   -0.001107681143449045   -0.000294747390304917
0.0007441170596650842   -0.001132324679417457   -0.0003439440503770479
0.001356279544830388   -0.0033661353967908104   -0.0005779593264359378
0.0007467020103061484   -0.0011487229123624209   -0.0002981944102151611
9.501471758187768e-05   -0.001107681143449045   -0.000294747390304917
0.001356279544830388   -0.0033661353967908104   -0.0005779593264359378
0.0001365669509415411   -0.0033470884655002467   -0.0005385154738848871
0.00012809975523967436   -0.003348262130737855   -0.0005372125998743171
9.501471758187768e-05   -0.001107681143449045   -0.000294747390304917
0.001356279544830388   -0.0033661353967908104   -0.0005779593264359378
0.00012809975523967436   -0.003348262130737855   -0.0005372125998743171
0.0007467020103061484   -0.0011487229123624209   -0.0002981944102151611
9.501471758187768e-05   -0.001107681143449045   -0.000294747390304917
0.0001365669509415411   -0.0033470884655002467   -0.0005385154738848871
0.0007441170596650842   -0.001132324679417457   -0.0003439440503770479
0.0001098768074028626   -0.0010838854530024304   -0.00029932683361050684
0.0001365669509415411   -0.0033470884655002467   -0.0005385154738848871
0.001356279544830388   -0.0033661353967908104   -0.0005779593264359378
0.0007441170596650842   -0.001132324679417457   -0.0003439440503770479
0.0013536698079905575   -0.003324832528760699   -0.0006172621234718981
0.0001098768074028626   -0.0010838854530024304   -0.00029932683361050684
0.0007591174428375218   -0.0010887078406397587   -0.00038888717720436547
0.0013536698079905575   -0.003324832528760699   -0.0006172621234718981
0.0007441170596650842   -0.001132324679417457   -0.0003439440503770479
0.0001098768074028626   -0.0010838854530024304   -0.00029932683361050684
0.0013536698079905575   -0.003324832528760699   -0.0006172621234718981
0.00014558124670116746   -0.0033270489831617304   -0.0005437348811602446
0.0001365669509415411   -0.0033470884655002467   -0.0005385154738848871
0.0001098768074028626   -0.0010838854530024304   -0.00029932683361050684
0.0013536698079905575   -0.003324832528760699   -0.0006172621234718981
0.0001365669509415411   -0.0033470884655002467   -0.0005385154738848871
0.0007441170596650842   -0.001132324679417457   -0.0003439440503770479
0.0007446664740960403   -0.0011428555897183654   -0.0002505898161959962
0.0013540982101964384   -0.00338498682556862   -0.0005097493982576725
0.001684952317790339   -0.0012759939422862807   -0.00023701167533661917
0.0007467020103061484   -0.0011487229123624209   -0.0002981944102151611
0.0013540982101964384   -0.00338498682556862   -0.0005097493982576725
0.0028495618426502118   -0.003484915798367914   -0.000502360879225512
0.001684952317790339   -0.0012759939422862807   -0.00023701167533661917
0.0027931643881366113   -0.003474997943911223   -0.0005743244906925518
0.0007467020103061484   -0.0011487229123624209   -0.0002981944102151611
0.0015833661906232484   -0.0012617770206526607   -0.0003451707385540213
0.0027931643881366113   -0.003474997943911223   -0.0005743244906925518
0.001684952317790339   -0.0012759939422862807   -0.00023701167533661917
0.0007467020103061484   -0.0011487229123624209   -0.0002981944102151611
0.0027931643881366113   -0.003474997943911223   -0.0005743244906925518
0.0013615070290641158   -0.003384524792140544   -0.0005416730265174637
0.0013540982101964384   -0.00338498682556862   -0.0005097493982576725
0.0007467020103061484   -0.0011487229123624209   -0.0002981944102151611
0.0027931643881366113   -0.003474997943911223   -0.0005743244906925518
0.0013540982101964384   -0.00338498682556862   -0.0005097493982576725
0.001684952317790339   -0.0012759939422862807   -0.00023701167533661917
0.0007467020103061484   -0.0011487229123624209   -0.0002981944102151611
0.0013615070290641158   -0.003384524792140544   -0.0005416730265174637
0.0015833661906232484   -0.0012617770206526607   -0.0003451707385540213
0.0007441170596650842   -0.001132324679417457   -0.0003439440503770479
0.0013615070290641158   -0.003384524792140544   -0.0005416730265174637
0.0027931643881366113   -0.003474997943911223   -0.0005743244906925518
0.0015833661906232484   -0.0012617770206526607   -0.0003451707385540213
0.002742628491866701   -0.003446706333968963   -0.0006554547873103862
0.0007441170596650842   -0.001132324679417457   -0.0003439440503770479
0.0015367976811274738   -0.0012355507063028885   -0.0004366977314827514
0.002742628491866701   -0.003446706333968963   -0.0006554547873103862
0.0015833661906232484   -0.0012617770206526607   -0.0003451707385540213
0.0007441170596650842   -0.001132324679417457   -0.0003439440503770479
0.002742628491866701   -0.003446706333968963   -0.0006554547873103862
0.001356279544830388   -0.0033661353967908104   -0.0005779593264359378
0.0013615070290641158   -0.003384524792140544   -0.0005416730265174637
0.0007441170596650842   -0.001132324679417457   -0.0003439440503770479
0.002742628491866701   -0.003446706333968963   -0.0006554547873103862
0.0013615070290641158   -0.003384524792140544   -0.0005416730265174637
0.0015833661906232484   -0.0012617770206526607   -0.0003451707385540213
0.0007441170596650842   -0.001132324679417457   -0.0003439440503770479
0.001356279544830388   -0.0033661353967908104   -0.0005779593264359378
0.0015367976811274738   -0.0012355507063028885   -0.0004366977314827514
0.0007591174428375218   -0.0010887078406397587   -0.00038888717720436547
0.001356279544830388   -0.0033661353967908104   -0.0005779593264359378
0.002742628491866701   -0.003446706333968963   -0.0006554547873103862
0.0015367976811274738   -0.0012355507063028885   -0.0004366977314827514
0.0026662318575202447   -0.003384110871095451   -0.0007400135647267696
0.0007591174428375218   -0.0010887078406397587   -0.00038888717720436547
0.00146704177093407   -0.0011686726098593205   -0.0005336960225101982
0.0026662318575202447   -0.003384110871095451   -0.0007400135647267696
0.0015367976811274738   -0.0012355507063028885   -0.0004366977314827514
0.0007591174428375218   -0.0010887078406397587   -0.00038888717720436547
0.0026662318575202447   -0.003384110871095451   -0.0007400135647267696
0.0013536698079905575   -0.003324832528760699   -0.0006172621234718981
0.001356279544830388   -0.0033661353967908104   -0.0005779593264359378
0.0007591174428375218   -0.0010887078406397587   -0.00038888717720436547
0.0026662318575202447   -0.003384110871095451   -0.0007400135647267696
0.001356279544830388   -0.0033661353967908104   -0.0005779593264359378
0.0015367976811274738   -0.0012355507063028885   -0.0004366977314827514
-0.0035470172693591586   -0.003494998315665735   -0.0008595277100723937
-0.0048524199798288415   -0.00653855526079057   -0.000979893508349092
-0.0022636451661449506   -0.003382061188266851   -0.0007081153572856845
-0.003652067347244509   -0.003575234318530834   -0.0007460068835437428
-0.0048524199798288415   -0.00653855526079057   -0.000979893508349092
-0.00312060683416609   -0.006452508046149118   -0.0008575579044454921
-0.0022636451661449506   -0.003382061188266851   -0.0007081153572856845
-0.0031263236902561633   -0.006501913046982658   -0.0008034094096466065
-0.003652067347244509   -0.003575234318530834   -0.0007460068835437428
-0.002265400018230238   -0.003439492587996203   -0.0006381212682904265
-0.0031263236902561633   -0.006501913046982658   -0.0008034094096466065
-0.0022636451661449506   -0.003382061188266851   -0.0007081153572856845
-0.003652067347244509   -0.003575234318530834   -0.0007460068835437428
-0.0031263236902561633   -0.006501913046982658   -0.0008034094096466065
-0.0049371603552352435   -0.006606139909923702   -0.0008955869684416873
-0.0048524199798288415   -0.00653855526079057   -0.000979893508349092
-0.003652067347244509   -0.003575234318530834   -0.0007460068835437428
-0.0031263236902561633   -0.006501913046982658   -0.0008034094096466065
-0.0048524199798288415   -0.00653855526079057   -0.000979893508349092
-0.0022636451661449506   -0.003382061188266851   -0.0007081153572856845
-0.003652067347244509   -0.003575234318530834   -0.0007460068835437428
-0.0049371603552352435   -0.006606139909923702   -0.0008955869684416873
-0.002265400018230238   -0.003439492587996203   -0.0006381212682904265
-0.003724667338393452   -0.0036206292234489466   -0.0006349333719102554
-0.0049371603552352435   -0.006606139909923702   -0.0008955869684416873
-0.0031263236902561633   -0.006501913046982658   -0.0008034094096466065
-0.002265400018230238   -0.003439492587996203   -0.0006381212682904265
-0.0031331929788678808   -0.006536387591315654   -0.0007532205824543561
-0.003724667338393452   -0.0036206292234489466   -0.0006349333719102554
-0.0022733339291004405   -0.0034745877414850933   -0.0005709197395834897
-0.0031331929788678808   -0.006536387591315654   -0.0007532205824543561
-0.002265400018230238   -0.003439492587996203   -0.0006381212682904265
-0.003724667338393452   -0.0036206292234489466   -0.0006349333719102554
-0.0031331929788678808   -0.006536387591315654   -0.0007532205824543561
-0.004990065417828214   -0.006648625281028061   -0.0008170807576931685
-0.0049371603552352435   -0.006606139909923702   -0.0008955869684416873
-0.003724667338393452   -0.0036206292234489466   -0.0006349333719102554
-0.0031331929788678808   -0.006536387591315654   -0.0007532205824543561
-0.0049371603552352435   -0.006606139909923702   -0.0008955869684416873
-0.002265400018230238   -0.003439492587996203   -0.0006381212682904265
-0.003724667338393452   -0.0036206292234489466   -0.0006349333719102554
-0.004990065417828214   -0.006648625281028061   -0.0008170807576931685
-0.0022733339291004405   -0.0034745877414850933   -0.0005709197395834897
-0.003810435507465621   -0.0036472745204429364   -0.0005340100416479479
-0.004990065417828214   -0.006648625281028061   -0.0008170807576931685
-0.0031331929788678808   -0.006536387591315654   -0.0007532205824543561
-0.0022733339291004405   -0.0034745877414850933   -0.0005709197395834897
-0.003126129368950388   -0.006559211215597042   -0.0007061450546149503
-0.003810435507465621   -0.0036472745204429364   -0.0005340100416479479
-0.0022655360042629375   -0.0034929402023559167   -0.0005080766639197306
-0.003126129368950388   -0.006559211215597042   -0.0007061450546149503
-0.0022733339291004405   -0.0034745877414850933   -0.0005709197395834897
-0.003810435507465621   -0.0036472745204429364   -0.0005340100416479479
-0.003126129368950388   -0.006559211215597042   -0.0007061450546149503
-0.0050502597609081955   -0.0066794110817082015   -0.0007449183221923602
-0.004990065417828214   -0.006648625281028061   -0.0008170807576931685
-0.003810435507465621   -0.0036472745204429364   -0.0005340100416479479
-0.003126129368950388   -0.006559211215597042   -0.0007061450546149503
-0.004990065417828214   -0.006648625281028061   -0.0008170807576931685
-0.0022733339291004405   -0.0034745877414850933   -0.0005709197395834897
-0.0022636451661449506   -0.003382061188266851   -0.0007081153572856845
-0.00312060683416609   -0.006452508046149118   -0.0008575579044454921
-0.0010519180390803511   -0.003329503198739998   -0.0006048439628683234
-0.002265400018230238   -0.003439492587996203   -0.0006381212682904265
-0.00312060683416609   -0.006452508046149118   -0.0008575579044454921
-0.001489331696471273   -0.006409508420496345   -0.0007726147056175643
-0.0010519180390803511   -0.003329503198739998   -0.0006048439628683234
-0.0014844850430314476   -0.006441013888091892   -0.0007419027507740651
-0.002265400018230238   -0.003439492587996203   -0.0006381212682904265
-0.0010419068757627763   -0.0033659687898687615   -0.0005688892446649942
-0.0014844850430314476   -0.006441013888091892   -0.0007419027507740651
-0.0010519180390803511   -0.003329503198739998   -0.0006048439628683234
-0.002265400018230238   -0.003439492587996203   -0.0006381212682904265
-0.0014844850430314476   -0.006441013888091892   -0.0007419027507740651
-0.0031263236902561633   -0.006501913046982658   -0.0008034094096466065
-0.00312060683416609   -0.006452508046149118   -0.0008575579044454921
-0.002265400018230238   -0.003439492587996203   -0.0006381212682904265
-0.0014844850430314476   -0.006441013888091892   -0.0007419027507740651
-0.00312060683416609   -0.006452508046149118   -0.0008575579044454921
-0.0010519180390803511   -0.003329503198739998   -0.0006048439628683234
-0.002265400018230238   -0.003439492587996203   -0.0006381212682904265
-0.0031263236902561633   -0.006501913046982658   -0.0008034094096466065
-0.0010419068757627763   -0.0033659687898687615   -0.0005688892446649942
-0.0022733339291004405   -0.0034745877414850933   -0.0005709197395834897
-0.0031263236902561633   -0.006501913046982658   -0.0008034094096466065
-0.0014844850430314476   -0.006441013888091892   -0.0007419027507740651
-0.0010419068757627763   -0.0033659687898687615   -0.0005688892446649942
-0.0014788060845681067   -0.006459556450212875   -0.0007149543267894412
-0.0022733339291004405   -0.0034745877414850933   -0.0005709197395834897
-0.0010329299477664054   -0.0033836865518071953   -0.0005363357140878549
-0.0014788060845681067   -0.006459556450212875   -0.0007149543267894412
-0.0010419068757627763   -0.0033659687898687615   -0.0005688892446649942
-0.0022733339291004405   -0.0034745877414850933   -0.0005709197395834897
-0.0014788060845681067   -0.006459556450212875   -0.0007149543267894412
-0.0031331929788678808   -0.006536387591315654   -0.0007532205824543561
-0.0031263236902561633   -0.006501913046982658   -0.0008034094096466065
-0.0022733339291004405   -0.0034745877414850933   -0.0005709197395834897
-0.0014788060845681067   -0.006459556450212875   -0.0007149543267894412
-0.0031263236902561633   -0.006501913046982658   -0.0008034094096466065
-0.0010419068757627763   -0.0033659687898687615   -0.0005688892446649942
-0.0022733339291004405   -0.0034745877414850933   -0.0005709197395834897
-0.0031331929788678808   -0.006536387591315654   -0.0007532205824543561
-0.0010329299477664054   -0.0033836865518071953   -0.0005363357140878549
-0.0022655360042629375   -0.0034929402023559167   -0.0005080766639197306
-0.0031331929788678808   -0.006536387591315654   -0.0007532205824543561
-0.0014788060845681067   -0.006459556450212875   -0.0007149543267894412
-0.0010329299477664054   -0.0033836865518071953   -0.0005363357140878549
-0.0014701689596035466   -0.006465400950127475   -0.0006917614768342163
-0.0022655360042629375   -0.0034929402023559167   -0.0005080766639197306
-0.00101997030623395   -0.0033833219712067386   -0.0005080415876750418
-0.0014701689596035466   -0.006465400950127475   -0.0006917614768342163
-0.0010329299477664054   -0.0033836865518071953   -0.0005363357140878549
-0.0022655360042629375   -0.0034929402023559167   -0.0005080766639197306
-0.0014701689596035466   -0.006465400950127475   -0.0006917614768342163
-0.003126129368950388   -0.006559211215597042   -0.0007061450546149503
-0.0031331929788678808   -0.006536387591315654   -0.0007532205824543561
-0.0022655360042629375   -0.0034929402023559167   -0.0005080766639197306
-0.0014701689596035466   -0.006465400950127475   -0.0006917614768342163
-0.0031331929788678808   -0.006536387591315654   -0.0007532205824543561
-0.0010329299477664054   -0.0033836865518071953   -0.0005363357140878549
-0.0010519180390803511   -0.003329503198739998   -0.0006048439628683234
-0.001489331696471273   -0.006409508420496345   -0.0007726147056175643
0.00011595739628403998   -0.003331124196117692   -0.0005397664552402472
-0.0010419068757627763   -0.0033659687898687615   -0.0005688892446649942
-0.001489331696471273   -0.006409508420496345   -0.0007726147056175643
9.355720315872157e-05   -0.006407200710334992   -0.0007201771884877795
0.00011595739628403998   -0.003331124196117692   -0.0005397664552402472
0.00010157445990437306   -0.006421059417251614   -0.0007127834302094627
-0.0010419068757627763   -0.0033659687898687615   -0.0005688892446649942
0.00012809975523967436   -0.003348262130737855   -0.0005372125998743171
0.00010157445990437306   -0.006421059417251614   -0.0007127834302094627
0.00011595739628403998   -0.003331124196117692   -0.0005397664552402472
-0.0010419068757627763   -0.0033659687898687615   -0.0005688892446649942
0.00010157445990437306   -0.006421059417251614   -0.0007127834302094627
-0.0014844850430314476   -0.006441013888091892   -0.0007419027507740651
-0.001489331696471273   -0.006409508420496345   -0.0007726147056175643
-0.0010419068757627763   -0.0033659687898687615   -0.0005688892446649942
0.00010157445990437306   -0.006421059417251614   -0.0007127834302094627
-0.001489331696471273   -0.006409508420496345   -0.0007726147056175643
0.00011595739628403998   -0.003331124196117692   -0.0005397664552402472
-0.0010419068757627763   -0.0033659687898687615   -0.0005688892446649942
-0.0014844850430314476   -0.006441013888091892   -0.0007419027507740651
0.00012809975523967436   -0.003348262130737855   -0.0005372125998743171
-0.0010329299477664054   -0.0033836865518071953   -0.0005363357140878549
-0.0014844850430314476   -0.006441013888091892   -0.0007419027507740651
0.00010157445990437306   -0.006421059417251614   -0.0007127834302094627
0.00012809975523967436   -0.003348262130737855   -0.0005372125998743171
0.0001071124881983904   -0.006422005013695724   -0.0007090586976878345
-0.0010329299477664054   -0.0033836865518071953   -0.0005363357140878549
0.0001365669509415411   -0.0033470884655002467   -0.0005385154738848871
0.0001071124881983904   -0.006422005013695724   -0.0007090586976878345
0.00012809975523967436   -0.003348262130737855   -0.0005372125998743171
-0.0010329299477664054   -0.0033836865518071953   -0.0005363357140878549
0.0001071124881983904   -0.006422005013695724   -0.0007090586976878345
-0.0014788060845681067   -0.006459556450212875   -0.0007149543267894412
-0.0014844850430314476   -0.006441013888091892   -0.0007419027507740651
-0.0010329299477664054   -0.0033836865518071953   -0.0005363357140878549
0.0001071124881983904   -0.006422005013695724   -0.0007090586976878345
-0.0014844850430314476   -0.006441013888091892   -0.0007419027507740651
0.00012809975523967436   -0.003348262130737855   -0.0005372125998743171
-0.0010329299477664054   -0.0033836865518071953   -0.0005363357140878549
-0.0014788060845681067   -0.006459556450212875   -0.0007149543267894412
0.0001365669509415411   -0.0033470884655002467   -0.0005385154738848871
-0.00101997030623395   -0.0033833219712067386   -0.0005080415876750418
-0.0014788060845681067   -0.006459556450212875   -0.0007149543267894412
0.0001071124881983904   -0.006422005013695724   -0.0007090586976878345
0.0001365669509415411   -0.0033470884655002467   -0.0005385154738848871
0.00011144000801768602   -0.006409846496068173   -0.000709221701228167
-0.00101997030623395   -0.0033833219712067386   -0.0005080415876750418
0.00014558124670116746   -0.0033270489831617304   -0.0005437348811602446
0.00011144000801768602   -0.006409846496068173   -0.000709221701228167
0.0001365669509415411   -0.0033470884655002467   -0.0005385154738848871
-0.00101997030623395   -0.0033833219712067386   -0.0005080415876750418
0.00011144000801768602   -0.006409846496068173   -0.000709221701228167
-0.0014701689596035466   -0.006465400950127475   -0.0006917614768342163
-0.0014788060845681067   -0.006459556450212875   -0.0007149543267894412
-0.00101997030623395   -0.0033833219712067386   -0.0005080415876750418
0.00011144000801768602   -0.006409846496068173   -0.000709221701228167
-0.0014788060845681067   -0.006459556450212875   -0.0007149543267894412
0.0001365669509415411   -0.0033470884655002467   -0.0005385154738848871
0.00011595739628403998   -0.003331124196117692   -0.0005397664552402472
9.355720315872157e-05   -0.006407200710334992   -0.0007201771884877795
0.0013540982101964384   -0.00338498682556862   -0.0005097493982576725
0.00012809975523967436   -0.003348262130737855   -0.0005372125998743171
9.355720315872157e-05   -0.006407200710334992   -0.0007201771884877795
0.0017443212626116588   -0.006443156026562301   -0.0006993822402814715
0.0013540982101964384   -0.00338498682556862   -0.0005097493982576725
0.0017515780489368164   -0.006440800418442112   -0.0007157818451758412
0.00012809975523967436   -0.003348262130737855   -0.0005372125998743171
0.0013615070290641158   -0.003384524792140544   -0.0005416730265174637
0.0017515780489368164   -0.006440800418442112   -0.0007157818451758412
0.0013540982101964384   -0.00338498682556862   -0.0005097493982576725
0.00012809975523967436   -0.003348262130737855   -0.0005372125998743171
0.0017515780489368164   -0.006440800418442112   -0.0007157818451758412
0.00010157445990437306   -0.006421059417251614   -0.0007127834302094627
9.355720315872157e-05   -0.006407200710334992   -0.0007201771884877795
0.00012809975523967436   -0.003348262130737855   -0.0005372125998743171
0.0017515780489368164   -0.006440800418442112   -0.0007157818451758412
9.355720315872157e-05   -0.006407200710334992   -0.0007201771884877795
0.0013540982101964384   -0.00338498682556862   -0.0005097493982576725
0.00012809975523967436   -0.003348262130737855   -0.0005372125998743171
0.00010157445990437306   -0.006421059417251614   -0.0007127834302094627
0.0013615070290641158   -0.003384524792140544   -0.0005416730265174637
0.0001365669509415411   -0.0033470884655002467   -0.0005385154738848871
0.00010157445990437306   -0.006421059417251614   -0.0007127834302094627
0.0017515780489368164   -0.006440800418442112   -0.0007157818451758412
0.0013615070290641158   -0.003384524792140544   -0.0005416730265174637
0.001748415773401706   -0.0064258465718340365   -0.0007355808941781114
0.0001365669509415411   -0.0033470884655002467   -0.0005385154738848871
0.001356279544830388   -0.0033661353967908104   -0.0005779593264359378
0.001748415773401706   -0.0064258465718340365   -0.0007355808941781114
0.0013615070290641158   -0.003384524792140544   -0.0005416730265174637
0.0001365669509415411   -0.0033470884655002467   -0.0005385154738848871
0.001748415773401706   -0.0064258465718340365   -0.0007355808941781114
0.0001071124881983904   -0.006422005013695724   -0.0007090586976878345
0.00010157445990437306   -0.006421059417251614   -0.0007127834302094627
0.0001365669509415411   -0.0033470884655002467   -0.0005385154738848871
0.001748415773401706   -0.0064258465718340365   -0.0007355808941781114
0.00010157445990437306   -0.006421059417251614   -0.0007127834302094627
0.0013615070290641158   -0.003384524792140544   -0.0005416730265174637
0.0001365669509415411   -0.0033470884655002467   -0.0005385154738848871
0.0001071124881983904   -0.006422005013695724   -0.0007090586976878345
0.001356279544830388   -0.0033661353967908104   -0.0005779593264359378
0.00014558124670116746   -0.0033270489831617304   -0.0005437348811602446
0.0001071124881983904   -0.006422005013695724   -0.0007090586976878345
0.001748415773401706   -0.0064258465718340365   -0.0007355808941781114
0.001356279544830388   -0.0033661353967908104   -0.0005779593264359378
0.0017429641294939748   -0.0063951327878229835   -0.0007591855719751039
0.00014558124670116746   -0.0033270489831617304   -0.0005437348811602446
0.0013536698079905575   -0.003324832528760699   -0.0006172621234718981
0.0017429641294939748   -0.0063951327878229835   -0.0007591855719751039
0.001356279544830388   -0.0033661353967908104   -0.0005779593264359378
0.00014558124670116746   -0.0033270489831617304   -0.0005437348811602446
0.0017429641294939748   -0.0063951327878229835   -0.0007591855719751039
0.00011144000801768602   -0.006409846496068173   -0.000709221701228167
0.0001071124881983904   -0.006422005013695724   -0.0007090586976878345
0.00014558124670116746   -0.0033270489831617304   -0.0005437348811602446
0.0017429641294939748   -0.0063951327878229835   -0.0007591855719751039
0.0001071124881983904   -0.006422005013695724   -0.0007090586976878345
0.001356279544830388   -0.0033661353967908104   -0.0005779593264359378
0.0013540982101964384   -0.00338498682556862   -0.0005097493982576725
0.0017443212626116588   -0.006443156026562301   -0.0006993822402814715
0.0028495618426502118   -0.003484915798367914   -0.000502360879225512
0.0013615070290641158   -0.003384524792140544   -0.0005416730265174637
0.0017443212626116588   -0.006443156026562301   -0.0006993822402814715
0.0036249553152052187   -0.006508119132769021   -0.0007007138963409769
0.0028495618426502118   -0.003484915798367914   -0.000502360879225512
0.003595290772788585   -0.00649635864148638   -0.0007438455232983997
0.0013615070290641158   -0.003384524792140544   -0.0005416730265174637
0.0027931643881366113   -0.003474997943911223   -0.0005743244906925518
0.003595290772788585   -0.00649635864148638   -0.0007438455232983997
0.0028495618426502118   -0.003484915798367914   -0.000502360879225512
0.0013615070290641158   -0.003384524792140544   -0.0005416730265174637
0.003595290772788585   -0.00649635864148638   -0.0007438455232983997
0.0017515780489368164   -0.006440800418442112   -0.0007157818451758412
0.0017443212626116588   -0.006443156026562301   -0.0006993822402814715
0.0013615070290641158   -0.003384524792140544   -0.0005416730265174637
0.003595290772788585   -0.00649635864148638   -0.0007438455232983997
0.0017443212626116588   -0.006443156026562301   -0.0006993822402814715
0.0028495618426502118   -0.003484915798367914   -0.000502360879225512
0.0013615070290641158   -0.003384524792140544   -0.0005416730265174637
0.0017515780489368164   -0.006440800418442112   -0.0007157818451758412
0.0027931643881366113   -0.003474997943911223   -0.0005743244906925518
0.001356279544830388   -0.0033661353967908104   -0.0005779593264359378
0.0017515780489368164   -0.006440800418442112   -0.0007157818451758412
0.003595290772788585   -0.00649635864148638   -0.0007438455232983997
0.0027931643881366113   -0.003474997943911223   -0.0005743244906925518
0.003565416479517424   -0.006473409226008629   -0.0007931081783703971
0.001356279544830388   -0.0033661353967908104   -0.0005779593264359378
0.002742628491866701   -0.003446706333968963   -0.0006554547873103862
0.003565416479517424   -0.006473409226008629   -0.0007931081783703971
0.0027931643881366113   -0.003474997943911223   -0.0005743244906925518
0.001356279544830388   -0.0033661353967908104   -0.0005779593264359378
0.003565416479517424   -0.006473409226008629   -0.0007931081783703971
0.001748415773401706   -0.0064258465718340365   -0.0007355808941781114
0.0017515780489368164   -0.006440800418442112   -0.0007157818451758412
0.001356279544830388   -0.0033661353967908104   -0.0005779593264359378
0.003565416479517424   -0.006473409226008629   -0.0007931081783703971
0.0017515780489368164   -0.006440800418442112   -0.0007157818451758412
0.0027931643881366113   -0.003474997943911223   -0.0005743244906925518
0.001356279544830388   -0.0033661353967908104   -0.0005779593264359378
0.001748415773401706   -0.0064258465718340365   -0.0007355808941781114
0.002742628491866701   -0.003446706333968963   -0.0006554547873103862
0.0013536698079905575   -0.003324832528760699   -0.0006172621234718981
0.001748415773401706   -0.0064258465718340365   -0.0007355808941781114
0.003565416479517424   -0.006473409226008629   -0.0007931081783703971
0.002742628491866701   -0.003446706333968963   -0.0006554547873103862
0.0035111350062738823   -0.006425672621764895   -0.0008485088362790948
0.0013536698079905575   -0.003324832528760699   -0.0006172621234718981
0.0026662318575202447   -0.003384110871095451   -0.0007400135647267696
0.0035111350062738823   -0.006425672621764895   -0.0008485088362790948
0.002742628491866701   -0.003446706333968963   -0.0006554547873103862
0.0013536698079905575   -0.003324832528760699   -0.0006172621234718981
0.0035111350062738823   -0.006425672621764895   -0.0008485088362790948
0.0017429641294939748   -0.0063951327878229835   -0.0007591855719751039
0.001748415773401706   -0.0064258465718340365   -0.0007355808941781114
0.0013536698079905575   -0.003324832528760699   -0.0006172621234718981
0.0035111350062738823   -0.006425672621764895   -0.0008485088362790948
0.001748415773401706   -0.0064258465718340365   -0.0007355808941781114
0.002742628491866701   -0.003446706333968963   -0.0006554547873103862
-0.0048524199798288415   -0.00653855526079057   -0.000979893508349092
-0.005786416945033182   -0.010138143930754821   -0.0010462643969587327
-0.00312060683416609   -0.006452508046149118   -0.0008575579044454921
-0.0049371603552352435   -0.006606139909923702   -0.0008955869684416873
-0.005786416945033182   -0.010138143930754821   -0.0010462643969587327
-0.0037581561927004232   -0.010083640551733492   -0.0009469407446276476
-0.00312060683416609   -0.006452508046149118   -0.0008575579044454921
-0.0037615209620516306   -0.010125972254762262   -0.000908305651408425
-0.0049371603552352435   -0.006606139909923702   -0.0008955869684416873
-0.0031263236902561633   -0.006501913046982658   -0.0008034094096466065
-0.0037615209620516306   -0.010125972254762262   -0.000908305651408425
-0.00312060683416609   -0.006452508046149118   -0.0008575579044454921
-0.0049371603552352435   -0.006606139909923702   -0.0008955869684416873
-0.0037615209620516306   -0.010125972254762262   -0.000908305651408425
-0.005842841243625271   -0.010195470387865717   -0.0009905791738072606
-0.005786416945033182   -0.010138143930754821   -0.0010462643969587327
-0.0049371603552352435   -0.006606139909923702   -0.0008955869684416873
-0.0037615209620516306   -0.010125972254762262   -0.000908305651408425
-0.005786416945033182   -0.010138143930754821   -0.0010462643969587327
-0.00312060683416609   -0.006452508046149118   -0.0008575579044454921
-0.0049371603552352435   -0.006606139909923702   -0.0008955869684416873
-0.005842841243625271   -0.010195470387865717   -0.0009905791738072606
-0.0031263236902561633   -0.006501913046982658   -0.0008034094096466065
-0.004990065417828214   -0.006648625281028061   -0.0008170807576931685
-0.005842841243625271   -0.010195470387865717   -0.0009905791738072606
-0.0037615209620516306   -0.010125972254762262   -0.000908305651408425
-0.0031263236902561633   -0.006501913046982658   -0.0008034094096466065
-0.0037635518700571266   -0.010159631386558956   -0.0008735408754804223
-0.004990065417828214   -0.006648625281028061   -0.0008170807576931685
-0.0031331929788678808   -0.006536387591315654   -0.0007532205824543561
-0.0037635518700571266   -0.010159631386558956   -0.0008735408754804223
-0.0031263236902561633   -0.006501913046982658   -0.0008034094096466065
-0.004990065417828214   -0.006648625281028061   -0.0008170807576931685
-0.0037635518700571266   -0.010159631386558956   -0.0008735408754804223
-0.00587464643465344   -0.010236149150690486   -0.0009402867484987936
-0.005842841243625271   -0.010195470387865717   -0.0009905791738072606
-0.004990065417828214   -0.006648625281028061   -0.0008170807576931685
-0.0037635518700571266   -0.010159631386558956   -0.0008735408754804223
-0.005842841243625271   -0.010195470387865717   -0.0009905791738072606
-0.0031263236902561633   -0.006501913046982658   -0.0008034094096466065
-0.004990065417828214   -0.006648625281028061   -0.0008170807576931685
-0.00587464643465344   -0.010236149150690486   -0.0009402867484987936
-0.0031331929788678808   -0.006536387591315654   -0.0007532205824543561
-0.0050502597609081955   -0.0066794110817082015   -0.0007449183221923602
-0.00587464643465344   -0.010236149150690486   -0.0009402867484987936
-0.0037635518700571266   -0.010159631386558956   -0.0008735408754804223
-0.0031331929788678808   -0.006536387591315654   -0.0007532205824543561
-0.0037545952971658587   -0.010187420107308314   -0.0008421246313308736
-0.0050502597609081955   -0.0066794110817082015   -0.0007449183221923602
-0.003126129368950388   -0.006559211215597042   -0.0007061450546149503
-0.0037545952971658587   -0.010187420107308314   -0.0008421246313308736
-0.0031331929788678808   -0.006536387591315654   -0.0007532205824543561
-0.0050502597609081955   -0.0066794110817082015   -0.0007449183221923602
-0.0037545952971658587   -0.010187420107308314   -0.0008421246313308736
-0.005907311409189429   -0.010272815939599706   -0.0008960348508697127
-0.00587464643465344   -0.010236149150690486   -0.0009402867484987936
-0.0050502597609081955   -0.0066794110817082015   -0.0007449183221923602
-0.0037545952971658587   -0.010187420107308314   -0.0008421246313308736
-0.00587464643465344   -0.010236149150690486   -0.0009402867484987936
-0.0031331929788678808   -0.006536387591315654   -0.0007532205824543561
-0.00312060683416609   -0.006452508046149118   -0.0008575579044454921
-0.0037581561927004232   -0.010083640551733492   -0.0009469407446276476
-0.001489331696471273   -0.006409508420496345   -0.0007726147056175643
-0.0031263236902561633   -0.006501913046982658   -0.0008034094096466065
-0.0037581561927004232   -0.010083640551733492   -0.0009469407446276476
-0.0018576828941850281   -0.010055304994085796   -0.0008782013477399915
-0.001489331696471273   -0.006409508420496345   -0.0007726147056175643
-0.001853030555564351   -0.010081783517875947   -0.000852560622982344
-0.0031263236902561633   -0.006501913046982658   -0.0008034094096466065
-0.0014844850430314476   -0.006441013888091892   -0.0007419027507740651
-0.001853030555564351   -0.010081783517875947   -0.000852560622982344
-0.001489331696471273   -0.006409508420496345   -0.0007726147056175643
-0.0031263236902561633   -0.006501913046982658   -0.0008034094096466065
-0.001853030555564351   -0.010081783517875947   -0.000852560622982344
-0.0037615209620516306   -0.010125972254762262   -0.000908305651408425
-0.0037581561927004232   -0.010083640551733492   -0.0009469407446276476
-0.0031263236902561633   -0.006501913046982658   -0.0008034094096466065
-0.001853030555564351   -0.010081783517875947   -0.000852560622982344
-0.0037581561927004232   -0.010083640551733492   -0.0009469407446276476
-0.001489331696471273   -0.006409508420496345   -0.0007726147056175643
-0.0031263236902561633   -0.006501913046982658   -0.0008034094096466065
-0.0037615209620516306   -0.010125972254762262   -0.000908305651408425
-0.0014844850430314476   -0.006441013888091892   -0.0007419027507740651
-0.0031331929788678808   -0.006536387591315654   -0.0007532205824543561
-0.0037615209620516306   -0.010125972254762262   -0.000908305651408425
-0.001853030555564351   -0.010081783517875947   -0.000852560622982344
-0.0014844850430314476   -0.006441013888091892   -0.0007419027507740651
-0.001847101564402456   -0.010100984154354573   -0.0008307262031550506
-0.0031331929788678808   -0.006536387591315654   -0.0007532205824543561
-0.0014788060845681067   -0.006459556450212875   -0.0007149543267894412
-0.001847101564402456   -0.010100984154354573   -0.0008307262031550506
-0.0014844850430314476   -0.006441013888091892   -0.0007419027507740651
-0.0031331929788678808   -0.006536387591315654   -0.0007532205824543561
-0.001847101564402456   -0.010100984154354573   -0.0008307262031550506
-0.0037635518700571266   -0.010159631386558956   -0.0008735408754804223
-0.0037615209620516306   -0.010125972254762262   -0.000908305651408425
-0.0031331929788678808   -0.006536387591315654   -0.0007532205824543561
-0.001847101564402456   -0.010100984154354573   -0.0008307262031550506
-0.0037615209620516306   -0.010125972254762262   -0.000908305651408425
-0.0014844850430314476   -0.006441013888091892   -0.0007419027507740651
-0.0031331929788678808   -0.006536387591315654   -0.0007532205824543561
-0.0037635518700571266   -0.010159631386558956   -0.0008735408754804223
-0.0014788060845681067   -0.006459556450212875   -0.0007149543267894412
-0.003126129368950388   -0.006559211215597042   -0.0007061450546149503
-0.0037635518700571266   -0.010159631386558956   -0.0008735408754804223
-0.001847101564402456   -0.010100984154354573   -0.0008307262031550506
-0.0014788060845681067   -0.006459556450212875   -0.0007149543267894412
-0.0018387923350653929   -0.01011303399068836   -0.0008127653986959292
-0.003126129368950388   -0.006559211215597042   -0.0007061450546149503
-0.0014701689596035466   -0.006465400950127475   -0.0006917614768342163
-0.0018387923350653929   -0.01011303399068836   -0.0008127653986959292
-0.0014788060845681067   -0.006459556450212875   -0.0007149543267894412
-0.003126129368950388   -0.006559211215597042   -0.0007061450546149503
-0.0018387923350653929   -0.01011303399068836   -0.0008127653986959292
-0.0037545952971658587   -0.010187420107308314   -0.0008421246313308736
-0.0037635518700571266   -0.010159631386558956   -0.0008735408754804223
-0.003126129368950388   -0.006559211215597042   -0.0007061450546149503
-0.0018387923350653929   -0.01011303399068836   -0.0008127653986959292
-0.0037635518700571266   -0.010159631386558956   -0.0008735408754804223
-0.0014788060845681067   -0.006459556450212875   -0.0007149543267894412
-0.001489331696471273   -0.006409508420496345   -0.0007726147056175643
-0.0018576828941850281   -0.010055304994085796   -0.0008782013477399915
9.355720315872157e-05   -0.006407200710334992   -0.0007201771884877795
-0.0014844850430314476   -0.006441013888091892   -0.0007419027507740651
-0.0018576828941850281   -0.010055304994085796   -0.0008782013477399915
-9.095454878010433e-06   -0.010050328676857442   -0.0008384099303047953
9.355720315872157e-05   -0.006407200710334992   -0.0007201771884877795
-1.2990575322203756e-06   -0.010060833324921959   -0.0008258783841545895
-0.0014844850430314476   -0.006441013888091892   -0.0007419027507740651
0.00010157445990437306   -0.006421059417251614   -0.0007127834302094627
-1.2990575322203756e-06   -0.010060833324921959   -0.0008258783841545895
9.355720315872157e-05   -0.006407200710334992   -0.0007201771884877795
-0.0014844850430314476   -0.006441013888091892   -0.0007419027507740651
-1.2990575322203756e-06   -0.010060833324921959   -0.0008258783841545895
-0.001853030555564351   -0.010081783517875947   -0.000852560622982344
-0.0018576828941850281   -0.010055304994085796   -0.0008782013477399915
-0.0014844850430314476   -0.006441013888091892   -0.0007419027507740651
-1.2990575322203756e-06   -0.010060833324921959   -0.0008258783841545895
-0.0018576828941850281   -0.010055304994085796   -0.0008782013477399915
9.355720315872157e-05   -0.006407200710334992   -0.0007201771884877795
-0.0014844850430314476   -0.006441013888091892   -0.0007419027507740651
-0.001853030555564351   -0.010081783517875947   -0.000852560622982344
0.00010157445990437306   -0.006421059417251614   -0.0007127834302094627
-0.0014788060845681067   -0.006459556450212875   -0.0007149543267894412
-0.001853030555564351   -0.010081783517875947   -0.000852560622982344
-1.2990575322203756e-06   -0.010060833324921959   -0.0008258783841545895
0.00010157445990437306   -0.006421059417251614   -0.0007127834302094627
4.572354848545077e-06   -0.01006400847345112   -0.0008171089645286512
-0.0014788060845681067   -0.006459556450212875   -0.0007149543267894412
0.0001071124881983904   -0.006422005013695724   -0.0007090586976878345
4.572354848545077e-06   -0.01006400847345112   -0.0008171089645286512
0.00010157445990437306   -0.006421059417251614   -0.0007127834302094627
-0.0014788060845681067   -0.006459556450212875   -0.0007149543267894412
4.572354848545077e-06   -0.01006400847345112   -0.0008171089645286512
-0.001847101564402456   -0.010100984154354573   -0.0008307262031550506
-0.001853030555564351   -0.010081783517875947   -0.000852560622982344
-0.0014788060845681067   -0.006459556450212875   -0.0007149543267894412
4.572354848545077e-06   -0.01006400847345112   -0.0008171089645286512
-0.001853030555564351   -0.010081783517875947   -0.000852560622982344
0.00010157445990437306   -0.006421059417251614   -0.0007127834302094627
-0.0014788060845681067   -0.006459556450212875   -0.0007149543267894412
-0.001847101564402456   -0.010100984154354573   -0.0008307262031550506
0.0001071124881983904   -0.006422005013695724   -0.0007090586976878345
-0.0014701689596035466   -0.006465400950127475   -0.0006917614768342163
-0.001847101564402456   -0.010100984154354573   -0.0008307262031550506
4.572354848545077e-06   -0.01006400847345112   -0.0008171089645286512
0.0001071124881983904   -0.006422005013695724   -0.0007090586976878345
8.730051932817855e-06   -0.01005975265183755   -0.000812264721769374
-0.0014701689596035466   -0.006465400950127475   -0.0006917614768342163
0.00011144000801768602   -0.006409846496068173   -0.000709221701228167
8.730051932817855e-06   -0.01005975265183755   -0.000812264721769374
0.0001071124881983904   -0.006422005013695724   -0.0007090586976878345
-0.0014701689596035466   -0.006465400950127475   -0.0006917614768342163
8.730051932817855e-06   -0.01005975265183755   -0.000812264721769374
-0.0018387923350653929   -0.01011303399068836   -0.0008127653986959292
-0.001847101564402456   -0.010100984154354573   -0.0008307262031550506
-0.0014701689596035466   -0.006465400950127475   -0.0006917614768342163
8.730051932817855e-06   -0.01005975265183755   -0.000812264721769374
-0.001847101564402456   -0.010100984154354573   -0.0008307262031550506
0.0001071124881983904   -0.006422005013695724   -0.0007090586976878345
9.355720315872157e-05   -0.006407200710334992   -0.0007201771884877795
-9.095454878010433e-06   -0.010050328676857442   -0.0008384099303047953
0.0017443212626116588   -0.006443156026562301   -0.0006993822402814715
0.00010157445990437306   -0.006421059417251614   -0.0007127834302094627
-9.095454878010433e-06   -0.010050328676857442   -0.0008384099303047953
0.0019031270569098454   -0.010066687960046564   -0.0008274483358850971
0.0017443212626116588   -0.006443156026562301   -0.0006993822402814715
0.0019125052334566966   -0.010062111785090783   -0.0008282932814803527
0.00010157445990437306   -0.006421059417251614   -0.0007127834302094627
0.0017515780489368164   -0.006440800418442112   -0.0007157818451758412
0.0019125052334566966   -0.010062111785090783   -0.0008282932814803527
0.0017443212626116588   -0.006443156026562301   -0.0006993822402814715
0.00010157445990437306   -0.006421059417251614   -0.0007127834302094627
0.0019125052334566966   -0.010062111785090783   -0.0008282932814803527
-1.2990575322203756e-06   -0.010060833324921959   -0.0008258783841545895
-9.095454878010433e-06   -0.010050328676857442   -0.0008384099303047953
0.00010157445990437306   -0.006421059417251614   -0.0007127834302094627
0.0019125052334566966   -0.010062111785090783   -0.0008282932814803527
-9.095454878010433e-06   -0.010050328676857442   -0.0008384099303047953
0.0017443212626116588   -0.006443156026562301   -0.0006993822402814715
0.00010157445990437306   -0.006421059417251614   -0.0007127834302094627
-1.2990575322203756e-06   -0.010060833324921959   -0.0008258783841545895
0.0017515780489368164   -0.006440800418442112   -0.0007157818451758412
0.0001071124881983904   -0.006422005013695724   -0.0007090586976878345
-1.2990575322203756e-06   -0.010060833324921959   -0.0008258783841545895
0.0019125052334566966   -0.010062111785090783   -0.0008282932814803527
0.0017515780489368164   -0.006440800418442112   -0.0007157818451758412
0.0019144367392763244   -0.010050811066662923   -0.0008326947934030212
0.0001071124881983904   -0.006422005013695724   -0.0007090586976878345
0.001748415773401706   -0.0064258465718340365   -0.0007355808941781114
0.0019144367392763244   -0.010050811066662923   -0.0008326947934030212
0.0017515780489368164   -0.006440800418442112   -0.0007157818451758412
0.0001071124881983904   -0.006422005013695724   -0.0007090586976878345
0.0019144367392763244   -0.010050811066662923   -0.0008326947934030212
4.572354848545077e-06   -0.01006400847345112   -0.0008171089645286512
-1.2990575322203756e-06   -0.010060833324921959   -0.0008258783841545895
0.0001071124881983904   -0.006422005013695724   -0.0007090586976878345
0.0019144367392763244   -0.010050811066662923   -0.0008326947934030212
-1.2990575322203756e-06   -0.010060833324921959   -0.0008258783841545895
0.0017515780489368164   -0.006440800418442112   -0.0007157818451758412
0.0001071124881983904   -0.006422005013695724   -0.0007090586976878345
4.572354848545077e-06   -0.01006400847345112   -0.0008171089645286512
0.001748415773401706   -0.0064258465718340365   -0.0007355808941781114
0.00011144000801768602   -0.006409846496068173   -0.000709221701228167
4.572354848545077e-06   -0.01006400847345112   -0.0008171089645286512
0.0019144367392763244   -0.010050811066662923   -0.0008326947934030212
0.001748415773401706   -0.0064258465718340365   -0.0007355808941781114
0.0019115020006723032   -0.010030000142496108   -0.0008407923314280848
0.00011144000801768602   -0.006409846496068173   -0.000709221701228167
0.0017429641294939748   -0.0063951327878229835   -0.0007591855719751039
0.0019115020006723032   -0.010030000142496108   -0.0008407923314280848
0.001748415773401706   -0.0064258465718340365   -0.0007355808941781114
0.00011144000801768602   -0.006409846496068173   -0.000709221701228167
0.0019115020006723032   -0.010030000142496108   -0.0008407923314280848
8.730051932817855e-06   -0.01005975265183755   -0.000812264721769374
4.572354848545077e-06   -0.01006400847345112   -0.0008171089645286512
0.00011144000801768602   -0.006409846496068173   -0.000709221701228167
0.0019115020006723032   -0.010030000142496108   -0.0008407923314280848
4.572354848545077e-06   -0.01006400847345112   -0.0008171089645286512
0.001748415773401706   -0.0064258465718340365   -0.0007355808941781114
0.0017443212626116588   -0.006443156026562301   -0.0006993822402814715
0.0019031270569098454   -0.010066687960046564   -0.0008274483358850971
0.0036249553152052187   -0.006508119132769021   -0.0007007138963409769
0.0017515780489368164   -0.006440800418442112   -0.0007157818451758412
0.0019031270569098454   -0.010066687960046564   -0.0008274483358850971
0.00401457174091149   -0.010096548839073745   -0.0008392275962943635
0.0036249553152052187   -0.006508119132769021   -0.0007007138963409769
0.004012821274035605   -0.010081712794710243   -0.0008543731060749888
0.0017515780489368164   -0.006440800418442112   -0.0007157818451758412
0.003595290772788585   -0.00649635864148638   -0.0007438455232983997
0.004012821274035605   -0.010081712794710243   -0.0008543731060749888
0.0036249553152052187   -0.006508119132769021   -0.0007007138963409769
0.0017515780489368164   -0.006440800418442112   -0.0007157818451758412
0.004012821274035605   -0.010081712794710243   -0.0008543731060749888
0.0019125052334566966   -0.010062111785090783   -0.0008282932814803527
0.0019031270569098454   -0.010066687960046564   -0.0008274483358850971
0.0017515780489368164   -0.006440800418442112   -0.0007157818451758412
0.004012821274035605   -0.010081712794710243   -0.0008543731060749888
0.0019031270569098454   -0.010066687960046564   -0.0008274483358850971
0.0036249553152052187   -0.006508119132769021   -0.0007007138963409769
0.0017515780489368164   -0.006440800418442112   -0.0007157818451758412
0.0019125052334566966   -0.010062111785090783   -0.0008282932814803527
0.003595290772788585   -0.00649635864148638   -0.0007438455232983997
0.001748415773401706   -0.0064258465718340365   -0.0007355808941781114
0.0019125052334566966   -0.010062111785090783   -0.0008282932814803527
0.004012821274035605   -0.010081712794710243   -0.0008543731060749888
0.003595290772788585   -0.00649635864148638   -0.0007438455232983997
0.004004493952258161   -0.010063369363200082   -0.0008752971297925292
0.001748415773401706   -0.0064258465718340365   -0.0007355808941781114
0.003565416479517424   -0.006473409226008629   -0.0007931081783703971
0.004004493952258161   -0.010063369363200082   -0.0008752971297925292
0.003595290772788585   -0.00649635864148638   -0.0007438455232983997
0.001748415773401706   -0.0064258465718340365   -0.0007355808941781114
0.004004493952258161   -0.010063369363200082   -0.0008752971297925292
0.0019144367392763244   -0.010050811066662923   -0.0008326947934030212
0.0019125052334566966   -0.010062111785090783   -0.0008282932814803527
0.001748415773401706   -0.0064258465718340365   -0.0007355808941781114
0.004004493952258161   -0.010063369363200082   -0.0008752971297925292
0.0019125052334566966   -0.010062111785090783   -0.0008282932814803527
0.003595290772788585   -0.00649635864148638   -0.0007438455232983997
0.001748415773401706   -0.0064258465718340365   -0.0007355808941781114
0.0019144367392763244   -0.010050811066662923   -0.0008326947934030212
0.003565416479517424   -0.006473409226008629   -0.0007931081783703971
0.0017429641294939748   -0.0063951327878229835   -0.0007591855719751039
0.0019144367392763244   -0.010050811066662923   -0.0008326947934030212
0.004004493952258161   -0.010063369363200082   -0.0008752971297925292
0.003565416479517424   -0.006473409226008629   -0.0007931081783703971
0.0039789337696333185   -0.010028790020008498   -0.000901957591614333
0.0017429641294939748   -0.0063951327878229835   -0.0007591855719751039
0.0035111350062738823   -0.006425672621764895   -0.0008485088362790948
0.0039789337696333185   -0.010028790020008498   -0.000901957591614333
0.003565416479517424   -0.006473409226008629   -0.0007931081783703971
0.0017429641294939748   -0.0063951327878229835   -0.0007591855719751039
0.0039789337696333185   -0.010028790020008498   -0.000901957591614333
0.0019115020006723032   -0.010030000142496108   -0.0008407923314280848
0.0019144367392763244   -0.010050811066662923   -0.0008326947934030212
0.0017429641294939748   -0.0063951327878229835   -0.0007591855719751039
0.0039789337696333185   -0.010028790020008498   -0.000901957591614333
0.0019144367392763244   -0.010050811066662923   -0.0008326947934030212
0.003565416479517424   -0.006473409226008629   -0.0007931081783703971
-0.005786416945033182   -0.010138143930754821   -0.0010462643969587327
-0.0063481556462075045   -0.014047446871323074   -0.001066781322296699
-0.0037581561927004232   -0.010083640551733492   -0.0009469407446276476
-0.005842841243625271   -0.010195470387865717   -0.0009905791738072606
-0.0063481556462075045   -0.014047446871323074   -0.001066781322296699
-0.004175086793119172   -0.014025456388525637   -0.0009880379584014639
-0.0037581561927004232   -0.010083640551733492   -0.0009469407446276476
-0.004172438919705731   -0.014061410768025827   -0.0009644270102014975
-0.005842841243625271   -0.010195470387865717   -0.0009905791738072606
-0.0037615209620516306   -0.010125972254762262   -0.000908305651408425
-0.004172438919705731   -0.014061410768025827   -0.0009644270102014975
-0.0037581561927004232   -0.010083640551733492   -0.0009469407446276476
-0.005842841243625271   -0.010195470387865717   -0.0009905791738072606
-0.004172438919705731   -0.014061410768025827   -0.0009644270102014975
-0.006373790876701316   -0.014095832192205778   -0.001038335373658973
-0.0063481556462075045   -0.014047446871323074   -0.001066781322296699
-0.005842841243625271   -0.010195470387865717   -0.0009905791738072606
-0.004172438919705731   -0.014061410768025827   -0.0009644270102014975
-0.0063481556462075045   -0.014047446871323074   -0.001066781322296699
-0.0037581561927004232   -0.010083640551733492   -0.0009469407446276476
-0.005842841243625271   -0.010195470387865717   -0.0009905791738072606
-0.006373790876701316   -0.014095832192205778   -0.001038335373658973
-0.0037615209620516306   -0.010125972254762262   -0.000908305651408425
-0.00587464643465344   -0.010236149150690486   -0.0009402867484987936
-0.006373790876701316   -0.014095832192205778   -0.001038335373658973
-0.004172438919705731   -0.014061410768025827   -0.0009644270102014975
-0.0037615209620516306   -0.010125972254762262   -0.000908305651408425
-0.004165851644141975   -0.014094694842308395   -0.000944740224990385
-0.00587464643465344   -0.010236149150690486   -0.0009402867484987936
-0.0037635518700571266   -0.010159631386558956   -0.0008735408754804223
-0.004165851644141975   -0.014094694842308395   -0.000944740224990385
-0.0037615209620516306   -0.010125972254762262   -0.000908305651408425
-0.00587464643465344   -0.010236149150690486   -0.0009402867484987936
-0.004165851644141975   -0.014094694842308395   -0.000944740224990385
-0.0063811439479041715   -0.01413543745904183   -0.0010155340697949019
-0.006373790876701316   -0.014095832192205778   -0.001038335373658973
-0.00587464643465344   -0.010236149150690486   -0.0009402867484987936
-0.004165851644141975   -0.014094694842308395   -0.000944740224990385
-0.006373790876701316   -0.014095832192205778   -0.001038335373658973
-0.0037615209620516306   -0.010125972254762262   -0.000908305651408425
-0.00587464643465344   -0.010236149150690486   -0.0009402867484987936
-0.0063811439479041715   -0.01413543745904183   -0.0010155340697949019
-0.0037635518700571266   -0.010159631386558956   -0.0008735408754804223
-0.005907311409189429   -0.010272815939599706   -0.0008960348508697127
-0.0063811439479041715   -0.01413543745904183   -0.0010155340697949019
-0.004165851644141975   -0.014094694842308395   -0.000944740224990385
-0.0037635518700571266   -0.010159631386558956   -0.0008735408754804223
-0.004151119951247706   -0.014127856640530049   -0.0009286927022871545
-0.005907311409189429   -0.010272815939599706   -0.0008960348508697127
-0.0037545952971658587   -0.010187420107308314   -0.0008421246313308736
-0.004151119951247706   -0.014127856640530049   -0.0009286927022871545
-0.0037635518700571266   -0.010159631386558956   -0.0008735408754804223
-0.005907311409189429   -0.010272815939599706   -0.0008960348508697127
-0.004151119951247706   -0.014127856640530049   -0.0009286927022871545
-0.006382698821109154   -0.014178632210648592   -0.00099887336893909
-0.0063811439479041715   -0.01413543745904183   -0.0010155340697949019
-0.005907311409189429   -0.010272815939599706   -0.0008960348508697127
-0.004151119951247706   -0.014127856640530049   -0.0009286927022871545
-0.0063811439479041715   -0.01413543745904183   -0.0010155340697949019
-0.0037635518700571266   -0.010159631386558956   -0.0008735408754804223
-0.0037581561927004232   -0.010083640551733492   -0.0009469407446276476
-0.004175086793119172   -0.014025456388525637   -0.0009880379584014639
-0.0018576828941850281   -0.010055304994085796   -0.0008782013477399915
-0.0037615209620516306   -0.010125972254762262   -0.000908305651408425
-0.004175086793119172   -0.014025456388525637   -0.0009880379584014639
-0.002156690484412851   -0.014012612997043664   -0.0009344644783539223
-0.0018576828941850281   -0.010055304994085796   -0.0008782013477399915
-0.0021481837208276303   -0.014034291264903935   -0.000913718845010394
-0.0037615209620516306   -0.010125972254762262   -0.000908305651408425
-0.001853030555564351   -0.010081783517875947   -0.000852560622982344
-0.0021481837208276303   -0.014034291264903935   -0.000913718845010394
-0.0018576828941850281   -0.010055304994085796   -0.0008782013477399915
-0.0037615209620516306   -0.010125972254762262   -0.000908305651408425
-0.0021481837208276303   -0.014034291264903935   -0.000913718845010394
-0.004172438919705731   -0.014061410768025827   -0.0009644270102014975
-0.004175086793119172   -0.014025456388525637   -0.0009880379584014639
-0.0037615209620516306   -0.010125972254762262   -0.000908305651408425
-0.0021481837208276303   -0.014034291264903935   -0.000913718845010394
-0.004175086793119172   -0.014025456388525637   -0.0009880379584014639
-0.0018576828941850281   -0.010055304994085796   -0.0008782013477399915
-0.0037615209620516306   -0.010125972254762262   -0.000908305651408425
-0.004172438919705731   -0.014061410768025827   -0.0009644270102014975
-0.001853030555564351   -0.010081783517875947   -0.000852560622982344
-0.0037635518700571266   -0.010159631386558956   -0.0008735408754804223
-0.004172438919705731   -0.014061410768025827   -0.0009644270102014975
-0.0021481837208276303   -0.014034291264903935   -0.000913718845010394
-0.001853030555564351   -0.010081783517875947   -0.000852560622982344
-0.0021379865991806   -0.014054266821304845   -0.0008968953203845343
-0.0037635518700571266   -0.010159631386558956   -0.0008735408754804223
-0.001847101564402456   -0.010100984154354573   -0.0008307262031550506
-0.0021379865991806   -0.014054266821304845   -0.0008968953203845343
-0.001853030555564351   -0.010081783517875947   -0.000852560622982344
-0.0037635518700571266   -0.010159631386558956   -0.0008735408754804223
-0.0021379865991806   -0.014054266821304845   -0.0008968953203845343
-0.004165851644141975   -0.014094694842308395   -0.000944740224990385
-0.004172438919705731   -0.014061410768025827   -0.0009644270102014975
-0.0037635518700571266   -0.010159631386558956   -0.0008735408754804223
-0.0021379865991806   -0.014054266821304845   -0.0008968953203845343
-0.004172438919705731   -0.014061410768025827   -0.0009644270102014975
-0.001853030555564351   -0.010081783517875947   -0.000852560622982344
-0.0037635518700571266   -0.010159631386558956   -0.0008735408754804223
-0.004165851644141975   -0.014094694842308395   -0.000944740224990385
-0.001847101564402456   -0.010100984154354573   -0.0008307262031550506
-0.0037545952971658587   -0.010187420107308314   -0.0008421246313308736
-0.004165851644141975   -0.014094694842308395   -0.000944740224990385
-0.0021379865991806   -0.014054266821304845   -0.0008968953203845343
-0.001847101564402456   -0.010100984154354573   -0.0008307262031550506
-0.0021259137676221305   -0.014072607311152063   -0.0008840932488389985
-0.0037545952971658587   -0.010187420107308314   -0.0008421246313308736
-0.0018387923350653929   -0.01011303399068836   -0.0008127653986959292
-0.0021259137676221305   -0.014072607311152063   -0.0008840932488389985
-0.001847101564402456   -0.010100984154354573   -0.0008307262031550506
-0.0037545952971658587   -0.010187420107308314   -0.0008421246313308736
-0.0021259137676221305   -0.014072607311152063   -0.0008840932488389985
-0.004151119951247706   -0.014127856640530049   -0.0009286927022871545
-0.004165851644141975   -0.014094694842308395   -0.000944740224990385
-0.0037545952971658587   -0.010187420107308314   -0.0008421246313308736
-0.0021259137676221305   -0.014072607311152063   -0.0008840932488389985
-0.004165851644141975   -0.014094694842308395   -0.000944740224990385
-0.001847101564402456   -0.010100984154354573   -0.0008307262031550506
-0.0018576828941850281   -0.010055304994085796   -0.0008782013477399915
-0.002156690484412851   -0.014012612997043664   -0.0009344644783539223
-9.095454878010433e-06   -0.010050328676857442   -0.0008384099303047953
-0.001853030555564351   -0.010081783517875947   -0.000852560622982344
-0.002156690484412851   -0.014012612997043664   -0.0009344644783539223
-0.00019296764500667497   -0.01400510745936226   -0.0009070197674951888
-9.095454878010433e-06   -0.010050328676857442   -0.0008384099303047953
-0.00018143456308939275   -0.014012207110417882   -0.0008893586627998806
-0.001853030555564351   -0.010081783517875947   -0.000852560622982344
-1.2990575322203756e-06   -0.010060833324921959   -0.0008258783841545895
-0.00018143456308939275   -0.014012207110417882   -0.0008893586627998806
-9.095454878010433e-06   -0.010050328676857442   -0.0008384099303047953
-0.001853030555564351   -0.010081783517875947   -0.000852560622982344
-0.00018143456308939275   -0.014012207110417882   -0.0008893586627998806
-0.0021481837208276303   -0.014034291264903935   -0.000913718845010394
-0.002156690484412851   -0.014012612997043664   -0.0009344644783539223
-0.001853030555564351   -0.010081783517875947   -0.000852560622982344
-0.00018143456308939275   -0.014012207110417882   -0.0008893586627998806
-0.002156690484412851   -0.014012612997043664   -0.0009344644783539223
-9.095454878010433e-06   -0.010050328676857442   -0.0008384099303047953
-0.001853030555564351   -0.010081783517875947   -0.000852560622982344
-0.0021481837208276303   -0.014034291264903935   -0.000913718845010394
-1.2990575322203756e-06   -0.010060833324921959   -0.0008258783841545895
-0.001847101564402456   -0.010100984154354573   -0.0008307262031550506
-0.0021481837208276303   -0.014034291264903935   -0.000913718845010394
-0.00018143456308939275   -0.014012207110417882   -0.0008893586627998806
-1.2990575322203756e-06   -0.010060833324921959   -0.0008258783841545895
-0.00017132320514623407   -0.014017478080059613   -0.0008755901700241848
-0.001847101564402456   -0.010100984154354573   -0.0008307262031550506
4.572354848545077e-06   -0.01006400847345112   -0.0008171089645286512
-0.00017132320514623407   -0.014017478080059613   -0.0008755901700241848
-1.2990575322203756e-06   -0.010060833324921959   -0.0008258783841545895
-0.001847101564402456   -0.010100984154354573   -0.0008307262031550506
-0.00017132320514623407   -0.014017478080059613   -0.0008755901700241848
-0.0021379865991806   -0.014054266821304845   -0.0008968953203845343
-0.0021481837208276303   -0.014034291264903935   -0.000913718845010394
-0.001847101564402456   -0.010100984154354573   -0.0008307262031550506
-0.00017132320514623407   -0.014017478080059613   -0.0008755901700241848
-0.0021481837208276303   -0.014034291264903935   -0.000913718845010394
-1.2990575322203756e-06   -0.010060833324921959   -0.0008258783841545895
-0.001847101564402456   -0.010100984154354573   -0.0008307262031550506
-0.0021379865991806   -0.014054266821304845   -0.0008968953203845343
4.572354848545077e-06   -0.01006400847345112   -0.0008171089645286512
-0.0018387923350653929   -0.01011303399068836   -0.0008127653986959292
-0.0021379865991806   -0.014054266821304845   -0.0008968953203845343
-0.00017132320514623407   -0.014017478080059613   -0.0008755901700241848
4.572354848545077e-06   -0.01006400847345112   -0.0008171089645286512
-0.00016336658641882552   -0.014020890043105928   -0.000865853454987656
-0.0018387923350653929   -0.01011303399068836   -0.0008127653986959292
8.730051932817855e-06   -0.01005975265183755   -0.000812264721769374
-0.00016336658641882552   -0.014020890043105928   -0.000865853454987656
4.572354848545077e-06   -0.01006400847345112   -0.0008171089645286512
-0.0018387923350653929   -0.01011303399068836   -0.0008127653986959292
-0.00016336658641882552   -0.014020890043105928   -0.000865853454987656
-0.0021259137676221305   -0.014072607311152063   -0.0008840932488389985
-0.0021379865991806   -0.014054266821304845   -0.0008968953203845343
-0.0018387923350653929   -0.01011303399068836   -0.0008127653986959292
-0.00016336658641882552   -0.014020890043105928   -0.000865853454987656
-0.0021379865991806   -0.014054266821304845   -0.0008968953203845343
4.572354848545077e-06   -0.01006400847345112   -0.0008171089645286512
-9.095454878010433e-06   -0.010050328676857442   -0.0008384099303047953
-0.00019296764500667497   -0.01400510745936226   -0.0009070197674951888
0.0019031270569098454   -0.010066687960046564   -0.0008274483358850971
-1.2990575322203756e-06   -0.010060833324921959   -0.0008258783841545895
-0.00019296764500667497   -0.01400510745936226   -0.0009070197674951888
0.0018304742848821924   -0.014001638974173334   -0.0009059885599403524
0.0019031270569098454   -0.010066687960046564   -0.0008274483358850971
0.001845521688503066   -0.013994587364046135   -0.0008915616197209926
-1.2990575322203756e-06   -0.010060833324921959   -0.0008258783841545895
0.0019125052334566966   -0.010062111785090783   -0.0008282932814803527
0.001845521688503066   -0.013994587364046135   -0.0008915616197209926
0.0019031270569098454   -0.010066687960046564   -0.0008274483358850971
-1.2990575322203756e-06   -0.010060833324921959   -0.0008258783841545895
0.001845521688503066   -0.013994587364046135   -0.0008915616197209926
-0.00018143456308939275   -0.014012207110417882   -0.0008893586627998806
-0.00019296764500667497   -0.01400510745936226   -0.0009070197674951888
-1.2990575322203756e-06   -0.010060833324921959   -0.0008258783841545895
0.001845521688503066   -0.013994587364046135   -0.0008915616197209926
-0.00019296764500667497   -0.01400510745936226   -0.0009070197674951888
0.0019031270569098454   -0.010066687960046564   -0.0008274483358850971
-1.2990575322203756e-06   -0.010060833324921959   -0.0008258783841545895
-0.00018143456308939275   -0.014012207110417882   -0.0008893586627998806
0.0019125052334566966   -0.010062111785090783   -0.0008282932814803527
4.572354848545077e-06   -0.01006400847345112   -0.0008171089645286512
-0.00018143456308939275   -0.014012207110417882   -0.0008893586627998806
0.001845521688503066   -0.013994587364046135   -0.0008915616197209926
0.0019125052334566966   -0.010062111785090783   -0.0008282932814803527
0.0018560101981629534   -0.013986552100738766   -0.0008809123188097782
4.572354848545077e-06   -0.01006400847345112   -0.0008171089645286512
0.0019144367392763244   -0.010050811066662923   -0.0008326947934030212
0.0018560101981629534   -0.013986552100738766   -0.0008809123188097782
0.0019125052334566966   -0.010062111785090783   -0.0008282932814803527
4.572354848545077e-06   -0.01006400847345112   -0.0008171089645286512
0.0018560101981629534   -0.013986552100738766   -0.0008809123188097782
-0.00017132320514623407   -0.014017478080059613   -0.0008755901700241848
-0.00018143456308939275   -0.014012207110417882   -0.0008893586627998806
4.572354848545077e-06   -0.01006400847345112   -0.0008171089645286512
0.0018560101981629534   -0.013986552100738766   -0.0008809123188097782
-0.00018143456308939275   -0.014012207110417882   -0.0008893586627998806
0.0019125052334566966   -0.010062111785090783   -0.0008282932814803527
4.572354848545077e-06   -0.01006400847345112   -0.0008171089645286512
-0.00017132320514623407   -0.014017478080059613   -0.0008755901700241848
0.0019144367392763244   -0.010050811066662923   -0.0008326947934030212
8.730051932817855e-06   -0.01005975265183755   -0.000812264721769374
-0.00017132320514623407   -0.014017478080059613   -0.0008755901700241848
0.0018560101981629534   -0.013986552100738766   -0.0008809123188097782
0.0019144367392763244   -0.010050811066662923   -0.0008326947934030212
0.0018590262138664917   -0.013974955465060097   -0.0008739657151752183
8.730051932817855e-06   -0.01005975265183755   -0.000812264721769374
0.0019115020006723032   -0.010030000142496108   -0.0008407923314280848
0.0018590262138664917   -0.013974955465060097   -0.0008739657151752183
0.0019144367392763244   -0.010050811066662923   -0.0008326947934030212
8.730051932817855e-06   -0.01005975265183755   -0.000812264721769374
0.0018590262138664917   -0.013974955465060097   -0.0008739657151752183
-0.00016336658641882552   -0.014020890043105928   -0.000865853454987656
-0.00017132320514623407   -0.014017478080059613   -0.0008755901700241848
8.730051932817855e-06   -0.01005975265183755   -0.000812264721769374
0.0018590262138664917   -0.013974955465060097   -0.0008739657151752183
-0.00017132320514623407   -0.014017478080059613   -0.0008755901700241848
0.0019144367392763244   -0.010050811066662923   -0.0008326947934030212
0.0019031270569098454   -0.010066687960046564   -0.0008274483358850971
0.0018304742848821924   -0.014001638974173334   -0.0009059885599403524
0.00401457174091149   -0.010096548839073745   -0.0008392275962943635
0.0019125052334566966   -0.010062111785090783   -0.0008282932814803527
0.0018304742848821924   -0.014001638974173334   -0.0009059885599403524
0.00402239511683298   -0.013996538453954616   -0.0009288938775535124
0.00401457174091149   -0.010096548839073745   -0.0008392275962943635
0.004051465161823686   -0.013978265110508536   -0.0009166809807491962
0.0019125052334566966   -0.010062111785090783   -0.0008282932814803527
0.004012821274035605   -0.010081712794710243   -0.0008543731060749888
0.004051465161823686   -0.013978265110508536   -0.0009166809807491962
0.00401457174091149   -0.010096548839073745   -0.0008392275962943635
0.0019125052334566966   -0.010062111785090783   -0.0008282932814803527
0.004051465161823686   -0.013978265110508536   -0.0009166809807491962
0.001845521688503066   -0.013994587364046135   -0.0008915616197209926
0.0018304742848821924   -0.014001638974173334   -0.0009059885599403524
0.0019125052334566966   -0.010062111785090783   -0.0008282932814803527
0.004051465161823686   -0.013978265110508536   -0.0009166809807491962
0.0018304742848821924   -0.014001638974173334   -0.0009059885599403524
0.00401457174091149   -0.010096548839073745   -0.0008392275962943635
0.0019125052334566966   -0.010062111785090783   -0.0008282932814803527
0.001845521688503066   -0.013994587364046135   -0.0008915616197209926
0.004012821274035605   -0.010081712794710243   -0.0008543731060749888
0.0019144367392763244   -0.010050811066662923   -0.0008326947934030212
0.001845521688503066   -0.013994587364046135   -0.0008915616197209926
0.004051465161823686   -0.013978265110508536   -0.0009166809807491962
0.004012821274035605   -0.010081712794710243   -0.0008543731060749888
0.004067494591713774   -0.013963937740152116   -0.0009102199425978335
0.0019144367392763244   -0.010050811066662923   -0.0008326947934030212
0.004004493952258161   -0.010063369363200082   -0.0008752971297925292
0.004067494591713774   -0.013963937740152116   -0.0009102199425978335
0.004012821274035605   -0.010081712794710243   -0.0008543731060749888
0.0019144367392763244   -0.010050811066662923   -0.0008326947934030212
0.004067494591713774   -0.013963937740152116   -0.0009102199425978335
0.0018560101981629534   -0.013986552100738766   -0.0008809123188097782
0.001845521688503066   -0.013994587364046135   -0.0008915616197209926
0.0019144367392763244   -0.010050811066662923   -0.0008326947934030212
0.004067494591713774   -0.013963937740152116   -0.0009102199425978335
0.001845521688503066   -0.013994587364046135   -0.0008915616197209926
0.004012821274035605   -0.010081712794710243   -0.0008543731060749888
0.0019144367392763244   -0.010050811066662923   -0.0008326947934030212
0.0018560101981629534   -0.013986552100738766   -0.0008809123188097782
0.004004493952258161   -0.010063369363200082   -0.0008752971297925292
0.0019115020006723032   -0.010030000142496108   -0.0008407923314280848
0.0018560101981629534   -0.013986552100738766   -0.0008809123188097782
0.004067494591713774   -0.013963937740152116   -0.0009102199425978335
0.004004493952258161   -0.010063369363200082   -0.0008752971297925292
0.0040727958119457916   -0.013941271433492702   -0.0009096093016888057
0.0019115020006723032   -0.010030000142496108   -0.0008407923314280848
0.0039789337696333185   -0.010028790020008498   -0.000901957591614333
0.0040727958119457916   -0.013941271433492702   -0.0009096093016888057
0.004004493952258161   -0.010063369363200082   -0.0008752971297925292
0.0019115020006723032   -0.010030000142496108   -0.0008407923314280848
0.0040727958119457916   -0.013941271433492702   -0.0009096093016888057
0.0018590262138664917   -0.013974955465060097   -0.0008739657151752183
0.0018560101981629534   -0.013986552100738766   -0.0008809123188097782
0.0019115020006723032   -0.010030000142496108   -0.0008407923314280848
0.0040727958119457916   -0.013941271433492702   -0.0009096093016888057
0.0018560101981629534   -0.013986552100738766   -0.0008809123188097782
0.004004493952258161   -0.010063369363200082   -0.0008752971297925292
-0.0063481556462075045   -0.014047446871323074   -0.001066781322296699
-0.00653995663134085   -0.018018766683859343   -0.0010500574931254772
-0.004175086793119172   -0.014025456388525637   -0.0009880379584014639
-0.006373790876701316   -0.014095832192205778   -0.001038335373658973
-0.00653995663134085   -0.018018766683859343   -0.0010500574931254772
-0.004373220212300652   -0.018029337148449277   -0.0009921522577897171
-0.004175086793119172   -0.014025456388525637   -0.0009880379584014639
-0.004360866705989537   -0.018058839764556772   -0.0009832537505774601
-0.006373790876701316   -0.014095832192205778   -0.001038335373658973
-0.004172438919705731   -0.014061410768025827   -0.0009644270102014975
-0.004360866705989537   -0.018058839764556772   -0.0009832537505774601
-0.004175086793119172   -0.014025456388525637   -0.0009880379584014639
-0.006373790876701316   -0.014095832192205778   -0.001038335373658973
-0.004360866705989537   -0.018058839764556772   -0.0009832537505774601
-0.006531423986266156   -0.018058281153156247   -0.0010485750990438197
-0.00653995663134085   -0.018018766683859343   -0.0010500574931254772
-0.006373790876701316   -0.014095832192205778   -0.001038335373658973
-0.004360866705989537   -0.018058839764556772   -0.0009832537505774601
-0.00653995663134085   -0.018018766683859343   -0.0010500574931254772
-0.004175086793119172   -0.014025456388525637   -0.0009880379584014639
-0.006373790876701316   -0.014095832192205778   -0.001038335373658973
-0.006531423986266156   -0.018058281153156247   -0.0010485750990438197
-0.004172438919705731   -0.014061410768025827   -0.0009644270102014975
-0.0063811439479041715   -0.01413543745904183   -0.0010155340697949019
-0.006531423986266156   -0.018058281153156247   -0.0010485750990438197
-0.004360866705989537   -0.018058839764556772   -0.0009832537505774601
-0.004172438919705731   -0.014061410768025827   -0.0009644270102014975
-0.004341990976108895   -0.018091673121252715   -0.000978369913301255
-0.0063811439479041715   -0.01413543745904183   -0.0010155340697949019
-0.004165851644141975   -0.014094694842308395   -0.000944740224990385
-0.004341990976108895   -0.018091673121252715   -0.000978369913301255
-0.004172438919705731   -0.014061410768025827   -0.0009644270102014975
-0.0063811439479041715   -0.01413543745904183   -0.0010155340697949019
-0.004341990976108895   -0.018091673121252715   -0.000978369913301255
-0.006510649103420746   -0.01809682471457536   -0.0010530886173400345
-0.006531423986266156   -0.018058281153156247   -0.0010485750990438197
-0.0063811439479041715   -0.01413543745904183   -0.0010155340697949019
-0.004341990976108895   -0.018091673121252715   -0.000978369913301255
-0.006531423986266156   -0.018058281153156247   -0.0010485750990438197
-0.004172438919705731   -0.014061410768025827   -0.0009644270102014975
-0.0063811439479041715   -0.01413543745904183   -0.0010155340697949019
-0.006510649103420746   -0.01809682471457536   -0.0010530886173400345
-0.004165851644141975   -0.014094694842308395   -0.000944740224990385
-0.006382698821109154   -0.014178632210648592   -0.00099887336893909
-0.006510649103420746   -0.01809682471457536   -0.0010530886173400345
-0.004341990976108895   -0.018091673121252715   -0.000978369913301255
-0.004165851644141975   -0.014094694842308395   -0.000944740224990385
-0.0043177800431934655   -0.018130108220619445   -0.0009774250653281926
-0.006382698821109154   -0.014178632210648592   -0.00099887336893909
-0.004151119951247706   -0.014127856640530049   -0.0009286927022871545
-0.0043177800431934655   -0.018130108220619445   -0.0009774250653281926
-0.004165851644141975   -0.014094694842308395   -0.000944740224990385
-0.006382698821109154   -0.014178632210648592   -0.00099887336893909
-0.0043177800431934655   -0.018130108220619445   -0.0009774250653281926
-0.006477474816271576   -0.018146632270810422   -0.0010639145465661094
-0.006510649103420746   -0.01809682471457536   -0.0010530886173400345
-0.006382698821109154   -0.014178632210648592   -0.00099887336893909
-0.0043177800431934655   -0.018130108220619445   -0.0009774250653281926
-0.006510649103420746   -0.01809682471457536   -0.0010530886173400345
-0.004165851644141975   -0.014094694842308395   -0.000944740224990385
-0.004175086793119172   -0.014025456388525637   -0.0009880379584014639
-0.004373220212300652   -0.018029337148449277   -0.0009921522577897171
-0.002156690484412851   -0.014012612997043664   -0.0009344644783539223
-0.004172438919705731   -0.014061410768025827   -0.0009644270102014975
-0.004373220212300652   -0.018029337148449277   -0.0009921522577897171
-0.0023878884945622756   -0.01803147468783799   -0.000953704784109814
-0.002156690484412851   -0.014012612997043664   -0.0009344644783539223
-0.0023716237396394666   -0.018048314527300324   -0.0009376872679463975
-0.004172438919705731   -0.014061410768025827   -0.0009644270102014975
-0.0021481837208276303   -0.014034291264903935   -0.000913718845010394
-0.0023716237396394666   -0.018048314527300324   -0.0009376872679463975
-0.002156690484412851   -0.014012612997043664   -0.0009344644783539223
-0.004172438919705731   -0.014061410768025827   -0.0009644270102014975
-0.0023716237396394666   -0.018048314527300324   -0.0009376872679463975
-0.004360866705989537   -0.018058839764556772   -0.0009832537505774601
-0.004373220212300652   -0.018029337148449277   -0.0009921522577897171
-0.004172438919705731   -0.014061410768025827   -0.0009644270102014975
-0.0023716237396394666   -0.018048314527300324   -0.0009376872679463975
-0.004373220212300652   -0.018029337148449277   -0.0009921522577897171
-0.002156690484412851   -0.014012612997043664   -0.0009344644783539223
-0.004172438919705731   -0.014061410768025827   -0.0009644270102014975
-0.004360866705989537   -0.018058839764556772   -0.0009832537505774601
-0.0021481837208276303   -0.014034291264903935   -0.000913718845010394
-0.004165851644141975   -0.014094694842308395   -0.000944740224990385
-0.004360866705989537   -0.018058839764556772   -0.0009832537505774601
-0.0023716237396394666   -0.018048314527300324   -0.0009376872679463975
-0.0021481837208276303   -0.014034291264903935   -0.000913718845010394
-0.002353350546638017   -0.018068925703337776   -0.0009256955725837053
-0.004165851644141975   -0.014094694842308395   -0.000944740224990385
-0.0021379865991806   -0.014054266821304845   -0.0008968953203845343
-0.002353350546638017   -0.018068925703337776   -0.0009256955725837053
-0.0021481837208276303   -0.014034291264903935   -0.000913718845010394
-0.004165851644141975   -0.014094694842308395   -0.000944740224990385
-0.002353350546638017   -0.018068925703337776   -0.0009256955725837053
-0.004341990976108895   -0.018091673121252715   -0.000978369913301255
-0.004360866705989537   -0.018058839764556772   -0.0009832537505774601
-0.004165851644141975   -0.014094694842308395   -0.000944740224990385
-0.002353350546638017   -0.018068925703337776   -0.0009256955725837053
-0.004360866705989537   -0.018058839764556772   -0.0009832537505774601
-0.0021481837208276303   -0.014034291264903935   -0.000913718845010394
-0.004165851644141975   -0.014094694842308395   -0.000944740224990385
-0.004341990976108895   -0.018091673121252715   -0.000978369913301255
-0.0021379865991806   -0.014054266821304845   -0.0008968953203845343
-0.004151119951247706   -0.014127856640530049   -0.0009286927022871545
-0.004341990976108895   -0.018091673121252715   -0.000978369913301255
-0.002353350546638017   -0.018068925703337776   -0.0009256955725837053
-0.0021379865991806   -0.014054266821304845   -0.0008968953203845343
-0.002333700857064998   -0.018093372784014974   -0.0009178658119525385
-0.004151119951247706   -0.014127856640530049   -0.0009286927022871545
-0.0021259137676221305   -0.014072607311152063   -0.0008840932488389985
-0.002333700857064998   -0.018093372784014974   -0.0009178658119525385
-0.0021379865991806   -0.014054266821304845   -0.0008968953203845343
-0.004151119951247706   -0.014127856640530049   -0.0009286927022871545
-0.002333700857064998   -0.018093372784014974   -0.0009178658119525385
-0.0043177800431934655   -0.018130108220619445   -0.0009774250653281926
-0.004341990976108895   -0.018091673121252715   -0.000978369913301255
-0.004151119951247706   -0.014127856640530049   -0.0009286927022871545
-0.002333700857064998   -0.018093372784014974   -0.0009178658119525385
-0.004341990976108895   -0.018091673121252715   -0.000978369913301255
-0.0021379865991806   -0.014054266821304845   -0.0008968953203845343
-0.002156690484412851   -0.014012612997043664   -0.0009344644783539223
-0.0023878884945622756   -0.01803147468783799   -0.000953704784109814
-0.00019296764500667497   -0.01400510745936226   -0.0009070197674951888
-0.0021481837208276303   -0.014034291264903935   -0.000913718845010394
-0.0023878884945622756   -0.01803147468783799   -0.000953704784109814
-0.0004585865781272493   -0.01802076214739003   -0.0009382970622718275
-0.00019296764500667497   -0.01400510745936226   -0.0009070197674951888
-0.0004394490773318508   -0.018024474274210965   -0.0009155168310111811
-0.0021481837208276303   -0.014034291264903935   -0.000913718845010394
-0.00018143456308939275   -0.014012207110417882   -0.0008893586627998806
-0.0004394490773318508   -0.018024474274210965   -0.0009155168310111811
-0.00019296764500667497   -0.01400510745936226   -0.0009070197674951888
-0.0021481837208276303   -0.014034291264903935   -0.000913718845010394
-0.0004394490773318508   -0.018024474274210965   -0.0009155168310111811
-0.0023716237396394666   -0.018048314527300324   -0.0009376872679463975
-0.0023878884945622756   -0.01803147468783799   -0.000953704784109814
-0.0021481837208276303   -0.014034291264903935   -0.000913718845010394
-0.0004394490773318508   -0.018024474274210965   -0.0009155168310111811
-0.0023878884945622756   -0.01803147468783799   -0.000953704784109814
-0.00019296764500667497   -0.01400510745936226   -0.0009070197674951888
-0.0021481837208276303   -0.014034291264903935   -0.000913718845010394
-0.0023716237396394666   -0.018048314527300324   -0.0009376872679463975
-0.00018143456308939275   -0.014012207110417882   -0.0008893586627998806
-0.0021379865991806   -0.014054266821304845   -0.0008968953203845343
-0.0023716237396394666   -0.018048314527300324   -0.0009376872679463975
-0.0004394490773318508   -0.018024474274210965   -0.0009155168310111811
-0.00018143456308939275   -0.014012207110417882   -0.0008893586627998806
-0.0004213096104897333   -0.01803167544135616   -0.0008967385427439007
-0.0021379865991806   -0.014054266821304845   -0.0008968953203845343
-0.00017132320514623407   -0.014017478080059613   -0.0008755901700241848
-0.0004213096104897333   -0.01803167544135616   -0.0008967385427439007
-0.00018143456308939275   -0.014012207110417882   -0.0008893586627998806
-0.0021379865991806   -0.014054266821304845   -0.0008968953203845343
-0.0004213096104897333   -0.01803167544135616   -0.0008967385427439007
-0.002353350546638017   -0.018068925703337776   -0.0009256955725837053
-0.0023716237396394666   -0.018048314527300324   -0.0009376872679463975
-0.0021379865991806   -0.014054266821304845   -0.0008968953203845343
-0.0004213096104897333   -0.01803167544135616   -0.0008967385427439007
-0.0023716237396394666   -0.018048314527300324   -0.0009376872679463975
-0.00018143456308939275   -0.014012207110417882   -0.0008893586627998806
-0.0021379865991806   -0.014054266821304845   -0.0008968953203845343
-0.002353350546638017   -0.018068925703337776   -0.0009256955725837053
-0.00017132320514623407   -0.014017478080059613   -0.0008755901700241848
-0.0021259137676221305   -0.014072607311152063   -0.0008840932488389985
-0.002353350546638017   -0.018068925703337776   -0.0009256955725837053
-0.0004213096104897333   -0.01803167544135616   -0.0008967385427439007
-0.00017132320514623407   -0.014017478080059613   -0.0008755901700241848
-0.0004057892203939878   -0.01804252387277291   -0.0008820994703922913
-0.0021259137676221305   -0.014072607311152063   -0.0008840932488389985
-0.00016336658641882552   -0.014020890043105928   -0.000865853454987656
-0.0004057892203939878   -0.01804252387277291   -0.0008820994703922913
-0.00017132320514623407   -0.014017478080059613   -0.0008755901700241848
-0.0021259137676221305   -0.014072607311152063   -0.0008840932488389985
-0.0004057892203939878   -0.01804252387277291   -0.0008820994703922913
-0.002333700857064998   -0.018093372784014974   -0.0009178658119525385
-0.002353350546638017   -0.018068925703337776   -0.0009256955725837053
-0.0021259137676221305   -0.014072607311152063   -0.0008840932488389985
-0.0004057892203939878   -0.01804252387277291   -0.0008820994703922913
-0.002353350546638017   -0.018068925703337776   -0.0009256955725837053
-0.00017132320514623407   -0.014017478080059613   -0.0008755901700241848
-0.00019296764500667497   -0.01400510745936226   -0.0009070197674951888
-0.0004585865781272493   -0.01802076214739003   -0.0009382970622718275
0.0018304742848821924   -0.014001638974173334   -0.0009059885599403524
-0.00018143456308939275   -0.014012207110417882   -0.0008893586627998806
-0.0004585865781272493   -0.01802076214739003   -0.0009382970622718275
0.001528229015983889   -0.01799703705886324   -0.0009467133433644195
0.0018304742848821924   -0.014001638974173334   -0.0009059885599403524
0.0015525363516894278   -0.017987556165509226   -0.0009172720460943341
-0.00018143456308939275   -0.014012207110417882   -0.0008893586627998806
0.001845521688503066   -0.013994587364046135   -0.0008915616197209926
0.0015525363516894278   -0.017987556165509226   -0.0009172720460943341
0.0018304742848821924   -0.014001638974173334   -0.0009059885599403524
-0.00018143456308939275   -0.014012207110417882   -0.0008893586627998806
0.0015525363516894278   -0.017987556165509226   -0.0009172720460943341
-0.0004394490773318508   -0.018024474274210965   -0.0009155168310111811
-0.0004585865781272493   -0.01802076214739003   -0.0009382970622718275
-0.00018143456308939275   -0.014012207110417882   -0.0008893586627998806
0.0015525363516894278   -0.017987556165509226   -0.0009172720460943341
-0.0004585865781272493   -0.01802076214739003   -0.0009382970622718275
0.0018304742848821924   -0.014001638974173334   -0.0009059885599403524
-0.00018143456308939275   -0.014012207110417882   -0.0008893586627998806
-0.0004394490773318508   -0.018024474274210965   -0.0009155168310111811
0.001845521688503066   -0.013994587364046135   -0.0008915616197209926
-0.00017132320514623407   -0.014017478080059613   -0.0008755901700241848
-0.0004394490773318508   -0.018024474274210965   -0.0009155168310111811
0.0015525363516894278   -0.017987556165509226   -0.0009172720460943341
0.001845521688503066   -0.013994587364046135   -0.0008915616197209926
0.0015751264806794709   -0.017982611984205532   -0.000891817788601622
-0.00017132320514623407   -0.014017478080059613   -0.0008755901700241848
0.0018560101981629534   -0.013986552100738766   -0.0008809123188097782
0.0015751264806794709   -0.017982611984205532   -0.000891817788601622
0.001845521688503066   -0.013994587364046135   -0.0008915616197209926
-0.00017132320514623407   -0.014017478080059613   -0.0008755901700241848
0.0015751264806794709   -0.017982611984205532   -0.000891817788601622
-0.0004213096104897333   -0.01803167544135616   -0.0008967385427439007
-0.0004394490773318508   -0.018024474274210965   -0.0009155168310111811
-0.00017132320514623407   -0.014017478080059613   -0.0008755901700241848
0.0015751264806794709   -0.017982611984205532   -0.000891817788601622
-0.0004394490773318508   -0.018024474274210965   -0.0009155168310111811
0.001845521688503066   -0.013994587364046135   -0.0008915616197209926
-0.00017132320514623407   -0.014017478080059613   -0.0008755901700241848
-0.0004213096104897333   -0.01803167544135616   -0.0008967385427439007
0.0018560101981629534   -0.013986552100738766   -0.0008809123188097782
-0.00016336658641882552   -0.014020890043105928   -0.000865853454987656
-0.0004213096104897333   -0.01803167544135616   -0.0008967385427439007
0.0015751264806794709   -0.017982611984205532   -0.000891817788601622
0.0018560101981629534   -0.013986552100738766   -0.0008809123188097782
0.001587615247509339   -0.0179798891848301   -0.0008700902169731779
-0.00016336658641882552   -0.014020890043105928   -0.000865853454987656
0.0018590262138664917   -0.013974955465060097   -0.0008739657151752183
0.001587615247509339   -0.0179798891848301   -0.0008700902169731779
0.0018560101981629534   -0.013986552100738766   -0.0008809123188097782
-0.00016336658641882552   -0.014020890043105928   -0.000865853454987656
0.001587615247509339   -0.0179798891848301   -0.0008700902169731779
-0.0004057892203939878   -0.01804252387277291   -0.0008820994703922913
-0.0004213096104897333   -0.01803167544135616   -0.0008967385427439007
-0.00016336658641882552   -0.014020890043105928   -0.000865853454987656
0.001587615247509339   -0.0179798891848301   -0.0008700902169731779
-0.0004213096104897333   -0.01803167544135616   -0.0008967385427439007
0.0018560101981629534   -0.013986552100738766   -0.0008809123188097782
0.0018304742848821924   -0.014001638974173334   -0.0009059885599403524
0.001528229015983889   -0.01799703705886324   -0.0009467133433644195
0.00402239511683298   -0.013996538453954616   -0.0009288938775535124
0.001845521688503066   -0.013994587364046135   -0.0008915616197209926
0.001528229015983889   -0.01799703705886324   -0.0009467133433644195
0.0036538279857351815   -0.017957011879247108   -0.0009803225866960733
0.00402239511683298   -0.013996538453954616   -0.0009288938775535124
0.0037166539671410863   -0.01793553507305233   -0.0009414977674240882
0.001845521688503066   -0.013994587364046135   -0.0008915616197209926
0.004051465161823686   -0.013978265110508536   -0.0009166809807491962
0.0037166539671410863   -0.01793553507305233   -0.0009414977674240882
0.00402239511683298   -0.013996538453954616   -0.0009288938775535124
0.001845521688503066   -0.013994587364046135   -0.0008915616197209926
0.0037166539671410863   -0.01793553507305233   -0.0009414977674240882
0.0015525363516894278   -0.017987556165509226   -0.0009172720460943341
0.001528229015983889   -0.01799703705886324   -0.0009467133433644195
0.001845521688503066   -0.013994587364046135   -0.0008915616197209926
0.0037166539671410863   -0.01793553507305233   -0.0009414977674240882
0.001528229015983889   -0.01799703705886324   -0.0009467133433644195
0.00402239511683298   -0.013996538453954616   -0.0009288938775535124
0.001845521688503066   -0.013994587364046135   -0.0008915616197209926
0.0015525363516894278   -0.017987556165509226   -0.0009172720460943341
0.004051465161823686   -0.013978265110508536   -0.0009166809807491962
0.0018560101981629534   -0.013986552100738766   -0.0008809123188097782
0.0015525363516894278   -0.017987556165509226   -0.0009172720460943341
0.0037166539671410863   -0.01793553507305233   -0.0009414977674240882
0.004051465161823686   -0.013978265110508536   -0.0009166809807491962
0.0037601390345122832   -0.017925101519931673   -0.0009083640939190768
0.0018560101981629534   -0.013986552100738766   -0.0008809123188097782
0.004067494591713774   -0.013963937740152116   -0.0009102199425978335
0.0037601390345122832   -0.017925101519931673   -0.0009083640939190768
0.004051465161823686   -0.013978265110508536   -0.0009166809807491962
0.0018560101981629534   -0.013986552100738766   -0.0008809123188097782
0.0037601390345122832   -0.017925101519931673   -0.0009083640939190768
0.0015751264806794709   -0.017982611984205532   -0.000891817788601622
0.0015525363516894278   -0.017987556165509226   -0.0009172720460943341
0.0018560101981629534   -0.013986552100738766   -0.0008809123188097782
0.0037601390345122832   -0.017925101519931673   -0.0009083640939190768
0.0015525363516894278   -0.017987556165509226   -0.0009172720460943341
0.004051465161823686   -0.013978265110508536   -0.0009166809807491962
0.0018560101981629534   -0.013986552100738766   -0.0008809123188097782
0.0015751264806794709   -0.017982611984205532   -0.000891817788601622
0.004067494591713774   -0.013963937740152116   -0.0009102199425978335
0.0018590262138664917   -0.013974955465060097   -0.0008739657151752183
0.0015751264806794709   -0.017982611984205532   -0.000891817788601622
0.0037601390345122832   -0.017925101519931673   -0.0009083640939190768
0.004067494591713774   -0.013963937740152116   -0.0009102199425978335
0.003799166257970669   -0.017913970471868657   -0.0008811610562331235
0.0018590262138664917   -0.013974955465060097   -0.0008739657151752183
0.0040727958119457916   -0.013941271433492702   -0.0009096093016888057
0.003799166257970669   -0.017913970471868657   -0.0008811610562331235
0.004067494591713774   -0.013963937740152116   -0.0009102199425978335
0.0018590262138664917   -0.013974955465060097   -0.0008739657151752183
0.003799166257970669   -0.017913970471868657   -0.0008811610562331235
0.001587615247509339   -0.0179798891848301   -0.0008700902169731779
0.0015751264806794709   -0.017982611984205532   -0.000891817788601622
0.0018590262138664917   -0.013974955465060097   -0.0008739657151752183
0.003799166257970669   -0.017913970471868657   -0.0008811610562331235
0.0015751264806794709   -0.017982611984205532   -0.000891817788601622
0.004067494591713774   -0.013963937740152116   -0.0009102199425978335
-0.00653995663134085   -0.018018766683859343   -0.0010500574931254772
-0.006361082069233516   -0.021803477508016617   -0.001005031793995874
-0.004373220212300652   -0.018029337148449277   -0.0009921522577897171
-0.006531423986266156   -0.018058281153156247   -0.0010485750990438197
-0.006361082069233516   -0.021803477508016617   -0.001005031793995874
-0.004354174795987631   -0.021846981206310092   -0.0009703985341193391
-0.004373220212300652   -0.018029337148449277   -0.0009921522577897171
-0.004328567183366407   -0.021868920923342826   -0.0009757463925554226
-0.006531423986266156   -0.018058281153156247   -0.0010485750990438197
-0.004360866705989537   -0.018058839764556772   -0.0009832537505774601
-0.004328567183366407   -0.021868920923342826   -0.0009757463925554226
-0.004373220212300652   -0.018029337148449277   -0.0009921522577897171
-0.006531423986266156   -0.018058281153156247   -0.0010485750990438197
-0.004328567183366407   -0.021868920923342826   -0.0009757463925554226
-0.006314808070405085   -0.021833114731796513   -0.0010304065702972276
-0.006361082069233516   -0.021803477508016617   -0.001005031793995874
-0.006531423986266156   -0.018058281153156247   -0.0010485750990438197
-0.004328567183366407   -0.021868920923342826   -0.0009757463925554226
-0.006361082069233516   -0.021803477508016617   -0.001005031793995874
-0.004373220212300652   -0.018029337148449277   -0.0009921522577897171
-0.006531423986266156   -0.018058281153156247   -0.0010485750990438197
-0.006314808070405085   -0.021833114731796513   -0.0010304065702972276
-0.004360866705989537   -0.018058839764556772   -0.0009832537505774601
-0.006510649103420746   -0.01809682471457536   -0.0010530886173400345
-0.006314808070405085   -0.021833114731796513   -0.0010304065702972276
-0.004328567183366407   -0.021868920923342826   -0.0009757463925554226
-0.004360866705989537   -0.018058839764556772   -0.0009832537505774601
-0.004294026870010206   -0.021900338309199952   -0.0009851829084620248
-0.006510649103420746   -0.01809682471457536   -0.0010530886173400345
-0.004341990976108895   -0.018091673121252715   -0.000978369913301255
-0.004294026870010206   -0.021900338309199952   -0.0009851829084620248
-0.004360866705989537   -0.018058839764556772   -0.0009832537505774601
-0.006510649103420746   -0.01809682471457536   -0.0010530886173400345
-0.004294026870010206   -0.021900338309199952   -0.0009851829084620248
-0.006262265976543945   -0.021869717982075463   -0.001062206820560105
-0.006314808070405085   -0.021833114731796513   -0.0010304065702972276
-0.006510649103420746   -0.01809682471457536   -0.0010530886173400345
-0.004294026870010206   -0.021900338309199952   -0.0009851829084620248
-0.006314808070405085   -0.021833114731796513   -0.0010304065702972276
-0.004360866705989537   -0.018058839764556772   -0.0009832537505774601
-0.006510649103420746   -0.01809682471457536   -0.0010530886173400345
-0.006262265976543945   -0.021869717982075463   -0.001062206820560105
-0.004341990976108895   -0.018091673121252715   -0.000978369913301255
-0.006477474816271576   -0.018146632270810422   -0.0010639145465661094
-0.006262265976543945   -0.021869717982075463   -0.001062206820560105
-0.004294026870010206   -0.021900338309199952   -0.0009851829084620248
-0.004341990976108895   -0.018091673121252715   -0.000978369913301255
-0.004257024223577921   -0.021943158710290265   -0.0009988195458278267
-0.006477474816271576   -0.018146632270810422   -0.0010639145465661094
-0.0043177800431934655   -0.018130108220619445   -0.0009774250653281926
-0.004257024223577921   -0.021943158710290265   -0.0009988195458278267
-0.004341990976108895   -0.018091673121252715   -0.000978369913301255
-0.006477474816271576   -0.018146632270810422   -0.0010639145465661094
-0.004257024223577921   -0.021943158710290265   -0.0009988195458278267
-0.0061909196959207945   -0.021925552687762508   -0.0011005651739310666
-0.006262265976543945   -0.021869717982075463   -0.001062206820560105
-0.006477474816271576   -0.018146632270810422   -0.0010639145465661094
-0.004257024223577921   -0.021943158710290265   -0.0009988195458278267
-0.006262265976543945   -0.021869717982075463   -0.001062206820560105
-0.004341990976108895   -0.018091673121252715   -0.000978369913301255
-0.004373220212300652   -0.018029337148449277   -0.0009921522577897171
-0.004354174795987631   -0.021846981206310092   -0.0009703985341193391
-0.0023878884945622756   -0.01803147468783799   -0.000953704784109814
-0.004360866705989537   -0.018058839764556772   -0.0009832537505774601
-0.004354174795987631   -0.021846981206310092   -0.0009703985341193391
-0.0025536944295838845   -0.02186396672714239   -0.0009482881198974323
-0.0023878884945622756   -0.01803147468783799   -0.000953704784109814
-0.002525881183358819   -0.021875293971659493   -0.0009366143082428927
-0.004360866705989537   -0.018058839764556772   -0.0009832537505774601
-0.0023716237396394666   -0.018048314527300324   -0.0009376872679463975
-0.002525881183358819   -0.021875293971659493   -0.0009366143082428927
-0.0023878884945622756   -0.01803147468783799   -0.000953704784109814
-0.004360866705989537   -0.018058839764556772   -0.0009832537505774601
-0.002525881183358819   -0.021875293971659493   -0.0009366143082428927
-0.004328567183366407   -0.021868920923342826   -0.0009757463925554226
-0.004354174795987631   -0.021846981206310092   -0.0009703985341193391
-0.004360866705989537   -0.018058839764556772   -0.0009832537505774601
-0.002525881183358819   -0.021875293971659493   -0.0009366143082428927
-0.004354174795987631   -0.021846981206310092   -0.0009703985341193391
-0.0023878884945622756   -0.01803147468783799   -0.000953704784109814
-0.004360866705989537   -0.018058839764556772   -0.0009832537505774601
-0.004328567183366407   -0.021868920923342826   -0.0009757463925554226
-0.0023716237396394666   -0.018048314527300324   -0.0009376872679463975
-0.004341990976108895   -0.018091673121252715   -0.000978369913301255
-0.004328567183366407   -0.021868920923342826   -0.0009757463925554226
-0.002525881183358819   -0.021875293971659493   -0.0009366143082428927
-0.0023716237396394666   -0.018048314527300324   -0.0009376872679463975
-0.002495990366674551   -0.021895718822778965   -0.0009289776169531689
-0.004341990976108895   -0.018091673121252715   -0.000978369913301255
-0.002353350546638017   -0.018068925703337776   -0.0009256955725837053
-0.002495990366674551   -0.021895718822778965   -0.0009289776169531689
-0.0023716237396394666   -0.018048314527300324   -0.0009376872679463975
-0.004341990976108895   -0.018091673121252715   -0.000978369913301255
-0.002495990366674551   -0.021895718822778965   -0.0009289776169531689
-0.004294026870010206   -0.021900338309199952   -0.0009851829084620248
-0.004328567183366407   -0.021868920923342826   -0.0009757463925554226
-0.004341990976108895   -0.018091673121252715   -0.000978369913301255
-0.002495990366674551   -0.021895718822778965   -0.0009289776169531689
-0.004328567183366407   -0.021868920923342826   -0.0009757463925554226
-0.0023716237396394666   -0.018048314527300324   -0.0009376872679463975
-0.004341990976108895   -0.018091673121252715   -0.000978369913301255
-0.004294026870010206   -0.021900338309199952   -0.0009851829084620248
-0.002353350546638017   -0.018068925703337776   -0.0009256955725837053
-0.0043177800431934655   -0.018130108220619445   -0.0009774250653281926
-0.004294026870010206   -0.021900338309199952   -0.0009851829084620248
-0.002495990366674551   -0.021895718822778965   -0.0009289776169531689
-0.002353350546638017   -0.018068925703337776   -0.0009256955725837053
-0.002465267644454061   -0.02192549205265121   -0.0009255812947038592
-0.0043177800431934655   -0.018130108220619445   -0.0009774250653281926
-0.002333700857064998   -0.018093372784014974   -0.0009178658119525385
-0.002465267644454061   -0.02192549205265121   -0.0009255812947038592
-0.002353350546638017   -0.018068925703337776   -0.0009256955725837053
-0.0043177800431934655   -0.018130108220619445   -0.0009774250653281926
-0.002465267644454061   -0.02192549205265121   -0.0009255812947038592
-0.004257024223577921   -0.021943158710290265   -0.0009988195458278267
-0.004294026870010206   -0.021900338309199952   -0.0009851829084620248
-0.0043177800431934655   -0.018130108220619445   -0.0009774250653281926
-0.002465267644454061   -0.02192549205265121   -0.0009255812947038592
-0.004294026870010206   -0.021900338309199952   -0.0009851829084620248
-0.002353350546638017   -0.018068925703337776   -0.0009256955725837053
-0.0023878884945622756   -0.01803147468783799   -0.000953704784109814
-0.0025536944295838845   -0.02186396672714239   -0.0009482881198974323
-0.0004585865781272493   -0.01802076214739003   -0.0009382970622718275
-0.0023716237396394666   -0.018048314527300324   -0.0009376872679463975
-0.0025536944295838845   -0.02186396672714239   -0.0009482881198974323
-0.0008074955203262943   -0.021850476405459656   -0.0009450239852081355
-0.0004585865781272493   -0.01802076214739003   -0.0009382970622718275
-0.0007767449287326511   -0.021850537427380044   -0.0009169123357817716
-0.0023716237396394666   -0.018048314527300324   -0.0009376872679463975
-0.0004394490773318508   -0.018024474274210965   -0.0009155168310111811
-0.0007767449287326511   -0.021850537427380044   -0.0009169123357817716
-0.0004585865781272493   -0.01802076214739003   -0.0009382970622718275
-0.0023716237396394666   -0.018048314527300324   -0.0009376872679463975
-0.0007767449287326511   -0.021850537427380044   -0.0009169123357817716
-0.002525881183358819   -0.021875293971659493   -0.0009366143082428927
-0.0025536944295838845   -0.02186396672714239   -0.0009482881198974323
-0.0023716237396394666   -0.018048314527300324   -0.0009376872679463975
-0.0007767449287326511   -0.021850537427380044   -0.0009169123357817716
-0.0025536944295838845   -0.02186396672714239   -0.0009482881198974323
-0.0004585865781272493   -0.01802076214739003   -0.0009382970622718275
-0.0023716237396394666   -0.018048314527300324   -0.0009376872679463975
-0.002525881183358819   -0.021875293971659493   -0.0009366143082428927
-0.0004394490773318508   -0.018024474274210965   -0.0009155168310111811
-0.002353350546638017   -0.018068925703337776   -0.0009256955725837053
-0.002525881183358819   -0.021875293971659493   -0.0009366143082428927
-0.0007767449287326511   -0.021850537427380044   -0.0009169123357817716
-0.0004394490773318508   -0.018024474274210965   -0.0009155168310111811
-0.0007467809535047917   -0.02185905177825632   -0.0008928517186562138
-0.002353350546638017   -0.018068925703337776   -0.0009256955725837053
-0.0004213096104897333   -0.01803167544135616   -0.0008967385427439007
-0.0007467809535047917   -0.02185905177825632   -0.0008928517186562138
-0.0004394490773318508   -0.018024474274210965   -0.0009155168310111811
-0.002353350546638017   -0.018068925703337776   -0.0009256955725837053
-0.0007467809535047917   -0.02185905177825632   -0.0008928517186562138
-0.002495990366674551   -0.021895718822778965   -0.0009289776169531689
-0.002525881183358819   -0.021875293971659493   -0.0009366143082428927
-0.002353350546638017   -0.018068925703337776   -0.0009256955725837053
-0.0007467809535047917   -0.02185905177825632   -0.0008928517186562138
-0.002525881183358819   -0.021875293971659493   -0.0009366143082428927
-0.0004394490773318508   -0.018024474274210965   -0.0009155168310111811
-0.002353350546638017   -0.018068925703337776   -0.0009256955725837053
-0.002495990366674551   -0.021895718822778965   -0.0009289776169531689
-0.0004213096104897333   -0.01803167544135616   -0.0008967385427439007
-0.002333700857064998   -0.018093372784014974   -0.0009178658119525385
-0.002495990366674551   -0.021895718822778965   -0.0009289776169531689
-0.0007467809535047917   -0.02185905177825632   -0.0008928517186562138
-0.0004213096104897333   -0.01803167544135616   -0.0008967385427439007
-0.0007199899212980166   -0.021876706698035354   -0.0008729811852239066
-0.002333700857064998   -0.018093372784014974   -0.0009178658119525385
-0.0004057892203939878   -0.01804252387277291   -0.0008820994703922913
-0.0007199899212980166   -0.021876706698035354   -0.0008729811852239066
-0.0004213096104897333   -0.01803167544135616   -0.0008967385427439007
-0.002333700857064998   -0.018093372784014974   -0.0009178658119525385
-0.0007199899212980166   -0.021876706698035354   -0.0008729811852239066
-0.002465267644454061   -0.02192549205265121   -0.0009255812947038592
-0.002495990366674551   -0.021895718822778965   -0.0009289776169531689
-0.002333700857064998   -0.018093372784014974   -0.0009178658119525385
-0.0007199899212980166   -0.021876706698035354   -0.0008729811852239066
-0.002495990366674551   -0.021895718822778965   -0.0009289776169531689
-0.0004213096104897333   -0.01803167544135616   -0.0008967385427439007
-0.0004585865781272493   -0.01802076214739003   -0.0009382970622718275
-0.0008074955203262943   -0.021850476405459656   -0.0009450239852081355
0.001528229015983889   -0.01799703705886324   -0.0009467133433644195
-0.0004394490773318508   -0.018024474274210965   -0.0009155168310111811
-0.0008074955203262943   -0.021850476405459656   -0.0009450239852081355
0.0009978411043236426   -0.021807310042281442   -0.0009620780810827406
0.001528229015983889   -0.01799703705886324   -0.0009467133433644195
0.0010354611937523084   -0.021795342430325656   -0.0009176631337937949
-0.0004394490773318508   -0.018024474274210965   -0.0009155168310111811
0.0015525363516894278   -0.017987556165509226   -0.0009172720460943341
0.0010354611937523084   -0.021795342430325656   -0.0009176631337937949
0.001528229015983889   -0.01799703705886324   -0.0009467133433644195
-0.0004394490773318508   -0.018024474274210965   -0.0009155168310111811
0.0010354611937523084   -0.021795342430325656   -0.0009176631337937949
-0.0007767449287326511   -0.021850537427380044   -0.0009169123357817716
-0.0008074955203262943   -0.021850476405459656   -0.0009450239852081355
-0.0004394490773318508   -0.018024474274210965   -0.0009155168310111811
0.0010354611937523084   -0.021795342430325656   -0.0009176631337937949
-0.0008074955203262943   -0.021850476405459656   -0.0009450239852081355
0.001528229015983889   -0.01799703705886324   -0.0009467133433644195
-0.0004394490773318508   -0.018024474274210965   -0.0009155168310111811
-0.0007767449287326511   -0.021850537427380044   -0.0009169123357817716
0.0015525363516894278   -0.017987556165509226   -0.0009172720460943341
-0.0004213096104897333   -0.01803167544135616   -0.0008967385427439007
-0.0007767449287326511   -0.021850537427380044   -0.0009169123357817716
0.0010354611937523084   -0.021795342430325656   -0.0009176631337937949
0.0015525363516894278   -0.017987556165509226   -0.0009172720460943341
0.0010741130470409   -0.0217930423735769   -0.0008775532959831116
-0.0004213096104897333   -0.01803167544135616   -0.0008967385427439007
0.0015751264806794709   -0.017982611984205532   -0.000891817788601622
0.0010741130470409   -0.0217930423735769   -0.0008775532959831116
0.0015525363516894278   -0.017987556165509226   -0.0009172720460943341
-0.0004213096104897333   -0.01803167544135616   -0.0008967385427439007
0.0010741130470409   -0.0217930423735769   -0.0008775532959831116
-0.0007467809535047917   -0.02185905177825632   -0.0008928517186562138
-0.0007767449287326511   -0.021850537427380044   -0.0009169123357817716
-0.0004213096104897333   -0.01803167544135616   -0.0008967385427439007
0.0010741130470409   -0.0217930423735769   -0.0008775532959831116
-0.0007767449287326511   -0.021850537427380044   -0.0009169123357817716
0.0015525363516894278   -0.017987556165509226   -0.0009172720460943341
-0.0004213096104897333   -0.01803167544135616   -0.0008967385427439007
-0.0007467809535047917   -0.02185905177825632   -0.0008928517186562138
0.0015751264806794709   -0.017982611984205532   -0.000891817788601622
-0.0004057892203939878   -0.01804252387277291   -0.0008820994703922913
-0.0007467809535047917   -0.02185905177825632   -0.0008928517186562138
0.0010741130470409   -0.0217930423735769   -0.0008775532959831116
0.0015751264806794709   -0.017982611984205532   -0.000891817788601622
0.0010999517929158994   -0.021798642191743888   -0.0008411791529058581
-0.0004057892203939878   -0.01804252387277291   -0.0008820994703922913
0.001587615247509339   -0.0179798891848301   -0.0008700902169731779
0.0010999517929158994   -0.021798642191743888   -0.0008411791529058581
0.0015751264806794709   -0.017982611984205532   -0.000891817788601622
-0.0004057892203939878   -0.01804252387277291   -0.0008820994703922913
0.0010999517929158994   -0.021798642191743888   -0.0008411791529058581
-0.0007199899212980166   -0.021876706698035354   -0.0008729811852239066
-0.0007467809535047917   -0.02185905177825632   -0.0008928517186562138
-0.0004057892203939878   -0.01804252387277291   -0.0008820994703922913
0.0010999517929158994   -0.021798642191743888   -0.0008411791529058581
-0.0007467809535047917   -0.02185905177825632   -0.0008928517186562138
0.0015751264806794709   -0.017982611984205532   -0.000891817788601622
0.001528229015983889   -0.01799703705886324   -0.0009467133433644195
0.0009978411043236426   -0.021807310042281442   -0.0009620780810827406
0.0036538279857351815   -0.017957011879247108   -0.0009803225866960733
0.0015525363516894278   -0.017987556165509226   -0.0009172720460943341
0.0009978411043236426   -0.021807310042281442   -0.0009620780810827406
0.0029160036394434135   -0.02173303299456228   -0.001005379850734909
0.0036538279857351815   -0.017957011879247108   -0.0009803225866960733
0.003016178664394087   -0.021708540763549188   -0.0009406361054291639
0.0015525363516894278   -0.017987556165509226   -0.0009172720460943341
0.0037166539671410863   -0.01793553507305233   -0.0009414977674240882
0.003016178664394087   -0.021708540763549188   -0.0009406361054291639
0.0036538279857351815   -0.017957011879247108   -0.0009803225866960733
0.0015525363516894278   -0.017987556165509226   -0.0009172720460943341
0.003016178664394087   -0.021708540763549188   -0.0009406361054291639
0.0010354611937523084   -0.021795342430325656   -0.0009176631337937949
0.0009978411043236426   -0.021807310042281442   -0.0009620780810827406
0.0015525363516894278   -0.017987556165509226   -0.0009172720460943341
0.003016178664394087   -0.021708540763549188   -0.0009406361054291639
0.0009978411043236426   -0.021807310042281442   -0.0009620780810827406
0.0036538279857351815   -0.017957011879247108   -0.0009803225866960733
0.0015525363516894278   -0.017987556165509226   -0.0009172720460943341
0.0010354611937523084   -0.021795342430325656   -0.0009176631337937949
0.0037166539671410863   -0.01793553507305233   -0.0009414977674240882
0.0015751264806794709   -0.017982611984205532   -0.000891817788601622
0.0010354611937523084   -0.021795342430325656   -0.0009176631337937949
0.003016178664394087   -0.021708540763549188   -0.0009406361054291639
0.0037166539671410863   -0.01793553507305233   -0.0009414977674240882
0.0030905279846251688   -0.021701741046806274   -0.0008816291130439663
0.0015751264806794709   -0.017982611984205532   -0.000891817788601622
0.0037601390345122832   -0.017925101519931673   -0.0009083640939190768
0.0030905279846251688   -0.021701741046806274   -0.0008816291130439663
0.0037166539671410863   -0.01793553507305233   -0.0009414977674240882
0.0015751264806794709   -0.017982611984205532   -0.000891817788601622
0.0030905279846251688   -0.021701741046806274   -0.0008816291130439663
0.0010741130470409   -0.0217930423735769   -0.0008775532959831116
0.0010354611937523084   -0.021795342430325656   -0.0009176631337937949
0.0015751264806794709   -0.017982611984205532   -0.000891817788601622
0.0030905279846251688   -0.021701741046806274   -0.0008816291130439663
0.0010354611937523084   -0.021795342430325656   -0.0009176631337937949
0.0037166539671410863   -0.01793553507305233   -0.0009414977674240882
0.0015751264806794709   -0.017982611984205532   -0.000891817788601622
0.0010741130470409   -0.0217930423735769   -0.0008775532959831116
0.0037601390345122832   -0.017925101519931673   -0.0009083640939190768
0.001587615247509339   -0.0179798891848301   -0.0008700902169731779
0.0010741130470409   -0.0217930423735769   -0.0008775532959831116
0.0030905279846251688   -0.021701741046806274   -0.0008816291130439663
0.0037601390345122832   -0.017925101519931673   -0.0009083640939190768
0.0031662139876263767   -0.02170174009688804   -0.0008286287574864857
0.001587615247509339   -0.0179798891848301   -0.0008700902169731779
0.003799166257970669   -0.017913970471868657   -0.0008811610562331235
0.0031662139876263767   -0.02170174009688804   -0.0008286287574864857
0.0037601390345122832   -0.017925101519931673   -0.0009083640939190768
0.001587615247509339   -0.0179798891848301   -0.0008700902169731779
0.0031662139876263767   -0.02170174009688804   -0.0008286287574864857
0.0010999517929158994   -0.021798642191743888   -0.0008411791529058581
0.0010741130470409   -0.0217930423735769   -0.0008775532959831116
0.001587615247509339   -0.0179798891848301   -0.0008700902169731779
0.0031662139876263767   -0.02170174009688804   -0.0008286287574864857
0.0010741130470409   -0.0217930423735769   -0.0008775532959831116
0.0037601390345122832   -0.017925101519931673   -0.0009083640939190768
-0.006361082069233516   -0.021803477508016617   -0.001005031793995874
-0.005806445419693828   -0.025146521524693783   -0.0009380447603080903
-0.004354174795987631   -0.021846981206310092   -0.0009703985341193391
-0.006314808070405085   -0.021833114731796513   -0.0010304065702972276
-0.005806445419693828   -0.025146521524693783   -0.0009380447603080903
-0.004118842803502275   -0.025224519521322587   -0.0009326321345771957
-0.004354174795987631   -0.021846981206310092   -0.0009703985341193391
-0.004077107657605328   -0.02523576889021598   -0.0009511454652410921
-0.006314808070405085   -0.021833114731796513   -0.0010304065702972276
-0.004328567183366407   -0.021868920923342826   -0.0009757463925554226
-0.004077107657605328   -0.02523576889021598   -0.0009511454652410921
-0.004354174795987631   -0.021846981206310092   -0.0009703985341193391
-0.006314808070405085   -0.021833114731796513   -0.0010304065702972276
-0.004077107657605328   -0.02523576889021598   -0.0009511454652410921
-0.005719154537691111   -0.025163175633745084   -0.0009900406127178816
-0.005806445419693828   -0.025146521524693783   -0.0009380447603080903
-0.006314808070405085   -0.021833114731796513   -0.0010304065702972276
-0.004077107657605328   -0.02523576889021598   -0.0009511454652410921
-0.005806445419693828   -0.025146521524693783   -0.0009380447603080903
-0.004354174795987631   -0.021846981206310092   -0.0009703985341193391
-0.006314808070405085   -0.021833114731796513   -0.0010304065702972276
-0.005719154537691111   -0.025163175633745084   -0.0009900406127178816
-0.004328567183366407   -0.021868920923342826   -0.0009757463925554226
-0.006262265976543945   -0.021869717982075463   -0.001062206820560105
-0.005719154537691111   -0.025163175633745084   -0.0009900406127178816
-0.004077107657605328   -0.02523576889021598   -0.0009511454652410921
-0.004328567183366407   -0.021868920923342826   -0.0009757463925554226
-0.0040246719467781555   -0.025262881778255777   -0.0009737818660384709
-0.006262265976543945   -0.021869717982075463   -0.001062206820560105
-0.004294026870010206   -0.021900338309199952   -0.0009851829084620248
-0.0040246719467781555   -0.025262881778255777   -0.0009737818660384709
-0.004328567183366407   -0.021868920923342826   -0.0009757463925554226
-0.006262265976543945   -0.021869717982075463   -0.001062206820560105
-0.0040246719467781555   -0.025262881778255777   -0.0009737818660384709
-0.0056322754426574575   -0.02519500163668198   -0.001048747653038147
-0.005719154537691111   -0.025163175633745084   -0.0009900406127178816
-0.006262265976543945   -0.021869717982075463   -0.001062206820560105
-0.0040246719467781555   -0.025262881778255777   -0.0009737818660384709
-0.005719154537691111   -0.025163175633745084   -0.0009900406127178816
-0.004328567183366407   -0.021868920923342826   -0.0009757463925554226
-0.006262265976543945   -0.021869717982075463   -0.001062206820560105
-0.0056322754426574575   -0.02519500163668198   -0.001048747653038147
-0.004294026870010206   -0.021900338309199952   -0.0009851829084620248
-0.0061909196959207945   -0.021925552687762508   -0.0011005651739310666
-0.0056322754426574575   -0.02519500163668198   -0.001048747653038147
-0.0040246719467781555   -0.025262881778255777   -0.0009737818660384709
-0.004294026870010206   -0.021900338309199952   -0.0009851829084620248
-0.003972970808377749   -0.02530740144388146   -0.00100050205385774
-0.0061909196959207945   -0.021925552687762508   -0.0011005651739310666
-0.004257024223577921   -0.021943158710290265   -0.0009988195458278267
-0.003972970808377749   -0.02530740144388146   -0.00100050205385774
-0.004294026870010206   -0.021900338309199952   -0.0009851829084620248
-0.0061909196959207945   -0.021925552687762508   -0.0011005651739310666
-0.003972970808377749   -0.02530740144388146   -0.00100050205385774
-0.0055210430781056806   -0.02525434943557009   -0.0011140572481474
-0.0056322754426574575   -0.02519500163668198   -0.001048747653038147
-0.0061909196959207945   -0.021925552687762508   -0.0011005651739310666
-0.003972970808377749   -0.02530740144388146   -0.00100050205385774
-0.0056322754426574575   -0.02519500163668198   -0.001048747653038147
-0.004294026870010206   -0.021900338309199952   -0.0009851829084620248
-0.004354174795987631   -0.021846981206310092   -0.0009703985341193391
-0.004118842803502275   -0.025224519521322587   -0.0009326321345771957
-0.0025536944295838845   -0.02186396672714239   -0.0009482881198974323
-0.004328567183366407   -0.021868920923342826   -0.0009757463925554226
-0.004118842803502275   -0.025224519521322587   -0.0009326321345771957
-0.002655245979533963   -0.0252606920452881   -0.0009305953635968973
-0.0025536944295838845   -0.02186396672714239   -0.0009482881198974323
-0.002612494292658197   -0.025264324767014706   -0.0009222215223707971
-0.004328567183366407   -0.021868920923342826   -0.0009757463925554226
-0.002525881183358819   -0.021875293971659493   -0.0009366143082428927
-0.002612494292658197   -0.025264324767014706   -0.0009222215223707971
-0.0025536944295838845   -0.02186396672714239   -0.0009482881198974323
-0.004328567183366407   -0.021868920923342826   -0.0009757463925554226
-0.002612494292658197   -0.025264324767014706   -0.0009222215223707971
-0.004077107657605328   -0.02523576889021598   -0.0009511454652410921
-0.004118842803502275   -0.025224519521322587   -0.0009326321345771957
-0.004328567183366407   -0.021868920923342826   -0.0009757463925554226
-0.002612494292658197   -0.025264324767014706   -0.0009222215223707971
-0.004118842803502275   -0.025224519521322587   -0.0009326321345771957
-0.0025536944295838845   -0.02186396672714239   -0.0009482881198974323
-0.004328567183366407   -0.021868920923342826   -0.0009757463925554226
-0.004077107657605328   -0.02523576889021598   -0.0009511454652410921
-0.002525881183358819   -0.021875293971659493   -0.0009366143082428927
-0.004294026870010206   -0.021900338309199952   -0.0009851829084620248
-0.004077107657605328   -0.02523576889021598   -0.0009511454652410921
-0.002612494292658197   -0.025264324767014706   -0.0009222215223707971
-0.002525881183358819   -0.021875293971659493   -0.0009366143082428927
-0.002568342776034132   -0.025282137570884256   -0.000917848296522837
-0.004294026870010206   -0.021900338309199952   -0.0009851829084620248
-0.002495990366674551   -0.021895718822778965   -0.0009289776169531689
-0.002568342776034132   -0.025282137570884256   -0.000917848296522837
-0.002525881183358819   -0.021875293971659493   -0.0009366143082428927
-0.004294026870010206   -0.021900338309199952   -0.0009851829084620248
-0.002568342776034132   -0.025282137570884256   -0.000917848296522837
-0.0040246719467781555   -0.025262881778255777   -0.0009737818660384709
-0.004077107657605328   -0.02523576889021598   -0.0009511454652410921
-0.004294026870010206   -0.021900338309199952   -0.0009851829084620248
-0.002568342776034132   -0.025282137570884256   -0.000917848296522837
-0.004077107657605328   -0.02523576889021598   -0.0009511454652410921
-0.002525881183358819   -0.021875293971659493   -0.0009366143082428927
-0.004294026870010206   -0.021900338309199952   -0.0009851829084620248
-0.0040246719467781555   -0.025262881778255777   -0.0009737818660384709
-0.002495990366674551   -0.021895718822778965   -0.0009289776169531689
-0.004257024223577921   -0.021943158710290265   -0.0009988195458278267
-0.0040246719467781555   -0.025262881778255777   -0.0009737818660384709
-0.002568342776034132   -0.025282137570884256   -0.000917848296522837
-0.002495990366674551   -0.021895718822778965   -0.0009289776169531689
-0.0025242492283065435   -0.025314932026153505   -0.0009174353488822648
-0.004257024223577921   -0.021943158710290265   -0.0009988195458278267
-0.002465267644454061   -0.02192549205265121   -0.0009255812947038592
-0.0025242492283065435   -0.025314932026153505   -0.0009174353488822648
-0.002495990366674551   -0.021895718822778965   -0.0009289776169531689
-0.004257024223577921   -0.021943158710290265   -0.0009988195458278267
-0.0025242492283065435   -0.025314932026153505   -0.0009174353488822648
-0.003972970808377749   -0.02530740144388146   -0.00100050205385774
-0.0040246719467781555   -0.025262881778255777   -0.0009737818660384709
-0.004257024223577921   -0.021943158710290265   -0.0009988195458278267
-0.0025242492283065435   -0.025314932026153505   -0.0009174353488822648
-0.0040246719467781555   -0.025262881778255777   -0.0009737818660384709
-0.002495990366674551   -0.021895718822778965   -0.0009289776169531689
-0.0025536944295838845   -0.02186396672714239   -0.0009482881198974323
-0.002655245979533963   -0.0252606920452881   -0.0009305953635968973
-0.0008074955203262943   -0.021850476405459656   -0.0009450239852081355
-0.002525881183358819   -0.021875293971659493   -0.0009366143082428927
-0.002655245979533963   -0.0252606920452881   -0.0009305953635968973
-0.0012399922606334305   -0.02525340791165294   -0.0009413809884902592
-0.0008074955203262943   -0.021850476405459656   -0.0009450239852081355
-0.0011931714133770956   -0.02524845930797848   -0.0009070559811264385
-0.002525881183358819   -0.021875293971659493   -0.0009366143082428927
-0.0007767449287326511   -0.021850537427380044   -0.0009169123357817716
-0.0011931714133770956   -0.02524845930797848   -0.0009070559811264385
-0.0008074955203262943   -0.021850476405459656   -0.0009450239852081355
-0.002525881183358819   -0.021875293971659493   -0.0009366143082428927
-0.0011931714133770956   -0.02524845930797848   -0.0009070559811264385
-0.002612494292658197   -0.025264324767014706   -0.0009222215223707971
-0.002655245979533963   -0.0252606920452881   -0.0009305953635968973
-0.002525881183358819   -0.021875293971659493   -0.0009366143082428927
-0.0011931714133770956   -0.02524845930797848   -0.0009070559811264385
-0.002655245979533963   -0.0252606920452881   -0.0009305953635968973
-0.0008074955203262943   -0.021850476405459656   -0.0009450239852081355
-0.002525881183358819   -0.021875293971659493   -0.0009366143082428927
-0.002612494292658197   -0.025264324767014706   -0.0009222215223707971
-0.0007767449287326511   -0.021850537427380044   -0.0009169123357817716
-0.002495990366674551   -0.021895718822778965   -0.0009289776169531689
-0.002612494292658197   -0.025264324767014706   -0.0009222215223707971
-0.0011931714133770956   -0.02524845930797848   -0.0009070559811264385
-0.0007767449287326511   -0.021850537427380044   -0.0009169123357817716
-0.001147691885713465   -0.025256373752138333   -0.0008769970058806522
-0.002495990366674551   -0.021895718822778965   -0.0009289776169531689
-0.0007467809535047917   -0.02185905177825632   -0.0008928517186562138
-0.001147691885713465   -0.025256373752138333   -0.0008769970058806522
-0.0007767449287326511   -0.021850537427380044   -0.0009169123357817716
-0.002495990366674551   -0.021895718822778965   -0.0009289776169531689
-0.001147691885713465   -0.025256373752138333   -0.0008769970058806522
-0.002568342776034132   -0.025282137570884256   -0.000917848296522837
-0.002612494292658197   -0.025264324767014706   -0.0009222215223707971
-0.002495990366674551   -0.021895718822778965   -0.0009289776169531689
-0.001147691885713465   -0.025256373752138333   -0.0008769970058806522
-0.002612494292658197   -0.025264324767014706   -0.0009222215223707971
-0.0007767449287326511   -0.021850537427380044   -0.0009169123357817716
-0.002495990366674551   -0.021895718822778965   -0.0009289776169531689
-0.002568342776034132   -0.025282137570884256   -0.000917848296522837
-0.0007467809535047917   -0.02185905177825632   -0.0008928517186562138
-0.002465267644454061   -0.02192549205265121   -0.0009255812947038592
-0.002568342776034132   -0.025282137570884256   -0.000917848296522837
-0.001147691885713465   -0.025256373752138333   -0.0008769970058806522
-0.0007467809535047917   -0.02185905177825632   -0.0008928517186562138
-0.0011065663059820706   -0.025278945963100277   -0.000850840396702567
-0.002465267644454061   -0.02192549205265121   -0.0009255812947038592
-0.0007199899212980166   -0.021876706698035354   -0.0008729811852239066
-0.0011065663059820706   -0.025278945963100277   -0.000850840396702567
-0.0007467809535047917   -0.02185905177825632   -0.0008928517186562138
-0.002465267644454061   -0.02192549205265121   -0.0009255812947038592
-0.0011065663059820706   -0.025278945963100277   -0.000850840396702567
-0.0025242492283065435   -0.025314932026153505   -0.0009174353488822648
-0.002568342776034132   -0.025282137570884256   -0.000917848296522837
-0.002465267644454061   -0.02192549205265121   -0.0009255812947038592
-0.0011065663059820706   -0.025278945963100277   -0.000850840396702567
-0.002568342776034132   -0.025282137570884256   -0.000917848296522837
-0.0007467809535047917   -0.02185905177825632   -0.0008928517186562138
-0.0008074955203262943   -0.021850476405459656   -0.0009450239852081355
-0.0012399922606334305   -0.02525340791165294   -0.0009413809884902592
0.0009978411043236426   -0.021807310042281442   -0.0009620780810827406
-0.0007767449287326511   -0.021850537427380044   -0.0009169123357817716
-0.0012399922606334305   -0.02525340791165294   -0.0009413809884902592
0.00023985575955350042   -0.025201098142792193   -0.0009672448575033395
0.0009978411043236426   -0.021807310042281442   -0.0009620780810827406
0.0002968881221836708   -0.02518530106294122   -0.0009070364465590035
-0.0007767449287326511   -0.021850537427380044   -0.0009169123357817716
0.0010354611937523084   -0.021795342430325656   -0.0009176631337937949
0.0002968881221836708   -0.02518530106294122   -0.0009070364465590035
0.0009978411043236426   -0.021807310042281442   -0.0009620780810827406
-0.0007767449287326511   -0.021850537427380044   -0.0009169123357817716
0.0002968881221836708   -0.02518530106294122   -0.0009070364465590035
-0.0011931714133770956   -0.02524845930797848   -0.0009070559811264385
-0.0012399922606334305   -0.02525340791165294   -0.0009413809884902592
-0.0007767449287326511   -0.021850537427380044   -0.0009169123357817716
0.0002968881221836708   -0.02518530106294122   -0.0009070364465590035
-0.0012399922606334305   -0.02525340791165294   -0.0009413809884902592
0.0009978411043236426   -0.021807310042281442   -0.0009620780810827406
-0.0007767449287326511   -0.021850537427380044   -0.0009169123357817716
-0.0011931714133770956   -0.02524845930797848   -0.0009070559811264385
0.0010354611937523084   -0.021795342430325656   -0.0009176631337937949
-0.0007467809535047917   -0.02185905177825632   -0.0008928517186562138
-0.0011931714133770956   -0.02524845930797848   -0.0009070559811264385
0.0002968881221836708   -0.02518530106294122   -0.0009070364465590035
0.0010354611937523084   -0.021795342430325656   -0.0009176631337937949
0.00035711449810674954   -0.02518388022576327   -0.000852225655621626
-0.0007467809535047917   -0.02185905177825632   -0.0008928517186562138
0.0010741130470409   -0.0217930423735769   -0.0008775532959831116
0.00035711449810674954   -0.02518388022576327   -0.000852225655621626
0.0010354611937523084   -0.021795342430325656   -0.0009176631337937949
-0.0007467809535047917   -0.02185905177825632   -0.0008928517186562138
0.00035711449810674954   -0.02518388022576327   -0.000852225655621626
-0.001147691885713465   -0.025256373752138333   -0.0008769970058806522
-0.0011931714133770956   -0.02524845930797848   -0.0009070559811264385
-0.0007467809535047917   -0.02185905177825632   -0.0008928517186562138
0.00035711449810674954   -0.02518388022576327   -0.000852225655621626
-0.0011931714133770956   -0.02524845930797848   -0.0009070559811264385
0.0010354611937523084   -0.021795342430325656   -0.0009176631337937949
-0.0007467809535047917   -0.02185905177825632   -0.0008928517186562138
-0.001147691885713465   -0.025256373752138333   -0.0008769970058806522
0.0010741130470409   -0.0217930423735769   -0.0008775532959831116
-0.0007199899212980166   -0.021876706698035354   -0.0008729811852239066
-0.001147691885713465   -0.025256373752138333   -0.0008769970058806522
0.00035711449810674954   -0.02518388022576327   -0.000852225655621626
0.0010741130470409   -0.0217930423735769   -0.0008775532959831116
0.0004011589799764977   -0.025196163607017073   -0.0008011266813588555
-0.0007199899212980166   -0.021876706698035354   -0.0008729811852239066
0.0010999517929158994   -0.021798642191743888   -0.0008411791529058581
0.0004011589799764977   -0.025196163607017073   -0.0008011266813588555
0.0010741130470409   -0.0217930423735769   -0.0008775532959831116
-0.0007199899212980166   -0.021876706698035354   -0.0008729811852239066
0.0004011589799764977   -0.025196163607017073   -0.0008011266813588555
-0.0011065663059820706   -0.025278945963100277   -0.000850840396702567
-0.001147691885713465   -0.025256373752138333   -0.0008769970058806522
-0.0007199899212980166   -0.021876706698035354   -0.0008729811852239066
0.0004011589799764977   -0.025196163607017073   -0.0008011266813588555
-0.001147691885713465   -0.025256373752138333   -0.0008769970058806522
0.0010741130470409   -0.0217930423735769   -0.0008775532959831116
0.0009978411043236426   -0.021807310042281442   -0.0009620780810827406
0.00023985575955350042   -0.025201098142792193   -0.0009672448575033395
0.0029160036394434135   -0.02173303299456228   -0.001005379850734909
0.0010354611937523084   -0.021795342430325656   -0.0009176631337937949
0.00023985575955350042   -0.025201098142792193   -0.0009672448575033395
0.001814253094762408   -0.025098855283335463   -0.001021950985114487
0.0029160036394434135   -0.02173303299456228   -0.001005379850734909
0.0019596722477547364   -0.02506863678988154   -0.0009297481953703964
0.0010354611937523084   -0.021795342430325656   -0.0009176631337937949
0.003016178664394087   -0.021708540763549188   -0.0009406361054291639
0.0019596722477547364   -0.02506863678988154   -0.0009297481953703964
0.0029160036394434135   -0.02173303299456228   -0.001005379850734909
0.0010354611937523084   -0.021795342430325656   -0.0009176631337937949
0.0019596722477547364   -0.02506863678988154   -0.0009297481953703964
0.0002968881221836708   -0.02518530106294122   -0.0009070364465590035
0.00023985575955350042   -0.025201098142792193   -0.0009672448575033395
0.0010354611937523084   -0.021795342430325656   -0.0009176631337937949
0.0019596722477547364   -0.02506863678988154   -0.0009297481953703964
0.00023985575955350042   -0.025201098142792193   -0.0009672448575033395
0.0029160036394434135   -0.02173303299456228   -0.001005379850734909
0.0010354611937523084   -0.021795342430325656   -0.0009176631337937949
0.0002968881221836708   -0.02518530106294122   -0.0009070364465590035
0.003016178664394087   -0.021708540763549188   -0.0009406361054291639
0.0010741130470409   -0.0217930423735769   -0.0008775532959831116
0.0002968881221836708   -0.02518530106294122   -0.0009070364465590035
0.0019596722477547364   -0.02506863678988154   -0.0009297481953703964
0.003016178664394087   -0.021708540763549188   -0.0009406361054291639
0.002071239385383811   -0.025063400487679972   -0.0008442429727699205
0.0010741130470409   -0.0217930423735769   -0.0008775532959831116
0.0030905279846251688   -0.021701741046806274   -0.0008816291130439663
0.002071239385383811   -0.025063400487679972   -0.0008442429727699205
0.003016178664394087   -0.021708540763549188   -0.0009406361054291639
0.0010741130470409   -0.0217930423735769   -0.0008775532959831116
0.002071239385383811   -0.025063400487679972   -0.0008442429727699205
0.00035711449810674954   -0.02518388022576327   -0.000852225655621626
0.0002968881221836708   -0.02518530106294122   -0.0009070364465590035
0.0010741130470409   -0.0217930423735769   -0.0008775532959831116
0.002071239385383811   -0.025063400487679972   -0.0008442429727699205
0.0002968881221836708   -0.02518530106294122   -0.0009070364465590035
0.003016178664394087   -0.021708540763549188   -0.0009406361054291639
0.0010741130470409   -0.0217930423735769   -0.0008775532959831116
0.00035711449810674954   -0.02518388022576327   -0.000852225655621626
0.0030905279846251688   -0.021701741046806274   -0.0008816291130439663
0.0010999517929158994   -0.021798642191743888   -0.0008411791529058581
0.00035711449810674954   -0.02518388022576327   -0.000852225655621626
0.002071239385383811   -0.025063400487679972   -0.0008442429727699205
0.0030905279846251688   -0.021701741046806274   -0.0008816291130439663
0.0021872432972584207   -0.025072516100940412   -0.0007661264466286576
0.0010999517929158994   -0.021798642191743888   -0.0008411791529058581
0.0031662139876263767   -0.02170174009688804   -0.0008286287574864857
0.0021872432972584207   -0.025072516100940412   -0.0007661264466286576
0.0030905279846251688   -0.021701741046806274   -0.0008816291130439663
0.0010999517929158994   -0.021798642191743888   -0.0008411791529058581
0.0021872432972584207   -0.025072516100940412   -0.0007661264466286576
0.0004011589799764977   -0.025196163607017073   -0.0008011266813588555
0.00035711449810674954   -0.02518388022576327   -0.000852225655621626
0.0010999517929158994   -0.021798642191743888   -0.0008411791529058581
0.0021872432972584207   -0.025072516100940412   -0.0007661264466286576
0.00035711449810674954   -0.02518388022576327   -0.000852225655621626
0.0030905279846251688   -0.021701741046806274   -0.0008816291130439663
-0.005806445419693828   -0.025146521524693783   -0.0009380447603080903
-0.004871710927151668   -0.027767968106384076   -0.0008517665889604577
-0.004118842803502275   -0.025224519521322587   -0.0009326321345771957
-0.005719154537691111   -0.025163175633745084   -0.0009900406127178816
-0.004871710927151668   -0.027767968106384076   -0.0008517665889604577
-0.0036697026461421332   -0.02788292414408095   -0.0008861326245027715
-0.004118842803502275   -0.025224519521322587   -0.0009326321345771957
-0.0036101306567016367   -0.02787718800732073   -0.0009145944322225495
-0.005719154537691111   -0.025163175633745084   -0.0009900406127178816
-0.004077107657605328   -0.02523576889021598   -0.0009511454652410921
-0.0036101306567016367   -0.02787718800732073   -0.0009145944322225495
-0.004118842803502275   -0.025224519521322587   -0.0009326321345771957
-0.005719154537691111   -0.025163175633745084   -0.0009900406127178816
-0.0036101306567016367   -0.02787718800732073   -0.0009145944322225495
-0.004742487248539788   -0.02776485343307535   -0.0009284716069164331
-0.004871710927151668   -0.027767968106384076   -0.0008517665889604577
-0.005719154537691111   -0.025163175633745084   -0.0009900406127178816
-0.0036101306567016367   -0.02787718800732073   -0.0009145944322225495
-0.004871710927151668   -0.027767968106384076   -0.0008517665889604577
-0.004118842803502275   -0.025224519521322587   -0.0009326321345771957
-0.005719154537691111   -0.025163175633745084   -0.0009900406127178816
-0.004742487248539788   -0.02776485343307535   -0.0009284716069164331
-0.004077107657605328   -0.02523576889021598   -0.0009511454652410921
-0.0056322754426574575   -0.02519500163668198   -0.001048747653038147
-0.004742487248539788   -0.02776485343307535   -0.0009284716069164331
-0.0036101306567016367   -0.02787718800732073   -0.0009145944322225495
-0.004077107657605328   -0.02523576889021598   -0.0009511454652410921
-0.0035399369234156057   -0.027894059208903737   -0.0009472447764968086
-0.0056322754426574575   -0.02519500163668198   -0.001048747653038147
-0.0040246719467781555   -0.025262881778255777   -0.0009737818660384709
-0.0035399369234156057   -0.027894059208903737   -0.0009472447764968086
-0.004077107657605328   -0.02523576889021598   -0.0009511454652410921
-0.0056322754426574575   -0.02519500163668198   -0.001048747653038147
-0.0035399369234156057   -0.027894059208903737   -0.0009472447764968086
-0.004623501704599237   -0.027785645839768922   -0.0010110850512890306
-0.004742487248539788   -0.02776485343307535   -0.0009284716069164331
-0.0056322754426574575   -0.02519500163668198   -0.001048747653038147
-0.0035399369234156057   -0.027894059208903737   -0.0009472447764968086
-0.004742487248539788   -0.02776485343307535   -0.0009284716069164331
-0.004077107657605328   -0.02523576889021598   -0.0009511454652410921
-0.0056322754426574575   -0.02519500163668198   -0.001048747653038147
-0.004623501704599237   -0.027785645839768922   -0.0010110850512890306
-0.0040246719467781555   -0.025262881778255777   -0.0009737818660384709
-0.0055210430781056806   -0.02525434943557009   -0.0011140572481474
-0.004623501704599237   -0.027785645839768922   -0.0010110850512890306
-0.0035399369234156057   -0.027894059208903737   -0.0009472447764968086
-0.0040246719467781555   -0.025262881778255777   -0.0009737818660384709
-0.0034762644890532425   -0.027933941531813996   -0.0009838184142553323
-0.0055210430781056806   -0.02525434943557009   -0.0011140572481474
-0.003972970808377749   -0.02530740144388146   -0.00100050205385774
-0.0034762644890532425   -0.027933941531813996   -0.0009838184142553323
-0.0040246719467781555   -0.025262881778255777   -0.0009737818660384709
-0.0055210430781056806   -0.02525434943557009   -0.0011140572481474
-0.0034762644890532425   -0.027933941531813996   -0.0009838184142553323
-0.004478289228718751   -0.027840745549009276   -0.001099273537675521
-0.004623501704599237   -0.027785645839768922   -0.0010110850512890306
-0.0055210430781056806   -0.02525434943557009   -0.0011140572481474
-0.0034762644890532425   -0.027933941531813996   -0.0009838184142553323
-0.004623501704599237   -0.027785645839768922   -0.0010110850512890306
-0.0040246719467781555   -0.025262881778255777   -0.0009737818660384709
-0.004118842803502275   -0.025224519521322587   -0.0009326321345771957
-0.0036697026461421332   -0.02788292414408095   -0.0008861326245027715
-0.002655245979533963   -0.0252606920452881   -0.0009305953635968973
-0.004077107657605328   -0.02523576889021598   -0.0009511454652410921
-0.0036697026461421332   -0.02788292414408095   -0.0008861326245027715
-0.0026847982220434973   -0.02795656664556385   -0.0009130573056687371
-0.002655245979533963   -0.0252606920452881   -0.0009305953635968973
-0.0026237888041496468   -0.027947186044193825   -0.0009043726329187982
-0.004077107657605328   -0.02523576889021598   -0.0009511454652410921
-0.002612494292658197   -0.025264324767014706   -0.0009222215223707971
-0.0026237888041496468   -0.027947186044193825   -0.0009043726329187982
-0.002655245979533963   -0.0252606920452881   -0.0009305953635968973
-0.004077107657605328   -0.02523576889021598   -0.0009511454652410921
-0.0026237888041496468   -0.027947186044193825   -0.0009043726329187982
-0.0036101306567016367   -0.02787718800732073   -0.0009145944322225495
-0.0036697026461421332   -0.02788292414408095   -0.0008861326245027715
-0.004077107657605328   -0.02523576889021598   -0.0009511454652410921
-0.0026237888041496468   -0.027947186044193825   -0.0009043726329187982
-0.0036697026461421332   -0.02788292414408095   -0.0008861326245027715
-0.002655245979533963   -0.0252606920452881   -0.0009305953635968973
-0.004077107657605328   -0.02523576889021598   -0.0009511454652410921
-0.0036101306567016367   -0.02787718800732073   -0.0009145944322225495
-0.002612494292658197   -0.025264324767014706   -0.0009222215223707971
-0.0040246719467781555   -0.025262881778255777   -0.0009737818660384709
-0.0036101306567016367   -0.02787718800732073   -0.0009145944322225495
-0.0026237888041496468   -0.027947186044193825   -0.0009043726329187982
-0.002612494292658197   -0.025264324767014706   -0.0009222215223707971
-0.002563564039325794   -0.02795735930812323   -0.0008997649048136414
-0.0040246719467781555   -0.025262881778255777   -0.0009737818660384709
-0.002568342776034132   -0.025282137570884256   -0.000917848296522837
-0.002563564039325794   -0.02795735930812323   -0.0008997649048136414
-0.002612494292658197   -0.025264324767014706   -0.0009222215223707971
-0.0040246719467781555   -0.025262881778255777   -0.0009737818660384709
-0.002563564039325794   -0.02795735930812323   -0.0008997649048136414
-0.0035399369234156057   -0.027894059208903737   -0.0009472447764968086
-0.0036101306567016367   -0.02787718800732073   -0.0009145944322225495
-0.0040246719467781555   -0.025262881778255777   -0.0009737818660384709
-0.002563564039325794   -0.02795735930812323   -0.0008997649048136414
-0.0036101306567016367   -0.02787718800732073   -0.0009145944322225495
-0.002612494292658197   -0.025264324767014706   -0.0009222215223707971
-0.0040246719467781555   -0.025262881778255777   -0.0009737818660384709
-0.0035399369234156057   -0.027894059208903737   -0.0009472447764968086
-0.002568342776034132   -0.025282137570884256   -0.000917848296522837
-0.003972970808377749   -0.02530740144388146   -0.00100050205385774
-0.0035399369234156057   -0.027894059208903737   -0.0009472447764968086
-0.002563564039325794   -0.02795735930812323   -0.0008997649048136414
-0.002568342776034132   -0.025282137570884256   -0.000917848296522837
-0.002508071523801994   -0.02798770520102892   -0.0009000752006337762
-0.003972970808377749   -0.02530740144388146   -0.00100050205385774
-0.0025242492283065435   -0.025314932026153505   -0.0009174353488822648
-0.002508071523801994   -0.02798770520102892   -0.0009000752006337762
-0.002568342776034132   -0.025282137570884256   -0.000917848296522837
-0.003972970808377749   -0.02530740144388146   -0.00100050205385774
-0.002508071523801994   -0.02798770520102892   -0.0009000752006337762
-0.0034762644890532425   -0.027933941531813996   -0.0009838184142553323
-0.0035399369234156057   -0.027894059208903737   -0.0009472447764968086
-0.003972970808377749   -0.02530740144388146   -0.00100050205385774
-0.002508071523801994   -0.02798770520102892   -0.0009000752006337762
-0.0035399369234156057   -0.027894059208903737   -0.0009472447764968086
-0.002568342776034132   -0.025282137570884256   -0.000917848296522837
-0.002655245979533963   -0.0252606920452881   -0.0009305953635968973
-0.0026847982220434973   -0.02795656664556385   -0.0009130573056687371
-0.0012399922606334305   -0.02525340791165294   -0.0009413809884902592
-0.002612494292658197   -0.025264324767014706   -0.0009222215223707971
-0.0026847982220434973   -0.02795656664556385   -0.0009130573056687371
-0.0017411724071174023   -0.027993911818084298   -0.0009451692446590135
-0.0012399922606334305   -0.02525340791165294   -0.0009413809884902592
-0.0016724265069065038   -0.027980199884466563   -0.0009014008457792056
-0.002612494292658197   -0.025264324767014706   -0.0009222215223707971
-0.0011931714133770956   -0.02524845930797848   -0.0009070559811264385
-0.0016724265069065038   -0.027980199884466563   -0.0009014008457792056
-0.0012399922606334305   -0.02525340791165294   -0.0009413809884902592
-0.002612494292658197   -0.025264324767014706   -0.0009222215223707971
-0.0016724265069065038   -0.027980199884466563   -0.0009014008457792056
-0.0026237888041496468   -0.027947186044193825   -0.0009043726329187982
-0.0026847982220434973   -0.02795656664556385   -0.0009130573056687371
-0.002612494292658197   -0.025264324767014706   -0.0009222215223707971
-0.0016724265069065038   -0.027980199884466563   -0.0009014008457792056
-0.0026847982220434973   -0.02795656664556385   -0.0009130573056687371
-0.0012399922606334305   -0.02525340791165294   -0.0009413809884902592
-0.002612494292658197   -0.025264324767014706   -0.0009222215223707971
-0.0026237888041496468   -0.027947186044193825   -0.0009043726329187982
-0.0011931714133770956   -0.02524845930797848   -0.0009070559811264385
-0.002568342776034132   -0.025282137570884256   -0.000917848296522837
-0.0026237888041496468   -0.027947186044193825   -0.0009043726329187982
-0.0016724265069065038   -0.027980199884466563   -0.0009014008457792056
-0.0011931714133770956   -0.02524845930797848   -0.0009070559811264385
-0.0016068341905124761   -0.02798375592463954   -0.0008612678064657546
-0.002568342776034132   -0.025282137570884256   -0.000917848296522837
-0.001147691885713465   -0.025256373752138333   -0.0008769970058806522
-0.0016068341905124761   -0.02798375592463954   -0.0008612678064657546
-0.0011931714133770956   -0.02524845930797848   -0.0009070559811264385
-0.002568342776034132   -0.025282137570884256   -0.000917848296522837
-0.0016068341905124761   -0.02798375592463954   -0.0008612678064657546
-0.002563564039325794   -0.02795735930812323   -0.0008997649048136414
-0.0026237888041496468   -0.027947186044193825   -0.0009043726329187982
-0.002568342776034132   -0.025282137570884256   -0.000917848296522837
-0.0016068341905124761   -0.02798375592463954   -0.0008612678064657546
-0.0026237888041496468   -0.027947186044193825   -0.0009043726329187982
-0.0011931714133770956   -0.02524845930797848   -0.0009070559811264385
-0.002568342776034132   -0.025282137570884256   -0.000917848296522837
-0.002563564039325794   -0.02795735930812323   -0.0008997649048136414
-0.001147691885713465   -0.025256373752138333   -0.0008769970058806522
-0.0025242492283065435   -0.025314932026153505   -0.0009174353488822648
-0.002563564039325794   -0.02795735930812323   -0.0008997649048136414
-0.0016068341905124761   -0.02798375592463954   -0.0008612678064657546
-0.001147691885713465   -0.025256373752138333   -0.0008769970058806522
-0.0015521651903186004   -0.028007809025889212   -0.0008269687392820009
-0.0025242492283065435   -0.025314932026153505   -0.0009174353488822648
-0.0011065663059820706   -0.025278945963100277   -0.000850840396702567
-0.0015521651903186004   -0.028007809025889212   -0.0008269687392820009
-0.001147691885713465   -0.025256373752138333   -0.0008769970058806522
-0.0025242492283065435   -0.025314932026153505   -0.0009174353488822648
-0.0015521651903186004   -0.028007809025889212   -0.0008269687392820009
-0.002508071523801994   -0.02798770520102892   -0.0009000752006337762
-0.002563564039325794   -0.02795735930812323   -0.0008997649048136414
-0.0025242492283065435   -0.025314932026153505   -0.0009174353488822648
-0.0015521651903186004   -0.028007809025889212   -0.0008269687392820009
-0.002563564039325794   -0.02795735930812323   -0.0008997649048136414
-0.001147691885713465   -0.025256373752138333   -0.0008769970058806522
-0.0012399922606334305   -0.02525340791165294   -0.0009413809884902592
-0.0017411724071174023   -0.027993911818084298   -0.0009451692446590135
0.00023985575955350042   -0.025201098142792193   -0.0009672448575033395
-0.0011931714133770956   -0.02524845930797848   -0.0009070559811264385
-0.0017411724071174023   -0.027993911818084298   -0.0009451692446590135
-0.0007398202600845788   -0.02798159238012524   -0.0009832461123791079
0.00023985575955350042   -0.025201098142792193   -0.0009672448575033395
-0.0006515516729575513   -0.027960047510903967   -0.0009058403801773572
-0.0011931714133770956   -0.02524845930797848   -0.0009070559811264385
0.0002968881221836708   -0.02518530106294122   -0.0009070364465590035
-0.0006515516729575513   -0.027960047510903967   -0.0009058403801773572
0.00023985575955350042   -0.025201098142792193   -0.0009672448575033395
-0.0011931714133770956   -0.02524845930797848   -0.0009070559811264385
-0.0006515516729575513   -0.027960047510903967   -0.0009058403801773572
-0.0016724265069065038   -0.027980199884466563   -0.0009014008457792056
-0.0017411724071174023   -0.027993911818084298   -0.0009451692446590135
-0.0011931714133770956   -0.02524845930797848   -0.0009070559811264385
-0.0006515516729575513   -0.027960047510903967   -0.0009058403801773572
-0.0017411724071174023   -0.027993911818084298   -0.0009451692446590135
0.00023985575955350042   -0.025201098142792193   -0.0009672448575033395
-0.0011931714133770956   -0.02524845930797848   -0.0009070559811264385
-0.0016724265069065038   -0.027980199884466563   -0.0009014008457792056
0.0002968881221836708   -0.02518530106294122   -0.0009070364465590035
-0.001147691885713465   -0.025256373752138333   -0.0008769970058806522
-0.0016724265069065038   -0.027980199884466563   -0.0009014008457792056
-0.0006515516729575513   -0.027960047510903967   -0.0009058403801773572
0.0002968881221836708   -0.02518530106294122   -0.0009070364465590035
-0.00056103064290922   -0.0279564112212995   -0.0008323047792717577
-0.001147691885713465   -0.025256373752138333   -0.0008769970058806522
0.00035711449810674954   -0.02518388022576327   -0.000852225655621626
-0.00056103064290922   -0.0279564112212995   -0.0008323047792717577
0.0002968881221836708   -0.02518530106294122   -0.0009070364465590035
-0.001147691885713465   -0.025256373752138333   -0.0008769970058806522
-0.00056103064290922   -0.0279564112212995   -0.0008323047792717577
-0.0016068341905124761   -0.02798375592463954   -0.0008612678064657546
-0.0016724265069065038   -0.027980199884466563   -0.0009014008457792056
-0.001147691885713465   -0.025256373752138333   -0.0008769970058806522
-0.00056103064290922   -0.0279564112212995   -0.0008323047792717577
-0.0016724265069065038   -0.027980199884466563   -0.0009014008457792056
0.0002968881221836708   -0.02518530106294122   -0.0009070364465590035
-0.001147691885713465   -0.025256373752138333   -0.0008769970058806522
-0.0016068341905124761   -0.02798375592463954   -0.0008612678064657546
0.00035711449810674954   -0.02518388022576327   -0.000852225655621626
-0.0011065663059820706   -0.025278945963100277   -0.000850840396702567
-0.0016068341905124761   -0.02798375592463954   -0.0008612678064657546
-0.00056103064290922   -0.0279564112212995   -0.0008323047792717577
0.00035711449810674954   -0.02518388022576327   -0.000852225655621626
-0.0004941491420499624   -0.02797441975475881   -0.0007653775890298671
-0.0011065663059820706   -0.025278945963100277   -0.000850840396702567
0.0004011589799764977   -0.025196163607017073   -0.0008011266813588555
-0.0004941491420499624   -0.02797441975475881   -0.0007653775890298671
0.00035711449810674954   -0.02518388022576327   -0.000852225655621626
-0.0011065663059820706   -0.025278945963100277   -0.000850840396702567
-0.0004941491420499624   -0.02797441975475881   -0.0007653775890298671
-0.0015521651903186004   -0.028007809025889212   -0.0008269687392820009
-0.0016068341905124761   -0.02798375592463954   -0.0008612678064657546
-0.0011065663059820706   -0.025278945963100277   -0.000850840396702567
-0.0004941491420499624   -0.02797441975475881   -0.0007653775890298671
-0.0016068341905124761   -0.02798375592463954   -0.0008612678064657546
0.00035711449810674954   -0.02518388022576327   -0.000852225655621626
0.00023985575955350042   -0.025201098142792193   -0.0009672448575033395
-0.0007398202600845788   -0.02798159238012524   -0.0009832461123791079
0.001814253094762408   -0.025098855283335463   -0.001021950985114487
0.0002968881221836708   -0.02518530106294122   -0.0009070364465590035
-0.0007398202600845788   -0.02798159238012524   -0.0009832461123791079
0.0003337992141409688   -0.02788451584173777   -0.0010604074135612386
0.001814253094762408   -0.025098855283335463   -0.001021950985114487
0.0005416289122380542   -0.027837909972223324   -0.0009339353580876381
0.0002968881221836708   -0.02518530106294122   -0.0009070364465590035
0.0019596722477547364   -0.02506863678988154   -0.0009297481953703964
0.0005416289122380542   -0.027837909972223324   -0.0009339353580876381
0.001814253094762408   -0.025098855283335463   -0.001021950985114487
0.0002968881221836708   -0.02518530106294122   -0.0009070364465590035
0.0005416289122380542   -0.027837909972223324   -0.0009339353580876381
-0.0006515516729575513   -0.027960047510903967   -0.0009058403801773572
-0.0007398202600845788   -0.02798159238012524   -0.0009832461123791079
0.0002968881221836708   -0.02518530106294122   -0.0009070364465590035
0.0005416289122380542   -0.027837909972223324   -0.0009339353580876381
-0.0007398202600845788   -0.02798159238012524   -0.0009832461123791079
0.001814253094762408   -0.025098855283335463   -0.001021950985114487
0.0002968881221836708   -0.02518530106294122   -0.0009070364465590035
-0.0006515516729575513   -0.027960047510903967   -0.0009058403801773572
0.0019596722477547364   -0.02506863678988154   -0.0009297481953703964
0.00035711449810674954   -0.02518388022576327   -0.000852225655621626
-0.0006515516729575513   -0.027960047510903967   -0.0009058403801773572
0.0005416289122380542   -0.027837909972223324   -0.0009339353580876381
0.0019596722477547364   -0.02506863678988154   -0.0009297481953703964
0.000704839663029423   -0.027828607285237505   -0.0008150090488500307
0.00035711449810674954   -0.02518388022576327   -0.000852225655621626
0.002071239385383811   -0.025063400487679972   -0.0008442429727699205
0.000704839663029423   -0.027828607285237505   -0.0008150090488500307
0.0019596722477547364   -0.02506863678988154   -0.0009297481953703964
0.00035711449810674954   -0.02518388022576327   -0.000852225655621626
0.000704839663029423   -0.027828607285237505   -0.0008150090488500307
-0.00056103064290922   -0.0279564112212995   -0.0008323047792717577
-0.0006515516729575513   -0.027960047510903967   -0.0009058403801773572
0.00035711449810674954   -0.02518388022576327   -0.000852225655621626
0.000704839663029423   -0.027828607285237505   -0.0008150090488500307
-0.0006515516729575513   -0.027960047510903967   -0.0009058403801773572
0.0019596722477547364   -0.02506863678988154   -0.0009297481953703964
0.00035711449810674954   -0.02518388022576327   -0.000852225655621626
-0.00056103064290922   -0.0279564112212995   -0.0008323047792717577
0.002071239385383811   -0.025063400487679972   -0.0008442429727699205
0.0004011589799764977   -0.025196163607017073   -0.0008011266813588555
-0.00056103064290922   -0.0279564112212995   -0.0008323047792717577
0.000704839663029423   -0.027828607285237505   -0.0008150090488500307
0.002071239385383811   -0.025063400487679972   -0.0008442429727699205
0.0008749819976285121   -0.02783711016427706   -0.0007061831413119042
0.0004011589799764977   -0.025196163607017073   -0.0008011266813588555
0.0021872432972584207   -0.025072516100940412   -0.0007661264466286576
0.0008749819976285121   -0.02783711016427706   -0.0007061831413119042
0.002071239385383811   -0.025063400487679972   -0.0008442429727699205
0.0004011589799764977   -0.025196163607017073   -0.0008011266813588555
0.0008749819976285121   -0.02783711016427706   -0.0007061831413119042
-0.0004941491420499624   -0.02797441975475881   -0.0007653775890298671
-0.00056103064290922   -0.0279564112212995   -0.0008323047792717577
0.0004011589799764977   -0.025196163607017073   -0.0008011266813588555
0.0008749819976285121   -0.02783711016427706   -0.0007061831413119042
-0.00056103064290922   -0.0279564112212995   -0.0008323047792717577
0.002071239385383811   -0.025063400487679972   -0.0008442429727699205
-0.004871710927151668   -0.027767968106384076   -0.0008517665889604577
-0.003591744473947465   -0.02932999008762587   -0.0007501810105911487
-0.0036697026461421332   -0.02788292414408095   -0.0008861326245027715
-0.004742487248539788   -0.02776485343307535   -0.0009284716069164331
-0.003591744473947465   -0.02932999008762587   -0.0007501810105911487
-0.003027730954533489   -0.02947495178834756   -0.0008366972741885115
-0.0036697026461421332   -0.02788292414408095   -0.0008861326245027715
-0.0029529445156359544   -0.029446739907583373   -0.0008671345112196293
-0.004742487248539788   -0.02776485343307535   -0.0009284716069164331
-0.0036101306567016367   -0.02787718800732073   -0.0009145944322225495
-0.0029529445156359544   -0.029446739907583373   -0.0008671345112196293
-0.0036697026461421332   -0.02788292414408095   -0.0008861326245027715
-0.004742487248539788   -0.02776485343307535   -0.0009284716069164331
-0.0029529445156359544   -0.029446739907583373   -0.0008671345112196293
-0.003431236024910596   -0.029298148947252942   -0.000842099935377639
-0.003591744473947465   -0.02932999008762587   -0.0007501810105911487
-0.004742487248539788   -0.02776485343307535   -0.0009284716069164331
-0.0029529445156359544   -0.029446739907583373   -0.0008671345112196293
-0.003591744473947465   -0.02932999008762587   -0.0007501810105911487
-0.0036697026461421332   -0.02788292414408095   -0.0008861326245027715
-0.004742487248539788   -0.02776485343307535   -0.0009284716069164331
-0.003431236024910596   -0.029298148947252942   -0.000842099935377639
-0.0036101306567016367   -0.02787718800732073   -0.0009145944322225495
-0.004623501704599237   -0.027785645839768922   -0.0010110850512890306
-0.003431236024910596   -0.029298148947252942   -0.000842099935377639
-0.0029529445156359544   -0.029446739907583373   -0.0008671345112196293
-0.0036101306567016367   -0.02787718800732073   -0.0009145944322225495
-0.002869901874010335   -0.029448708786570386   -0.0008978902130418539
-0.004623501704599237   -0.027785645839768922   -0.0010110850512890306
-0.0035399369234156057   -0.027894059208903737   -0.0009472447764968086
-0.002869901874010335   -0.029448708786570386   -0.0008978902130418539
-0.0036101306567016367   -0.02787718800732073   -0.0009145944322225495
-0.004623501704599237   -0.027785645839768922   -0.0010110850512890306
-0.002869901874010335   -0.029448708786570386   -0.0008978902130418539
-0.003292801420446598   -0.029301519097448304   -0.0009337155129402798
-0.003431236024910596   -0.029298148947252942   -0.000842099935377639
-0.004623501704599237   -0.027785645839768922   -0.0010110850512890306
-0.002869901874010335   -0.029448708786570386   -0.0008978902130418539
-0.003431236024910596   -0.029298148947252942   -0.000842099935377639
-0.0036101306567016367   -0.02787718800732073   -0.0009145944322225495
-0.004623501704599237   -0.027785645839768922   -0.0010110850512890306
-0.003292801420446598   -0.029301519097448304   -0.0009337155129402798
-0.0035399369234156057   -0.027894059208903737   -0.0009472447764968086
-0.004478289228718751   -0.027840745549009276   -0.001099273537675521
-0.003292801420446598   -0.029301519097448304   -0.0009337155129402798
-0.002869901874010335   -0.029448708786570386   -0.0008978902130418539
-0.0035399369234156057   -0.027894059208903737   -0.0009472447764968086
-0.0027928744922806966   -0.02948102547843858   -0.000929091800603702
-0.004478289228718751   -0.027840745549009276   -0.001099273537675521
-0.0034762644890532425   -0.027933941531813996   -0.0009838184142553323
-0.0027928744922806966   -0.02948102547843858   -0.000929091800603702
-0.0035399369234156057   -0.027894059208903737   -0.0009472447764968086
-0.004478289228718751   -0.027840745549009276   -0.001099273537675521
-0.0027928744922806966   -0.02948102547843858   -0.000929091800603702
-0.0031284326693427123   -0.029342184280488317   -0.001027288356983589
-0.003292801420446598   -0.029301519097448304   -0.0009337155129402798
-0.004478289228718751   -0.027840745549009276   -0.001099273537675521
-0.0027928744922806966   -0.02948102547843858   -0.000929091800603702
-0.003292801420446598   -0.029301519097448304   -0.0009337155129402798
-0.0035399369234156057   -0.027894059208903737   -0.0009472447764968086
-0.0036697026461421332   -0.02788292414408095   -0.0008861326245027715
-0.003027730954533489   -0.02947495178834756   -0.0008366972741885115
-0.0026847982220434973   -0.02795656664556385   -0.0009130573056687371
-0.0036101306567016367   -0.02787718800732073   -0.0009145944322225495
-0.003027730954533489   -0.02947495178834756   -0.0008366972741885115
-0.002612418068889066   -0.029618336648175553   -0.0009130140434262551
-0.0026847982220434973   -0.02795656664556385   -0.0009130573056687371
-0.00253372120529707   -0.029589278768209076   -0.0008922957439249402
-0.0036101306567016367   -0.02787718800732073   -0.0009145944322225495
-0.0026237888041496468   -0.027947186044193825   -0.0009043726329187982
-0.00253372120529707   -0.029589278768209076   -0.0008922957439249402
-0.0026847982220434973   -0.02795656664556385   -0.0009130573056687371
-0.0036101306567016367   -0.02787718800732073   -0.0009145944322225495
-0.00253372120529707   -0.029589278768209076   -0.0008922957439249402
-0.0029529445156359544   -0.029446739907583373   -0.0008671345112196293
-0.003027730954533489   -0.02947495178834756   -0.0008366972741885115
-0.0036101306567016367   -0.02787718800732073   -0.0009145944322225495
-0.00253372120529707   -0.029589278768209076   -0.0008922957439249402
-0.003027730954533489   -0.02947495178834756   -0.0008366972741885115
-0.0026847982220434973   -0.02795656664556385   -0.0009130573056687371
-0.0036101306567016367   -0.02787718800732073   -0.0009145944322225495
-0.0029529445156359544   -0.029446739907583373   -0.0008671345112196293
-0.0026237888041496468   -0.027947186044193825   -0.0009043726329187982
-0.0035399369234156057   -0.027894059208903737   -0.0009472447764968086
-0.0029529445156359544   -0.029446739907583373   -0.0008671345112196293
-0.00253372120529707   -0.029589278768209076   -0.0008922957439249402
-0.0026237888041496468   -0.027947186044193825   -0.0009043726329187982
-0.0024575362554488636   -0.029589185546917893   -0.0008713344747836332
-0.0035399369234156057   -0.027894059208903737   -0.0009472447764968086
-0.002563564039325794   -0.02795735930812323   -0.0008997649048136414
-0.0024575362554488636   -0.029589185546917893   -0.0008713344747836332
-0.0026237888041496468   -0.027947186044193825   -0.0009043726329187982
-0.0035399369234156057   -0.027894059208903737   -0.0009472447764968086
-0.0024575362554488636   -0.029589185546917893   -0.0008713344747836332
-0.002869901874010335   -0.029448708786570386   -0.0008978902130418539
-0.0029529445156359544   -0.029446739907583373   -0.0008671345112196293
-0.0035399369234156057   -0.027894059208903737   -0.0009472447764968086
-0.0024575362554488636   -0.029589185546917893   -0.0008713344747836332
-0.0029529445156359544   -0.029446739907583373   -0.0008671345112196293
-0.0026237888041496468   -0.027947186044193825   -0.0009043726329187982
-0.0035399369234156057   -0.027894059208903737   -0.0009472447764968086
-0.002869901874010335   -0.029448708786570386   -0.0008978902130418539
-0.002563564039325794   -0.02795735930812323   -0.0008997649048136414
-0.0034762644890532425   -0.027933941531813996   -0.0009838184142553323
-0.002869901874010335   -0.029448708786570386   -0.0008978902130418539
-0.0024575362554488636   -0.029589185546917893   -0.0008713344747836332
-0.002563564039325794   -0.02795735930812323   -0.0008997649048136414
-0.002378185608601   -0.029617478928284438   -0.0008512369316013639
-0.0034762644890532425   -0.027933941531813996   -0.0009838184142553323
-0.002508071523801994   -0.02798770520102892   -0.0009000752006337762
-0.002378185608601   -0.029617478928284438   -0.0008512369316013639
-0.002563564039325794   -0.02795735930812323   -0.0008997649048136414
-0.0034762644890532425   -0.027933941531813996   -0.0009838184142553323
-0.002378185608601   -0.029617478928284438   -0.0008512369316013639
-0.0027928744922806966   -0.02948102547843858   -0.000929091800603702
-0.002869901874010335   -0.029448708786570386   -0.0008978902130418539
-0.0034762644890532425   -0.027933941531813996   -0.0009838184142553323
-0.002378185608601   -0.029617478928284438   -0.0008512369316013639
-0.002869901874010335   -0.029448708786570386   -0.0008978902130418539
-0.002563564039325794   -0.02795735930812323   -0.0008997649048136414
-0.0026847982220434973   -0.02795656664556385   -0.0009130573056687371
-0.002612418068889066   -0.029618336648175553   -0.0009130140434262551
-0.0017411724071174023   -0.027993911818084298   -0.0009451692446590135
-0.0026237888041496468   -0.027947186044193825   -0.0009043726329187982
-0.002612418068889066   -0.029618336648175553   -0.0009130140434262551
-0.0022323362544517723   -0.029789143734377698   -0.0009973578692272108
-0.0017411724071174023   -0.027993911818084298   -0.0009451692446590135
-0.002135997522685258   -0.029763694691488252   -0.0009226595338519078
-0.0026237888041496468   -0.027947186044193825   -0.0009043726329187982
-0.0016724265069065038   -0.027980199884466563   -0.0009014008457792056
-0.002135997522685258   -0.029763694691488252   -0.0009226595338519078
-0.0017411724071174023   -0.027993911818084298   -0.0009451692446590135
-0.0026237888041496468   -0.027947186044193825   -0.0009043726329187982
-0.002135997522685258   -0.029763694691488252   -0.0009226595338519078
-0.00253372120529707   -0.029589278768209076   -0.0008922957439249402
-0.002612418068889066   -0.029618336648175553   -0.0009130140434262551
-0.0026237888041496468   -0.027947186044193825   -0.0009043726329187982
-0.002135997522685258   -0.029763694691488252   -0.0009226595338519078
-0.002612418068889066   -0.029618336648175553   -0.0009130140434262551
-0.0017411724071174023   -0.027993911818084298   -0.0009451692446590135
-0.0026237888041496468   -0.027947186044193825   -0.0009043726329187982
-0.00253372120529707   -0.029589278768209076   -0.0008922957439249402
-0.0016724265069065038   -0.027980199884466563   -0.0009014008457792056
-0.002563564039325794   -0.02795735930812323   -0.0008997649048136414
-0.00253372120529707   -0.029589278768209076   -0.0008922957439249402
-0.002135997522685258   -0.029763694691488252   -0.0009226595338519078
-0.0016724265069065038   -0.027980199884466563   -0.0009014008457792056
-0.0020465805292907697   -0.02976258210257673   -0.000848123602230804
-0.002563564039325794   -0.02795735930812323   -0.0008997649048136414
-0.0016068341905124761   -0.02798375592463954   -0.0008612678064657546
-0.0020465805292907697   -0.02976258210257673   -0.000848123602230804
-0.0016724265069065038   -0.027980199884466563   -0.0009014008457792056
-0.002563564039325794   -0.02795735930812323   -0.0008997649048136414
-0.0020465805292907697   -0.02976258210257673   -0.000848123602230804
-0.0024575362554488636   -0.029589185546917893   -0.0008713344747836332
-0.00253372120529707   -0.029589278768209076   -0.0008922957439249402
-0.002563564039325794   -0.02795735930812323   -0.0008997649048136414
-0.0020465805292907697   -0.02976258210257673   -0.000848123602230804
-0.00253372120529707   -0.029589278768209076   -0.0008922957439249402
-0.0016724265069065038   -0.027980199884466563   -0.0009014008457792056
-0.002563564039325794   -0.02795735930812323   -0.0008997649048136414
-0.0024575362554488636   -0.029589185546917893   -0.0008713344747836332
-0.0016068341905124761   -0.02798375592463954   -0.0008612678064657546
-0.002508071523801994   -0.02798770520102892   -0.0009000752006337762
-0.0024575362554488636   -0.029589185546917893   -0.0008713344747836332
-0.0020465805292907697   -0.02976258210257673   -0.000848123602230804
-0.0016068341905124761   -0.02798375592463954   -0.0008612678064657546
-0.0019507755907560453   -0.029784557018242234   -0.000773574459393523
-0.002508071523801994   -0.02798770520102892   -0.0009000752006337762
-0.0015521651903186004   -0.028007809025889212   -0.0008269687392820009
-0.0019507755907560453   -0.029784557018242234   -0.000773574459393523
-0.0016068341905124761   -0.02798375592463954   -0.0008612678064657546
-0.002508071523801994   -0.02798770520102892   -0.0009000752006337762
-0.0019507755907560453   -0.029784557018242234   -0.000773574459393523
-0.002378185608601   -0.029617478928284438   -0.0008512369316013639
-0.0024575362554488636   -0.029589185546917893   -0.0008713344747836332
-0.002508071523801994   -0.02798770520102892   -0.0009000752006337762
-0.0019507755907560453   -0.029784557018242234   -0.000773574459393523
-0.0024575362554488636   -0.029589185546917893   -0.0008713344747836332
-0.0016068341905124761   -0.02798375592463954   -0.0008612678064657546
-0.0017411724071174023   -0.027993911818084298   -0.0009451692446590135
-0.0022323362544517723   -0.029789143734377698   -0.0009973578692272108
-0.0007398202600845788   -0.02798159238012524   -0.0009832461123791079
-0.0016724265069065038   -0.027980199884466563   -0.0009014008457792056
-0.0022323362544517723   -0.029789143734377698   -0.0009973578692272108
-0.0018582636036533582   -0.03   -0.001063320740879107
-0.0007398202600845788   -0.02798159238012524   -0.0009832461123791079
-0.0017367639213305586   -0.03   -0.0009489471790365116
-0.0016724265069065038   -0.027980199884466563   -0.0009014008457792056
-0.0006515516729575513   -0.027960047510903967   -0.0009058403801773572
-0.0017367639213305586   -0.03   -0.0009489471790365116
-0.0007398202600845788   -0.02798159238012524   -0.0009832461123791079
-0.0016724265069065038   -0.027980199884466563   -0.0009014008457792056
-0.0017367639213305586   -0.03   -0.0009489471790365116
-0.002135997522685258   -0.029763694691488252   -0.0009226595338519078
-0.0022323362544517723   -0.029789143734377698   -0.0009973578692272108
-0.0016724265069065038   -0.027980199884466563   -0.0009014008457792056
-0.0017367639213305586   -0.03   -0.0009489471790365116
-0.0022323362544517723   -0.029789143734377698   -0.0009973578692272108
-0.0007398202600845788   -0.02798159238012524   -0.0009832461123791079
-0.0016724265069065038   -0.027980199884466563   -0.0009014008457792056
-0.002135997522685258   -0.029763694691488252   -0.0009226595338519078
-0.0006515516729575513   -0.027960047510903967   -0.0009058403801773572
-0.0016068341905124761   -0.02798375592463954   -0.0008612678064657546
-0.002135997522685258   -0.029763694691488252   -0.0009226595338519078
-0.0017367639213305586   -0.03   -0.0009489471790365116
-0.0006515516729575513   -0.027960047510903967   -0.0009058403801773572
-0.0016144188701633323   -0.03   -0.0008332263441517279
-0.0016068341905124761   -0.02798375592463954   -0.0008612678064657546
-0.00056103064290922   -0.0279564112212995   -0.0008323047792717577
-0.0016144188701633323   -0.03   -0.0008332263441517279
-0.0006515516729575513   -0.027960047510903967   -0.0009058403801773572
-0.0016068341905124761   -0.02798375592463954   -0.0008612678064657546
-0.0016144188701633323   -0.03   -0.0008332263441517279
-0.0020465805292907697   -0.02976258210257673   -0.000848123602230804
-0.002135997522685258   -0.029763694691488252   -0.0009226595338519078
-0.0016068341905124761   -0.02798375592463954   -0.0008612678064657546
-0.0016144188701633323   -0.03   -0.0008332263441517279
-0.002135997522685258   -0.029763694691488252   -0.0009226595338519078
-0.0006515516729575513   -0.027960047510903967   -0.0009058403801773572
-0.0016068341905124761   -0.02798375592463954   -0.0008612678064657546
-0.0020465805292907697   -0.02976258210257673   -0.000848123602230804
-0.00056103064290922   -0.0279564112212995   -0.0008323047792717577
-0.0015521651903186004   -0.028007809025889212   -0.0008269687392820009
-0.0020465805292907697   -0.02976258210257673   -0.000848123602230804
-0.0016144188701633323   -0.03   -0.0008332263441517279
-0.00056103064290922   -0.0279564112212995   -0.0008323047792717577
-0.0014951596573021444   -0.03   -0.0007190584349298858
-0.0015521651903186004   -0.028007809025889212   -0.0008269687392820009
-0.0004941491420499624   -0.02797441975475881   -0.0007653775890298671
-0.0014951596573021444   -0.03   -0.0007190584349298858
-0.00056103064290922   -0.0279564112212995   -0.0008323047792717577
-0.0015521651903186004   -0.028007809025889212   -0.0008269687392820009
-0.0014951596573021444   -0.03   -0.0007190584349298858
-0.0019507755907560453   -0.029784557018242234   -0.000773574459393523
-0.0020465805292907697   -0.02976258210257673   -0.000848123602230804
-0.0015521651903186004   -0.028007809025889212   -0.0008269687392820009
-0.0014951596573021444   -0.03   -0.0007190584349298858
-0.0020465805292907697   -0.02976258210257673   -0.000848123602230804
-0.00056103064290922   -0.0279564112212995   -0.0008323047792717577
-0.0007398202600845788   -0.02798159238012524   -0.0009832461123791079
-0.0018582636036533582   -0.03   -0.001063320740879107
0.0003337992141409688   -0.02788451584173777   -0.0010604074135612386
-0.0006515516729575513   -0.027960047510903967   -0.0009058403801773572
-0.0018582636036533582   -0.03   -0.001063320740879107
-0.001583990863432125   -0.03   -0.0011431998637226328
0.0003337992141409688   -0.02788451584173777   -0.0010604074135612386
-0.0013277938107395144   -0.03   -0.0009772517584313587
-0.0006515516729575513   -0.027960047510903967   -0.0009058403801773572
0.0005416289122380542   -0.027837909972223324   -0.0009339353580876381
-0.0013277938107395144   -0.03   -0.0009772517584313587
0.0003337992141409688   -0.02788451584173777   -0.0010604074135612386
-0.0006515516729575513   -0.027960047510903967   -0.0009058403801773572
-0.0013277938107395144   -0.03   -0.0009772517584313587
-0.0017367639213305586   -0.03   -0.0009489471790365116
-0.0018582636036533582   -0.03   -0.001063320740879107
-0.0006515516729575513   -0.027960047510903967   -0.0009058403801773572
-0.0013277938107395144   -0.03   -0.0009772517584313587
-0.0018582636036533582   -0.03   -0.001063320740879107
0.0003337992141409688   -0.02788451584173777   -0.0010604074135612386
-0.0006515516729575513   -0.027960047510903967   -0.0009058403801773572
-0.0017367639213305586   -0.03   -0.0009489471790365116
0.0005416289122380542   -0.027837909972223324   -0.0009339353580876381
-0.00056103064290922   -0.0279564112212995   -0.0008323047792717577
-0.0017367639213305586   -0.03   -0.0009489471790365116
-0.0013277938107395144   -0.03   -0.0009772517584313587
0.0005416289122380542   -0.027837909972223324   -0.0009339353580876381
-0.0011235023061788878   -0.03   -0.0008185290345403539
-0.00056103064290922   -0.0279564112212995   -0.0008323047792717577
0.000704839663029423   -0.027828607285237505   -0.0008150090488500307
-0.0011235023061788878   -0.03   -0.0008185290345403539
0.0005416289122380542   -0.027837909972223324   -0.0009339353580876381
-0.00056103064290922   -0.0279564112212995   -0.0008323047792717577
-0.0011235023061788878   -0.03   -0.0008185290345403539
-0.0016144188701633323   -0.03   -0.0008332263441517279
-0.0017367639213305586   -0.03   -0.0009489471790365116
-0.00056103064290922   -0.0279564112212995   -0.0008323047792717577
-0.0011235023061788878   -0.03   -0.0008185290345403539
-0.0017367639213305586   -0.03   -0.0009489471790365116
0.0005416289122380542   -0.027837909972223324   -0.0009339353580876381
-0.00056103064290922   -0.0279564112212995   -0.0008323047792717577
-0.0016144188701633323   -0.03   -0.0008332263441517279
0.000704839663029423   -0.027828607285237505   -0.0008150090488500307
-0.0004941491420499624   -0.02797441975475881   -0.0007653775890298671
-0.0016144188701633323   -0.03   -0.0008332263441517279
-0.0011235023061788878   -0.03   -0.0008185290345403539
0.000704839663029423   -0.027828607285237505   -0.0008150090488500307
-0.0008712276998314257   -0.03   -0.000653733276807122
-0.0004941491420499624   -0.02797441975475881   -0.0007653775890298671
0.0008749819976285121   -0.02783711016427706   -0.0007061831413119042
-0.0008712276998314257   -0.03   -0.000653733276807122
0.000704839663029423   -0.027828607285237505   -0.0008150090488500307
-0.0004941491420499624   -0.02797441975475881   -0.0007653775890298671
-0.0008712276998314257   -0.03   -0.000653733276807122
-0.0014951596573021444   -0.03   -0.0007190584349298858
-0.0016144188701633323   -0.03   -0.0008332263441517279
-0.0004941491420499624   -0.02797441975475881   -0.0007653775890298671
-0.0008712276998314257   -0.03   -0.000653733276807122
-0.0016144188701633323   -0.03   -0.0008332263441517279
0.000704839663029423   -0.027828607285237505   -0.0008150090488500307
-0.003591744473947465   -0.02932999008762587   -0.0007501810105911487
-0.0021757865678376045   -0.029427618571628796   -0.0006424970604955733
-0.003027730954533489   -0.02947495178834756   -0.0008366972741885115
-0.003431236024910596   -0.029298148947252942   -0.000842099935377639
-0.0021757865678376045   -0.029427618571628796   -0.0006424970604955733
-0.0022949046725462907   -0.02954016726109897   -0.0007539522975611547
-0.003027730954533489   -0.02947495178834756   -0.0008366972741885115
-0.002238182862741289   -0.029501543671329313   -0.0007951899582648547
-0.003431236024910596   -0.029298148947252942   -0.000842099935377639
-0.0029529445156359544   -0.029446739907583373   -0.0008671345112196293
-0.002238182862741289   -0.029501543671329313   -0.0007951899582648547
-0.003027730954533489   -0.02947495178834756   -0.0008366972741885115
-0.003431236024910596   -0.029298148947252942   -0.000842099935377639
-0.002238182862741289   -0.029501543671329313   -0.0007951899582648547
-0.0020299075393682   -0.029377958373153552   -0.000739134283693877
-0.0021757865678376045   -0.029427618571628796   -0.0006424970604955733
-0.003431236024910596   -0.029298148947252942   -0.000842099935377639
-0.002238182862741289   -0.029501543671329313   -0.0007951899582648547
-0.0021757865678376045   -0.029427618571628796   -0.0006424970604955733
-0.003027730954533489   -0.02947495178834756   -0.0008366972741885115
-0.003431236024910596   -0.029298148947252942   -0.000842099935377639
-0.0020299075393682   -0.029377958373153552   -0.000739134283693877
-0.0029529445156359544   -0.029446739907583373   -0.0008671345112196293
-0.003292801420446598   -0.029301519097448304   -0.0009337155129402798
-0.0020299075393682   -0.029377958373153552   -0.000739134283693877
-0.002238182862741289   -0.029501543671329313   -0.0007951899582648547
-0.0029529445156359544   -0.029446739907583373   -0.0008671345112196293
-0.0021715167651469563   -0.029487867243493643   -0.0008333285568360917
-0.003292801420446598   -0.029301519097448304   -0.0009337155129402798
-0.002869901874010335   -0.029448708786570386   -0.0008978902130418539
-0.0021715167651469563   -0.029487867243493643   -0.0008333285568360917
-0.0029529445156359544   -0.029446739907583373   -0.0008671345112196293
-0.003292801420446598   -0.029301519097448304   -0.0009337155129402798
-0.0021715167651469563   -0.029487867243493643   -0.0008333285568360917
-0.0019085262082618136   -0.029363330499872255   -0.0008319309587548906
-0.0020299075393682   -0.029377958373153552   -0.000739134283693877
-0.003292801420446598   -0.029301519097448304   -0.0009337155129402798
-0.0021715167651469563   -0.029487867243493643   -0.0008333285568360917
-0.0020299075393682   -0.029377958373153552   -0.000739134283693877
-0.0029529445156359544   -0.029446739907583373   -0.0008671345112196293
-0.003292801420446598   -0.029301519097448304   -0.0009337155129402798
-0.0019085262082618136   -0.029363330499872255   -0.0008319309587548906
-0.002869901874010335   -0.029448708786570386   -0.0008978902130418539
-0.0031284326693427123   -0.029342184280488317   -0.001027288356983589
-0.0019085262082618136   -0.029363330499872255   -0.0008319309587548906
-0.0021715167651469563   -0.029487867243493643   -0.0008333285568360917
-0.002869901874010335   -0.029448708786570386   -0.0008978902130418539
-0.0021144880293651218   -0.029499362086533795   -0.0008681783865214051
-0.0031284326693427123   -0.029342184280488317   -0.001027288356983589
-0.0027928744922806966   -0.02948102547843858   -0.000929091800603702
-0.0021144880293651218   -0.029499362086533795   -0.0008681783865214051
-0.002869901874010335   -0.029448708786570386   -0.0008978902130418539
-0.0031284326693427123   -0.029342184280488317   -0.001027288356983589
-0.0021144880293651218   -0.029499362086533795   -0.0008681783865214051
-0.0017708892289930566   -0.029377641929669896   -0.0009204948620821759
-0.0019085262082618136   -0.029363330499872255   -0.0008319309587548906
-0.0031284326693427123   -0.029342184280488317   -0.001027288356983589
-0.0021144880293651218   -0.029499362086533795   -0.0008681783865214051
-0.0019085262082618136   -0.029363330499872255   -0.0008319309587548906
-0.002869901874010335   -0.029448708786570386   -0.0008978902130418539
-0.003027730954533489   -0.02947495178834756   -0.0008366972741885115
-0.0022949046725462907   -0.02954016726109897   -0.0007539522975611547
-0.002612418068889066   -0.029618336648175553   -0.0009130140434262551
-0.0029529445156359544   -0.029446739907583373   -0.0008671345112196293
-0.0022949046725462907   -0.02954016726109897   -0.0007539522975611547
-0.0024614737159110557   -0.029608790463341125   -0.000842921895655251
-0.002612418068889066   -0.029618336648175553   -0.0009130140434262551
-0.002411358310043903   -0.029574260689629175   -0.0008438661810131519
-0.0029529445156359544   -0.029446739907583373   -0.0008671345112196293
-0.00253372120529707   -0.029589278768209076   -0.0008922957439249402
-0.002411358310043903   -0.029574260689629175   -0.0008438661810131519
-0.002612418068889066   -0.029618336648175553   -0.0009130140434262551
-0.0029529445156359544   -0.029446739907583373   -0.0008671345112196293
-0.002411358310043903   -0.029574260689629175   -0.0008438661810131519
-0.002238182862741289   -0.029501543671329313   -0.0007951899582648547
-0.0022949046725462907   -0.02954016726109897   -0.0007539522975611547
-0.0029529445156359544   -0.029446739907583373   -0.0008671345112196293
-0.002411358310043903   -0.029574260689629175   -0.0008438661810131519
-0.0022949046725462907   -0.02954016726109897   -0.0007539522975611547
-0.002612418068889066   -0.029618336648175553   -0.0009130140434262551
-0.0029529445156359544   -0.029446739907583373   -0.0008671345112196293
-0.002238182862741289   -0.029501543671329313   -0.0007951899582648547
-0.00253372120529707   -0.029589278768209076   -0.0008922957439249402
-0.002869901874010335   -0.029448708786570386   -0.0008978902130418539
-0.002238182862741289   -0.029501543671329313   -0.0007951899582648547
-0.002411358310043903   -0.029574260689629175   -0.0008438661810131519
-0.00253372120529707   -0.029589278768209076   -0.0008922957439249402
-0.0023556118913285163   -0.029562319002311436   -0.0008407938612493756
-0.002869901874010335   -0.029448708786570386   -0.0008978902130418539
-0.0024575362554488636   -0.029589185546917893   -0.0008713344747836332
-0.0023556118913285163   -0.029562319002311436   -0.0008407938612493756
-0.00253372120529707   -0.029589278768209076   -0.0008922957439249402
-0.002869901874010335   -0.029448708786570386   -0.0008978902130418539
-0.0023556118913285163   -0.029562319002311436   -0.0008407938612493756
-0.0021715167651469563   -0.029487867243493643   -0.0008333285568360917
-0.002238182862741289   -0.029501543671329313   -0.0007951899582648547
-0.002869901874010335   -0.029448708786570386   -0.0008978902130418539
-0.0023556118913285163   -0.029562319002311436   -0.0008407938612493756
-0.002238182862741289   -0.029501543671329313   -0.0007951899582648547
-0.00253372120529707   -0.029589278768209076   -0.0008922957439249402
-0.002869901874010335   -0.029448708786570386   -0.0008978902130418539
-0.0021715167651469563   -0.029487867243493643   -0.0008333285568360917
-0.0024575362554488636   -0.029589185546917893   -0.0008713344747836332
-0.0027928744922806966   -0.02948102547843858   -0.000929091800603702
-0.0021715167651469563   -0.029487867243493643   -0.0008333285568360917
-0.0023556118913285163   -0.029562319002311436   -0.0008407938612493756
-0.0024575362554488636   -0.029589185546917893   -0.0008713344747836332
-0.0022989737454988408   -0.02957198259092241   -0.0008345675599783942
-0.0027928744922806966   -0.02948102547843858   -0.000929091800603702
-0.002378185608601   -0.029617478928284438   -0.0008512369316013639
-0.0022989737454988408   -0.02957198259092241   -0.0008345675599783942
-0.0024575362554488636   -0.029589185546917893   -0.0008713344747836332
-0.0027928744922806966   -0.02948102547843858   -0.000929091800603702
-0.0022989737454988408   -0.02957198259092241   -0.0008345675599783942
-0.0021144880293651218   -0.029499362086533795   -0.0008681783865214051
-0.0021715167651469563   -0.029487867243493643   -0.0008333285568360917
-0.0027928744922806966   -0.02948102547843858   -0.000929091800603702
-0.0022989737454988408   -0.02957198259092241   -0.0008345675599783942
-0.0021715167651469563   -0.029487867243493643   -0.0008333285568360917
-0.0024575362554488636   -0.029589185546917893   -0.0008713344747836332
-0.002612418068889066   -0.029618336648175553   -0.0009130140434262551
-0.0024614737159110557   -0.029608790463341125   -0.000842921895655251
-0.0022323362544517723   -0.029789143734377698   -0.0009973578692272108
-0.00253372120529707   -0.029589278768209076   -0.0008922957439249402
-0.0024614737159110557   -0.029608790463341125   -0.000842921895655251
-0.002640731803267952   -0.029636152137857964   -0.0009306426438845315
-0.0022323362544517723   -0.029789143734377698   -0.0009973578692272108
-0.002588812215579646   -0.029603105642083138   -0.0008928292242877156
-0.00253372120529707   -0.029589278768209076   -0.0008922957439249402
-0.002135997522685258   -0.029763694691488252   -0.0009226595338519078
-0.002588812215579646   -0.029603105642083138   -0.0008928292242877156
-0.0022323362544517723   -0.029789143734377698   -0.0009973578692272108
-0.00253372120529707   -0.029589278768209076   -0.0008922957439249402
-0.002588812215579646   -0.029603105642083138   -0.0008928292242877156
-0.002411358310043903   -0.029574260689629175   -0.0008438661810131519
-0.0024614737159110557   -0.029608790463341125   -0.000842921895655251
-0.00253372120529707   -0.029589278768209076   -0.0008922957439249402
-0.002588812215579646   -0.029603105642083138   -0.0008928292242877156
-0.0024614737159110557   -0.029608790463341125   -0.000842921895655251
-0.0022323362544517723   -0.029789143734377698   -0.0009973578692272108
-0.00253372120529707   -0.029589278768209076   -0.0008922957439249402
-0.002411358310043903   -0.029574260689629175   -0.0008438661810131519
-0.002135997522685258   -0.029763694691488252   -0.0009226595338519078
-0.0024575362554488636   -0.029589185546917893   -0.0008713344747836332
-0.002411358310043903   -0.029574260689629175   -0.0008438661810131519
-0.002588812215579646   -0.029603105642083138   -0.0008928292242877156
-0.002135997522685258   -0.029763694691488252   -0.0009226595338519078
-0.0025266387534324747   -0.02959300381314342   -0.0008501205121953262
-0.0024575362554488636   -0.029589185546917893   -0.0008713344747836332
-0.0020465805292907697   -0.02976258210257673   -0.000848123602230804
-0.0025266387534324747   -0.02959300381314342   -0.0008501205121953262
-0.002135997522685258   -0.029763694691488252   -0.0009226595338519078
-0.0024575362554488636   -0.029589185546917893   -0.0008713344747836332
-0.0025266387534324747   -0.02959300381314342   -0.0008501205121953262
-0.0023556118913285163   -0.029562319002311436   -0.0008407938612493756
-0.002411358310043903   -0.029574260689629175   -0.0008438661810131519
-0.0024575362554488636   -0.029589185546917893   -0.0008713344747836332
-0.0025266387534324747   -0.02959300381314342   -0.0008501205121953262
-0.002411358310043903   -0.029574260689629175   -0.0008438661810131519
-0.002135997522685258   -0.029763694691488252   -0.0009226595338519078
-0.0024575362554488636   -0.029589185546917893   -0.0008713344747836332
-0.0023556118913285163   -0.029562319002311436   -0.0008407938612493756
-0.0020465805292907697   -0.02976258210257673   -0.000848123602230804
-0.002378185608601   -0.029617478928284438   -0.0008512369316013639
-0.0023556118913285163   -0.029562319002311436   -0.0008407938612493756
-0.0025266387534324747   -0.02959300381314342   -0.0008501205121953262
-0.0020465805292907697   -0.02976258210257673   -0.000848123602230804
-0.002462763970584699   -0.029602363644308446   -0.0008046921403273113
-0.002378185608601   -0.029617478928284438   -0.0008512369316013639
-0.0019507755907560453   -0.029784557018242234   -0.000773574459393523
-0.002462763970584699   -0.029602363644308446   -0.0008046921403273113
-0.0020465805292907697   -0.02976258210257673   -0.000848123602230804
-0.002378185608601   -0.029617478928284438   -0.0008512369316013639
-0.002462763970584699   -0.029602363644308446   -0.0008046921403273113
-0.0022989737454988408   -0.02957198259092241   -0.0008345675599783942
-0.0023556118913285163   -0.029562319002311436   -0.0008407938612493756
-0.002378185608601   -0.029617478928284438   -0.0008512369316013639
-0.002462763970584699   -0.029602363644308446   -0.0008046921403273113
-0.0023556118913285163   -0.029562319002311436   -0.0008407938612493756
-0.0020465805292907697   -0.02976258210257673   -0.000848123602230804
-0.0022323362544517723   -0.029789143734377698   -0.0009973578692272108
-0.002640731803267952   -0.029636152137857964   -0.0009306426438845315
-0.0018582636036533582   -0.03   -0.001063320740879107
-0.002135997522685258   -0.029763694691488252   -0.0009226595338519078
-0.002640731803267952   -0.029636152137857964   -0.0009306426438845315
-0.0029008005787068522   -0.02960245749696748   -0.001014388677476258
-0.0018582636036533582   -0.03   -0.001063320740879107
-0.0028330298962819748   -0.029571034748240847   -0.0009395820235509523
-0.002135997522685258   -0.029763694691488252   -0.0009226595338519078
-0.0017367639213305586   -0.03   -0.0009489471790365116
-0.0028330298962819748   -0.029571034748240847   -0.0009395820235509523
-0.0018582636036533582   -0.03   -0.001063320740879107
-0.002135997522685258   -0.029763694691488252   -0.0009226595338519078
-0.0028330298962819748   -0.029571034748240847   -0.0009395820235509523
-0.002588812215579646   -0.029603105642083138   -0.0008928292242877156
-0.002640731803267952   -0.029636152137857964   -0.0009306426438845315
-0.002135997522685258   -0.029763694691488252   -0.0009226595338519078
-0.0028330298962819748   -0.029571034748240847   -0.0009395820235509523
-0.002640731803267952   -0.029636152137857964   -0.0009306426438845315
-0.0018582636036533582   -0.03   -0.001063320740879107
-0.002135997522685258   -0.029763694691488252   -0.0009226595338519078
-0.002588812215579646   -0.029603105642083138   -0.0008928292242877156
-0.0017367639213305586   -0.03   -0.0009489471790365116
-0.0020465805292907697   -0.02976258210257673   -0.000848123602230804
-0.002588812215579646   -0.029603105642083138   -0.0008928292242877156
-0.0028330298962819748   -0.029571034748240847   -0.0009395820235509523
-0.0017367639213305586   -0.03   -0.0009489471790365116
-0.0027433633649844285   -0.029564195274072422   -0.0008592865427246752
-0.0020465805292907697   -0.02976258210257673   -0.000848123602230804
-0.0016144188701633323   -0.03   -0.0008332263441517279
-0.0027433633649844285   -0.029564195274072422   -0.0008592865427246752
-0.0017367639213305586   -0.03   -0.0009489471790365116
-0.0020465805292907697   -0.02976258210257673   -0.000848123602230804
-0.0027433633649844285   -0.029564195274072422   -0.0008592865427246752
-0.0025266387534324747   -0.02959300381314342   -0.0008501205121953262
-0.002588812215579646   -0.029603105642083138   -0.0008928292242877156
-0.0020465805292907697   -0.02976258210257673   -0.000848123602230804
-0.0027433633649844285   -0.029564195274072422   -0.0008592865427246752
-0.002588812215579646   -0.029603105642083138   -0.0008928292242877156
-0.0017367639213305586   -0.03   -0.0009489471790365116
-0.0020465805292907697   -0.02976258210257673   -0.000848123602230804
-0.0025266387534324747   -0.02959300381314342   -0.0008501205121953262
-0.0016144188701633323   -0.03   -0.0008332263441517279
-0.0019507755907560453   -0.029784557018242234   -0.000773574459393523
-0.0025266387534324747   -0.02959300381314342   -0.0008501205121953262
-0.0027433633649844285   -0.029564195274072422   -0.0008592865427246752
-0.0016144188701633323   -0.03   -0.0008332263441517279
-0.0026593944462637237   -0.029577283779485576   -0.0007759742696569033
-0.0019507755907560453   -0.029784557018242234   -0.000773574459393523
-0.0014951596573021444   -0.03   -0.0007190584349298858
-0.0026593944462637237   -0.029577283779485576   -0.0007759742696569033
-0.0016144188701633323   -0.03   -0.0008332263441517279
-0.0019507755907560453   -0.029784557018242234   -0.000773574459393523
-0.0026593944462637237   -0.029577283779485576   -0.0007759742696569033
-0.002462763970584699   -0.029602363644308446   -0.0008046921403273113
-0.0025266387534324747   -0.02959300381314342   -0.0008501205121953262
-0.0019507755907560453   -0.029784557018242234   -0.000773574459393523
-0.0026593944462637237   -0.029577283779485576   -0.0007759742696569033
-0.0025266387534324747   -0.02959300381314342   -0.0008501205121953262
-0.0016144188701633323   -0.03   -0.0008332263441517279
-0.0018582636036533582   -0.03   -0.001063320740879107
-0.0029008005787068522   -0.02960245749696748   -0.001014388677476258
-0.001583990863432125   -0.03   -0.0011431998637226328
-0.0017367639213305586   -0.03   -0.0009489471790365116
-0.0029008005787068522   -0.02960245749696748   -0.001014388677476258
-0.0034118076193902103   -0.029458085769613725   -0.0011039564122677118
-0.001583990863432125   -0.03   -0.0011431998637226328
-0.003229045876100697   -0.029431217580582435   -0.000981279564635496
-0.0017367639213305586   -0.03   -0.0009489471790365116
-0.0013277938107395144   -0.03   -0.0009772517584313587
-0.003229045876100697   -0.029431217580582435   -0.000981279564635496
-0.001583990863432125   -0.03   -0.0011431998637226328
-0.0017367639213305586   -0.03   -0.0009489471790365116
-0.003229045876100697   -0.029431217580582435   -0.000981279564635496
-0.0028330298962819748   -0.029571034748240847   -0.0009395820235509523
-0.0029008005787068522   -0.02960245749696748   -0.001014388677476258
-0.0017367639213305586   -0.03   -0.0009489471790365116
-0.003229045876100697   -0.029431217580582435   -0.000981279564635496
-0.0029008005787068522   -0.02960245749696748   -0.001014388677476258
-0.001583990863432125   -0.03   -0.0011431998637226328
-0.0017367639213305586   -0.03   -0.0009489471790365116
-0.0028330298962819748   -0.029571034748240847   -0.0009395820235509523
-0.0013277938107395144   -0.03   -0.0009772517584313587
-0.0016144188701633323   -0.03   -0.0008332263441517279
-0.0028330298962819748   -0.029571034748240847   -0.0009395820235509523
-0.003229045876100697   -0.029431217580582435   -0.000981279564635496
-0.0013277938107395144   -0.03   -0.0009772517584313587
-0.003061657295398549   -0.02942778719078666   -0.000850579538018882
-0.0016144188701633323   -0.03   -0.0008332263441517279
-0.0011235023061788878   -0.03   -0.0008185290345403539
-0.003061657295398549   -0.02942778719078666   -0.000850579538018882
-0.0013277938107395144   -0.03   -0.0009772517584313587
-0.0016144188701633323   -0.03   -0.0008332263441517279
-0.003061657295398549   -0.02942778719078666   -0.000850579538018882
-0.0027433633649844285   -0.029564195274072422   -0.0008592865427246752
-0.0028330298962819748   -0.029571034748240847   -0.0009395820235509523
-0.0016144188701633323   -0.03   -0.0008332263441517279
-0.003061657295398549   -0.02942778719078666   -0.000850579538018882
-0.0028330298962819748   -0.029571034748240847   -0.0009395820235509523
-0.0013277938107395144   -0.03   -0.0009772517584313587
-0.0016144188701633323   -0.03   -0.0008332263441517279
-0.0027433633649844285   -0.029564195274072422   -0.0008592865427246752
-0.0011235023061788878   -0.03   -0.0008185290345403539
-0.0014951596573021444   -0.03   -0.0007190584349298858
-0.0027433633649844285   -0.029564195274072422   -0.0008592865427246752
-0.003061657295398549   -0.02942778719078666   -0.000850579538018882
-0.0011235023061788878   -0.03   -0.0008185290345403539
-0.0028501644800287373   -0.02946294477318101   -0.0007140965661785764
-0.0014951596573021444   -0.03   -0.0007190584349298858
-0.0008712276998314257   -0.03   -0.000653733276807122
-0.0028501644800287373   -0.02946294477318101   -0.0007140965661785764
-0.0011235023061788878   -0.03   -0.0008185290345403539
-0.0014951596573021444   -0.03   -0.0007190584349298858
-0.0028501644800287373   -0.02946294477318101   -0.0007140965661785764
-0.0026593944462637237   -0.029577283779485576   -0.0007759742696569033
-0.0027433633649844285   -0.029564195274072422   -0.0008592865427246752
-0.0014951596573021444   -0.03   -0.0007190584349298858
-0.0028501644800287373   -0.02946294477318101   -0.0007140965661785764
-0.0027433633649844285   -0.029564195274072422   -0.0008592865427246752
-0.0011235023061788878   -0.03   -0.0008185290345403539
-0.0021757865678376045   -0.029427618571628796   -0.0006424970604955733
-0.0009242406978407469   -0.02834592334640136   -0.0005540892068682405
-0.0022949046725462907   -0.02954016726109897   -0.0007539522975611547
-0.0020299075393682   -0.029377958373153552   -0.000739134283693877
-0.0009242406978407469   -0.02834592334640136   -0.0005540892068682405
-0.0016632036127284715   -0.02843150103878193   -0.0006726511222107243
-0.0022949046725462907   -0.02954016726109897   -0.0007539522975611547
-0.001622794178375868   -0.02838471965098028   -0.0007095756741479561
-0.0020299075393682   -0.029377958373153552   -0.000739134283693877
-0.002238182862741289   -0.029501543671329313   -0.0007951899582648547
-0.001622794178375868   -0.02838471965098028   -0.0007095756741479561
-0.0022949046725462907   -0.02954016726109897   -0.0007539522975611547
-0.0020299075393682   -0.029377958373153552   -0.000739134283693877
-0.001622794178375868   -0.02838471965098028   -0.0007095756741479561
-0.0008073283857331978   -0.028287912762133157   -0.000638042747949148
-0.0009242406978407469   -0.02834592334640136   -0.0005540892068682405
-0.0020299075393682   -0.029377958373153552   -0.000739134283693877
-0.001622794178375868   -0.02838471965098028   -0.0007095756741479561
-0.0009242406978407469   -0.02834592334640136   -0.0005540892068682405
-0.0022949046725462907   -0.02954016726109897   -0.0007539522975611547
-0.0020299075393682   -0.029377958373153552   -0.000739134283693877
-0.0008073283857331978   -0.028287912762133157   -0.000638042747949148
-0.002238182862741289   -0.029501543671329313   -0.0007951899582648547
-0.0019085262082618136   -0.029363330499872255   -0.0008319309587548906
-0.0008073283857331978   -0.028287912762133157   -0.000638042747949148
-0.001622794178375868   -0.02838471965098028   -0.0007095756741479561
-0.002238182862741289   -0.029501543671329313   -0.0007951899582648547
-0.0015771405771350545   -0.028359394858113878   -0.0007432577193518375
-0.0019085262082618136   -0.029363330499872255   -0.0008319309587548906
-0.0021715167651469563   -0.029487867243493643   -0.0008333285568360917
-0.0015771405771350545   -0.028359394858113878   -0.0007432577193518375
-0.002238182862741289   -0.029501543671329313   -0.0007951899582648547
-0.0019085262082618136   -0.029363330499872255   -0.0008319309587548906
-0.0015771405771350545   -0.028359394858113878   -0.0007432577193518375
-0.000715316331657044   -0.02826096346127003   -0.0007171952267494767
-0.0008073283857331978   -0.028287912762133157   -0.000638042747949148
-0.0019085262082618136   -0.029363330499872255   -0.0008319309587548906
-0.0015771405771350545   -0.028359394858113878   -0.0007432577193518375
-0.0008073283857331978   -0.028287912762133157   -0.000638042747949148
-0.002238182862741289   -0.029501543671329313   -0.0007951899582648547
-0.0019085262082618136   -0.029363330499872255   -0.0008319309587548906
-0.000715316331657044   -0.02826096346127003   -0.0007171952267494767
-0.0021715167651469563   -0.029487867243493643   -0.0008333285568360917
-0.0017708892289930566   -0.029377641929669896   -0.0009204948620821759
-0.000715316331657044   -0.02826096346127003   -0.0007171952267494767
-0.0015771405771350545   -0.028359394858113878   -0.0007432577193518375
-0.0021715167651469563   -0.029487867243493643   -0.0008333285568360917
-0.0015421848123943849   -0.028354811635953936   -0.000773806284119537
-0.0017708892289930566   -0.029377641929669896   -0.0009204948620821759
-0.0021144880293651218   -0.029499362086533795   -0.0008681783865214051
-0.0015421848123943849   -0.028354811635953936   -0.000773806284119537
-0.0021715167651469563   -0.029487867243493643   -0.0008333285568360917
-0.0017708892289930566   -0.029377641929669896   -0.0009204948620821759
-0.0015421848123943849   -0.028354811635953936   -0.000773806284119537
-0.000614465944156439   -0.02825720101507221   -0.0007913505863104425
-0.000715316331657044   -0.02826096346127003   -0.0007171952267494767
-0.0017708892289930566   -0.029377641929669896   -0.0009204948620821759
-0.0015421848123943849   -0.028354811635953936   -0.000773806284119537
-0.000715316331657044   -0.02826096346127003   -0.0007171952267494767
-0.0021715167651469563   -0.029487867243493643   -0.0008333285568360917
-0.0022949046725462907   -0.02954016726109897   -0.0007539522975611547
-0.0016632036127284715   -0.02843150103878193   -0.0006726511222107243
-0.0024614737159110557   -0.029608790463341125   -0.000842921895655251
-0.002238182862741289   -0.029501543671329313   -0.0007951899582648547
-0.0016632036127284715   -0.02843150103878193   -0.0006726511222107243
-0.002395313762077186   -0.02846145468881286   -0.0007690991374426598
-0.0024614737159110557   -0.029608790463341125   -0.000842921895655251
-0.002361439186458997   -0.02842066400269589   -0.0007709881712551267
-0.002238182862741289   -0.029501543671329313   -0.0007951899582648547
-0.002411358310043903   -0.029574260689629175   -0.0008438661810131519
-0.002361439186458997   -0.02842066400269589   -0.0007709881712551267
-0.0024614737159110557   -0.029608790463341125   -0.000842921895655251
-0.002238182862741289   -0.029501543671329313   -0.0007951899582648547
-0.002361439186458997   -0.02842066400269589   -0.0007709881712551267
-0.001622794178375868   -0.02838471965098028   -0.0007095756741479561
-0.0016632036127284715   -0.02843150103878193   -0.0006726511222107243
-0.002238182862741289   -0.029501543671329313   -0.0007951899582648547
-0.002361439186458997   -0.02842066400269589   -0.0007709881712551267
-0.0016632036127284715   -0.02843150103878193   -0.0006726511222107243
-0.0024614737159110557   -0.029608790463341125   -0.000842921895655251
-0.002238182862741289   -0.029501543671329313   -0.0007951899582648547
-0.001622794178375868   -0.02838471965098028   -0.0007095756741479561
-0.002411358310043903   -0.029574260689629175   -0.0008438661810131519
-0.0021715167651469563   -0.029487867243493643   -0.0008333285568360917
-0.001622794178375868   -0.02838471965098028   -0.0007095756741479561
-0.002361439186458997   -0.02842066400269589   -0.0007709881712551267
-0.002411358310043903   -0.029574260689629175   -0.0008438661810131519
-0.002326385583779695   -0.02839920758984778   -0.0007698719151913624
-0.0021715167651469563   -0.029487867243493643   -0.0008333285568360917
-0.0023556118913285163   -0.029562319002311436   -0.0008407938612493756
-0.002326385583779695   -0.02839920758984778   -0.0007698719151913624
-0.002411358310043903   -0.029574260689629175   -0.0008438661810131519
-0.0021715167651469563   -0.029487867243493643   -0.0008333285568360917
-0.002326385583779695   -0.02839920758984778   -0.0007698719151913624
-0.0015771405771350545   -0.028359394858113878   -0.0007432577193518375
-0.001622794178375868   -0.02838471965098028   -0.0007095756741479561
-0.0021715167651469563   -0.029487867243493643   -0.0008333285568360917
-0.002326385583779695   -0.02839920758984778   -0.0007698719151913624
-0.001622794178375868   -0.02838471965098028   -0.0007095756741479561
-0.002411358310043903   -0.029574260689629175   -0.0008438661810131519
-0.0021715167651469563   -0.029487867243493643   -0.0008333285568360917
-0.0015771405771350545   -0.028359394858113878   -0.0007432577193518375
-0.0023556118913285163   -0.029562319002311436   -0.0008407938612493756
-0.0021144880293651218   -0.029499362086533795   -0.0008681783865214051
-0.0015771405771350545   -0.028359394858113878   -0.0007432577193518375
-0.002326385583779695   -0.02839920758984778   -0.0007698719151913624
-0.0023556118913285163   -0.029562319002311436   -0.0008407938612493756
-0.0022926020781933914   -0.028396194270202863   -0.000765732949712352
-0.0021144880293651218   -0.029499362086533795   -0.0008681783865214051
-0.0022989737454988408   -0.02957198259092241   -0.0008345675599783942
-0.0022926020781933914   -0.028396194270202863   -0.000765732949712352
-0.0023556118913285163   -0.029562319002311436   -0.0008407938612493756
-0.0021144880293651218   -0.029499362086533795   -0.0008681783865214051
-0.0022926020781933914   -0.028396194270202863   -0.000765732949712352
-0.0015421848123943849   -0.028354811635953936   -0.000773806284119537
-0.0015771405771350545   -0.028359394858113878   -0.0007432577193518375
-0.0021144880293651218   -0.029499362086533795   -0.0008681783865214051
-0.0022926020781933914   -0.028396194270202863   -0.000765732949712352
-0.0015771405771350545   -0.028359394858113878   -0.0007432577193518375
-0.0023556118913285163   -0.029562319002311436   -0.0008407938612493756
-0.0024614737159110557   -0.029608790463341125   -0.000842921895655251
-0.002395313762077186   -0.02846145468881286   -0.0007690991374426598
-0.002640731803267952   -0.029636152137857964   -0.0009306426438845315
-0.002411358310043903   -0.029574260689629175   -0.0008438661810131519
-0.002395313762077186   -0.02846145468881286   -0.0007690991374426598
-0.003122756399159449   -0.028434308200200736   -0.000859429804241754
-0.002640731803267952   -0.029636152137857964   -0.0009306426438845315
-0.0030891504697273878   -0.028398023160669018   -0.0008277009459606175
-0.002411358310043903   -0.029574260689629175   -0.0008438661810131519
-0.002588812215579646   -0.029603105642083138   -0.0008928292242877156
-0.0030891504697273878   -0.028398023160669018   -0.0008277009459606175
-0.002640731803267952   -0.029636152137857964   -0.0009306426438845315
-0.002411358310043903   -0.029574260689629175   -0.0008438661810131519
-0.0030891504697273878   -0.028398023160669018   -0.0008277009459606175
-0.002361439186458997   -0.02842066400269589   -0.0007709881712551267
-0.002395313762077186   -0.02846145468881286   -0.0007690991374426598
-0.002411358310043903   -0.029574260689629175   -0.0008438661810131519
-0.0030891504697273878   -0.028398023160669018   -0.0008277009459606175
-0.002395313762077186   -0.02846145468881286   -0.0007690991374426598
-0.002640731803267952   -0.029636152137857964   -0.0009306426438845315
-0.002411358310043903   -0.029574260689629175   -0.0008438661810131519
-0.002361439186458997   -0.02842066400269589   -0.0007709881712551267
-0.002588812215579646   -0.029603105642083138   -0.0008928292242877156
-0.0023556118913285163   -0.029562319002311436   -0.0008407938612493756
-0.002361439186458997   -0.02842066400269589   -0.0007709881712551267
-0.0030891504697273878   -0.028398023160669018   -0.0008277009459606175
-0.002588812215579646   -0.029603105642083138   -0.0008928292242877156
-0.003051440639813021   -0.02838076034094992   -0.0007930161784877491
-0.0023556118913285163   -0.029562319002311436   -0.0008407938612493756
-0.0025266387534324747   -0.02959300381314342   -0.0008501205121953262
-0.003051440639813021   -0.02838076034094992   -0.0007930161784877491
-0.002588812215579646   -0.029603105642083138   -0.0008928292242877156
-0.0023556118913285163   -0.029562319002311436   -0.0008407938612493756
-0.003051440639813021   -0.02838076034094992   -0.0007930161784877491
-0.002326385583779695   -0.02839920758984778   -0.0007698719151913624
-0.002361439186458997   -0.02842066400269589   -0.0007709881712551267
-0.0023556118913285163   -0.029562319002311436   -0.0008407938612493756
-0.003051440639813021   -0.02838076034094992   -0.0007930161784877491
-0.002361439186458997   -0.02842066400269589   -0.0007709881712551267
-0.002588812215579646   -0.029603105642083138   -0.0008928292242877156
-0.0023556118913285163   -0.029562319002311436   -0.0008407938612493756
-0.002326385583779695   -0.02839920758984778   -0.0007698719151913624
-0.0025266387534324747   -0.02959300381314342   -0.0008501205121953262
-0.0022989737454988408   -0.02957198259092241   -0.0008345675599783942
-0.002326385583779695   -0.02839920758984778   -0.0007698719151913624
-0.003051440639813021   -0.02838076034094992   -0.0007930161784877491
-0.0025266387534324747   -0.02959300381314342   -0.0008501205121953262
-0.0030136278459858626   -0.028380747889561405   -0.0007550162555342236
-0.0022989737454988408   -0.02957198259092241   -0.0008345675599783942
-0.002462763970584699   -0.029602363644308446   -0.0008046921403273113
-0.0030136278459858626   -0.028380747889561405   -0.0007550162555342236
-0.0025266387534324747   -0.02959300381314342   -0.0008501205121953262
-0.0022989737454988408   -0.02957198259092241   -0.0008345675599783942
-0.0030136278459858626   -0.028380747889561405   -0.0007550162555342236
-0.0022926020781933914   -0.028396194270202863   -0.000765732949712352
-0.002326385583779695   -0.02839920758984778   -0.0007698719151913624
-0.0022989737454988408   -0.02957198259092241   -0.0008345675599783942
-0.0030136278459858626   -0.028380747889561405   -0.0007550162555342236
-0.002326385583779695   -0.02839920758984778   -0.0007698719151913624
-0.0025266387534324747   -0.02959300381314342   -0.0008501205121953262
-0.002640731803267952   -0.029636152137857964   -0.0009306426438845315
-0.003122756399159449   -0.028434308200200736   -0.000859429804241754
-0.0029008005787068522   -0.02960245749696748   -0.001014388677476258
-0.002588812215579646   -0.029603105642083138   -0.0008928292242877156
-0.003122756399159449   -0.028434308200200736   -0.000859429804241754
-0.003920888486853953   -0.02834655910542076   -0.000942609604829065
-0.0029008005787068522   -0.02960245749696748   -0.001014388677476258
-0.0038796019394898135   -0.028314746812766328   -0.0008779549692853395
-0.002588812215579646   -0.029603105642083138   -0.0008928292242877156
-0.0028330298962819748   -0.029571034748240847   -0.0009395820235509523
-0.0038796019394898135   -0.028314746812766328   -0.0008779549692853395
-0.0029008005787068522   -0.02960245749696748   -0.001014388677476258
-0.002588812215579646   -0.029603105642083138   -0.0008928292242877156
-0.0038796019394898135   -0.028314746812766328   -0.0008779549692853395
-0.0030891504697273878   -0.028398023160669018   -0.0008277009459606175
-0.003122756399159449   -0.028434308200200736   -0.000859429804241754
-0.002588812215579646   -0.029603105642083138   -0.0008928292242877156
-0.0038796019394898135   -0.028314746812766328   -0.0008779549692853395
-0.003122756399159449   -0.028434308200200736   -0.000859429804241754
-0.0029008005787068522   -0.02960245749696748   -0.001014388677476258
-0.002588812215579646   -0.029603105642083138   -0.0008928292242877156
-0.0030891504697273878   -0.028398023160669018   -0.0008277009459606175
-0.0028330298962819748   -0.029571034748240847   -0.0009395820235509523
-0.0025266387534324747   -0.02959300381314342   -0.0008501205121953262
-0.0030891504697273878   -0.028398023160669018   -0.0008277009459606175
-0.0038796019394898135   -0.028314746812766328   -0.0008779549692853395
-0.0028330298962819748   -0.029571034748240847   -0.0009395820235509523
-0.0038224565489979614   -0.028301661246410682   -0.000810576335545736
-0.0025266387534324747   -0.02959300381314342   -0.0008501205121953262
-0.0027433633649844285   -0.029564195274072422   -0.0008592865427246752
-0.0038224565489979614   -0.028301661246410682   -0.000810576335545736
-0.0028330298962819748   -0.029571034748240847   -0.0009395820235509523
-0.0025266387534324747   -0.02959300381314342   -0.0008501205121953262
-0.0038224565489979614   -0.028301661246410682   -0.000810576335545736
-0.003051440639813021   -0.02838076034094992   -0.0007930161784877491
-0.0030891504697273878   -0.028398023160669018   -0.0008277009459606175
-0.0025266387534324747   -0.02959300381314342   -0.0008501205121953262
-0.0038224565489979614   -0.028301661246410682   -0.000810576335545736
-0.0030891504697273878   -0.028398023160669018   -0.0008277009459606175
-0.0028330298962819748   -0.029571034748240847   -0.0009395820235509523
-0.0025266387534324747   -0.02959300381314342   -0.0008501205121953262
-0.003051440639813021   -0.02838076034094992   -0.0007930161784877491
-0.0027433633649844285   -0.029564195274072422   -0.0008592865427246752
-0.002462763970584699   -0.029602363644308446   -0.0008046921403273113
-0.003051440639813021   -0.02838076034094992   -0.0007930161784877491
-0.0038224565489979614   -0.028301661246410682   -0.000810576335545736
-0.0027433633649844285   -0.029564195274072422   -0.0008592865427246752
-0.0037728249462634054   -0.02830731068200846   -0.0007386358514342858
-0.002462763970584699   -0.029602363644308446   -0.0008046921403273113
-0.0026593944462637237   -0.029577283779485576   -0.0007759742696569033
-0.0037728249462634054   -0.02830731068200846   -0.0007386358514342858
-0.0027433633649844285   -0.029564195274072422   -0.0008592865427246752
-0.002462763970584699   -0.029602363644308446   -0.0008046921403273113
-0.0037728249462634054   -0.02830731068200846   -0.0007386358514342858
-0.0030136278459858626   -0.028380747889561405   -0.0007550162555342236
-0.003051440639813021   -0.02838076034094992   -0.0007930161784877491
-0.002462763970584699   -0.029602363644308446   -0.0008046921403273113
-0.0037728249462634054   -0.02830731068200846   -0.0007386358514342858
-0.003051440639813021   -0.02838076034094992   -0.0007930161784877491
-0.0027433633649844285   -0.029564195274072422   -0.0008592865427246752
-0.0029008005787068522   -0.02960245749696748   -0.001014388677476258
-0.003920888486853953   -0.02834655910542076   -0.000942609604829065
-0.0034118076193902103   -0.029458085769613725   -0.0011039564122677118
-0.0028330298962819748   -0.029571034748240847   -0.0009395820235509523
-0.003920888486853953   -0.02834655910542076   -0.000942609604829065
-0.0049484674259230865   -0.028203848731002696   -0.001023074552725353
-0.0034118076193902103   -0.029458085769613725   -0.0011039564122677118
-0.004813356067227503   -0.02816909344201361   -0.0009209288845436624
-0.0028330298962819748   -0.029571034748240847   -0.0009395820235509523
-0.003229045876100697   -0.029431217580582435   -0.000981279564635496
-0.004813356067227503   -0.02816909344201361   -0.0009209288845436624
-0.0034118076193902103   -0.029458085769613725   -0.0011039564122677118
-0.0028330298962819748   -0.029571034748240847   -0.0009395820235509523
-0.004813356067227503   -0.02816909344201361   -0.0009209288845436624
-0.0038796019394898135   -0.028314746812766328   -0.0008779549692853395
-0.003920888486853953   -0.02834655910542076   -0.000942609604829065
-0.0028330298962819748   -0.029571034748240847   -0.0009395820235509523
-0.004813356067227503   -0.02816909344201361   -0.0009209288845436624
-0.003920888486853953   -0.02834655910542076   -0.000942609604829065
-0.0034118076193902103   -0.029458085769613725   -0.0011039564122677118
-0.0028330298962819748   -0.029571034748240847   -0.0009395820235509523
-0.0038796019394898135   -0.028314746812766328   -0.0008779549692853395
-0.003229045876100697   -0.029431217580582435   -0.000981279564635496
-0.0027433633649844285   -0.029564195274072422   -0.0008592865427246752
-0.0038796019394898135   -0.028314746812766328   -0.0008779549692853395
-0.004813356067227503   -0.02816909344201361   -0.0009209288845436624
-0.003229045876100697   -0.029431217580582435   -0.000981279564635496
-0.004692688160971883   -0.02815698980359244   -0.0008130377432601553
-0.0027433633649844285   -0.029564195274072422   -0.0008592865427246752
-0.003061657295398549   -0.02942778719078666   -0.000850579538018882
-0.004692688160971883   -0.02815698980359244   -0.0008130377432601553
-0.003229045876100697   -0.029431217580582435   -0.000981279564635496
-0.0027433633649844285   -0.029564195274072422   -0.0008592865427246752
-0.004692688160971883   -0.02815698980359244   -0.0008130377432601553
-0.0038224565489979614   -0.028301661246410682   -0.000810576335545736
-0.0038796019394898135   -0.028314746812766328   -0.0008779549692853395
-0.0027433633649844285   -0.029564195274072422   -0.0008592865427246752
-0.004692688160971883   -0.02815698980359244   -0.0008130377432601553
-0.0038796019394898135   -0.028314746812766328   -0.0008779549692853395
-0.003229045876100697   -0.029431217580582435   -0.000981279564635496
-0.0027433633649844285   -0.029564195274072422   -0.0008592865427246752
-0.0038224565489979614   -0.028301661246410682   -0.000810576335545736
-0.003061657295398549   -0.02942778719078666   -0.000850579538018882
-0.0026593944462637237   -0.029577283779485576   -0.0007759742696569033
-0.0038224565489979614   -0.028301661246410682   -0.000810576335545736
-0.004692688160971883   -0.02815698980359244   -0.0008130377432601553
-0.003061657295398549   -0.02942778719078666   -0.000850579538018882
-0.00453635303956177   -0.02817392559348064   -0.00070040898447413
-0.0026593944462637237   -0.029577283779485576   -0.0007759742696569033
-0.0028501644800287373   -0.02946294477318101   -0.0007140965661785764
-0.00453635303956177   -0.02817392559348064   -0.00070040898447413
-0.003061657295398549   -0.02942778719078666   -0.000850579538018882
-0.0026593944462637237   -0.029577283779485576   -0.0007759742696569033
-0.00453635303956177   -0.02817392559348064   -0.00070040898447413
-0.0037728249462634054   -0.02830731068200846   -0.0007386358514342858
-0.0038224565489979614   -0.028301661246410682   -0.000810576335545736
-0.0026593944462637237   -0.029577283779485576   -0.0007759742696569033
-0.00453635303956177   -0.02817392559348064   -0.00070040898447413
-0.0038224565489979614   -0.028301661246410682   -0.000810576335545736
-0.003061657295398549   -0.02942778719078666   -0.000850579538018882
-0.0009242406978407469   -0.02834592334640136   -0.0005540892068682405
9.753768216525508e-05   -0.02633140054958902   -0.0004574286166331923
-0.0016632036127284715   -0.02843150103878193   -0.0006726511222107243
-0.0008073283857331978   -0.028287912762133157   -0.000638042747949148
9.753768216525508e-05   -0.02633140054958902   -0.0004574286166331923
-0.0011583696495200148   -0.02639468049389117   -0.0005739886613537261
-0.0016632036127284715   -0.02843150103878193   -0.0006726511222107243
-0.0011367701332993742   -0.02634561647869403   -0.0006034739731088259
-0.0008073283857331978   -0.028287912762133157   -0.000638042747949148
-0.001622794178375868   -0.02838471965098028   -0.0007095756741479561
-0.0011367701332993742   -0.02634561647869403   -0.0006034739731088259
-0.0016632036127284715   -0.02843150103878193   -0.0006726511222107243
-0.0008073283857331978   -0.028287912762133157   -0.000638042747949148
-0.0011367701332993742   -0.02634561647869403   -0.0006034739731088259
0.00017990621524559933   -0.026272360671971307   -0.0005247538853221487
9.753768216525508e-05   -0.02633140054958902   -0.0004574286166331923
-0.0008073283857331978   -0.028287912762133157   -0.000638042747949148
-0.0011367701332993742   -0.02634561647869403   -0.0006034739731088259
9.753768216525508e-05   -0.02633140054958902   -0.0004574286166331923
-0.0016632036127284715   -0.02843150103878193   -0.0006726511222107243
-0.0008073283857331978   -0.028287912762133157   -0.000638042747949148
0.00017990621524559933   -0.026272360671971307   -0.0005247538853221487
-0.001622794178375868   -0.02838471965098028   -0.0007095756741479561
-0.000715316331657044   -0.02826096346127003   -0.0007171952267494767
0.00017990621524559933   -0.026272360671971307   -0.0005247538853221487
-0.0011367701332993742   -0.02634561647869403   -0.0006034739731088259
-0.001622794178375868   -0.02838471965098028   -0.0007095756741479561
-0.0011120481304503   -0.026314168612529675   -0.0006296156073120091
-0.000715316331657044   -0.02826096346127003   -0.0007171952267494767
-0.0015771405771350545   -0.028359394858113878   -0.0007432577193518375
-0.0011120481304503   -0.026314168612529675   -0.0006296156073120091
-0.001622794178375868   -0.02838471965098028   -0.0007095756741479561
-0.000715316331657044   -0.02826096346127003   -0.0007171952267494767
-0.0011120481304503   -0.026314168612529675   -0.0006296156073120091
0.00024057477424779139   -0.02623893895522664   -0.0005873984157194296
0.00017990621524559933   -0.026272360671971307   -0.0005247538853221487
-0.000715316331657044   -0.02826096346127003   -0.0007171952267494767
-0.0011120481304503   -0.026314168612529675   -0.0006296156073120091
0.00017990621524559933   -0.026272360671971307   -0.0005247538853221487
-0.001622794178375868   -0.02838471965098028   -0.0007095756741479561
-0.000715316331657044   -0.02826096346127003   -0.0007171952267494767
0.00024057477424779139   -0.02623893895522664   -0.0005873984157194296
-0.0015771405771350545   -0.028359394858113878   -0.0007432577193518375
-0.000614465944156439   -0.02825720101507221   -0.0007913505863104425
0.00024057477424779139   -0.02623893895522664   -0.0005873984157194296
-0.0011120481304503   -0.026314168612529675   -0.0006296156073120091
-0.0015771405771350545   -0.028359394858113878   -0.0007432577193518375
-0.001097252571621679   -0.02629938548634681   -0.0006527445619443129
-0.000614465944156439   -0.02825720101507221   -0.0007913505863104425
-0.0015421848123943849   -0.028354811635953936   -0.000773806284119537
-0.001097252571621679   -0.02629938548634681   -0.0006527445619443129
-0.0015771405771350545   -0.028359394858113878   -0.0007432577193518375
-0.000614465944156439   -0.02825720101507221   -0.0007913505863104425
-0.001097252571621679   -0.02629938548634681   -0.0006527445619443129
0.00030586663373248697   -0.026223512149713735   -0.0006453449947978823
0.00024057477424779139   -0.02623893895522664   -0.0005873984157194296
-0.000614465944156439   -0.02825720101507221   -0.0007913505863104425
-0.001097252571621679   -0.02629938548634681   -0.0006527445619443129
0.00024057477424779139   -0.02623893895522664   -0.0005873984157194296
-0.0015771405771350545   -0.028359394858113878   -0.0007432577193518375
-0.0016632036127284715   -0.02843150103878193   -0.0006726511222107243
-0.0011583696495200148   -0.02639468049389117   -0.0005739886613537261
-0.002395313762077186   -0.02846145468881286   -0.0007690991374426598
-0.001622794178375868   -0.02838471965098028   -0.0007095756741479561
-0.0011583696495200148   -0.02639468049389117   -0.0005739886613537261
-0.0023757620429061487   -0.02640684485453749   -0.000669656930044561
-0.002395313762077186   -0.02846145468881286   -0.0007690991374426598
-0.002359976335755663   -0.02636481591312619   -0.0006703093531035287
-0.001622794178375868   -0.02838471965098028   -0.0007095756741479561
-0.002361439186458997   -0.02842066400269589   -0.0007709881712551267
-0.002359976335755663   -0.02636481591312619   -0.0006703093531035287
-0.002395313762077186   -0.02846145468881286   -0.0007690991374426598
-0.001622794178375868   -0.02838471965098028   -0.0007095756741479561
-0.002359976335755663   -0.02636481591312619   -0.0006703093531035287
-0.0011367701332993742   -0.02634561647869403   -0.0006034739731088259
-0.0011583696495200148   -0.02639468049389117   -0.0005739886613537261
-0.001622794178375868   -0.02838471965098028   -0.0007095756741479561
-0.002359976335755663   -0.02636481591312619   -0.0006703093531035287
-0.0011583696495200148   -0.02639468049389117   -0.0005739886613537261
-0.002395313762077186   -0.02846145468881286   -0.0007690991374426598
-0.001622794178375868   -0.02838471965098028   -0.0007095756741479561
-0.0011367701332993742   -0.02634561647869403   -0.0006034739731088259
-0.002361439186458997   -0.02842066400269589   -0.0007709881712551267
-0.0015771405771350545   -0.028359394858113878   -0.0007432577193518375
-0.0011367701332993742   -0.02634561647869403   -0.0006034739731088259
-0.002359976335755663   -0.02636481591312619   -0.0006703093531035287
-0.002361439186458997   -0.02842066400269589   -0.0007709881712551267
-0.002343727324348245   -0.02633854514853503   -0.0006677531016917553
-0.0015771405771350545   -0.028359394858113878   -0.0007432577193518375
-0.002326385583779695   -0.02839920758984778   -0.0007698719151913624
-0.002343727324348245   -0.02633854514853503   -0.0006677531016917553
-0.002361439186458997   -0.02842066400269589   -0.0007709881712551267
-0.0015771405771350545   -0.028359394858113878   -0.0007432577193518375
-0.002343727324348245   -0.02633854514853503   -0.0006677531016917553
-0.0011120481304503   -0.026314168612529675   -0.0006296156073120091
-0.0011367701332993742   -0.02634561647869403   -0.0006034739731088259
-0.0015771405771350545   -0.028359394858113878   -0.0007432577193518375
-0.002343727324348245   -0.02633854514853503   -0.0006677531016917553
-0.0011367701332993742   -0.02634561647869403   -0.0006034739731088259
-0.002361439186458997   -0.02842066400269589   -0.0007709881712551267
-0.0015771405771350545   -0.028359394858113878   -0.0007432577193518375
-0.0011120481304503   -0.026314168612529675   -0.0006296156073120091
-0.002326385583779695   -0.02839920758984778   -0.0007698719151913624
-0.0015421848123943849   -0.028354811635953936   -0.000773806284119537
-0.0011120481304503   -0.026314168612529675   -0.0006296156073120091
-0.002343727324348245   -0.02633854514853503   -0.0006677531016917553
-0.002326385583779695   -0.02839920758984778   -0.0007698719151913624
-0.0023295216138781516   -0.026327787195567692   -0.0006622097591510961
-0.0015421848123943849   -0.028354811635953936   -0.000773806284119537
-0.0022926020781933914   -0.028396194270202863   -0.000765732949712352
-0.0023295216138781516   -0.026327787195567692   -0.0006622097591510961
-0.002326385583779695   -0.02839920758984778   -0.0007698719151913624
-0.0015421848123943849   -0.028354811635953936   -0.000773806284119537
-0.0023295216138781516   -0.026327787195567692   -0.0006622097591510961
-0.001097252571621679   -0.02629938548634681   -0.0006527445619443129
-0.0011120481304503   -0.026314168612529675   -0.0006296156073120091
-0.0015421848123943849   -0.028354811635953936   -0.000773806284119537
-0.0023295216138781516   -0.026327787195567692   -0.0006622097591510961
-0.0011120481304503   -0.026314168612529675   -0.0006296156073120091
-0.002326385583779695   -0.02839920758984778   -0.0007698719151913624
-0.002395313762077186   -0.02846145468881286   -0.0007690991374426598
-0.0023757620429061487   -0.02640684485453749   -0.000669656930044561
-0.003122756399159449   -0.028434308200200736   -0.000859429804241754
-0.002361439186458997   -0.02842066400269589   -0.0007709881712551267
-0.0023757620429061487   -0.02640684485453749   -0.000669656930044561
-0.00357453389471835   -0.02636783493622371   -0.000755975897180411
-0.003122756399159449   -0.028434308200200736   -0.000859429804241754
-0.0035598467352410063   -0.026331603625350267   -0.0007284841822476246
-0.002361439186458997   -0.02842066400269589   -0.0007709881712551267
-0.0030891504697273878   -0.028398023160669018   -0.0008277009459606175
-0.0035598467352410063   -0.026331603625350267   -0.0007284841822476246
-0.003122756399159449   -0.028434308200200736   -0.000859429804241754
-0.002361439186458997   -0.02842066400269589   -0.0007709881712551267
-0.0035598467352410063   -0.026331603625350267   -0.0007284841822476246
-0.002359976335755663   -0.02636481591312619   -0.0006703093531035287
-0.0023757620429061487   -0.02640684485453749   -0.000669656930044561
-0.002361439186458997   -0.02842066400269589   -0.0007709881712551267
-0.0035598467352410063   -0.026331603625350267   -0.0007284841822476246
-0.0023757620429061487   -0.02640684485453749   -0.000669656930044561
-0.003122756399159449   -0.028434308200200736   -0.000859429804241754
-0.002361439186458997   -0.02842066400269589   -0.0007709881712551267
-0.002359976335755663   -0.02636481591312619   -0.0006703093531035287
-0.0030891504697273878   -0.028398023160669018   -0.0008277009459606175
-0.002326385583779695   -0.02839920758984778   -0.0007698719151913624
-0.002359976335755663   -0.02636481591312619   -0.0006703093531035287
-0.0035598467352410063   -0.026331603625350267   -0.0007284841822476246
-0.0030891504697273878   -0.028398023160669018   -0.0008277009459606175
-0.0035420896799350887   -0.02631095980283179   -0.0006978578220344634
-0.002326385583779695   -0.02839920758984778   -0.0007698719151913624
-0.003051440639813021   -0.02838076034094992   -0.0007930161784877491
-0.0035420896799350887   -0.02631095980283179   -0.0006978578220344634
-0.0030891504697273878   -0.028398023160669018   -0.0008277009459606175
-0.002326385583779695   -0.02839920758984778   -0.0007698719151913624
-0.0035420896799350887   -0.02631095980283179   -0.0006978578220344634
-0.002343727324348245   -0.02633854514853503   -0.0006677531016917553
-0.002359976335755663   -0.02636481591312619   -0.0006703093531035287
-0.002326385583779695   -0.02839920758984778   -0.0007698719151913624
-0.0035420896799350887   -0.02631095980283179   -0.0006978578220344634
-0.002359976335755663   -0.02636481591312619   -0.0006703093531035287
-0.0030891504697273878   -0.028398023160669018   -0.0008277009459606175
-0.002326385583779695   -0.02839920758984778   -0.0007698719151913624
-0.002343727324348245   -0.02633854514853503   -0.0006677531016917553
-0.003051440639813021   -0.02838076034094992   -0.0007930161784877491
-0.0022926020781933914   -0.028396194270202863   -0.000765732949712352
-0.002343727324348245   -0.02633854514853503   -0.0006677531016917553
-0.0035420896799350887   -0.02631095980283179   -0.0006978578220344634
-0.003051440639813021   -0.02838076034094992   -0.0007930161784877491
-0.0035248522450733494   -0.026305206953126724   -0.00066419227192328
-0.0022926020781933914   -0.028396194270202863   -0.000765732949712352
-0.0030136278459858626   -0.028380747889561405   -0.0007550162555342236
-0.0035248522450733494   -0.026305206953126724   -0.00066419227192328
-0.003051440639813021   -0.02838076034094992   -0.0007930161784877491
-0.0022926020781933914   -0.028396194270202863   -0.000765732949712352
-0.0035248522450733494   -0.026305206953126724   -0.00066419227192328
-0.0023295216138781516   -0.026327787195567692   -0.0006622097591510961
-0.002343727324348245   -0.02633854514853503   -0.0006677531016917553
-0.0022926020781933914   -0.028396194270202863   -0.000765732949712352
-0.0035248522450733494   -0.026305206953126724   -0.00066419227192328
-0.002343727324348245   -0.02633854514853503   -0.0006677531016917553
-0.003051440639813021   -0.02838076034094992   -0.0007930161784877491
-0.003122756399159449   -0.028434308200200736   -0.000859429804241754
-0.00357453389471835   -0.02636783493622371   -0.000755975897180411
-0.003920888486853953   -0.02834655910542076   -0.000942609604829065
-0.0030891504697273878   -0.028398023160669018   -0.0008277009459606175
-0.00357453389471835   -0.02636783493622371   -0.000755975897180411
-0.004830110748635457   -0.026278961731311664   -0.0008327070983942983
-0.003920888486853953   -0.02834655910542076   -0.000942609604829065
-0.004810775351055094   -0.026248216529396816   -0.0007770116090571692
-0.0030891504697273878   -0.028398023160669018   -0.0008277009459606175
-0.0038796019394898135   -0.028314746812766328   -0.0008779549692853395
-0.004810775351055094   -0.026248216529396816   -0.0007770116090571692
-0.003920888486853953   -0.02834655910542076   -0.000942609604829065
-0.0030891504697273878   -0.028398023160669018   -0.0008277009459606175
-0.004810775351055094   -0.026248216529396816   -0.0007770116090571692
-0.0035598467352410063   -0.026331603625350267   -0.0007284841822476246
-0.00357453389471835   -0.02636783493622371   -0.000755975897180411
-0.0030891504697273878   -0.028398023160669018   -0.0008277009459606175
-0.004810775351055094   -0.026248216529396816   -0.0007770116090571692
-0.00357453389471835   -0.02636783493622371   -0.000755975897180411
-0.003920888486853953   -0.02834655910542076   -0.000942609604829065
-0.0030891504697273878   -0.028398023160669018   -0.0008277009459606175
-0.0035598467352410063   -0.026331603625350267   -0.0007284841822476246
-0.0038796019394898135   -0.028314746812766328   -0.0008779549692853395
-0.003051440639813021   -0.02838076034094992   -0.0007930161784877491
-0.0035598467352410063   -0.026331603625350267   -0.0007284841822476246
-0.004810775351055094   -0.026248216529396816   -0.0007770116090571692
-0.0038796019394898135   -0.028314746812766328   -0.0008779549692853395
-0.004777912319690763   -0.026232673456091954   -0.0007186702121937668
-0.003051440639813021   -0.02838076034094992   -0.0007930161784877491
-0.0038224565489979614   -0.028301661246410682   -0.000810576335545736
-0.004777912319690763   -0.026232673456091954   -0.0007186702121937668
-0.0038796019394898135   -0.028314746812766328   -0.0008779549692853395
-0.003051440639813021   -0.02838076034094992   -0.0007930161784877491
-0.004777912319690763   -0.026232673456091954   -0.0007186702121937668
-0.0035420896799350887   -0.02631095980283179   -0.0006978578220344634
-0.0035598467352410063   -0.026331603625350267   -0.0007284841822476246
-0.003051440639813021   -0.02838076034094992   -0.0007930161784877491
-0.004777912319690763   -0.026232673456091954   -0.0007186702121937668
-0.0035598467352410063   -0.026331603625350267   -0.0007284841822476246
-0.0038796019394898135   -0.028314746812766328   -0.0008779549692853395
-0.003051440639813021   -0.02838076034094992   -0.0007930161784877491
-0.0035420896799350887   -0.02631095980283179   -0.0006978578220344634
-0.0038224565489979614   -0.028301661246410682   -0.000810576335545736
-0.0030136278459858626   -0.028380747889561405   -0.0007550162555342236
-0.0035420896799350887   -0.02631095980283179   -0.0006978578220344634
-0.004777912319690763   -0.026232673456091954   -0.0007186702121937668
-0.0038224565489979614   -0.028301661246410682   -0.000810576335545736
-0.004751395109425692   -0.02623318898566186   -0.0006568431033101805
-0.0030136278459858626   -0.028380747889561405   -0.0007550162555342236
-0.0037728249462634054   -0.02830731068200846   -0.0007386358514342858
-0.004751395109425692   -0.02623318898566186   -0.0006568431033101805
-0.0038224565489979614   -0.028301661246410682   -0.000810576335545736
-0.0030136278459858626   -0.028380747889561405   -0.0007550162555342236
-0.004751395109425692   -0.02623318898566186   -0.0006568431033101805
-0.0035248522450733494   -0.026305206953126724   -0.00066419227192328
-0.0035420896799350887   -0.02631095980283179   -0.0006978578220344634
-0.0030136278459858626   -0.028380747889561405   -0.0007550162555342236
-0.004751395109425692   -0.02623318898566186   -0.0006568431033101805
-0.0035420896799350887   -0.02631095980283179   -0.0006978578220344634
-0.0038224565489979614   -0.028301661246410682   -0.000810576335545736
-0.003920888486853953   -0.02834655910542076   -0.000942609604829065
-0.004830110748635457   -0.026278961731311664   -0.0008327070983942983
-0.0049484674259230865   -0.028203848731002696   -0.001023074552725353
-0.0038796019394898135   -0.028314746812766328   -0.0008779549692853395
-0.004830110748635457   -0.026278961731311664   -0.0008327070983942983
-0.006294052226229392   -0.02615051446419696   -0.0009046881154225941
-0.0049484674259230865   -0.028203848731002696   -0.001023074552725353
-0.0061935289919974315   -0.026118248870302944   -0.0008174084452685009
-0.0038796019394898135   -0.028314746812766328   -0.0008779549692853395
-0.004813356067227503   -0.02816909344201361   -0.0009209288845436624
-0.0061935289919974315   -0.026118248870302944   -0.0008174084452685009
-0.0049484674259230865   -0.028203848731002696   -0.001023074552725353
-0.0038796019394898135   -0.028314746812766328   -0.0008779549692853395
-0.0061935289919974315   -0.026118248870302944   -0.0008174084452685009
-0.004810775351055094   -0.026248216529396816   -0.0007770116090571692
-0.004830110748635457   -0.026278961731311664   -0.0008327070983942983
-0.0038796019394898135   -0.028314746812766328   -0.0008779549692853395
-0.0061935289919974315   -0.026118248870302944   -0.0008174084452685009
-0.004830110748635457   -0.026278961731311664   -0.0008327070983942983
-0.0049484674259230865   -0.028203848731002696   -0.001023074552725353
-0.0038796019394898135   -0.028314746812766328   -0.0008779549692853395
-0.004810775351055094   -0.026248216529396816   -0.0007770116090571692
-0.004813356067227503   -0.02816909344201361   -0.0009209288845436624
-0.0038224565489979614   -0.028301661246410682   -0.000810576335545736
-0.004810775351055094   -0.026248216529396816   -0.0007770116090571692
-0.0061935289919974315   -0.026118248870302944   -0.0008174084452685009
-0.004813356067227503   -0.02816909344201361   -0.0009209288845436624
-0.0061065654665285116   -0.02610409195192314   -0.0007257454802460833
-0.0038224565489979614   -0.028301661246410682   -0.000810576335545736
-0.004692688160971883   -0.02815698980359244   -0.0008130377432601553
-0.0061065654665285116   -0.02610409195192314   -0.0007257454802460833
-0.004813356067227503   -0.02816909344201361   -0.0009209288845436624
-0.0038224565489979614   -0.028301661246410682   -0.000810576335545736
-0.0061065654665285116   -0.02610409195192314   -0.0007257454802460833
-0.004777912319690763   -0.026232673456091954   -0.0007186702121937668
-0.004810775351055094   -0.026248216529396816   -0.0007770116090571692
-0.0038224565489979614   -0.028301661246410682   -0.000810576335545736
-0.0061065654665285116   -0.02610409195192314   -0.0007257454802460833
-0.004810775351055094   -0.026248216529396816   -0.0007770116090571692
-0.004813356067227503   -0.02816909344201361   -0.0009209288845436624
-0.0038224565489979614   -0.028301661246410682   -0.000810576335545736
-0.004777912319690763   -0.026232673456091954   -0.0007186702121937668
-0.004692688160971883   -0.02815698980359244   -0.0008130377432601553
-0.0037728249462634054   -0.02830731068200846   -0.0007386358514342858
-0.004777912319690763   -0.026232673456091954   -0.0007186702121937668
-0.0061065654665285116   -0.02610409195192314   -0.0007257454802460833
-0.004692688160971883   -0.02815698980359244   -0.0008130377432601553
-0.00598952342164219   -0.026114409575906144   -0.0006302793881424754
-0.0037728249462634054   -0.02830731068200846   -0.0007386358514342858
-0.00453635303956177   -0.02817392559348064   -0.00070040898447413
-0.00598952342164219   -0.026114409575906144   -0.0006302793881424754
-0.004692688160971883   -0.02815698980359244   -0.0008130377432601553
-0.0037728249462634054   -0.02830731068200846   -0.0007386358514342858
-0.00598952342164219   -0.026114409575906144   -0.0006302793881424754
-0.004751395109425692   -0.02623318898566186   -0.0006568431033101805
-0.004777912319690763   -0.026232673456091954   -0.0007186702121937668
-0.0037728249462634054   -0.02830731068200846   -0.0007386358514342858
-0.00598952342164219   -0.026114409575906144   -0.0006302793881424754
-0.004777912319690763   -0.026232673456091954   -0.0007186702121937668
-0.004692688160971883   -0.02815698980359244   -0.0008130377432601553
9.753768216525508e-05   -0.02633140054958902   -0.0004574286166331923
0.0008795857559966534   -0.023579967482628108   -0.0003482585350218421
-0.0011583696495200148   -0.02639468049389117   -0.0005739886613537261
0.00017990621524559933   -0.026272360671971307   -0.0005247538853221487
0.0008795857559966534   -0.023579967482628108   -0.0003482585350218421
-0.0007907713150993403   -0.023622259244037658   -0.000459589442986419
-0.0011583696495200148   -0.02639468049389117   -0.0005739886613537261
-0.0007860254317230466   -0.02357345020310418   -0.00048023858040985794
0.00017990621524559933   -0.026272360671971307   -0.0005247538853221487
-0.0011367701332993742   -0.02634561647869403   -0.0006034739731088259
-0.0007860254317230466   -0.02357345020310418   -0.00048023858040985794
-0.0011583696495200148   -0.02639468049389117   -0.0005739886613537261
0.00017990621524559933   -0.026272360671971307   -0.0005247538853221487
-0.0007860254317230466   -0.02357345020310418   -0.00048023858040985794
0.0009293020358626632   -0.023522291578736695   -0.0003985111134727676
0.0008795857559966534   -0.023579967482628108   -0.0003482585350218421
0.00017990621524559933   -0.026272360671971307   -0.0005247538853221487
-0.0007860254317230466   -0.02357345020310418   -0.00048023858040985794
0.0008795857559966534   -0.023579967482628108   -0.0003482585350218421
-0.0011583696495200148   -0.02639468049389117   -0.0005739886613537261
0.00017990621524559933   -0.026272360671971307   -0.0005247538853221487
0.0009293020358626632   -0.023522291578736695   -0.0003985111134727676
-0.0011367701332993742   -0.02634561647869403   -0.0006034739731088259
0.00024057477424779139   -0.02623893895522664   -0.0005873984157194296
0.0009293020358626632   -0.023522291578736695   -0.0003985111134727676
-0.0007860254317230466   -0.02357345020310418   -0.00048023858040985794
-0.0011367701332993742   -0.02634561647869403   -0.0006034739731088259
-0.000779948336080195   -0.02353864024238861   -0.0004978097857390825
0.00024057477424779139   -0.02623893895522664   -0.0005873984157194296
-0.0011120481304503   -0.026314168612529675   -0.0006296156073120091
-0.000779948336080195   -0.02353864024238861   -0.0004978097857390825
-0.0011367701332993742   -0.02634561647869403   -0.0006034739731088259
0.00024057477424779139   -0.02623893895522664   -0.0005873984157194296
-0.000779948336080195   -0.02353864024238861   -0.0004978097857390825
0.0009613002607817479   -0.023485138480230528   -0.0004444089393256915
0.0009293020358626632   -0.023522291578736695   -0.0003985111134727676
0.00024057477424779139   -0.02623893895522664   -0.0005873984157194296
-0.000779948336080195   -0.02353864024238861   -0.0004978097857390825
0.0009293020358626632   -0.023522291578736695   -0.0003985111134727676
-0.0011367701332993742   -0.02634561647869403   -0.0006034739731088259
0.00024057477424779139   -0.02623893895522664   -0.0005873984157194296
0.0009613002607817479   -0.023485138480230528   -0.0004444089393256915
-0.0011120481304503   -0.026314168612529675   -0.0006296156073120091
0.00030586663373248697   -0.026223512149713735   -0.0006453449947978823
0.0009613002607817479   -0.023485138480230528   -0.0004444089393256915
-0.000779948336080195   -0.02353864024238861   -0.0004978097857390825
-0.0011120481304503   -0.026314168612529675   -0.0006296156073120091
-0.000782392865885836   -0.0235166833032267   -0.000512526711179275
0.00030586663373248697   -0.026223512149713735   -0.0006453449947978823
-0.001097252571621679   -0.02629938548634681   -0.0006527445619443129
-0.000782392865885836   -0.0235166833032267   -0.000512526711179275
-0.0011120481304503   -0.026314168612529675   -0.0006296156073120091
0.00030586663373248697   -0.026223512149713735   -0.0006453449947978823
-0.000782392865885836   -0.0235166833032267   -0.000512526711179275
0.0009944798538494824   -0.023461110671023737   -0.00048604808633404245
0.0009613002607817479   -0.023485138480230528   -0.0004444089393256915
0.00030586663373248697   -0.026223512149713735   -0.0006453449947978823
-0.000782392865885836   -0.0235166833032267   -0.000512526711179275
0.0009613002607817479   -0.023485138480230528   -0.0004444089393256915
-0.0011120481304503   -0.026314168612529675   -0.0006296156073120091
-0.0011583696495200148   -0.02639468049389117   -0.0005739886613537261
-0.0007907713150993403   -0.023622259244037658   -0.000459589442986419
-0.0023757620429061487   -0.02640684485453749   -0.000669656930044561
-0.0011367701332993742   -0.02634561647869403   -0.0006034739731088259
-0.0007907713150993403   -0.023622259244037658   -0.000459589442986419
-0.00240012424022425   -0.02362272393693432   -0.0005509345271233399
-0.0023757620429061487   -0.02640684485453749   -0.000669656930044561
-0.0024002071218400295   -0.02358158260665301   -0.0005489722576889676
-0.0011367701332993742   -0.02634561647869403   -0.0006034739731088259
-0.002359976335755663   -0.02636481591312619   -0.0006703093531035287
-0.0024002071218400295   -0.02358158260665301   -0.0005489722576889676
-0.0023757620429061487   -0.02640684485453749   -0.000669656930044561
-0.0011367701332993742   -0.02634561647869403   -0.0006034739731088259
-0.0024002071218400295   -0.02358158260665301   -0.0005489722576889676
-0.0007860254317230466   -0.02357345020310418   -0.00048023858040985794
-0.0007907713150993403   -0.023622259244037658   -0.000459589442986419
-0.0011367701332993742   -0.02634561647869403   -0.0006034739731088259
-0.0024002071218400295   -0.02358158260665301   -0.0005489722576889676
-0.0007907713150993403   -0.023622259244037658   -0.000459589442986419
-0.0023757620429061487   -0.02640684485453749   -0.000669656930044561
-0.0011367701332993742   -0.02634561647869403   -0.0006034739731088259
-0.0007860254317230466   -0.02357345020310418   -0.00048023858040985794
-0.002359976335755663   -0.02636481591312619   -0.0006703093531035287
-0.0011120481304503   -0.026314168612529675   -0.0006296156073120091
-0.0007860254317230466   -0.02357345020310418   -0.00048023858040985794
-0.0024002071218400295   -0.02358158260665301   -0.0005489722576889676
-0.002359976335755663   -0.02636481591312619   -0.0006703093531035287
-0.002400174062141682   -0.023552773898273104   -0.0005439384558066627
-0.0011120481304503   -0.026314168612529675   -0.0006296156073120091
-0.002343727324348245   -0.02633854514853503   -0.0006677531016917553
-0.002400174062141682   -0.023552773898273104   -0.0005439384558066627
-0.002359976335755663   -0.02636481591312619   -0.0006703093531035287
-0.0011120481304503   -0.026314168612529675   -0.0006296156073120091
-0.002400174062141682   -0.023552773898273104   -0.0005439384558066627
-0.000779948336080195   -0.02353864024238861   -0.0004978097857390825
-0.0007860254317230466   -0.02357345020310418   -0.00048023858040985794
-0.0011120481304503   -0.026314168612529675   -0.0006296156073120091
-0.002400174062141682   -0.023552773898273104   -0.0005439384558066627
-0.0007860254317230466   -0.02357345020310418   -0.00048023858040985794
-0.002359976335755663   -0.02636481591312619   -0.0006703093531035287
-0.0011120481304503   -0.026314168612529675   -0.0006296156073120091
-0.000779948336080195   -0.02353864024238861   -0.0004978097857390825
-0.002343727324348245   -0.02633854514853503   -0.0006677531016917553
-0.001097252571621679   -0.02629938548634681   -0.0006527445619443129
-0.000779948336080195   -0.02353864024238861   -0.0004978097857390825
-0.002400174062141682   -0.023552773898273104   -0.0005439384558066627
-0.002343727324348245   -0.02633854514853503   -0.0006677531016917553
-0.0024022782416367886   -0.023536321959716354   -0.0005359997512697189
-0.001097252571621679   -0.02629938548634681   -0.0006527445619443129
-0.0023295216138781516   -0.026327787195567692   -0.0006622097591510961
-0.0024022782416367886   -0.023536321959716354   -0.0005359997512697189
-0.002343727324348245   -0.02633854514853503   -0.0006677531016917553
-0.001097252571621679   -0.02629938548634681   -0.0006527445619443129
-0.0024022782416367886   -0.023536321959716354   -0.0005359997512697189
-0.000782392865885836   -0.0235166833032267   -0.000512526711179275
-0.000779948336080195   -0.02353864024238861   -0.0004978097857390825
-0.001097252571621679   -0.02629938548634681   -0.0006527445619443129
-0.0024022782416367886   -0.023536321959716354   -0.0005359997512697189
-0.000779948336080195   -0.02353864024238861   -0.0004978097857390825
-0.002343727324348245   -0.02633854514853503   -0.0006677531016917553
-0.0023757620429061487   -0.02640684485453749   -0.000669656930044561
-0.00240012424022425   -0.02362272393693432   -0.0005509345271233399
-0.00357453389471835   -0.02636783493622371   -0.000755975897180411
-0.002359976335755663   -0.02636481591312619   -0.0006703093531035287
-0.00240012424022425   -0.02362272393693432   -0.0005509345271233399
-0.003982623493460717   -0.023582475082807718   -0.0006308016354654026
-0.00357453389471835   -0.02636783493622371   -0.000755975897180411
-0.00398391436864077   -0.023548023316070775   -0.0006065070635926076
-0.002359976335755663   -0.02636481591312619   -0.0006703093531035287
-0.0035598467352410063   -0.026331603625350267   -0.0007284841822476246
-0.00398391436864077   -0.023548023316070775   -0.0006065070635926076
-0.00357453389471835   -0.02636783493622371   -0.000755975897180411
-0.002359976335755663   -0.02636481591312619   -0.0006703093531035287
-0.00398391436864077   -0.023548023316070775   -0.0006065070635926076
-0.0024002071218400295   -0.02358158260665301   -0.0005489722576889676
-0.00240012424022425   -0.02362272393693432   -0.0005509345271233399
-0.002359976335755663   -0.02636481591312619   -0.0006703093531035287
-0.00398391436864077   -0.023548023316070775   -0.0006065070635926076
-0.00240012424022425   -0.02362272393693432   -0.0005509345271233399
-0.00357453389471835   -0.02636783493622371   -0.000755975897180411
-0.002359976335755663   -0.02636481591312619   -0.0006703093531035287
-0.0024002071218400295   -0.02358158260665301   -0.0005489722576889676
-0.0035598467352410063   -0.026331603625350267   -0.0007284841822476246
-0.002343727324348245   -0.02633854514853503   -0.0006677531016917553
-0.0024002071218400295   -0.02358158260665301   -0.0005489722576889676
-0.00398391436864077   -0.023548023316070775   -0.0006065070635926076
-0.0035598467352410063   -0.026331603625350267   -0.0007284841822476246
-0.003982521286228274   -0.023525795761366253   -0.0005792044191961891
-0.002343727324348245   -0.02633854514853503   -0.0006677531016917553
-0.0035420896799350887   -0.02631095980283179   -0.0006978578220344634
-0.003982521286228274   -0.023525795761366253   -0.0005792044191961891
-0.0035598467352410063   -0.026331603625350267   -0.0007284841822476246
-0.002343727324348245   -0.02633854514853503   -0.0006677531016917553
-0.003982521286228274   -0.023525795761366253   -0.0005792044191961891
-0.002400174062141682   -0.023552773898273104   -0.0005439384558066627
-0.0024002071218400295   -0.02358158260665301   -0.0005489722576889676
-0.002343727324348245   -0.02633854514853503   -0.0006677531016917553
-0.003982521286228274   -0.023525795761366253   -0.0005792044191961891
-0.0024002071218400295   -0.02358158260665301   -0.0005489722576889676
-0.0035598467352410063   -0.026331603625350267   -0.0007284841822476246
-0.002343727324348245   -0.02633854514853503   -0.0006677531016917553
-0.002400174062141682   -0.023552773898273104   -0.0005439384558066627
-0.0035420896799350887   -0.02631095980283179   -0.0006978578220344634
-0.0023295216138781516   -0.026327787195567692   -0.0006622097591510961
-0.002400174062141682   -0.023552773898273104   -0.0005439384558066627
-0.003982521286228274   -0.023525795761366253   -0.0005792044191961891
-0.0035420896799350887   -0.02631095980283179   -0.0006978578220344634
-0.003981629367987839   -0.023515585086691007   -0.0005489795346381573
-0.0023295216138781516   -0.026327787195567692   -0.0006622097591510961
-0.0035248522450733494   -0.026305206953126724   -0.00066419227192328
-0.003981629367987839   -0.023515585086691007   -0.0005489795346381573
-0.0035420896799350887   -0.02631095980283179   -0.0006978578220344634
-0.0023295216138781516   -0.026327787195567692   -0.0006622097591510961
-0.003981629367987839   -0.023515585086691007   -0.0005489795346381573
-0.0024022782416367886   -0.023536321959716354   -0.0005359997512697189
-0.002400174062141682   -0.023552773898273104   -0.0005439384558066627
-0.0023295216138781516   -0.026327787195567692   -0.0006622097591510961
-0.003981629367987839   -0.023515585086691007   -0.0005489795346381573
-0.002400174062141682   -0.023552773898273104   -0.0005439384558066627
-0.0035420896799350887   -0.02631095980283179   -0.0006978578220344634
-0.00357453389471835   -0.02636783493622371   -0.000755975897180411
-0.003982623493460717   -0.023582475082807718   -0.0006308016354654026
-0.004830110748635457   -0.026278961731311664   -0.0008327070983942983
-0.0035598467352410063   -0.026331603625350267   -0.0007284841822476246
-0.003982623493460717   -0.023582475082807718   -0.0006308016354654026
-0.005614132327561333   -0.02350297814610404   -0.0006994110571428481
-0.004830110748635457   -0.026278961731311664   -0.0008327070983942983
-0.005612009966486771   -0.023474891545035428   -0.0006525087754608526
-0.0035598467352410063   -0.026331603625350267   -0.0007284841822476246
-0.004810775351055094   -0.026248216529396816   -0.0007770116090571692
-0.005612009966486771   -0.023474891545035428   -0.0006525087754608526
-0.004830110748635457   -0.026278961731311664   -0.0008327070983942983
-0.0035598467352410063   -0.026331603625350267   -0.0007284841822476246
-0.005612009966486771   -0.023474891545035428   -0.0006525087754608526
-0.00398391436864077   -0.023548023316070775   -0.0006065070635926076
-0.003982623493460717   -0.023582475082807718   -0.0006308016354654026
-0.0035598467352410063   -0.026331603625350267   -0.0007284841822476246
-0.005612009966486771   -0.023474891545035428   -0.0006525087754608526
-0.003982623493460717   -0.023582475082807718   -0.0006308016354654026
-0.004830110748635457   -0.026278961731311664   -0.0008327070983942983
-0.0035598467352410063   -0.026331603625350267   -0.0007284841822476246
-0.00398391436864077   -0.023548023316070775   -0.0006065070635926076
-0.004810775351055094   -0.026248216529396816   -0.0007770116090571692
-0.0035420896799350887   -0.02631095980283179   -0.0006978578220344634
-0.00398391436864077   -0.023548023316070775   -0.0006065070635926076
-0.005612009966486771   -0.023474891545035428   -0.0006525087754608526
-0.004810775351055094   -0.026248216529396816   -0.0007770116090571692
-0.0055980632801074836   -0.023458633413758555   -0.0006030544188940835
-0.0035420896799350887   -0.02631095980283179   -0.0006978578220344634
-0.004777912319690763   -0.026232673456091954   -0.0007186702121937668
-0.0055980632801074836   -0.023458633413758555   -0.0006030544188940835
-0.004810775351055094   -0.026248216529396816   -0.0007770116090571692
-0.0035420896799350887   -0.02631095980283179   -0.0006978578220344634
-0.0055980632801074836   -0.023458633413758555   -0.0006030544188940835
-0.003982521286228274   -0.023525795761366253   -0.0005792044191961891
-0.00398391436864077   -0.023548023316070775   -0.0006065070635926076
-0.0035420896799350887   -0.02631095980283179   -0.0006978578220344634
-0.0055980632801074836   -0.023458633413758555   -0.0006030544188940835
-0.00398391436864077   -0.023548023316070775   -0.0006065070635926076
-0.004810775351055094   -0.026248216529396816   -0.0007770116090571692
-0.0035420896799350887   -0.02631095980283179   -0.0006978578220344634
-0.003982521286228274   -0.023525795761366253   -0.0005792044191961891
-0.004777912319690763   -0.026232673456091954   -0.0007186702121937668
-0.0035248522450733494   -0.026305206953126724   -0.00066419227192328
-0.003982521286228274   -0.023525795761366253   -0.0005792044191961891
-0.0055980632801074836   -0.023458633413758555   -0.0006030544188940835
-0.004777912319690763   -0.026232673456091954   -0.0007186702121937668
-0.005588803806128548   -0.023455409706648955   -0.0005504388919590274
-0.0035248522450733494   -0.026305206953126724   -0.00066419227192328
-0.004751395109425692   -0.02623318898566186   -0.0006568431033101805
-0.005588803806128548   -0.023455409706648955   -0.0005504388919590274
-0.004777912319690763   -0.026232673456091954   -0.0007186702121937668
-0.0035248522450733494   -0.026305206953126724   -0.00066419227192328
-0.005588803806128548   -0.023455409706648955   -0.0005504388919590274
-0.003981629367987839   -0.023515585086691007   -0.0005489795346381573
-0.003982521286228274   -0.023525795761366253   -0.0005792044191961891
-0.0035248522450733494   -0.026305206953126724   -0.00066419227192328
-0.005588803806128548   -0.023455409706648955   -0.0005504388919590274
-0.003982521286228274   -0.023525795761366253   -0.0005792044191961891
-0.004777912319690763   -0.026232673456091954   -0.0007186702121937668
-0.004830110748635457   -0.026278961731311664   -0.0008327070983942983
-0.005614132327561333   -0.02350297814610404   -0.0006994110571428481
-0.006294052226229392   -0.02615051446419696   -0.0009046881154225941
-0.004810775351055094   -0.026248216529396816   -0.0007770116090571692
-0.005614132327561333   -0.02350297814610404   -0.0006994110571428481
-0.0074366224595162084   -0.02339291172727909   -0.0007615226162133383
-0.006294052226229392   -0.02615051446419696   -0.0009046881154225941
-0.007367110964175956   -0.023365226504601697   -0.000689625719365959
-0.004810775351055094   -0.026248216529396816   -0.0007770116090571692
-0.0061935289919974315   -0.026118248870302944   -0.0008174084452685009
-0.007367110964175956   -0.023365226504601697   -0.000689625719365959
-0.006294052226229392   -0.02615051446419696   -0.0009046881154225941
-0.004810775351055094   -0.026248216529396816   -0.0007770116090571692
-0.007367110964175956   -0.023365226504601697   -0.000689625719365959
-0.005612009966486771   -0.023474891545035428   -0.0006525087754608526
-0.005614132327561333   -0.02350297814610404   -0.0006994110571428481
-0.004810775351055094   -0.026248216529396816   -0.0007770116090571692
-0.007367110964175956   -0.023365226504601697   -0.000689625719365959
-0.005614132327561333   -0.02350297814610404   -0.0006994110571428481
-0.006294052226229392   -0.02615051446419696   -0.0009046881154225941
-0.004810775351055094   -0.026248216529396816   -0.0007770116090571692
-0.005612009966486771   -0.023474891545035428   -0.0006525087754608526
-0.0061935289919974315   -0.026118248870302944   -0.0008174084452685009
-0.004777912319690763   -0.026232673456091954   -0.0007186702121937668
-0.005612009966486771   -0.023474891545035428   -0.0006525087754608526
-0.007367110964175956   -0.023365226504601697   -0.000689625719365959
-0.0061935289919974315   -0.026118248870302944   -0.0008174084452685009
-0.007307842473302544   -0.02335115360974487   -0.0006134224892311687
-0.004777912319690763   -0.026232673456091954   -0.0007186702121937668
-0.0061065654665285116   -0.02610409195192314   -0.0007257454802460833
-0.007307842473302544   -0.02335115360974487   -0.0006134224892311687
-0.0061935289919974315   -0.026118248870302944   -0.0008174084452685009
-0.004777912319690763   -0.026232673456091954   -0.0007186702121937668
-0.007307842473302544   -0.02335115360974487   -0.0006134224892311687
-0.0055980632801074836   -0.023458633413758555   -0.0006030544188940835
-0.005612009966486771   -0.023474891545035428   -0.0006525087754608526
-0.004777912319690763   -0.026232673456091954   -0.0007186702121937668
-0.007307842473302544   -0.02335115360974487   -0.0006134224892311687
-0.005612009966486771   -0.023474891545035428   -0.0006525087754608526
-0.0061935289919974315   -0.026118248870302944   -0.0008174084452685009
-0.004777912319690763   -0.026232673456091954   -0.0007186702121937668
-0.0055980632801074836   -0.023458633413758555   -0.0006030544188940835
-0.0061065654665285116   -0.02610409195192314   -0.0007257454802460833
-0.004751395109425692   -0.02623318898566186   -0.0006568431033101805
-0.0055980632801074836   -0.023458633413758555   -0.0006030544188940835
-0.007307842473302544   -0.02335115360974487   -0.0006134224892311687
-0.0061065654665285116   -0.02610409195192314   -0.0007257454802460833
-0.007222554997791475   -0.023357688348927173   -0.0005335111332787529
-0.004751395109425692   -0.02623318898566186   -0.0006568431033101805
-0.00598952342164219   -0.026114409575906144   -0.0006302793881424754
-0.007222554997791475   -0.023357688348927173   -0.0005335111332787529
-0.0061065654665285116   -0.02610409195192314   -0.0007257454802460833
-0.004751395109425692   -0.02623318898566186   -0.0006568431033101805
-0.007222554997791475   -0.023357688348927173   -0.0005335111332787529
-0.005588803806128548   -0.023455409706648955   -0.0005504388919590274
-0.0055980632801074836   -0.023458633413758555   -0.0006030544188940835
-0.004751395109425692   -0.02623318898566186   -0.0006568431033101805
-0.007222554997791475   -0.023357688348927173   -0.0005335111332787529
-0.0055980632801074836   -0.023458633413758555   -0.0006030544188940835
-0.0061065654665285116   -0.02610409195192314   -0.0007257454802460833
0.0008795857559966534   -0.023579967482628108   -0.0003482585350218421
0.001424435498611781   -0.02025604595778505   -0.00023227950793193607
-0.0007907713150993403   -0.023622259244037658   -0.000459589442986419
0.0009293020358626632   -0.023522291578736695   -0.0003985111134727676
0.001424435498611781   -0.02025604595778505   -0.00023227950793193607
-0.0005643126635147943   -0.020277355316752343   -0.0003369776410993509
-0.0007907713150993403   -0.023622259244037658   -0.000459589442986419
-0.0005731984537301418   -0.020229769306788582   -0.0003483409307777736
0.0009293020358626632   -0.023522291578736695   -0.0003985111134727676
-0.0007860254317230466   -0.02357345020310418   -0.00048023858040985794
-0.0005731984537301418   -0.020229769306788582   -0.0003483409307777736
-0.0007907713150993403   -0.023622259244037658   -0.000459589442986419
0.0009293020358626632   -0.023522291578736695   -0.0003985111134727676
-0.0005731984537301418   -0.020229769306788582   -0.0003483409307777736
0.0014450368048319645   -0.020200472109560073   -0.0002656554859855665
0.001424435498611781   -0.02025604595778505   -0.00023227950793193607
0.0009293020358626632   -0.023522291578736695   -0.0003985111134727676
-0.0005731984537301418   -0.020229769306788582   -0.0003483409307777736
0.001424435498611781   -0.02025604595778505   -0.00023227950793193607
-0.0007907713150993403   -0.023622259244037658   -0.000459589442986419
0.0009293020358626632   -0.023522291578736695   -0.0003985111134727676
0.0014450368048319645   -0.020200472109560073   -0.0002656554859855665
-0.0007860254317230466   -0.02357345020310418   -0.00048023858040985794
0.0009613002607817479   -0.023485138480230528   -0.0004444089393256915
0.0014450368048319645   -0.020200472109560073   -0.0002656554859855665
-0.0005731984537301418   -0.020229769306788582   -0.0003483409307777736
-0.0007860254317230466   -0.02357345020310418   -0.00048023858040985794
-0.0005824800755242684   -0.020192649253080484   -0.0003569334123998676
0.0009613002607817479   -0.023485138480230528   -0.0004444089393256915
-0.000779948336080195   -0.02353864024238861   -0.0004978097857390825
-0.0005824800755242684   -0.020192649253080484   -0.0003569334123998676
-0.0007860254317230466   -0.02357345020310418   -0.00048023858040985794
0.0009613002607817479   -0.023485138480230528   -0.0004444089393256915
-0.0005824800755242684   -0.020192649253080484   -0.0003569334123998676
0.0014519922132004918   -0.02016063255751357   -0.0002949380259852208
0.0014450368048319645   -0.020200472109560073   -0.0002656554859855665
0.0009613002607817479   -0.023485138480230528   -0.0004444089393256915
-0.0005824800755242684   -0.020192649253080484   -0.0003569334123998676
0.0014450368048319645   -0.020200472109560073   -0.0002656554859855665
-0.0007860254317230466   -0.02357345020310418   -0.00048023858040985794
0.0009613002607817479   -0.023485138480230528   -0.0004444089393256915
0.0014519922132004918   -0.02016063255751357   -0.0002949380259852208
-0.000779948336080195   -0.02353864024238861   -0.0004978097857390825
0.0009944798538494824   -0.023461110671023737   -0.00048604808633404245
0.0014519922132004918   -0.02016063255751357   -0.0002949380259852208
-0.0005824800755242684   -0.020192649253080484   -0.0003569334123998676
-0.000779948336080195   -0.02353864024238861   -0.0004978097857390825
-0.0005987125594924163   -0.020164790643014827   -0.00036284748878397983
0.0009944798538494824   -0.023461110671023737   -0.00048604808633404245
-0.000782392865885836   -0.0235166833032267   -0.000512526711179275
-0.0005987125594924163   -0.020164790643014827   -0.00036284748878397983
-0.000779948336080195   -0.02353864024238861   -0.0004978097857390825
0.0009944798538494824   -0.023461110671023737   -0.00048604808633404245
-0.0005987125594924163   -0.020164790643014827   -0.00036284748878397983
0.00145668364845522   -0.020129276376292367   -0.00032032374755769214
0.0014519922132004918   -0.02016063255751357   -0.0002949380259852208
0.0009944798538494824   -0.023461110671023737   -0.00048604808633404245
-0.0005987125594924163   -0.020164790643014827   -0.00036284748878397983
0.0014519922132004918   -0.02016063255751357   -0.0002949380259852208
-0.000779948336080195   -0.02353864024238861   -0.0004978097857390825
-0.0007907713150993403   -0.023622259244037658   -0.000459589442986419
-0.0005643126635147943   -0.020277355316752343   -0.0003369776410993509
-0.00240012424022425   -0.02362272393693432   -0.0005509345271233399
-0.0007860254317230466   -0.02357345020310418   -0.00048023858040985794
-0.0005643126635147943   -0.020277355316752343   -0.0003369776410993509
-0.0024719911524472525   -0.020267084434257884   -0.00042262967243688595
-0.00240012424022425   -0.02362272393693432   -0.0005509345271233399
-0.0024846207706502458   -0.020227531327278916   -0.0004175054989366032
-0.0007860254317230466   -0.02357345020310418   -0.00048023858040985794
-0.0024002071218400295   -0.02358158260665301   -0.0005489722576889676
-0.0024846207706502458   -0.020227531327278916   -0.0004175054989366032
-0.00240012424022425   -0.02362272393693432   -0.0005509345271233399
-0.0007860254317230466   -0.02357345020310418   -0.00048023858040985794
-0.0024846207706502458   -0.020227531327278916   -0.0004175054989366032
-0.0005731984537301418   -0.020229769306788582   -0.0003483409307777736
-0.0005643126635147943   -0.020277355316752343   -0.0003369776410993509
-0.0007860254317230466   -0.02357345020310418   -0.00048023858040985794
-0.0024846207706502458   -0.020227531327278916   -0.0004175054989366032
-0.0005643126635147943   -0.020277355316752343   -0.0003369776410993509
-0.00240012424022425   -0.02362272393693432   -0.0005509345271233399
-0.0007860254317230466   -0.02357345020310418   -0.00048023858040985794
-0.0005731984537301418   -0.020229769306788582   -0.0003483409307777736
-0.0024002071218400295   -0.02358158260665301   -0.0005489722576889676
-0.000779948336080195   -0.02353864024238861   -0.0004978097857390825
-0.0005731984537301418   -0.020229769306788582   -0.0003483409307777736
-0.0024846207706502458   -0.020227531327278916   -0.0004175054989366032
-0.0024002071218400295   -0.02358158260665301   -0.0005489722576889676
-0.002497426701069921   -0.02019694399954331   -0.0004095234764775734
-0.000779948336080195   -0.02353864024238861   -0.0004978097857390825
-0.002400174062141682   -0.023552773898273104   -0.0005439384558066627
-0.002497426701069921   -0.02019694399954331   -0.0004095234764775734
-0.0024002071218400295   -0.02358158260665301   -0.0005489722576889676
-0.000779948336080195   -0.02353864024238861   -0.0004978097857390825
-0.002497426701069921   -0.02019694399954331   -0.0004095234764775734
-0.0005824800755242684   -0.020192649253080484   -0.0003569334123998676
-0.0005731984537301418   -0.020229769306788582   -0.0003483409307777736
-0.000779948336080195   -0.02353864024238861   -0.0004978097857390825
-0.002497426701069921   -0.02019694399954331   -0.0004095234764775734
-0.0005731984537301418   -0.020229769306788582   -0.0003483409307777736
-0.0024002071218400295   -0.02358158260665301   -0.0005489722576889676
-0.000779948336080195   -0.02353864024238861   -0.0004978097857390825
-0.0005824800755242684   -0.020192649253080484   -0.0003569334123998676
-0.002400174062141682   -0.023552773898273104   -0.0005439384558066627
-0.000782392865885836   -0.0235166833032267   -0.000512526711179275
-0.0005824800755242684   -0.020192649253080484   -0.0003569334123998676
-0.002497426701069921   -0.02019694399954331   -0.0004095234764775734
-0.002400174062141682   -0.023552773898273104   -0.0005439384558066627
-0.0025122702641734926   -0.020175471919534962   -0.00039882816959997653
-0.000782392865885836   -0.0235166833032267   -0.000512526711179275
-0.0024022782416367886   -0.023536321959716354   -0.0005359997512697189
-0.0025122702641734926   -0.020175471919534962   -0.00039882816959997653
-0.002400174062141682   -0.023552773898273104   -0.0005439384558066627
-0.000782392865885836   -0.0235166833032267   -0.000512526711179275
-0.0025122702641734926   -0.020175471919534962   -0.00039882816959997653
-0.0005987125594924163   -0.020164790643014827   -0.00036284748878397983
-0.0005824800755242684   -0.020192649253080484   -0.0003569334123998676
-0.000782392865885836   -0.0235166833032267   -0.000512526711179275
-0.0025122702641734926   -0.020175471919534962   -0.00039882816959997653
-0.0005824800755242684   -0.020192649253080484   -0.0003569334123998676
-0.002400174062141682   -0.023552773898273104   -0.0005439384558066627
-0.00240012424022425   -0.02362272393693432   -0.0005509345271233399
-0.0024719911524472525   -0.020267084434257884   -0.00042262967243688595
-0.003982623493460717   -0.023582475082807718   -0.0006308016354654026
-0.0024002071218400295   -0.02358158260665301   -0.0005489722576889676
-0.0024719911524472525   -0.020267084434257884   -0.00042262967243688595
-0.0043477321616444955   -0.02022733863561373   -0.0004956575125911517
-0.003982623493460717   -0.023582475082807718   -0.0006308016354654026
-0.004361425101500502   -0.020195040056240066   -0.00047413918701021433
-0.0024002071218400295   -0.02358158260665301   -0.0005489722576889676
-0.00398391436864077   -0.023548023316070775   -0.0006065070635926076
-0.004361425101500502   -0.020195040056240066   -0.00047413918701021433
-0.003982623493460717   -0.023582475082807718   -0.0006308016354654026
-0.0024002071218400295   -0.02358158260665301   -0.0005489722576889676
-0.004361425101500502   -0.020195040056240066   -0.00047413918701021433
-0.0024846207706502458   -0.020227531327278916   -0.0004175054989366032
-0.0024719911524472525   -0.020267084434257884   -0.00042262967243688595
-0.0024002071218400295   -0.02358158260665301   -0.0005489722576889676
-0.004361425101500502   -0.020195040056240066   -0.00047413918701021433
-0.0024719911524472525   -0.020267084434257884   -0.00042262967243688595
-0.003982623493460717   -0.023582475082807718   -0.0006308016354654026
-0.0024002071218400295   -0.02358158260665301   -0.0005489722576889676
-0.0024846207706502458   -0.020227531327278916   -0.0004175054989366032
-0.00398391436864077   -0.023548023316070775   -0.0006065070635926076
-0.002400174062141682   -0.023552773898273104   -0.0005439384558066627
-0.0024846207706502458   -0.020227531327278916   -0.0004175054989366032
-0.004361425101500502   -0.020195040056240066   -0.00047413918701021433
-0.00398391436864077   -0.023548023316070775   -0.0006065070635926076
-0.004372722806327653   -0.020171622618677325   -0.00044981678982310673
-0.002400174062141682   -0.023552773898273104   -0.0005439384558066627
-0.003982521286228274   -0.023525795761366253   -0.0005792044191961891
-0.004372722806327653   -0.020171622618677325   -0.00044981678982310673
-0.00398391436864077   -0.023548023316070775   -0.0006065070635926076
-0.002400174062141682   -0.023552773898273104   -0.0005439384558066627
-0.004372722806327653   -0.020171622618677325   -0.00044981678982310673
-0.002497426701069921   -0.02019694399954331   -0.0004095234764775734
-0.0024846207706502458   -0.020227531327278916   -0.0004175054989366032
-0.002400174062141682   -0.023552773898273104   -0.0005439384558066627
-0.004372722806327653   -0.020171622618677325   -0.00044981678982310673
-0.0024846207706502458   -0.020227531327278916   -0.0004175054989366032
-0.00398391436864077   -0.023548023316070775   -0.0006065070635926076
-0.002400174062141682   -0.023552773898273104   -0.0005439384558066627
-0.002497426701069921   -0.02019694399954331   -0.0004095234764775734
-0.003982521286228274   -0.023525795761366253   -0.0005792044191961891
-0.0024022782416367886   -0.023536321959716354   -0.0005359997512697189
-0.002497426701069921   -0.02019694399954331   -0.0004095234764775734
-0.004372722806327653   -0.020171622618677325   -0.00044981678982310673
-0.003982521286228274   -0.023525795761366253   -0.0005792044191961891
-0.004384364396677307   -0.020157046745615904   -0.0004227707250621454
-0.0024022782416367886   -0.023536321959716354   -0.0005359997512697189
-0.003981629367987839   -0.023515585086691007   -0.0005489795346381573
-0.004384364396677307   -0.020157046745615904   -0.0004227707250621454
-0.003982521286228274   -0.023525795761366253   -0.0005792044191961891
-0.0024022782416367886   -0.023536321959716354   -0.0005359997512697189
-0.004384364396677307   -0.020157046745615904   -0.0004227707250621454
-0.0025122702641734926   -0.020175471919534962   -0.00039882816959997653
-0.002497426701069921   -0.02019694399954331   -0.0004095234764775734
-0.0024022782416367886   -0.023536321959716354   -0.0005359997512697189
-0.004384364396677307   -0.020157046745615904   -0.0004227707250621454
-0.002497426701069921   -0.02019694399954331   -0.0004095234764775734
-0.003982521286228274   -0.023525795761366253   -0.0005792044191961891
-0.003982623493460717   -0.023582475082807718   -0.0006308016354654026
-0.0043477321616444955   -0.02022733863561373   -0.0004956575125911517
-0.005614132327561333   -0.02350297814610404   -0.0006994110571428481
-0.00398391436864077   -0.023548023316070775   -0.0006065070635926076
-0.0043477321616444955   -0.02022733863561373   -0.0004956575125911517
-0.0062680506564135   -0.02015888404398681   -0.0005563966373986787
-0.005614132327561333   -0.02350297814610404   -0.0006994110571428481
-0.006279259778403197   -0.020133641043466894   -0.0005182544626303791
-0.00398391436864077   -0.023548023316070775   -0.0006065070635926076
-0.005612009966486771   -0.023474891545035428   -0.0006525087754608526
-0.006279259778403197   -0.020133641043466894   -0.0005182544626303791
-0.005614132327561333   -0.02350297814610404   -0.0006994110571428481
-0.00398391436864077   -0.023548023316070775   -0.0006065070635926076
-0.006279259778403197   -0.020133641043466894   -0.0005182544626303791
-0.004361425101500502   -0.020195040056240066   -0.00047413918701021433
-0.0043477321616444955   -0.02022733863561373   -0.0004956575125911517
-0.00398391436864077   -0.023548023316070775   -0.0006065070635926076
-0.006279259778403197   -0.020133641043466894   -0.0005182544626303791
-0.0043477321616444955   -0.02022733863561373   -0.0004956575125911517
-0.005614132327561333   -0.02350297814610404   -0.0006994110571428481
-0.00398391436864077   -0.023548023316070775   -0.0006065070635926076
-0.004361425101500502   -0.020195040056240066   -0.00047413918701021433
-0.005612009966486771   -0.023474891545035428   -0.0006525087754608526
-0.003982521286228274   -0.023525795761366253   -0.0005792044191961891
-0.004361425101500502   -0.020195040056240066   -0.00047413918701021433
-0.006279259778403197   -0.020133641043466894   -0.0005182544626303791
-0.005612009966486771   -0.023474891545035428   -0.0006525087754608526
-0.006280290868994275   -0.020116785311239054   -0.00047769512116598245
-0.003982521286228274   -0.023525795761366253   -0.0005792044191961891
-0.0055980632801074836   -0.023458633413758555   -0.0006030544188940835
-0.006280290868994275   -0.020116785311239054   -0.00047769512116598245
-0.005612009966486771   -0.023474891545035428   -0.0006525087754608526
-0.003982521286228274   -0.023525795761366253   -0.0005792044191961891
-0.006280290868994275   -0.020116785311239054   -0.00047769512116598245
-0.004372722806327653   -0.020171622618677325   -0.00044981678982310673
-0.004361425101500502   -0.020195040056240066   -0.00047413918701021433
-0.003982521286228274   -0.023525795761366253   -0.0005792044191961891
-0.006280290868994275   -0.020116785311239054   -0.00047769512116598245
-0.004361425101500502   -0.020195040056240066   -0.00047413918701021433
-0.005612009966486771   -0.023474891545035428   -0.0006525087754608526
-0.003982521286228274   -0.023525795761366253   -0.0005792044191961891
-0.004372722806327653   -0.020171622618677325   -0.00044981678982310673
-0.0055980632801074836   -0.023458633413758555   -0.0006030544188940835
-0.003981629367987839   -0.023515585086691007   -0.0005489795346381573
-0.004372722806327653   -0.020171622618677325   -0.00044981678982310673
-0.006280290868994275   -0.020116785311239054   -0.00047769512116598245
-0.0055980632801074836   -0.023458633413758555   -0.0006030544188940835
-0.006284306769861476   -0.020109577317896695   -0.0004342032211846262
-0.003981629367987839   -0.023515585086691007   -0.0005489795346381573
-0.005588803806128548   -0.023455409706648955   -0.0005504388919590274
-0.006284306769861476   -0.020109577317896695   -0.0004342032211846262
-0.0055980632801074836   -0.023458633413758555   -0.0006030544188940835
-0.003981629367987839   -0.023515585086691007   -0.0005489795346381573
-0.006284306769861476   -0.020109577317896695   -0.0004342032211846262
-0.004384364396677307   -0.020157046745615904   -0.0004227707250621454
-0.004372722806327653   -0.020171622618677325   -0.00044981678982310673
-0.003981629367987839   -0.023515585086691007   -0.0005489795346381573
-0.006284306769861476   -0.020109577317896695   -0.0004342032211846262
-0.004372722806327653   -0.020171622618677325   -0.00044981678982310673
-0.0055980632801074836   -0.023458633413758555   -0.0006030544188940835
-0.005614132327561333   -0.02350297814610404   -0.0006994110571428481
-0.0062680506564135   -0.02015888404398681   -0.0005563966373986787
-0.0074366224595162084   -0.02339291172727909   -0.0007615226162133383
-0.005612009966486771   -0.023474891545035428   -0.0006525087754608526
-0.0062680506564135   -0.02015888404398681   -0.0005563966373986787
-0.008362812394138176   -0.020068607341880942   -0.0006083090975705258
-0.0074366224595162084   -0.02339291172727909   -0.0007615226162133383
-0.008321281272548536   -0.020045543264902325   -0.0005524383164520947
-0.005612009966486771   -0.023474891545035428   -0.0006525087754608526
-0.007367110964175956   -0.023365226504601697   -0.000689625719365959
-0.008321281272548536   -0.020045543264902325   -0.0005524383164520947
-0.0074366224595162084   -0.02339291172727909   -0.0007615226162133383
-0.005612009966486771   -0.023474891545035428   -0.0006525087754608526
-0.008321281272548536   -0.020045543264902325   -0.0005524383164520947
-0.006279259778403197   -0.020133641043466894   -0.0005182544626303791
-0.0062680506564135   -0.02015888404398681   -0.0005563966373986787
-0.005612009966486771   -0.023474891545035428   -0.0006525087754608526
-0.008321281272548536   -0.020045543264902325   -0.0005524383164520947
-0.0062680506564135   -0.02015888404398681   -0.0005563966373986787
-0.0074366224595162084   -0.02339291172727909   -0.0007615226162133383
-0.005612009966486771   -0.023474891545035428   -0.0006525087754608526
-0.006279259778403197   -0.020133641043466894   -0.0005182544626303791
-0.007367110964175956   -0.023365226504601697   -0.000689625719365959
-0.0055980632801074836   -0.023458633413758555   -0.0006030544188940835
-0.006279259778403197   -0.020133641043466894   -0.0005182544626303791
-0.008321281272548536   -0.020045543264902325   -0.0005524383164520947
-0.007367110964175956   -0.023365226504601697   -0.000689625719365959
-0.008286354561193122   -0.020031476645920233   -0.0004923373870543551
-0.0055980632801074836   -0.023458633413758555   -0.0006030544188940835
-0.007307842473302544   -0.02335115360974487   -0.0006134224892311687
-0.008286354561193122   -0.020031476645920233   -0.0004923373870543551
-0.007367110964175956   -0.023365226504601697   -0.000689625719365959
-0.0055980632801074836   -0.023458633413758555   -0.0006030544188940835
-0.008286354561193122   -0.020031476645920233   -0.0004923373870543551
-0.006280290868994275   -0.020116785311239054   -0.00047769512116598245
-0.006279259778403197   -0.020133641043466894   -0.0005182544626303791
-0.0055980632801074836   -0.023458633413758555   -0.0006030544188940835
-0.008286354561193122   -0.020031476645920233   -0.0004923373870543551
-0.006279259778403197   -0.020133641043466894   -0.0005182544626303791
-0.007367110964175956   -0.023365226504601697   -0.000689625719365959
-0.0055980632801074836   -0.023458633413758555   -0.0006030544188940835
-0.006280290868994275   -0.020116785311239054   -0.00047769512116598245
-0.007307842473302544   -0.02335115360974487   -0.0006134224892311687
-0.005588803806128548   -0.023455409706648955   -0.0005504388919590274
-0.006280290868994275   -0.020116785311239054   -0.00047769512116598245
-0.008286354561193122   -0.020031476645920233   -0.0004923373870543551
-0.007307842473302544   -0.02335115360974487   -0.0006134224892311687
-0.008229241911956299   -0.020033726266399265   -0.0004285366608016466
-0.005588803806128548   -0.023455409706648955   -0.0005504388919590274
-0.007222554997791475   -0.023357688348927173   -0.0005335111332787529
-0.008229241911956299   -0.020033726266399265   -0.0004285366608016466
-0.007307842473302544   -0.02335115360974487   -0.0006134224892311687
-0.005588803806128548   -0.023455409706648955   -0.0005504388919590274
-0.008229241911956299   -0.020033726266399265   -0.0004285366608016466
-0.006284306769861476   -0.020109577317896695   -0.0004342032211846262
-0.006280290868994275   -0.020116785311239054   -0.00047769512116598245
-0.005588803806128548   -0.023455409706648955   -0.0005504388919590274
-0.008229241911956299   -0.020033726266399265   -0.0004285366608016466
-0.006280290868994275   -0.020116785311239054   -0.00047769512116598245
-0.007307842473302544   -0.02335115360974487   -0.0006134224892311687
0.001424435498611781   -0.02025604595778505   -0.00023227950793193607
0.001733472216418608   -0.016512925358774445   -0.00011918110886298787
-0.0005643126635147943   -0.020277355316752343   -0.0003369776410993509
0.0014450368048319645   -0.020200472109560073   -0.0002656554859855665
0.001733472216418608   -0.016512925358774445   -0.00011918110886298787
-0.0004809980721900766   -0.01651329781107081   -0.00021608054284574088
-0.0005643126635147943   -0.020277355316752343   -0.0003369776410993509
-0.0005001834845644918   -0.01646735057719292   -0.00021795763578955267
0.0014450368048319645   -0.020200472109560073   -0.0002656554859855665
-0.0005731984537301418   -0.020229769306788582   -0.0003483409307777736
-0.0005001834845644918   -0.01646735057719292   -0.00021795763578955267
-0.0005643126635147943   -0.020277355316752343   -0.0003369776410993509
0.0014450368048319645   -0.020200472109560073   -0.0002656554859855665
-0.0005001834845644918   -0.01646735057719292   -0.00021795763578955267
0.0017285408428001727   -0.016459783067349645   -0.00013572475859431897
0.001733472216418608   -0.016512925358774445   -0.00011918110886298787
0.0014450368048319645   -0.020200472109560073   -0.0002656554859855665
-0.0005001834845644918   -0.01646735057719292   -0.00021795763578955267
0.001733472216418608   -0.016512925358774445   -0.00011918110886298787
-0.0005643126635147943   -0.020277355316752343   -0.0003369776410993509
0.0014450368048319645   -0.020200472109560073   -0.0002656554859855665
0.0017285408428001727   -0.016459783067349645   -0.00013572475859431897
-0.0005731984537301418   -0.020229769306788582   -0.0003483409307777736
0.0014519922132004918   -0.02016063255751357   -0.0002949380259852208
0.0017285408428001727   -0.016459783067349645   -0.00013572475859431897
-0.0005001834845644918   -0.01646735057719292   -0.00021795763578955267
-0.0005731984537301418   -0.020229769306788582   -0.0003483409307777736
-0.0005215135048172914   -0.016428244542312693   -0.00021735498407781493
0.0014519922132004918   -0.02016063255751357   -0.0002949380259852208
-0.0005824800755242684   -0.020192649253080484   -0.0003569334123998676
-0.0005215135048172914   -0.016428244542312693   -0.00021735498407781493
-0.0005731984537301418   -0.020229769306788582   -0.0003483409307777736
0.0014519922132004918   -0.02016063255751357   -0.0002949380259852208
-0.0005215135048172914   -0.016428244542312693   -0.00021735498407781493
0.0017138261825022777   -0.016417617768360857   -0.00014829365189980966
0.0017285408428001727   -0.016459783067349645   -0.00013572475859431897
0.0014519922132004918   -0.02016063255751357   -0.0002949380259852208
-0.0005215135048172914   -0.016428244542312693   -0.00021735498407781493
0.0017285408428001727   -0.016459783067349645   -0.00013572475859431897
-0.0005731984537301418   -0.020229769306788582   -0.0003483409307777736
0.0014519922132004918   -0.02016063255751357   -0.0002949380259852208
0.0017138261825022777   -0.016417617768360857   -0.00014829365189980966
-0.0005824800755242684   -0.020192649253080484   -0.0003569334123998676
0.00145668364845522   -0.020129276376292367   -0.00032032374755769214
0.0017138261825022777   -0.016417617768360857   -0.00014829365189980966
-0.0005215135048172914   -0.016428244542312693   -0.00021735498407781493
-0.0005824800755242684   -0.020192649253080484   -0.0003569334123998676
-0.0005482083510777029   -0.016394930904129683   -0.0002141748249404536
0.00145668364845522   -0.020129276376292367   -0.00032032374755769214
-0.0005987125594924163   -0.020164790643014827   -0.00036284748878397983
-0.0005482083510777029   -0.016394930904129683   -0.0002141748249404536
-0.0005824800755242684   -0.020192649253080484   -0.0003569334123998676
0.00145668364845522   -0.020129276376292367   -0.00032032374755769214
-0.0005482083510777029   -0.016394930904129683   -0.0002141748249404536
0.0016930676079102676   -0.016379289513481006   -0.00015716559873155386
0.0017138261825022777   -0.016417617768360857   -0.00014829365189980966
0.00145668364845522   -0.020129276376292367   -0.00032032374755769214
-0.0005482083510777029   -0.016394930904129683   -0.0002141748249404536
0.0017138261825022777   -0.016417617768360857   -0.00014829365189980966
-0.0005824800755242684   -0.020192649253080484   -0.0003569334123998676
-0.0005643126635147943   -0.020277355316752343   -0.0003369776410993509
-0.0004809980721900766   -0.01651329781107081   -0.00021608054284574088
-0.0024719911524472525   -0.020267084434257884   -0.00042262967243688595
-0.0005731984537301418   -0.020229769306788582   -0.0003483409307777736
-0.0004809980721900766   -0.01651329781107081   -0.00021608054284574088
-0.0025938968841805296   -0.016493458706842788   -0.0002954121380121997
-0.0024719911524472525   -0.020267084434257884   -0.00042262967243688595
-0.00261559903199901   -0.016455584760569287   -0.0002868304214308125
-0.0005731984537301418   -0.020229769306788582   -0.0003483409307777736
-0.0024846207706502458   -0.020227531327278916   -0.0004175054989366032
-0.00261559903199901   -0.016455584760569287   -0.0002868304214308125
-0.0024719911524472525   -0.020267084434257884   -0.00042262967243688595
-0.0005731984537301418   -0.020229769306788582   -0.0003483409307777736
-0.00261559903199901   -0.016455584760569287   -0.0002868304214308125
-0.0005001834845644918   -0.01646735057719292   -0.00021795763578955267
-0.0004809980721900766   -0.01651329781107081   -0.00021608054284574088
-0.0005731984537301418   -0.020229769306788582   -0.0003483409307777736
-0.00261559903199901   -0.016455584760569287   -0.0002868304214308125
-0.0004809980721900766   -0.01651329781107081   -0.00021608054284574088
-0.0024719911524472525   -0.020267084434257884   -0.00042262967243688595
-0.0005731984537301418   -0.020229769306788582   -0.0003483409307777736
-0.0005001834845644918   -0.01646735057719292   -0.00021795763578955267
-0.0024846207706502458   -0.020227531327278916   -0.0004175054989366032
-0.0005824800755242684   -0.020192649253080484   -0.0003569334123998676
-0.0005001834845644918   -0.01646735057719292   -0.00021795763578955267
-0.00261559903199901   -0.016455584760569287   -0.0002868304214308125
-0.0024846207706502458   -0.020227531327278916   -0.0004175054989366032
-0.002637752735344306   -0.01642327843713017   -0.00027565991358935546
-0.0005824800755242684   -0.020192649253080484   -0.0003569334123998676
-0.002497426701069921   -0.02019694399954331   -0.0004095234764775734
-0.002637752735344306   -0.01642327843713017   -0.00027565991358935546
-0.0024846207706502458   -0.020227531327278916   -0.0004175054989366032
-0.0005824800755242684   -0.020192649253080484   -0.0003569334123998676
-0.002637752735344306   -0.01642327843713017   -0.00027565991358935546
-0.0005215135048172914   -0.016428244542312693   -0.00021735498407781493
-0.0005001834845644918   -0.01646735057719292   -0.00021795763578955267
-0.0005824800755242684   -0.020192649253080484   -0.0003569334123998676
-0.002637752735344306   -0.01642327843713017   -0.00027565991358935546
-0.0005001834845644918   -0.01646735057719292   -0.00021795763578955267
-0.0024846207706502458   -0.020227531327278916   -0.0004175054989366032
-0.0005824800755242684   -0.020192649253080484   -0.0003569334123998676
-0.0005215135048172914   -0.016428244542312693   -0.00021735498407781493
-0.002497426701069921   -0.02019694399954331   -0.0004095234764775734
-0.0005987125594924163   -0.020164790643014827   -0.00036284748878397983
-0.0005215135048172914   -0.016428244542312693   -0.00021735498407781493
-0.002637752735344306   -0.01642327843713017   -0.00027565991358935546
-0.002497426701069921   -0.02019694399954331   -0.0004095234764775734
-0.0026618163905871737   -0.016396861715971635   -0.0002620285848705328
-0.0005987125594924163   -0.020164790643014827   -0.00036284748878397983
-0.0025122702641734926   -0.020175471919534962   -0.00039882816959997653
-0.0026618163905871737   -0.016396861715971635   -0.0002620285848705328
-0.002497426701069921   -0.02019694399954331   -0.0004095234764775734
-0.0005987125594924163   -0.020164790643014827   -0.00036284748878397983
-0.0026618163905871737   -0.016396861715971635   -0.0002620285848705328
-0.0005482083510777029   -0.016394930904129683   -0.0002141748249404536
-0.0005215135048172914   -0.016428244542312693   -0.00021735498407781493
-0.0005987125594924163   -0.020164790643014827   -0.00036284748878397983
-0.0026618163905871737   -0.016396861715971635   -0.0002620285848705328
-0.0005215135048172914   -0.016428244542312693   -0.00021735498407781493
-0.002497426701069921   -0.02019694399954331   -0.0004095234764775734
-0.0024719911524472525   -0.020267084434257884   -0.00042262967243688595
-0.0025938968841805296   -0.016493458706842788   -0.0002954121380121997
-0.0043477321616444955   -0.02022733863561373   -0.0004956575125911517
-0.0024846207706502458   -0.020227531327278916   -0.0004175054989366032
-0.0025938968841805296   -0.016493458706842788   -0.0002954121380121997
-0.004671104092492108   -0.016455856524177432   -0.0003619819371069723
-0.0043477321616444955   -0.02022733863561373   -0.0004956575125911517
-0.004693523931883325   -0.016425382289011945   -0.0003429799730050215
-0.0024846207706502458   -0.020227531327278916   -0.0004175054989366032
-0.004361425101500502   -0.020195040056240066   -0.00047413918701021433
-0.004693523931883325   -0.016425382289011945   -0.0003429799730050215
-0.0043477321616444955   -0.02022733863561373   -0.0004956575125911517
-0.0024846207706502458   -0.020227531327278916   -0.0004175054989366032
-0.004693523931883325   -0.016425382289011945   -0.0003429799730050215
-0.00261559903199901   -0.016455584760569287   -0.0002868304214308125
-0.0025938968841805296   -0.016493458706842788   -0.0002954121380121997
-0.0024846207706502458   -0.020227531327278916   -0.0004175054989366032
-0.004693523931883325   -0.016425382289011945   -0.0003429799730050215
-0.0025938968841805296   -0.016493458706842788   -0.0002954121380121997
-0.0043477321616444955   -0.02022733863561373   -0.0004956575125911517
-0.0024846207706502458   -0.020227531327278916   -0.0004175054989366032
-0.00261559903199901   -0.016455584760569287   -0.0002868304214308125
-0.004361425101500502   -0.020195040056240066   -0.00047413918701021433
-0.002497426701069921   -0.02019694399954331   -0.0004095234764775734
-0.00261559903199901   -0.016455584760569287   -0.0002868304214308125
-0.004693523931883325   -0.016425382289011945   -0.0003429799730050215
-0.004361425101500502   -0.020195040056240066   -0.00047413918701021433
-0.004713826203892237   -0.016400436512200883   -0.0003214516580104656
-0.002497426701069921   -0.02019694399954331   -0.0004095234764775734
-0.004372722806327653   -0.020171622618677325   -0.00044981678982310673
-0.004713826203892237   -0.016400436512200883   -0.0003214516580104656
-0.004361425101500502   -0.020195040056240066   -0.00047413918701021433
-0.002497426701069921   -0.02019694399954331   -0.0004095234764775734
-0.004713826203892237   -0.016400436512200883   -0.0003214516580104656
-0.002637752735344306   -0.01642327843713017   -0.00027565991358935546
-0.00261559903199901   -0.016455584760569287   -0.0002868304214308125
-0.002497426701069921   -0.02019694399954331   -0.0004095234764775734
-0.004713826203892237   -0.016400436512200883   -0.0003214516580104656
-0.00261559903199901   -0.016455584760569287   -0.0002868304214308125
-0.004361425101500502   -0.020195040056240066   -0.00047413918701021433
-0.002497426701069921   -0.02019694399954331   -0.0004095234764775734
-0.002637752735344306   -0.01642327843713017   -0.00027565991358935546
-0.004372722806327653   -0.020171622618677325   -0.00044981678982310673
-0.0025122702641734926   -0.020175471919534962   -0.00039882816959997653
-0.002637752735344306   -0.01642327843713017   -0.00027565991358935546
-0.004713826203892237   -0.016400436512200883   -0.0003214516580104656
-0.004372722806327653   -0.020171622618677325   -0.00044981678982310673
-0.004734325956870146   -0.01638105643388958   -0.000297490812832334
-0.0025122702641734926   -0.020175471919534962   -0.00039882816959997653
-0.004384364396677307   -0.020157046745615904   -0.0004227707250621454
-0.004734325956870146   -0.01638105643388958   -0.000297490812832334
-0.004372722806327653   -0.020171622618677325   -0.00044981678982310673
-0.0025122702641734926   -0.020175471919534962   -0.00039882816959997653
-0.004734325956870146   -0.01638105643388958   -0.000297490812832334
-0.0026618163905871737   -0.016396861715971635   -0.0002620285848705328
-0.002637752735344306   -0.01642327843713017   -0.00027565991358935546
-0.0025122702641734926   -0.020175471919534962   -0.00039882816959997653
-0.004734325956870146   -0.01638105643388958   -0.000297490812832334
-0.002637752735344306   -0.01642327843713017   -0.00027565991358935546
-0.004372722806327653   -0.020171622618677325   -0.00044981678982310673
-0.0043477321616444955   -0.02022733863561373   -0.0004956575125911517
-0.004671104092492108   -0.016455856524177432   -0.0003619819371069723
-0.0062680506564135   -0.02015888404398681   -0.0005563966373986787
-0.004361425101500502   -0.020195040056240066   -0.00047413918701021433
-0.004671104092492108   -0.016455856524177432   -0.0003619819371069723
-0.0067896134538525015   -0.016399703257790367   -0.0004159812760744897
-0.0062680506564135   -0.02015888404398681   -0.0005563966373986787
-0.0068103588142285005   -0.016376671784695346   -0.00038647583406518985
-0.004361425101500502   -0.020195040056240066   -0.00047413918701021433
-0.006279259778403197   -0.020133641043466894   -0.0005182544626303791
-0.0068103588142285005   -0.016376671784695346   -0.00038647583406518985
-0.0062680506564135   -0.02015888404398681   -0.0005563966373986787
-0.004361425101500502   -0.020195040056240066   -0.00047413918701021433
-0.0068103588142285005   -0.016376671784695346   -0.00038647583406518985
-0.004693523931883325   -0.016425382289011945   -0.0003429799730050215
-0.004671104092492108   -0.016455856524177432   -0.0003619819371069723
-0.004361425101500502   -0.020195040056240066   -0.00047413918701021433
-0.0068103588142285005   -0.016376671784695346   -0.00038647583406518985
-0.004671104092492108   -0.016455856524177432   -0.0003619819371069723
-0.0062680506564135   -0.02015888404398681   -0.0005563966373986787
-0.004361425101500502   -0.020195040056240066   -0.00047413918701021433
-0.004693523931883325   -0.016425382289011945   -0.0003429799730050215
-0.006279259778403197   -0.020133641043466894   -0.0005182544626303791
-0.004372722806327653   -0.020171622618677325   -0.00044981678982310673
-0.004693523931883325   -0.016425382289011945   -0.0003429799730050215
-0.0068103588142285005   -0.016376671784695346   -0.00038647583406518985
-0.006279259778403197   -0.020133641043466894   -0.0005182544626303791
-0.006822654625684517   -0.01635852069874807   -0.0003547793350732842
-0.004372722806327653   -0.020171622618677325   -0.00044981678982310673
-0.006280290868994275   -0.020116785311239054   -0.00047769512116598245
-0.006822654625684517   -0.01635852069874807   -0.0003547793350732842
-0.006279259778403197   -0.020133641043466894   -0.0005182544626303791
-0.004372722806327653   -0.020171622618677325   -0.00044981678982310673
-0.006822654625684517   -0.01635852069874807   -0.0003547793350732842
-0.004713826203892237   -0.016400436512200883   -0.0003214516580104656
-0.004693523931883325   -0.016425382289011945   -0.0003429799730050215
-0.004372722806327653   -0.020171622618677325   -0.00044981678982310673
-0.006822654625684517   -0.01635852069874807   -0.0003547793350732842
-0.004693523931883325   -0.016425382289011945   -0.0003429799730050215
-0.006279259778403197   -0.020133641043466894   -0.0005182544626303791
-0.004372722806327653   -0.020171622618677325   -0.00044981678982310673
-0.004713826203892237   -0.016400436512200883   -0.0003214516580104656
-0.006280290868994275   -0.020116785311239054   -0.00047769512116598245
-0.004384364396677307   -0.020157046745615904   -0.0004227707250621454
-0.004713826203892237   -0.016400436512200883   -0.0003214516580104656
-0.006822654625684517   -0.01635852069874807   -0.0003547793350732842
-0.006280290868994275   -0.020116785311239054   -0.00047769512116598245
-0.0068363006237832005   -0.016346431411326252   -0.00032044144551700727
-0.004384364396677307   -0.020157046745615904   -0.0004227707250621454
-0.006284306769861476   -0.020109577317896695   -0.0004342032211846262
-0.0068363006237832005   -0.016346431411326252   -0.00032044144551700727
-0.006280290868994275   -0.020116785311239054   -0.00047769512116598245
-0.004384364396677307   -0.020157046745615904   -0.0004227707250621454
-0.0068363006237832005   -0.016346431411326252   -0.00032044144551700727
-0.004734325956870146   -0.01638105643388958   -0.000297490812832334
-0.004713826203892237   -0.016400436512200883   -0.0003214516580104656
-0.004384364396677307   -0.020157046745615904   -0.0004227707250621454
-0.0068363006237832005   -0.016346431411326252   -0.00032044144551700727
-0.004713826203892237   -0.016400436512200883   -0.0003214516580104656
-0.006280290868994275   -0.020116785311239054   -0.00047769512116598245
-0.0062680506564135   -0.02015888404398681   -0.0005563966373986787
-0.0067896134538525015   -0.016399703257790367   -0.0004159812760744897
-0.008362812394138176   -0.020068607341880942   -0.0006083090975705258
-0.006279259778403197   -0.020133641043466894   -0.0005182544626303791
-0.0067896134538525015   -0.016399703257790367   -0.0004159812760744897
-0.009064603293986697   -0.01633015852472552   -0.00045866938620490495
-0.008362812394138176   -0.020068607341880942   -0.0006083090975705258
-0.00904758380238273   -0.01631089624841005   -0.00041907735496226153
-0.006279259778403197   -0.020133641043466894   -0.0005182544626303791
-0.008321281272548536   -0.020045543264902325   -0.0005524383164520947
-0.00904758380238273   -0.01631089624841005   -0.00041907735496226153
-0.008362812394138176   -0.020068607341880942   -0.0006083090975705258
-0.006279259778403197   -0.020133641043466894   -0.0005182544626303791
-0.00904758380238273   -0.01631089624841005   -0.00041907735496226153
-0.0068103588142285005   -0.016376671784695346   -0.00038647583406518985
-0.0067896134538525015   -0.016399703257790367   -0.0004159812760744897
-0.006279259778403197   -0.020133641043466894   -0.0005182544626303791
-0.00904758380238273   -0.01631089624841005   -0.00041907735496226153
-0.0067896134538525015   -0.016399703257790367   -0.0004159812760744897
-0.008362812394138176   -0.020068607341880942   -0.0006083090975705258
-0.006279259778403197   -0.020133641043466894   -0.0005182544626303791
-0.0068103588142285005   -0.016376671784695346   -0.00038647583406518985
-0.008321281272548536   -0.020045543264902325   -0.0005524383164520947
-0.006280290868994275   -0.020116785311239054   -0.00047769512116598245
-0.0068103588142285005   -0.016376671784695346   -0.00038647583406518985
-0.00904758380238273   -0.01631089624841005   -0.00041907735496226153
-0.008321281272548536   -0.020045543264902325   -0.0005524383164520947
-0.009033695163415673   -0.016295951529755978   -0.00037546388627199994
-0.006280290868994275   -0.020116785311239054   -0.00047769512116598245
-0.008286354561193122   -0.020031476645920233   -0.0004923373870543551
-0.009033695163415673   -0.016295951529755978   -0.00037546388627199994
-0.008321281272548536   -0.020045543264902325   -0.0005524383164520947
-0.006280290868994275   -0.020116785311239054   -0.00047769512116598245
-0.009033695163415673   -0.016295951529755978   -0.00037546388627199994
-0.006822654625684517   -0.01635852069874807   -0.0003547793350732842
-0.0068103588142285005   -0.016376671784695346   -0.00038647583406518985
-0.006280290868994275   -0.020116785311239054   -0.00047769512116598245
-0.009033695163415673   -0.016295951529755978   -0.00037546388627199994
-0.0068103588142285005   -0.016376671784695346   -0.00038647583406518985
-0.008321281272548536   -0.020045543264902325   -0.0005524383164520947
-0.006280290868994275   -0.020116785311239054   -0.00047769512116598245
-0.006822654625684517   -0.01635852069874807   -0.0003547793350732842
-0.008286354561193122   -0.020031476645920233   -0.0004923373870543551
-0.006284306769861476   -0.020109577317896695   -0.0004342032211846262
-0.006822654625684517   -0.01635852069874807   -0.0003547793350732842
-0.009033695163415673   -0.016295951529755978   -0.00037546388627199994
-0.008286354561193122   -0.020031476645920233   -0.0004923373870543551
-0.00900168831795711   -0.01629267623207666   -0.00032828590601250964
-0.006284306769861476   -0.020109577317896695   -0.0004342032211846262
-0.008229241911956299   -0.020033726266399265   -0.0004285366608016466
-0.00900168831795711   -0.01629267623207666   -0.00032828590601250964
-0.008286354561193122   -0.020031476645920233   -0.0004923373870543551
-0.006284306769861476   -0.020109577317896695   -0.0004342032211846262
-0.00900168831795711   -0.01629267623207666   -0.00032828590601250964
-0.0068363006237832005   -0.016346431411326252   -0.00032044144551700727
-0.006822654625684517   -0.01635852069874807   -0.0003547793350732842
-0.006284306769861476   -0.020109577317896695   -0.0004342032211846262
-0.00900168831795711   -0.01629267623207666   -0.00032828590601250964
-0.006822654625684517   -0.01635852069874807   -0.0003547793350732842
-0.008286354561193122   -0.020031476645920233   -0.0004923373870543551
0.001733472216418608   -0.016512925358774445   -0.00011918110886298787
0.0018048311691159155   -0.012498991191737915   -2.030674136487626e-05
-0.0004809980721900766   -0.01651329781107081   -0.00021608054284574088
0.0017285408428001727   -0.016459783067349645   -0.00013572475859431897
0.0018048311691159155   -0.012498991191737915   -2.030674136487626e-05
-0.0005416251333362081   -0.012479120960327661   -0.00010704424084718573
-0.0004809980721900766   -0.01651329781107081   -0.00021608054284574088
-0.0005682492369741806   -0.01243527745096493   -9.935078194494196e-05
0.0017285408428001727   -0.016459783067349645   -0.00013572475859431897
-0.0005001834845644918   -0.01646735057719292   -0.00021795763578955267
-0.0005682492369741806   -0.01243527745096493   -9.935078194494196e-05
-0.0004809980721900766   -0.01651329781107081   -0.00021608054284574088
0.0017285408428001727   -0.016459783067349645   -0.00013572475859431897
-0.0005682492369741806   -0.01243527745096493   -9.935078194494196e-05
0.001777379235023518   -0.01244842970118262   -1.9596863004742152e-05
0.0018048311691159155   -0.012498991191737915   -2.030674136487626e-05
0.0017285408428001727   -0.016459783067349645   -0.00013572475859431897
-0.0005682492369741806   -0.01243527745096493   -9.935078194494196e-05
0.0018048311691159155   -0.012498991191737915   -2.030674136487626e-05
-0.0004809980721900766   -0.01651329781107081   -0.00021608054284574088
0.0017285408428001727   -0.016459783067349645   -0.00013572475859431897
0.001777379235023518   -0.01244842970118262   -1.9596863004742152e-05
-0.0005001834845644918   -0.01646735057719292   -0.00021795763578955267
0.0017138261825022777   -0.016417617768360857   -0.00014829365189980966
0.001777379235023518   -0.01244842970118262   -1.9596863004742152e-05
-0.0005682492369741806   -0.01243527745096493   -9.935078194494196e-05
-0.0005001834845644918   -0.01646735057719292   -0.00021795763578955267
-0.0005987926074034322   -0.012394213726860283   -8.938866406720649e-05
0.0017138261825022777   -0.016417617768360857   -0.00014829365189980966
-0.0005215135048172914   -0.016428244542312693   -0.00021735498407781493
-0.0005987926074034322   -0.012394213726860283   -8.938866406720649e-05
-0.0005001834845644918   -0.01646735057719292   -0.00021795763578955267
0.0017138261825022777   -0.016417617768360857   -0.00014829365189980966
-0.0005987926074034322   -0.012394213726860283   -8.938866406720649e-05
0.0017430592516092102   -0.01240372886617556   -1.4265141179181713e-05
0.001777379235023518   -0.01244842970118262   -1.9596863004742152e-05
0.0017138261825022777   -0.016417617768360857   -0.00014829365189980966
-0.0005987926074034322   -0.012394213726860283   -8.938866406720649e-05
0.001777379235023518   -0.01244842970118262   -1.9596863004742152e-05
-0.0005001834845644918   -0.01646735057719292   -0.00021795763578955267
0.0017138261825022777   -0.016417617768360857   -0.00014829365189980966
0.0017430592516092102   -0.01240372886617556   -1.4265141179181713e-05
-0.0005215135048172914   -0.016428244542312693   -0.00021735498407781493
0.0016930676079102676   -0.016379289513481006   -0.00015716559873155386
0.0017430592516092102   -0.01240372886617556   -1.4265141179181713e-05
-0.0005987926074034322   -0.012394213726860283   -8.938866406720649e-05
-0.0005215135048172914   -0.016428244542312693   -0.00021735498407781493
-0.0006332285251096243   -0.012355351555828495   -7.659186187991836e-05
0.0016930676079102676   -0.016379289513481006   -0.00015716559873155386
-0.0005482083510777029   -0.016394930904129683   -0.0002141748249404536
-0.0006332285251096243   -0.012355351555828495   -7.659186187991836e-05
-0.0005215135048172914   -0.016428244542312693   -0.00021735498407781493
0.0016930676079102676   -0.016379289513481006   -0.00015716559873155386
-0.0006332285251096243   -0.012355351555828495   -7.659186187991836e-05
0.0016976546459751777   -0.012357211487576994   -4.516486603562067e-06
0.0017430592516092102   -0.01240372886617556   -1.4265141179181713e-05
0.0016930676079102676   -0.016379289513481006   -0.00015716559873155386
-0.0006332285251096243   -0.012355351555828495   -7.659186187991836e-05
0.0017430592516092102   -0.01240372886617556   -1.4265141179181713e-05
-0.0005215135048172914   -0.016428244542312693   -0.00021735498407781493
-0.0004809980721900766   -0.01651329781107081   -0.00021608054284574088
-0.0005416251333362081   -0.012479120960327661   -0.00010704424084718573
-0.0025938968841805296   -0.016493458706842788   -0.0002954121380121997
-0.0005001834845644918   -0.01646735057719292   -0.00021795763578955267
-0.0005416251333362081   -0.012479120960327661   -0.00010704424084718573
-0.002764797063203696   -0.012455171907929925   -0.0001797849586097166
-0.0025938968841805296   -0.016493458706842788   -0.0002954121380121997
-0.0027921599060662535   -0.012418797803477344   -0.00016748504286480598
-0.0005001834845644918   -0.01646735057719292   -0.00021795763578955267
-0.00261559903199901   -0.016455584760569287   -0.0002868304214308125
-0.0027921599060662535   -0.012418797803477344   -0.00016748504286480598
-0.0025938968841805296   -0.016493458706842788   -0.0002954121380121997
-0.0005001834845644918   -0.01646735057719292   -0.00021795763578955267
-0.0027921599060662535   -0.012418797803477344   -0.00016748504286480598
-0.0005682492369741806   -0.01243527745096493   -9.935078194494196e-05
-0.0005416251333362081   -0.012479120960327661   -0.00010704424084718573
-0.0005001834845644918   -0.01646735057719292   -0.00021795763578955267
-0.0027921599060662535   -0.012418797803477344   -0.00016748504286480598
-0.0005416251333362081   -0.012479120960327661   -0.00010704424084718573
-0.0025938968841805296   -0.016493458706842788   -0.0002954121380121997
-0.0005001834845644918   -0.01646735057719292   -0.00021795763578955267
-0.0005682492369741806   -0.01243527745096493   -9.935078194494196e-05
-0.00261559903199901   -0.016455584760569287   -0.0002868304214308125
-0.0005215135048172914   -0.016428244542312693   -0.00021735498407781493
-0.0005682492369741806   -0.01243527745096493   -9.935078194494196e-05
-0.0027921599060662535   -0.012418797803477344   -0.00016748504286480598
-0.00261559903199901   -0.016455584760569287   -0.0002868304214308125
-0.002820159577262758   -0.012384574351776008   -0.00015301232607344267
-0.0005215135048172914   -0.016428244542312693   -0.00021735498407781493
-0.002637752735344306   -0.01642327843713017   -0.00027565991358935546
-0.002820159577262758   -0.012384574351776008   -0.00015301232607344267
-0.00261559903199901   -0.016455584760569287   -0.0002868304214308125
-0.0005215135048172914   -0.016428244542312693   -0.00021735498407781493
-0.002820159577262758   -0.012384574351776008   -0.00015301232607344267
-0.0005987926074034322   -0.012394213726860283   -8.938866406720649e-05
-0.0005682492369741806   -0.01243527745096493   -9.935078194494196e-05
-0.0005215135048172914   -0.016428244542312693   -0.00021735498407781493
-0.002820159577262758   -0.012384574351776008   -0.00015301232607344267
-0.0005682492369741806   -0.01243527745096493   -9.935078194494196e-05
-0.00261559903199901   -0.016455584760569287   -0.0002868304214308125
-0.0005215135048172914   -0.016428244542312693   -0.00021735498407781493
-0.0005987926074034322   -0.012394213726860283   -8.938866406720649e-05
-0.002637752735344306   -0.01642327843713017   -0.00027565991358935546
-0.0005482083510777029   -0.016394930904129683   -0.0002141748249404536
-0.0005987926074034322   -0.012394213726860283   -8.938866406720649e-05
-0.002820159577262758   -0.012384574351776008   -0.00015301232607344267
-0.002637752735344306   -0.01642327843713017   -0.00027565991358935546
-0.0028499770168985464   -0.01235306474409546   -0.00013635170806483706
-0.0005482083510777029   -0.016394930904129683   -0.0002141748249404536
-0.0026618163905871737   -0.016396861715971635   -0.0002620285848705328
-0.0028499770168985464   -0.01235306474409546   -0.00013635170806483706
-0.002637752735344306   -0.01642327843713017   -0.00027565991358935546
-0.0005482083510777029   -0.016394930904129683   -0.0002141748249404536
-0.0028499770168985464   -0.01235306474409546   -0.00013635170806483706
-0.0006332285251096243   -0.012355351555828495   -7.659186187991836e-05
-0.0005987926074034322   -0.012394213726860283   -8.938866406720649e-05
-0.0005482083510777029   -0.016394930904129683   -0.0002141748249404536
-0.0028499770168985464   -0.01235306474409546   -0.00013635170806483706
-0.0005987926074034322   -0.012394213726860283   -8.938866406720649e-05
-0.002637752735344306   -0.01642327843713017   -0.00027565991358935546
-0.0025938968841805296   -0.016493458706842788   -0.0002954121380121997
-0.002764797063203696   -0.012455171907929925   -0.0001797849586097166
-0.004671104092492108   -0.016455856524177432   -0.0003619819371069723
-0.00261559903199901   -0.016455584760569287   -0.0002868304214308125
-0.002764797063203696   -0.012455171907929925   -0.0001797849586097166
-0.00495139038189668   -0.012426090788096858   -0.00024116461529936095
-0.004671104092492108   -0.016455856524177432   -0.0003619819371069723
-0.004978634650980769   -0.012396595220569087   -0.00022429276645087424
-0.00261559903199901   -0.016455584760569287   -0.0002868304214308125
-0.004693523931883325   -0.016425382289011945   -0.0003429799730050215
-0.004978634650980769   -0.012396595220569087   -0.00022429276645087424
-0.004671104092492108   -0.016455856524177432   -0.0003619819371069723
-0.00261559903199901   -0.016455584760569287   -0.0002868304214308125
-0.004978634650980769   -0.012396595220569087   -0.00022429276645087424
-0.0027921599060662535   -0.012418797803477344   -0.00016748504286480598
-0.002764797063203696   -0.012455171907929925   -0.0001797849586097166
-0.00261559903199901   -0.016455584760569287   -0.0002868304214308125
-0.004978634650980769   -0.012396595220569087   -0.00022429276645087424
-0.002764797063203696   -0.012455171907929925   -0.0001797849586097166
-0.004671104092492108   -0.016455856524177432   -0.0003619819371069723
-0.00261559903199901   -0.016455584760569287   -0.0002868304214308125
-0.0027921599060662535   -0.012418797803477344   -0.00016748504286480598
-0.004693523931883325   -0.016425382289011945   -0.0003429799730050215
-0.002637752735344306   -0.01642327843713017   -0.00027565991358935546
-0.0027921599060662535   -0.012418797803477344   -0.00016748504286480598
-0.004978634650980769   -0.012396595220569087   -0.00022429276645087424
-0.004693523931883325   -0.016425382289011945   -0.0003429799730050215
-0.0050040936326200105   -0.01236935823050964   -0.00020532189586665273
-0.002637752735344306   -0.01642327843713017   -0.00027565991358935546
-0.004713826203892237   -0.016400436512200883   -0.0003214516580104656
-0.0050040936326200105   -0.01236935823050964   -0.00020532189586665273
-0.004693523931883325   -0.016425382289011945   -0.0003429799730050215
-0.002637752735344306   -0.01642327843713017   -0.00027565991358935546
-0.0050040936326200105   -0.01236935823050964   -0.00020532189586665273
-0.002820159577262758   -0.012384574351776008   -0.00015301232607344267
-0.0027921599060662535   -0.012418797803477344   -0.00016748504286480598
-0.002637752735344306   -0.01642327843713017   -0.00027565991358935546
-0.0050040936326200105   -0.01236935823050964   -0.00020532189586665273
-0.0027921599060662535   -0.012418797803477344   -0.00016748504286480598
-0.004693523931883325   -0.016425382289011945   -0.0003429799730050215
-0.002637752735344306   -0.01642327843713017   -0.00027565991358935546
-0.002820159577262758   -0.012384574351776008   -0.00015301232607344267
-0.004713826203892237   -0.016400436512200883   -0.0003214516580104656
-0.0026618163905871737   -0.016396861715971635   -0.0002620285848705328
-0.002820159577262758   -0.012384574351776008   -0.00015301232607344267
-0.0050040936326200105   -0.01236935823050964   -0.00020532189586665273
-0.004713826203892237   -0.016400436512200883   -0.0003214516580104656
-0.0050296444243581075   -0.012344450164701561   -0.00018435347450651996
-0.0026618163905871737   -0.016396861715971635   -0.0002620285848705328
-0.004734325956870146   -0.01638105643388958   -0.000297490812832334
-0.0050296444243581075   -0.012344450164701561   -0.00018435347450651996
-0.004713826203892237   -0.016400436512200883   -0.0003214516580104656
-0.0026618163905871737   -0.016396861715971635   -0.0002620285848705328
-0.0050296444243581075   -0.012344450164701561   -0.00018435347450651996
-0.0028499770168985464   -0.01235306474409546   -0.00013635170806483706
-0.002820159577262758   -0.012384574351776008   -0.00015301232607344267
-0.0026618163905871737   -0.016396861715971635   -0.0002620285848705328
-0.0050296444243581075   -0.012344450164701561   -0.00018435347450651996
-0.002820159577262758   -0.012384574351776008   -0.00015301232607344267
-0.004713826203892237   -0.016400436512200883   -0.0003214516580104656
-0.004671104092492108   -0.016455856524177432   -0.0003619819371069723
-0.00495139038189668   -0.012426090788096858   -0.00024116461529936095
-0.0067896134538525015   -0.016399703257790367   -0.0004159812760744897
-0.004693523931883325   -0.016425382289011945   -0.0003429799730050215
-0.00495139038189668   -0.012426090788096858   -0.00024116461529936095
-0.007177725755940776   -0.01238654155641821   -0.00029065255263327705
-0.0067896134538525015   -0.016399703257790367   -0.0004159812760744897
-0.007203783540926204   -0.01236427751568039   -0.0002692648399705563
-0.004693523931883325   -0.016425382289011945   -0.0003429799730050215
-0.0068103588142285005   -0.016376671784695346   -0.00038647583406518985
-0.007203783540926204   -0.01236427751568039   -0.0002692648399705563
-0.0067896134538525015   -0.016399703257790367   -0.0004159812760744897
-0.004693523931883325   -0.016425382289011945   -0.0003429799730050215
-0.007203783540926204   -0.01236427751568039   -0.0002692648399705563
-0.004978634650980769   -0.012396595220569087   -0.00022429276645087424
-0.00495139038189668   -0.012426090788096858   -0.00024116461529936095
-0.004693523931883325   -0.016425382289011945   -0.0003429799730050215
-0.007203783540926204   -0.01236427751568039   -0.0002692648399705563
-0.00495139038189668   -0.012426090788096858   -0.00024116461529936095
-0.0067896134538525015   -0.016399703257790367   -0.0004159812760744897
-0.004693523931883325   -0.016425382289011945   -0.0003429799730050215
-0.004978634650980769   -0.012396595220569087   -0.00022429276645087424
-0.0068103588142285005   -0.016376671784695346   -0.00038647583406518985
-0.004713826203892237   -0.016400436512200883   -0.0003214516580104656
-0.004978634650980769   -0.012396595220569087   -0.00022429276645087424
-0.007203783540926204   -0.01236427751568039   -0.0002692648399705563
-0.0068103588142285005   -0.016376671784695346   -0.00038647583406518985
-0.007223352010045949   -0.012343495582269107   -0.000246112765055006
-0.004713826203892237   -0.016400436512200883   -0.0003214516580104656
-0.006822654625684517   -0.01635852069874807   -0.0003547793350732842
-0.007223352010045949   -0.012343495582269107   -0.000246112765055006
-0.0068103588142285005   -0.016376671784695346   -0.00038647583406518985
-0.004713826203892237   -0.016400436512200883   -0.0003214516580104656
-0.007223352010045949   -0.012343495582269107   -0.000246112765055006
-0.0050040936326200105   -0.01236935823050964   -0.00020532189586665273
-0.004978634650980769   -0.012396595220569087   -0.00022429276645087424
-0.004713826203892237   -0.016400436512200883   -0.0003214516580104656
-0.007223352010045949   -0.012343495582269107   -0.000246112765055006
-0.004978634650980769   -0.012396595220569087   -0.00022429276645087424
-0.0068103588142285005   -0.016376671784695346   -0.00038647583406518985
-0.004713826203892237   -0.016400436512200883   -0.0003214516580104656
-0.0050040936326200105   -0.01236935823050964   -0.00020532189586665273
-0.006822654625684517   -0.01635852069874807   -0.0003547793350732842
-0.004734325956870146   -0.01638105643388958   -0.000297490812832334
-0.0050040936326200105   -0.01236935823050964   -0.00020532189586665273
-0.007223352010045949   -0.012343495582269107   -0.000246112765055006
-0.006822654625684517   -0.01635852069874807   -0.0003547793350732842
-0.007242812278289401   -0.012325186441918   -0.00022074631243190052
-0.004734325956870146   -0.01638105643388958   -0.000297490812832334
-0.0068363006237832005   -0.016346431411326252   -0.00032044144551700727
-0.007242812278289401   -0.012325186441918   -0.00022074631243190052
-0.006822654625684517   -0.01635852069874807   -0.0003547793350732842
-0.004734325956870146   -0.01638105643388958   -0.000297490812832334
-0.007242812278289401   -0.012325186441918   -0.00022074631243190052
-0.0050296444243581075   -0.012344450164701561   -0.00018435347450651996
-0.0050040936326200105   -0.01236935823050964   -0.00020532189586665273
-0.004734325956870146   -0.01638105643388958   -0.000297490812832334
-0.007242812278289401   -0.012325186441918   -0.00022074631243190052
-0.0050040936326200105   -0.01236935823050964   -0.00020532189586665273
-0.006822654625684517   -0.01635852069874807   -0.0003547793350732842
-0.0067896134538525015   -0.016399703257790367   -0.0004159812760744897
-0.007177725755940776   -0.01238654155641821   -0.00029065255263327705
-0.009064603293986697   -0.01633015852472552   -0.00045866938620490495
-0.0068103588142285005   -0.016376671784695346   -0.00038647583406518985
-0.007177725755940776   -0.01238654155641821   -0.00029065255263327705
-0.009539150149050128   -0.012339408487992299   -0.00032682463875802453
-0.009064603293986697   -0.01633015852472552   -0.00045866938620490495
-0.0095420596190012   -0.01232195038216208   -0.0003028557100721953
-0.0068103588142285005   -0.016376671784695346   -0.00038647583406518985
-0.00904758380238273   -0.01631089624841005   -0.00041907735496226153
-0.0095420596190012   -0.01232195038216208   -0.0003028557100721953
-0.009064603293986697   -0.01633015852472552   -0.00045866938620490495
-0.0068103588142285005   -0.016376671784695346   -0.00038647583406518985
-0.0095420596190012   -0.01232195038216208   -0.0003028557100721953
-0.007203783540926204   -0.01236427751568039   -0.0002692648399705563
-0.007177725755940776   -0.01238654155641821   -0.00029065255263327705
-0.0068103588142285005   -0.016376671784695346   -0.00038647583406518985
-0.0095420596190012   -0.01232195038216208   -0.0003028557100721953
-0.007177725755940776   -0.01238654155641821   -0.00029065255263327705
-0.009064603293986697   -0.01633015852472552   -0.00045866938620490495
-0.0068103588142285005   -0.016376671784695346   -0.00038647583406518985
-0.007203783540926204   -0.01236427751568039   -0.0002692648399705563
-0.00904758380238273   -0.01631089624841005   -0.00041907735496226153
-0.006822654625684517   -0.01635852069874807   -0.0003547793350732842
-0.007203783540926204   -0.01236427751568039   -0.0002692648399705563
-0.0095420596190012   -0.01232195038216208   -0.0003028557100721953
-0.00904758380238273   -0.01631089624841005   -0.00041907735496226153
-0.009545228814120017   -0.01230448863156246   -0.00027534759926805895
-0.006822654625684517   -0.01635852069874807   -0.0003547793350732842
-0.009033695163415673   -0.016295951529755978   -0.00037546388627199994
-0.009545228814120017   -0.01230448863156246   -0.00027534759926805895
-0.00904758380238273   -0.01631089624841005   -0.00041907735496226153
-0.006822654625684517   -0.01635852069874807   -0.0003547793350732842
-0.009545228814120017   -0.01230448863156246   -0.00027534759926805895
-0.007223352010045949   -0.012343495582269107   -0.000246112765055006
-0.007203783540926204   -0.01236427751568039   -0.0002692648399705563
-0.006822654625684517   -0.01635852069874807   -0.0003547793350732842
-0.009545228814120017   -0.01230448863156246   -0.00027534759926805895
-0.007203783540926204   -0.01236427751568039   -0.0002692648399705563
-0.00904758380238273   -0.01631089624841005   -0.00041907735496226153
-0.006822654625684517   -0.01635852069874807   -0.0003547793350732842
-0.007223352010045949   -0.012343495582269107   -0.000246112765055006
-0.009033695163415673   -0.016295951529755978   -0.00037546388627199994
-0.0068363006237832005   -0.016346431411326252   -0.00032044144551700727
-0.007223352010045949   -0.012343495582269107   -0.000246112765055006
-0.009545228814120017   -0.01230448863156246   -0.00027534759926805895
-0.009033695163415673   -0.016295951529755978   -0.00037546388627199994
-0.009534827364962294   -0.012293900219636712   -0.00024471262689216585
-0.0068363006237832005   -0.016346431411326252   -0.00032044144551700727
-0.00900168831795711   -0.01629267623207666   -0.00032828590601250964
-0.009534827364962294   -0.012293900219636712   -0.00024471262689216585
-0.009033695163415673   -0.016295951529755978   -0.00037546388627199994
-0.0068363006237832005   -0.016346431411326252   -0.00032044144551700727
-0.009534827364962294   -0.012293900219636712   -0.00024471262689216585
-0.007242812278289401   -0.012325186441918   -0.00022074631243190052
-0.007223352010045949   -0.012343495582269107   -0.000246112765055006
-0.0068363006237832005   -0.016346431411326252   -0.00032044144551700727
-0.009534827364962294   -0.012293900219636712   -0.00024471262689216585
-0.007223352010045949   -0.012343495582269107   -0.000246112765055006
-0.009033695163415673   -0.016295951529755978   -0.00037546388627199994
0.0018048311691159155   -0.012498991191737915   -2.030674136487626e-05
0.0016265302055730804   -0.008354502436500655   4.805602045325486e-05
-0.0005416251333362081   -0.012479120960327661   -0.00010704424084718573
0.001777379235023518   -0.01244842970118262   -1.9596863004742152e-05
0.0016265302055730804   -0.008354502436500655   4.805602045325486e-05
-0.0007435827500166942   -0.008316210787291603   -2.0058746796931024e-05
-0.0005416251333362081   -0.012479120960327661   -0.00010704424084718573
-0.0007757513237505258   -0.00827672921222839   -3.4552349574595264e-06
0.001777379235023518   -0.01244842970118262   -1.9596863004742152e-05
-0.0005682492369741806   -0.01243527745096493   -9.935078194494196e-05
-0.0007757513237505258   -0.00827672921222839   -3.4552349574595264e-06
-0.0005416251333362081   -0.012479120960327661   -0.00010704424084718573
0.001777379235023518   -0.01244842970118262   -1.9596863004742152e-05
-0.0007757513237505258   -0.00827672921222839   -3.4552349574595264e-06
0.0015764344266592264   -0.00830649344532014   6.823365828758229e-05
0.0016265302055730804   -0.008354502436500655   4.805602045325486e-05
0.001777379235023518   -0.01244842970118262   -1.9596863004742152e-05
-0.0007757513237505258   -0.00827672921222839   -3.4552349574595264e-06
0.0016265302055730804   -0.008354502436500655   4.805602045325486e-05
-0.0005416251333362081   -0.012479120960327661   -0.00010704424084718573
0.001777379235023518   -0.01244842970118262   -1.9596863004742152e-05
0.0015764344266592264   -0.00830649344532014   6.823365828758229e-05
-0.0005682492369741806   -0.01243527745096493   -9.935078194494196e-05
0.0017430592516092102   -0.01240372886617556   -1.4265141179181713e-05
0.0015764344266592264   -0.00830649344532014   6.823365828758229e-05
-0.0007757513237505258   -0.00827672921222839   -3.4552349574595264e-06
-0.0005682492369741806   -0.01243527745096493   -9.935078194494196e-05
-0.0008134773965059693   -0.008235183224079302   1.617724065773623e-05
0.0017430592516092102   -0.01240372886617556   -1.4265141179181713e-05
-0.0005987926074034322   -0.012394213726860283   -8.938866406720649e-05
-0.0008134773965059693   -0.008235183224079302   1.617724065773623e-05
-0.0005682492369741806   -0.01243527745096493   -9.935078194494196e-05
0.0017430592516092102   -0.01240372886617556   -1.4265141179181713e-05
-0.0008134773965059693   -0.008235183224079302   1.617724065773623e-05
0.0015200102687068253   -0.008259112422423574   9.76572680658207e-05
0.0015764344266592264   -0.00830649344532014   6.823365828758229e-05
0.0017430592516092102   -0.01240372886617556   -1.4265141179181713e-05
-0.0008134773965059693   -0.008235183224079302   1.617724065773623e-05
0.0015764344266592264   -0.00830649344532014   6.823365828758229e-05
-0.0005682492369741806   -0.01243527745096493   -9.935078194494196e-05
0.0017430592516092102   -0.01240372886617556   -1.4265141179181713e-05
0.0015200102687068253   -0.008259112422423574   9.76572680658207e-05
-0.0005987926074034322   -0.012394213726860283   -8.938866406720649e-05
0.0016976546459751777   -0.012357211487576994   -4.516486603562067e-06
0.0015200102687068253   -0.008259112422423574   9.76572680658207e-05
-0.0008134773965059693   -0.008235183224079302   1.617724065773623e-05
-0.0005987926074034322   -0.012394213726860283   -8.938866406720649e-05
-0.0008526120106909303   -0.008191181740679414   3.881333994374571e-05
0.0016976546459751777   -0.012357211487576994   -4.516486603562067e-06
-0.0006332285251096243   -0.012355351555828495   -7.659186187991836e-05
-0.0008526120106909303   -0.008191181740679414   3.881333994374571e-05
-0.0005987926074034322   -0.012394213726860283   -8.938866406720649e-05
0.0016976546459751777   -0.012357211487576994   -4.516486603562067e-06
-0.0008526120106909303   -0.008191181740679414   3.881333994374571e-05
0.0014510196362369815   -0.00820079230334093   0.0001301108178827641
0.0015200102687068253   -0.008259112422423574   9.76572680658207e-05
0.0016976546459751777   -0.012357211487576994   -4.516486603562067e-06
-0.0008526120106909303   -0.008191181740679414   3.881333994374571e-05
0.0015200102687068253   -0.008259112422423574   9.76572680658207e-05
-0.0005987926074034322   -0.012394213726860283   -8.938866406720649e-05
-0.0005416251333362081   -0.012479120960327661   -0.00010704424084718573
-0.0007435827500166942   -0.008316210787291603   -2.0058746796931024e-05
-0.002764797063203696   -0.012455171907929925   -0.0001797849586097166
-0.0005682492369741806   -0.01243527745096493   -9.935078194494196e-05
-0.0007435827500166942   -0.008316210787291603   -2.0058746796931024e-05
-0.0029737728830234148   -0.008306260621716115   -8.535407164845054e-05
-0.002764797063203696   -0.012455171907929925   -0.0001797849586097166
-0.0030030379434357437   -0.00827207588150466   -6.966865683219933e-05
-0.0005682492369741806   -0.01243527745096493   -9.935078194494196e-05
-0.0027921599060662535   -0.012418797803477344   -0.00016748504286480598
-0.0030030379434357437   -0.00827207588150466   -6.966865683219933e-05
-0.002764797063203696   -0.012455171907929925   -0.0001797849586097166
-0.0005682492369741806   -0.01243527745096493   -9.935078194494196e-05
-0.0030030379434357437   -0.00827207588150466   -6.966865683219933e-05
-0.0007757513237505258   -0.00827672921222839   -3.4552349574595264e-06
-0.0007435827500166942   -0.008316210787291603   -2.0058746796931024e-05
-0.0005682492369741806   -0.01243527745096493   -9.935078194494196e-05
-0.0030030379434357437   -0.00827207588150466   -6.966865683219933e-05
-0.0007435827500166942   -0.008316210787291603   -2.0058746796931024e-05
-0.002764797063203696   -0.012455171907929925   -0.0001797849586097166
-0.0005682492369741806   -0.01243527745096493   -9.935078194494196e-05
-0.0007757513237505258   -0.00827672921222839   -3.4552349574595264e-06
-0.0027921599060662535   -0.012418797803477344   -0.00016748504286480598
-0.0005987926074034322   -0.012394213726860283   -8.938866406720649e-05
-0.0007757513237505258   -0.00827672921222839   -3.4552349574595264e-06
-0.0030030379434357437   -0.00827207588150466   -6.966865683219933e-05
-0.0027921599060662535   -0.012418797803477344   -0.00016748504286480598
-0.0030333578236946775   -0.008236565302896515   -5.238181071885186e-05
-0.0005987926074034322   -0.012394213726860283   -8.938866406720649e-05
-0.002820159577262758   -0.012384574351776008   -0.00015301232607344267
-0.0030333578236946775   -0.008236565302896515   -5.238181071885186e-05
-0.0027921599060662535   -0.012418797803477344   -0.00016748504286480598
-0.0005987926074034322   -0.012394213726860283   -8.938866406720649e-05
-0.0030333578236946775   -0.008236565302896515   -5.238181071885186e-05
-0.0008134773965059693   -0.008235183224079302   1.617724065773623e-05
-0.0007757513237505258   -0.00827672921222839   -3.4552349574595264e-06
-0.0005987926074034322   -0.012394213726860283   -8.938866406720649e-05
-0.0030333578236946775   -0.008236565302896515   -5.238181071885186e-05
-0.0007757513237505258   -0.00827672921222839   -3.4552349574595264e-06
-0.0027921599060662535   -0.012418797803477344   -0.00016748504286480598
-0.0005987926074034322   -0.012394213726860283   -8.938866406720649e-05
-0.0008134773965059693   -0.008235183224079302   1.617724065773623e-05
-0.002820159577262758   -0.012384574351776008   -0.00015301232607344267
-0.0006332285251096243   -0.012355351555828495   -7.659186187991836e-05
-0.0008134773965059693   -0.008235183224079302   1.617724065773623e-05
-0.0030333578236946775   -0.008236565302896515   -5.238181071885186e-05
-0.002820159577262758   -0.012384574351776008   -0.00015301232607344267
-0.0030649700538339163   -0.008200429236834932   -3.318385111384786e-05
-0.0006332285251096243   -0.012355351555828495   -7.659186187991836e-05
-0.0028499770168985464   -0.01235306474409546   -0.00013635170806483706
-0.0030649700538339163   -0.008200429236834932   -3.318385111384786e-05
-0.002820159577262758   -0.012384574351776008   -0.00015301232607344267
-0.0006332285251096243   -0.012355351555828495   -7.659186187991836e-05
-0.0030649700538339163   -0.008200429236834932   -3.318385111384786e-05
-0.0008526120106909303   -0.008191181740679414   3.881333994374571e-05
-0.0008134773965059693   -0.008235183224079302   1.617724065773623e-05
-0.0006332285251096243   -0.012355351555828495   -7.659186187991836e-05
-0.0030649700538339163   -0.008200429236834932   -3.318385111384786e-05
-0.0008134773965059693   -0.008235183224079302   1.617724065773623e-05
-0.002820159577262758   -0.012384574351776008   -0.00015301232607344267
-0.002764797063203696   -0.012455171907929925   -0.0001797849586097166
-0.0029737728830234148   -0.008306260621716115   -8.535407164845054e-05
-0.00495139038189668   -0.012426090788096858   -0.00024116461529936095
-0.0027921599060662535   -0.012418797803477344   -0.00016748504286480598
-0.0029737728830234148   -0.008306260621716115   -8.535407164845054e-05
-0.005179880320110654   -0.008303437020756413   -0.0001441500776523511
-0.00495139038189668   -0.012426090788096858   -0.00024116461529936095
-0.005207949475659748   -0.008273660515885215   -0.00012898369224596603
-0.0027921599060662535   -0.012418797803477344   -0.00016748504286480598
-0.004978634650980769   -0.012396595220569087   -0.00022429276645087424
-0.005207949475659748   -0.008273660515885215   -0.00012898369224596603
-0.00495139038189668   -0.012426090788096858   -0.00024116461529936095
-0.0027921599060662535   -0.012418797803477344   -0.00016748504286480598
-0.005207949475659748   -0.008273660515885215   -0.00012898369224596603
-0.0030030379434357437   -0.00827207588150466   -6.966865683219933e-05
-0.0029737728830234148   -0.008306260621716115   -8.535407164845054e-05
-0.0027921599060662535   -0.012418797803477344   -0.00016748504286480598
-0.005207949475659748   -0.008273660515885215   -0.00012898369224596603
-0.0029737728830234148   -0.008306260621716115   -8.535407164845054e-05
-0.00495139038189668   -0.012426090788096858   -0.00024116461529936095
-0.0027921599060662535   -0.012418797803477344   -0.00016748504286480598
-0.0030030379434357437   -0.00827207588150466   -6.966865683219933e-05
-0.004978634650980769   -0.012396595220569087   -0.00022429276645087424
-0.002820159577262758   -0.012384574351776008   -0.00015301232607344267
-0.0030030379434357437   -0.00827207588150466   -6.966865683219933e-05
-0.005207949475659748   -0.008273660515885215   -0.00012898369224596603
-0.004978634650980769   -0.012396595220569087   -0.00022429276645087424
-0.005234693727150709   -0.008243423674225899   -0.00011240935298189432
-0.002820159577262758   -0.012384574351776008   -0.00015301232607344267
-0.0050040936326200105   -0.01236935823050964   -0.00020532189586665273
-0.005234693727150709   -0.008243423674225899   -0.00011240935298189432
-0.004978634650980769   -0.012396595220569087   -0.00022429276645087424
-0.002820159577262758   -0.012384574351776008   -0.00015301232607344267
-0.005234693727150709   -0.008243423674225899   -0.00011240935298189432
-0.0030333578236946775   -0.008236565302896515   -5.238181071885186e-05
-0.0030030379434357437   -0.00827207588150466   -6.966865683219933e-05
-0.002820159577262758   -0.012384574351776008   -0.00015301232607344267
-0.005234693727150709   -0.008243423674225899   -0.00011240935298189432
-0.0030030379434357437   -0.00827207588150466   -6.966865683219933e-05
-0.004978634650980769   -0.012396595220569087   -0.00022429276645087424
-0.002820159577262758   -0.012384574351776008   -0.00015301232607344267
-0.0030333578236946775   -0.008236565302896515   -5.238181071885186e-05
-0.0050040936326200105   -0.01236935823050964   -0.00020532189586665273
-0.0028499770168985464   -0.01235306474409546   -0.00013635170806483706
-0.0030333578236946775   -0.008236565302896515   -5.238181071885186e-05
-0.005234693727150709   -0.008243423674225899   -0.00011240935298189432
-0.0050040936326200105   -0.01236935823050964   -0.00020532189586665273
-0.005261174027755557   -0.008212541838289424   -9.449974779841781e-05
-0.0028499770168985464   -0.01235306474409546   -0.00013635170806483706
-0.0050296444243581075   -0.012344450164701561   -0.00018435347450651996
-0.005261174027755557   -0.008212541838289424   -9.449974779841781e-05
-0.0050040936326200105   -0.01236935823050964   -0.00020532189586665273
-0.0028499770168985464   -0.01235306474409546   -0.00013635170806483706
-0.005261174027755557   -0.008212541838289424   -9.449974779841781e-05
-0.0030649700538339163   -0.008200429236834932   -3.318385111384786e-05
-0.0030333578236946775   -0.008236565302896515   -5.238181071885186e-05
-0.0028499770168985464   -0.01235306474409546   -0.00013635170806483706
-0.005261174027755557   -0.008212541838289424   -9.449974779841781e-05
-0.0030333578236946775   -0.008236565302896515   -5.238181071885186e-05
-0.0050040936326200105   -0.01236935823050964   -0.00020532189586665273
-0.00495139038189668   -0.012426090788096858   -0.00024116461529936095
-0.005179880320110654   -0.008303437020756413   -0.0001441500776523511
-0.007177725755940776   -0.01238654155641821   -0.00029065255263327705
-0.004978634650980769   -0.012396595220569087   -0.00022429276645087424
-0.005179880320110654   -0.008303437020756413   -0.0001441500776523511
-0.0074329021406483245   -0.00829033662865674   -0.0001930907496747266
-0.007177725755940776   -0.01238654155641821   -0.00029065255263327705
-0.007459657781297017   -0.008266390412999201   -0.0001785456210744985
-0.004978634650980769   -0.012396595220569087   -0.00022429276645087424
-0.007203783540926204   -0.01236427751568039   -0.0002692648399705563
-0.007459657781297017   -0.008266390412999201   -0.0001785456210744985
-0.007177725755940776   -0.01238654155641821   -0.00029065255263327705
-0.004978634650980769   -0.012396595220569087   -0.00022429276645087424
-0.007459657781297017   -0.008266390412999201   -0.0001785456210744985
-0.005207949475659748   -0.008273660515885215   -0.00012898369224596603
-0.005179880320110654   -0.008303437020756413   -0.0001441500776523511
-0.004978634650980769   -0.012396595220569087   -0.00022429276645087424
-0.007459657781297017   -0.008266390412999201   -0.0001785456210744985
-0.005179880320110654   -0.008303437020756413   -0.0001441500776523511
-0.007177725755940776   -0.01238654155641821   -0.00029065255263327705
-0.004978634650980769   -0.012396595220569087   -0.00022429276645087424
-0.005207949475659748   -0.008273660515885215   -0.00012898369224596603
-0.007203783540926204   -0.01236427751568039   -0.0002692648399705563
-0.0050040936326200105   -0.01236935823050964   -0.00020532189586665273
-0.005207949475659748   -0.008273660515885215   -0.00012898369224596603
-0.007459657781297017   -0.008266390412999201   -0.0001785456210744985
-0.007203783540926204   -0.01236427751568039   -0.0002692648399705563
-0.007482226952443961   -0.008241158505576433   -0.0001629784321411541
-0.0050040936326200105   -0.01236935823050964   -0.00020532189586665273
-0.007223352010045949   -0.012343495582269107   -0.000246112765055006
-0.007482226952443961   -0.008241158505576433   -0.0001629784321411541
-0.007203783540926204   -0.01236427751568039   -0.0002692648399705563
-0.0050040936326200105   -0.01236935823050964   -0.00020532189586665273
-0.007482226952443961   -0.008241158505576433   -0.0001629784321411541
-0.005234693727150709   -0.008243423674225899   -0.00011240935298189432
-0.005207949475659748   -0.008273660515885215   -0.00012898369224596603
-0.0050040936326200105   -0.01236935823050964   -0.00020532189586665273
-0.007482226952443961   -0.008241158505576433   -0.0001629784321411541
-0.005207949475659748   -0.008273660515885215   -0.00012898369224596603
-0.007203783540926204   -0.01236427751568039   -0.0002692648399705563
-0.0050040936326200105   -0.01236935823050964   -0.00020532189586665273
-0.005234693727150709   -0.008243423674225899   -0.00011240935298189432
-0.007223352010045949   -0.012343495582269107   -0.000246112765055006
-0.0050296444243581075   -0.012344450164701561   -0.00018435347450651996
-0.005234693727150709   -0.008243423674225899   -0.00011240935298189432
-0.007482226952443961   -0.008241158505576433   -0.0001629784321411541
-0.007223352010045949   -0.012343495582269107   -0.000246112765055006
-0.007503552356674186   -0.008215330199959412   -0.00014596521020022283
-0.0050296444243581075   -0.012344450164701561   -0.00018435347450651996
-0.007242812278289401   -0.012325186441918   -0.00022074631243190052
-0.007503552356674186   -0.008215330199959412   -0.00014596521020022283
-0.007223352010045949   -0.012343495582269107   -0.000246112765055006
-0.0050296444243581075   -0.012344450164701561   -0.00018435347450651996
-0.007503552356674186   -0.008215330199959412   -0.00014596521020022283
-0.005261174027755557   -0.008212541838289424   -9.449974779841781e-05
-0.005234693727150709   -0.008243423674225899   -0.00011240935298189432
-0.0050296444243581075   -0.012344450164701561   -0.00018435347450651996
-0.007503552356674186   -0.008215330199959412   -0.00014596521020022283
-0.005234693727150709   -0.008243423674225899   -0.00011240935298189432
-0.007223352010045949   -0.012343495582269107   -0.000246112765055006
-0.007177725755940776   -0.01238654155641821   -0.00029065255263327705
-0.0074329021406483245   -0.00829033662865674   -0.0001930907496747266
-0.009539150149050128   -0.012339408487992299   -0.00032682463875802453
-0.007203783540926204   -0.01236427751568039   -0.0002692648399705563
-0.0074329021406483245   -0.00829033662865674   -0.0001930907496747266
-0.009795112271044152   -0.00826846414699723   -0.00022857666498735406
-0.009539150149050128   -0.012339408487992299   -0.00032682463875802453
-0.009811203365598351   -0.008248679557863653   -0.00021734398766357435
-0.007203783540926204   -0.01236427751568039   -0.0002692648399705563
-0.0095420596190012   -0.01232195038216208   -0.0003028557100721953
-0.009811203365598351   -0.008248679557863653   -0.00021734398766357435
-0.009539150149050128   -0.012339408487992299   -0.00032682463875802453
-0.007203783540926204   -0.01236427751568039   -0.0002692648399705563
-0.009811203365598351   -0.008248679557863653   -0.00021734398766357435
-0.007459657781297017   -0.008266390412999201   -0.0001785456210744985
-0.0074329021406483245   -0.00829033662865674   -0.0001930907496747266
-0.007203783540926204   -0.01236427751568039   -0.0002692648399705563
-0.009811203365598351   -0.008248679557863653   -0.00021734398766357435
-0.0074329021406483245   -0.00829033662865674   -0.0001930907496747266
-0.009539150149050128   -0.012339408487992299   -0.00032682463875802453
-0.007203783540926204   -0.01236427751568039   -0.0002692648399705563
-0.007459657781297017   -0.008266390412999201   -0.0001785456210744985
-0.0095420596190012   -0.01232195038216208   -0.0003028557100721953
-0.007223352010045949   -0.012343495582269107   -0.000246112765055006
-0.007459657781297017   -0.008266390412999201   -0.0001785456210744985
-0.009811203365598351   -0.008248679557863653   -0.00021734398766357435
-0.0095420596190012   -0.01232195038216208   -0.0003028557100721953
-0.009825917176785288   -0.008226159893103178   -0.000203649361589347
-0.007223352010045949   -0.012343495582269107   -0.000246112765055006
-0.009545228814120017   -0.01230448863156246   -0.00027534759926805895
-0.009825917176785288   -0.008226159893103178   -0.000203649361589347
-0.0095420596190012   -0.01232195038216208   -0.0003028557100721953
-0.007223352010045949   -0.012343495582269107   -0.000246112765055006
-0.009825917176785288   -0.008226159893103178   -0.000203649361589347
-0.007482226952443961   -0.008241158505576433   -0.0001629784321411541
-0.007459657781297017   -0.008266390412999201   -0.0001785456210744985
-0.007223352010045949   -0.012343495582269107   -0.000246112765055006
-0.009825917176785288   -0.008226159893103178   -0.000203649361589347
-0.007459657781297017   -0.008266390412999201   -0.0001785456210744985
-0.0095420596190012   -0.01232195038216208   -0.0003028557100721953
-0.007223352010045949   -0.012343495582269107   -0.000246112765055006
-0.007482226952443961   -0.008241158505576433   -0.0001629784321411541
-0.009545228814120017   -0.01230448863156246   -0.00027534759926805895
-0.007242812278289401   -0.012325186441918   -0.00022074631243190052
-0.007482226952443961   -0.008241158505576433   -0.0001629784321411541
-0.009825917176785288   -0.008226159893103178   -0.000203649361589347
-0.009545228814120017   -0.01230448863156246   -0.00027534759926805895
-0.0098324447541379   -0.008205890364484414   -0.00018808295576227716
-0.007242812278289401   -0.012325186441918   -0.00022074631243190052
-0.009534827364962294   -0.012293900219636712   -0.00024471262689216585
-0.0098324447541379   -0.008205890364484414   -0.00018808295576227716
-0.009545228814120017   -0.01230448863156246   -0.00027534759926805895
-0.007242812278289401   -0.012325186441918   -0.00022074631243190052
-0.0098324447541379   -0.008205890364484414   -0.00018808295576227716
-0.007503552356674186   -0.008215330199959412   -0.00014596521020022283
-0.007482226952443961   -0.008241158505576433   -0.0001629784321411541
-0.007242812278289401   -0.012325186441918   -0.00022074631243190052
-0.0098324447541379   -0.008205890364484414   -0.00018808295576227716
-0.007482226952443961   -0.008241158505576433   -0.0001629784321411541
-0.009545228814120017   -0.01230448863156246   -0.00027534759926805895
0.0016265302055730804   -0.008354502436500655   4.805602045325486e-05
0.0011452036131400795   -0.004206267518038043   5.229000890401855e-05
-0.0007435827500166942   -0.008316210787291603   -2.0058746796931024e-05
0.0015764344266592264   -0.00830649344532014   6.823365828758229e-05
0.0011452036131400795   -0.004206267518038043   5.229000890401855e-05
-0.0010717177268018316   -0.004153480137153425   2.9474319659624938e-05
-0.0007435827500166942   -0.008316210787291603   -2.0058746796931024e-05
-0.0011039503019310394   -0.004134426754920406   5.290162760857195e-05
0.0015764344266592264   -0.00830649344532014   6.823365828758229e-05
-0.0007757513237505258   -0.00827672921222839   -3.4552349574595264e-06
-0.0011039503019310394   -0.004134426754920406   5.290162760857195e-05
-0.0007435827500166942   -0.008316210787291603   -2.0058746796931024e-05
0.0015764344266592264   -0.00830649344532014   6.823365828758229e-05
-0.0011039503019310394   -0.004134426754920406   5.290162760857195e-05
0.001044475493760175   -0.004154866844802618   0.00010993659224340036
0.0011452036131400795   -0.004206267518038043   5.229000890401855e-05
0.0015764344266592264   -0.00830649344532014   6.823365828758229e-05
-0.0011039503019310394   -0.004134426754920406   5.290162760857195e-05
0.0011452036131400795   -0.004206267518038043   5.229000890401855e-05
-0.0007435827500166942   -0.008316210787291603   -2.0058746796931024e-05
0.0015764344266592264   -0.00830649344532014   6.823365828758229e-05
0.001044475493760175   -0.004154866844802618   0.00010993659224340036
-0.0007757513237505258   -0.00827672921222839   -3.4552349574595264e-06
0.0015200102687068253   -0.008259112422423574   9.76572680658207e-05
0.001044475493760175   -0.004154866844802618   0.00010993659224340036
-0.0011039503019310394   -0.004134426754920406   5.290162760857195e-05
-0.0007757513237505258   -0.00827672921222839   -3.4552349574595264e-06
-0.001146713970541099   -0.004099133858517354   8.146482028026547e-05
0.0015200102687068253   -0.008259112422423574   9.76572680658207e-05
-0.0008134773965059693   -0.008235183224079302   1.617724065773623e-05
-0.001146713970541099   -0.004099133858517354   8.146482028026547e-05
-0.0007757513237505258   -0.00827672921222839   -3.4552349574595264e-06
0.0015200102687068253   -0.008259112422423574   9.76572680658207e-05
-0.001146713970541099   -0.004099133858517354   8.146482028026547e-05
0.000985670852976769   -0.004113465989451693   0.00015273227985722877
0.001044475493760175   -0.004154866844802618   0.00010993659224340036
0.0015200102687068253   -0.008259112422423574   9.76572680658207e-05
-0.001146713970541099   -0.004099133858517354   8.146482028026547e-05
0.001044475493760175   -0.004154866844802618   0.00010993659224340036
-0.0007757513237505258   -0.00827672921222839   -3.4552349574595264e-06
0.0015200102687068253   -0.008259112422423574   9.76572680658207e-05
0.000985670852976769   -0.004113465989451693   0.00015273227985722877
-0.0008134773965059693   -0.008235183224079302   1.617724065773623e-05
0.0014510196362369815   -0.00820079230334093   0.0001301108178827641
0.000985670852976769   -0.004113465989451693   0.00015273227985722877
-0.001146713970541099   -0.004099133858517354   8.146482028026547e-05
-0.0008134773965059693   -0.008235183224079302   1.617724065773623e-05
-0.0011828436110926115   -0.00406143055063607   0.00010658438233160655
0.0014510196362369815   -0.00820079230334093   0.0001301108178827641
-0.0008526120106909303   -0.008191181740679414   3.881333994374571e-05
-0.0011828436110926115   -0.00406143055063607   0.00010658438233160655
-0.0008134773965059693   -0.008235183224079302   1.617724065773623e-05
0.0014510196362369815   -0.00820079230334093   0.0001301108178827641
-0.0011828436110926115   -0.00406143055063607   0.00010658438233160655
0.0009100205578637807   -0.004049589703897659   0.00020184006884095117
0.000985670852976769   -0.004113465989451693   0.00015273227985722877
0.0014510196362369815   -0.00820079230334093   0.0001301108178827641
-0.0011828436110926115   -0.00406143055063607   0.00010658438233160655
0.000985670852976769   -0.004113465989451693   0.00015273227985722877
-0.0008134773965059693   -0.008235183224079302   1.617724065773623e-05
-0.0007435827500166942   -0.008316210787291603   -2.0058746796931024e-05
-0.0010717177268018316   -0.004153480137153425   2.9474319659624938e-05
-0.0029737728830234148   -0.008306260621716115   -8.535407164845054e-05
-0.0007757513237505258   -0.00827672921222839   -3.4552349574595264e-06
-0.0010717177268018316   -0.004153480137153425   2.9474319659624938e-05
-0.0031766437176754653   -0.004216125759590167   -2.1559809602232068e-05
-0.0029737728830234148   -0.008306260621716115   -8.535407164845054e-05
-0.00320667943432366   -0.0041860314650005205   -4.819907210159908e-06
-0.0007757513237505258   -0.00827672921222839   -3.4552349574595264e-06
-0.0030030379434357437   -0.00827207588150466   -6.966865683219933e-05
-0.00320667943432366   -0.0041860314650005205   -4.819907210159908e-06
-0.0029737728830234148   -0.008306260621716115   -8.535407164845054e-05
-0.0007757513237505258   -0.00827672921222839   -3.4552349574595264e-06
-0.00320667943432366   -0.0041860314650005205   -4.819907210159908e-06
-0.0011039503019310394   -0.004134426754920406   5.290162760857195e-05
-0.0010717177268018316   -0.004153480137153425   2.9474319659624938e-05
-0.0007757513237505258   -0.00827672921222839   -3.4552349574595264e-06
-0.00320667943432366   -0.0041860314650005205   -4.819907210159908e-06
-0.0010717177268018316   -0.004153480137153425   2.9474319659624938e-05
-0.0029737728830234148   -0.008306260621716115   -8.535407164845054e-05
-0.0007757513237505258   -0.00827672921222839   -3.4552349574595264e-06
-0.0011039503019310394   -0.004134426754920406   5.290162760857195e-05
-0.0030030379434357437   -0.00827207588150466   -6.966865683219933e-05
-0.0008134773965059693   -0.008235183224079302   1.617724065773623e-05
-0.0011039503019310394   -0.004134426754920406   5.290162760857195e-05
-0.00320667943432366   -0.0041860314650005205   -4.819907210159908e-06
-0.0030030379434357437   -0.00827207588150466   -6.966865683219933e-05
-0.0032383119600302834   -0.004151805248879658   1.2993428618600523e-05
-0.0008134773965059693   -0.008235183224079302   1.617724065773623e-05
-0.0030333578236946775   -0.008236565302896515   -5.238181071885186e-05
-0.0032383119600302834   -0.004151805248879658   1.2993428618600523e-05
-0.0030030379434357437   -0.00827207588150466   -6.966865683219933e-05
-0.0008134773965059693   -0.008235183224079302   1.617724065773623e-05
-0.0032383119600302834   -0.004151805248879658   1.2993428618600523e-05
-0.001146713970541099   -0.004099133858517354   8.146482028026547e-05
-0.0011039503019310394   -0.004134426754920406   5.290162760857195e-05
-0.0008134773965059693   -0.008235183224079302   1.617724065773623e-05
-0.0032383119600302834   -0.004151805248879658   1.2993428618600523e-05
-0.0011039503019310394   -0.004134426754920406   5.290162760857195e-05
-0.0030030379434357437   -0.00827207588150466   -6.966865683219933e-05
-0.0008134773965059693   -0.008235183224079302   1.617724065773623e-05
-0.001146713970541099   -0.004099133858517354   8.146482028026547e-05
-0.0030333578236946775   -0.008236565302896515   -5.238181071885186e-05
-0.0008526120106909303   -0.008191181740679414   3.881333994374571e-05
-0.001146713970541099   -0.004099133858517354   8.146482028026547e-05
-0.0032383119600302834   -0.004151805248879658   1.2993428618600523e-05
-0.0030333578236946775   -0.008236565302896515   -5.238181071885186e-05
-0.003268538727047506   -0.004114290415647787   3.269659574175498e-05
-0.0008526120106909303   -0.008191181740679414   3.881333994374571e-05
-0.0030649700538339163   -0.008200429236834932   -3.318385111384786e-05
-0.003268538727047506   -0.004114290415647787   3.269659574175498e-05
-0.0030333578236946775   -0.008236565302896515   -5.238181071885186e-05
-0.0008526120106909303   -0.008191181740679414   3.881333994374571e-05
-0.003268538727047506   -0.004114290415647787   3.269659574175498e-05
-0.0011828436110926115   -0.00406143055063607   0.00010658438233160655
-0.001146713970541099   -0.004099133858517354   8.146482028026547e-05
-0.0008526120106909303   -0.008191181740679414   3.881333994374571e-05
-0.003268538727047506   -0.004114290415647787   3.269659574175498e-05
-0.001146713970541099   -0.004099133858517354   8.146482028026547e-05
-0.0030333578236946775   -0.008236565302896515   -5.238181071885186e-05
-0.0029737728830234148   -0.008306260621716115   -8.535407164845054e-05
-0.0031766437176754653   -0.004216125759590167   -2.1559809602232068e-05
-0.005179880320110654   -0.008303437020756413   -0.0001441500776523511
-0.0030030379434357437   -0.00827207588150466   -6.966865683219933e-05
-0.0031766437176754653   -0.004216125759590167   -2.1559809602232068e-05
-0.005330997804446   -0.004265098152068688   -7.874231543570123e-05
-0.005179880320110654   -0.008303437020756413   -0.0001441500776523511
-0.00535813064479376   -0.004234129503318601   -6.565101453254937e-05
-0.0030030379434357437   -0.00827207588150466   -6.966865683219933e-05
-0.005207949475659748   -0.008273660515885215   -0.00012898369224596603
-0.00535813064479376   -0.004234129503318601   -6.565101453254937e-05
-0.005179880320110654   -0.008303437020756413   -0.0001441500776523511
-0.0030030379434357437   -0.00827207588150466   -6.966865683219933e-05
-0.00535813064479376   -0.004234129503318601   -6.565101453254937e-05
-0.00320667943432366   -0.0041860314650005205   -4.819907210159908e-06
-0.0031766437176754653   -0.004216125759590167   -2.1559809602232068e-05
-0.0030030379434357437   -0.00827207588150466   -6.966865683219933e-05
-0.00535813064479376   -0.004234129503318601   -6.565101453254937e-05
-0.0031766437176754653   -0.004216125759590167   -2.1559809602232068e-05
-0.005179880320110654   -0.008303437020756413   -0.0001441500776523511
-0.0030030379434357437   -0.00827207588150466   -6.966865683219933e-05
-0.00320667943432366   -0.0041860314650005205   -4.819907210159908e-06
-0.005207949475659748   -0.008273660515885215   -0.00012898369224596603
-0.0030333578236946775   -0.008236565302896515   -5.238181071885186e-05
-0.00320667943432366   -0.0041860314650005205   -4.819907210159908e-06
-0.00535813064479376   -0.004234129503318601   -6.565101453254937e-05
-0.005207949475659748   -0.008273660515885215   -0.00012898369224596603
-0.005384211226369558   -0.00420131208811624   -5.2532773958863745e-05
-0.0030333578236946775   -0.008236565302896515   -5.238181071885186e-05
-0.005234693727150709   -0.008243423674225899   -0.00011240935298189432
-0.005384211226369558   -0.00420131208811624   -5.2532773958863745e-05
-0.005207949475659748   -0.008273660515885215   -0.00012898369224596603
-0.0030333578236946775   -0.008236565302896515   -5.238181071885186e-05
-0.005384211226369558   -0.00420131208811624   -5.2532773958863745e-05
-0.0032383119600302834   -0.004151805248879658   1.2993428618600523e-05
-0.00320667943432366   -0.0041860314650005205   -4.819907210159908e-06
-0.0030333578236946775   -0.008236565302896515   -5.238181071885186e-05
-0.005384211226369558   -0.00420131208811624   -5.2532773958863745e-05
-0.00320667943432366   -0.0041860314650005205   -4.819907210159908e-06
-0.005207949475659748   -0.008273660515885215   -0.00012898369224596603
-0.0030333578236946775   -0.008236565302896515   -5.238181071885186e-05
-0.0032383119600302834   -0.004151805248879658   1.2993428618600523e-05
-0.005234693727150709   -0.008243423674225899   -0.00011240935298189432
-0.0030649700538339163   -0.008200429236834932   -3.318385111384786e-05
-0.0032383119600302834   -0.004151805248879658   1.2993428618600523e-05
-0.005384211226369558   -0.00420131208811624   -5.2532773958863745e-05
-0.005234693727150709   -0.008243423674225899   -0.00011240935298189432
-0.005408340917008085   -0.004165695204849356   -3.817732548958539e-05
-0.0030649700538339163   -0.008200429236834932   -3.318385111384786e-05
-0.005261174027755557   -0.008212541838289424   -9.449974779841781e-05
-0.005408340917008085   -0.004165695204849356   -3.817732548958539e-05
-0.005234693727150709   -0.008243423674225899   -0.00011240935298189432
-0.0030649700538339163   -0.008200429236834932   -3.318385111384786e-05
-0.005408340917008085   -0.004165695204849356   -3.817732548958539e-05
-0.003268538727047506   -0.004114290415647787   3.269659574175498e-05
-0.0032383119600302834   -0.004151805248879658   1.2993428618600523e-05
-0.0030649700538339163   -0.008200429236834932   -3.318385111384786e-05
-0.005408340917008085   -0.004165695204849356   -3.817732548958539e-05
-0.0032383119600302834   -0.004151805248879658   1.2993428618600523e-05
-0.005234693727150709   -0.008243423674225899   -0.00011240935298189432
-0.005179880320110654   -0.008303437020756413   -0.0001441500776523511
-0.005330997804446   -0.004265098152068688   -7.874231543570123e-05
-0.0074329021406483245   -0.00829033662865674   -0.0001930907496747266
-0.005207949475659748   -0.008273660515885215   -0.00012898369224596603
-0.005330997804446   -0.004265098152068688   -7.874231543570123e-05
-0.007561090302356726   -0.004285306181685314   -0.00013138595642378262
-0.0074329021406483245   -0.00829033662865674   -0.0001930907496747266
-0.007585569055245231   -0.004257679153887532   -0.00012174408287328974
-0.005207949475659748   -0.008273660515885215   -0.00012898369224596603
-0.007459657781297017   -0.008266390412999201   -0.0001785456210744985
-0.007585569055245231   -0.004257679153887532   -0.00012174408287328974
-0.0074329021406483245   -0.00829033662865674   -0.0001930907496747266
-0.005207949475659748   -0.008273660515885215   -0.00012898369224596603
-0.007585569055245231   -0.004257679153887532   -0.00012174408287328974
-0.00535813064479376   -0.004234129503318601   -6.565101453254937e-05
-0.005330997804446   -0.004265098152068688   -7.874231543570123e-05
-0.005207949475659748   -0.008273660515885215   -0.00012898369224596603
-0.007585569055245231   -0.004257679153887532   -0.00012174408287328974
-0.005330997804446   -0.004265098152068688   -7.874231543570123e-05
-0.0074329021406483245   -0.00829033662865674   -0.0001930907496747266
-0.005207949475659748   -0.008273660515885215   -0.00012898369224596603
-0.00535813064479376   -0.004234129503318601   -6.565101453254937e-05
-0.007459657781297017   -0.008266390412999201   -0.0001785456210744985
-0.005234693727150709   -0.008243423674225899   -0.00011240935298189432
-0.00535813064479376   -0.004234129503318601   -6.565101453254937e-05
-0.007585569055245231   -0.004257679153887532   -0.00012174408287328974
-0.007459657781297017   -0.008266390412999201   -0.0001785456210744985
-0.007607389176914467   -0.0042274406425716   -0.00011231331957717766
-0.005234693727150709   -0.008243423674225899   -0.00011240935298189432
-0.007482226952443961   -0.008241158505576433   -0.0001629784321411541
-0.007607389176914467   -0.0042274406425716   -0.00011231331957717766
-0.007459657781297017   -0.008266390412999201   -0.0001785456210744985
-0.005234693727150709   -0.008243423674225899   -0.00011240935298189432
-0.007607389176914467   -0.0042274406425716   -0.00011231331957717766
-0.005384211226369558   -0.00420131208811624   -5.2532773958863745e-05
-0.00535813064479376   -0.004234129503318601   -6.565101453254937e-05
-0.005234693727150709   -0.008243423674225899   -0.00011240935298189432
-0.007607389176914467   -0.0042274406425716   -0.00011231331957717766
-0.00535813064479376   -0.004234129503318601   -6.565101453254937e-05
-0.007459657781297017   -0.008266390412999201   -0.0001785456210744985
-0.005234693727150709   -0.008243423674225899   -0.00011240935298189432
-0.005384211226369558   -0.00420131208811624   -5.2532773958863745e-05
-0.007482226952443961   -0.008241158505576433   -0.0001629784321411541
-0.005261174027755557   -0.008212541838289424   -9.449974779841781e-05
-0.005384211226369558   -0.00420131208811624   -5.2532773958863745e-05
-0.007607389176914467   -0.0042274406425716   -0.00011231331957717766
-0.007482226952443961   -0.008241158505576433   -0.0001629784321411541
-0.0076271748502888285   -0.004195179486864716   -0.00010252801346280793
-0.005261174027755557   -0.008212541838289424   -9.449974779841781e-05
-0.007503552356674186   -0.008215330199959412   -0.00014596521020022283
-0.0076271748502888285   -0.004195179486864716   -0.00010252801346280793
-0.007482226952443961   -0.008241158505576433   -0.0001629784321411541
-0.005261174027755557   -0.008212541838289424   -9.449974779841781e-05
-0.0076271748502888285   -0.004195179486864716   -0.00010252801346280793
-0.005408340917008085   -0.004165695204849356   -3.817732548958539e-05
-0.005384211226369558   -0.00420131208811624   -5.2532773958863745e-05
-0.005261174027755557   -0.008212541838289424   -9.449974779841781e-05
-0.0076271748502888285   -0.004195179486864716   -0.00010252801346280793
-0.005384211226369558   -0.00420131208811624   -5.2532773958863745e-05
-0.007482226952443961   -0.008241158505576433   -0.0001629784321411541
-0.0074329021406483245   -0.00829033662865674   -0.0001930907496747266
-0.007561090302356726   -0.004285306181685314   -0.00013138595642378262
-0.009795112271044152   -0.00826846414699723   -0.00022857666498735406
-0.007459657781297017   -0.008266390412999201   -0.0001785456210744985
-0.007561090302356726   -0.004285306181685314   -0.00013138595642378262
-0.00987264499444871   -0.004287384661777196   -0.00017459735090763481
-0.009795112271044152   -0.00826846414699723   -0.00022857666498735406
-0.009893513974132895   -0.004260653623340017   -0.00017026758198611326
-0.007459657781297017   -0.008266390412999201   -0.0001785456210744985
-0.009811203365598351   -0.008248679557863653   -0.00021734398766357435
-0.009893513974132895   -0.004260653623340017   -0.00017026758198611326
-0.009795112271044152   -0.00826846414699723   -0.00022857666498735406
-0.007459657781297017   -0.008266390412999201   -0.0001785456210744985
-0.009893513974132895   -0.004260653623340017   -0.00017026758198611326
-0.007585569055245231   -0.004257679153887532   -0.00012174408287328974
-0.007561090302356726   -0.004285306181685314   -0.00013138595642378262
-0.007459657781297017   -0.008266390412999201   -0.0001785456210744985
-0.009893513974132895   -0.004260653623340017   -0.00017026758198611326
-0.007561090302356726   -0.004285306181685314   -0.00013138595642378262
-0.009795112271044152   -0.00826846414699723   -0.00022857666498735406
-0.007459657781297017   -0.008266390412999201   -0.0001785456210744985
-0.007585569055245231   -0.004257679153887532   -0.00012174408287328974
-0.009811203365598351   -0.008248679557863653   -0.00021734398766357435
-0.007482226952443961   -0.008241158505576433   -0.0001629784321411541
-0.007585569055245231   -0.004257679153887532   -0.00012174408287328974
-0.009893513974132895   -0.004260653623340017   -0.00017026758198611326
-0.009811203365598351   -0.008248679557863653   -0.00021734398766357435
-0.009912210957080659   -0.0042316026173719835   -0.00016516840266489499
-0.007482226952443961   -0.008241158505576433   -0.0001629784321411541
-0.009825917176785288   -0.008226159893103178   -0.000203649361589347
-0.009912210957080659   -0.0042316026173719835   -0.00016516840266489499
-0.009811203365598351   -0.008248679557863653   -0.00021734398766357435
-0.007482226952443961   -0.008241158505576433   -0.0001629784321411541
-0.009912210957080659   -0.0042316026173719835   -0.00016516840266489499
-0.007607389176914467   -0.0042274406425716   -0.00011231331957717766
-0.007585569055245231   -0.004257679153887532   -0.00012174408287328974
-0.007482226952443961   -0.008241158505576433   -0.0001629784321411541
-0.009912210957080659   -0.0042316026173719835   -0.00016516840266489499
-0.007585569055245231   -0.004257679153887532   -0.00012174408287328974
-0.009811203365598351   -0.008248679557863653   -0.00021734398766357435
-0.007482226952443961   -0.008241158505576433   -0.0001629784321411541
-0.007607389176914467   -0.0042274406425716   -0.00011231331957717766
-0.009825917176785288   -0.008226159893103178   -0.000203649361589347
-0.007503552356674186   -0.008215330199959412   -0.00014596521020022283
-0.007607389176914467   -0.0042274406425716   -0.00011231331957717766
-0.009912210957080659   -0.0042316026173719835   -0.00016516840266489499
-0.009825917176785288   -0.008226159893103178   -0.000203649361589347
-0.009927723432572194   -0.004200868755867701   -0.00016030481303179112
-0.007503552356674186   -0.008215330199959412   -0.00014596521020022283
-0.0098324447541379   -0.008205890364484414   -0.00018808295576227716
-0.009927723432572194   -0.004200868755867701   -0.00016030481303179112
-0.009825917176785288   -0.008226159893103178   -0.000203649361589347
-0.007503552356674186   -0.008215330199959412   -0.00014596521020022283
-0.009927723432572194   -0.004200868755867701   -0.00016030481303179112
-0.0076271748502888285   -0.004195179486864716   -0.00010252801346280793
-0.007607389176914467   -0.0042274406425716   -0.00011231331957717766
-0.007503552356674186   -0.008215330199959412   -0.00014596521020022283
-0.009927723432572194   -0.004200868755867701   -0.00016030481303179112
-0.007607389176914467   -0.0042274406425716   -0.00011231331957717766
-0.009825917176785288   -0.008226159893103178   -0.000203649361589347
0.0011452036131400795   -0.004206267518038043   5.229000890401855e-05
0.0   0.0   0.0
-0.0010717177268018316   -0.004153480137153425   2.9474319659624938e-05
0.001044475493760175   -0.004154866844802618   0.00010993659224340036
0.0   0.0   0.0
-0.0013385644337478913   -0.0003509510296180305   -8.540776331974308e-06
-0.0010717177268018316   -0.004153480137153425   2.9474319659624938e-05
-0.0014187874200176866   -0.00027507026121391604   3.874458044237825e-05
0.001044475493760175   -0.004154866844802618   0.00010993659224340036
-0.0011039503019310394   -0.004134426754920406   5.290162760857195e-05
-0.0014187874200176866   -0.00027507026121391604   3.874458044237825e-05
-0.0010717177268018316   -0.004153480137153425   2.9474319659624938e-05
0.001044475493760175   -0.004154866844802618   0.00010993659224340036
-0.0014187874200176866   -0.00027507026121391604   3.874458044237825e-05
0.0   0.0   0.0
0.0   0.0   0.0
0.001044475493760175   -0.004154866844802618   0.00010993659224340036
-0.0014187874200176866   -0.00027507026121391604   3.874458044237825e-05
0.0   0.0   0.0
-0.0010717177268018316   -0.004153480137153425   2.9474319659624938e-05
0.001044475493760175   -0.004154866844802618   0.00010993659224340036
0.0   0.0   0.0
-0.0011039503019310394   -0.004134426754920406   5.290162760857195e-05
0.000985670852976769   -0.004113465989451693   0.00015273227985722877
0.0   0.0   0.0
-0.0014187874200176866   -0.00027507026121391604   3.874458044237825e-05
-0.0011039503019310394   -0.004134426754920406   5.290162760857195e-05
-0.0014694835423227281   -0.00023881269645431482   6.642743305607138e-05
0.000985670852976769   -0.004113465989451693   0.00015273227985722877
-0.001146713970541099   -0.004099133858517354   8.146482028026547e-05
-0.0014694835423227281   -0.00023881269645431482   6.642743305607138e-05
-0.0011039503019310394   -0.004134426754920406   5.290162760857195e-05
0.000985670852976769   -0.004113465989451693   0.00015273227985722877
-0.0014694835423227281   -0.00023881269645431482   6.642743305607138e-05
0.0   0.0   0.0
0.0   0.0   0.0
0.000985670852976769   -0.004113465989451693   0.00015273227985722877
-0.0014694835423227281   -0.00023881269645431482   6.642743305607138e-05
0.0   0.0   0.0
-0.0011039503019310394   -0.004134426754920406   5.290162760857195e-05
0.000985670852976769   -0.004113465989451693   0.00015273227985722877
0.0   0.0   0.0
-0.001146713970541099   -0.004099133858517354   8.146482028026547e-05
0.0009100205578637807   -0.004049589703897659   0.00020184006884095117
0.0   0.0   0.0
-0.0014694835423227281   -0.00023881269645431482   6.642743305607138e-05
-0.001146713970541099   -0.004099133858517354   8.146482028026547e-05
-0.0015380615257984476   -0.00019046665194371188   9.827694368970935e-05
0.0009100205578637807   -0.004049589703897659   0.00020184006884095117
-0.0011828436110926115   -0.00406143055063607   0.00010658438233160655
-0.0015380615257984476   -0.00019046665194371188   9.827694368970935e-05
-0.001146713970541099   -0.004099133858517354   8.146482028026547e-05
0.0009100205578637807   -0.004049589703897659   0.00020184006884095117
-0.0015380615257984476   -0.00019046665194371188   9.827694368970935e-05
0.0   0.0   0.0
0.0   0.0   0.0
0.0009100205578637807   -0.004049589703897659   0.00020184006884095117
-0.0015380615257984476   -0.00019046665194371188   9.827694368970935e-05
0.0   0.0   0.0
-0.001146713970541099   -0.004099133858517354   8.146482028026547e-05
-0.0010717177268018316   -0.004153480137153425   2.9474319659624938e-05
-0.0013385644337478913   -0.0003509510296180305   -8.540776331974308e-06
-0.0031766437176754653   -0.004216125759590167   -2.1559809602232068e-05
-0.0011039503019310394   -0.004134426754920406   5.290162760857195e-05
-0.0013385644337478913   -0.0003509510296180305   -8.540776331974308e-06
-0.003268901663070712   -0.00046394037415274533   -4.072190562420661e-06
-0.0031766437176754653   -0.004216125759590167   -2.1559809602232068e-05
-0.0033106976811889256   -0.0004231215416172434   8.574219995651305e-06
-0.0011039503019310394   -0.004134426754920406   5.290162760857195e-05
-0.00320667943432366   -0.0041860314650005205   -4.819907210159908e-06
-0.0033106976811889256   -0.0004231215416172434   8.574219995651305e-06
-0.0031766437176754653   -0.004216125759590167   -2.1559809602232068e-05
-0.0011039503019310394   -0.004134426754920406   5.290162760857195e-05
-0.0033106976811889256   -0.0004231215416172434   8.574219995651305e-06
-0.0014187874200176866   -0.00027507026121391604   3.874458044237825e-05
-0.0013385644337478913   -0.0003509510296180305   -8.540776331974308e-06
-0.0011039503019310394   -0.004134426754920406   5.290162760857195e-05
-0.0033106976811889256   -0.0004231215416172434   8.574219995651305e-06
-0.0013385644337478913   -0.0003509510296180305   -8.540776331974308e-06
-0.0031766437176754653   -0.004216125759590167   -2.1559809602232068e-05
-0.0011039503019310394   -0.004134426754920406   5.290162760857195e-05
-0.0014187874200176866   -0.00027507026121391604   3.874458044237825e-05
-0.00320667943432366   -0.0041860314650005205   -4.819907210159908e-06
-0.001146713970541099   -0.004099133858517354   8.146482028026547e-05
-0.0014187874200176866   -0.00027507026121391604   3.874458044237825e-05
-0.0033106976811889256   -0.0004231215416172434   8.574219995651305e-06
-0.00320667943432366   -0.0041860314650005205   -4.819907210159908e-06
-0.003352479318880581   -0.0003751881980715958   3.0828972859780545e-05
-0.001146713970541099   -0.004099133858517354   8.146482028026547e-05
-0.0032383119600302834   -0.004151805248879658   1.2993428618600523e-05
-0.003352479318880581   -0.0003751881980715958   3.0828972859780545e-05
-0.00320667943432366   -0.0041860314650005205   -4.819907210159908e-06
-0.001146713970541099   -0.004099133858517354   8.146482028026547e-05
-0.003352479318880581   -0.0003751881980715958   3.0828972859780545e-05
-0.0014694835423227281   -0.00023881269645431482   6.642743305607138e-05
-0.0014187874200176866   -0.00027507026121391604   3.874458044237825e-05
-0.001146713970541099   -0.004099133858517354   8.146482028026547e-05
-0.003352479318880581   -0.0003751881980715958   3.0828972859780545e-05
-0.0014187874200176866   -0.00027507026121391604   3.874458044237825e-05
-0.00320667943432366   -0.0041860314650005205   -4.819907210159908e-06
-0.001146713970541099   -0.004099133858517354   8.146482028026547e-05
-0.0014694835423227281   -0.00023881269645431482   6.642743305607138e-05
-0.0032383119600302834   -0.004151805248879658   1.2993428618600523e-05
-0.0011828436110926115   -0.00406143055063607   0.00010658438233160655
-0.0014694835423227281   -0.00023881269645431482   6.642743305607138e-05
-0.003352479318880581   -0.0003751881980715958   3.0828972859780545e-05
-0.0032383119600302834   -0.004151805248879658   1.2993428618600523e-05
-0.003399375385905436   -0.00031937471020562167   5.238652237033193e-05
-0.0011828436110926115   -0.00406143055063607   0.00010658438233160655
-0.003268538727047506   -0.004114290415647787   3.269659574175498e-05
-0.003399375385905436   -0.00031937471020562167   5.238652237033193e-05
-0.0032383119600302834   -0.004151805248879658   1.2993428618600523e-05
-0.0011828436110926115   -0.00406143055063607   0.00010658438233160655
-0.003399375385905436   -0.00031937471020562167   5.238652237033193e-05
-0.0015380615257984476   -0.00019046665194371188   9.827694368970935e-05
-0.0014694835423227281   -0.00023881269645431482   6.642743305607138e-05
-0.0011828436110926115   -0.00406143055063607   0.00010658438233160655
-0.003399375385905436   -0.00031937471020562167   5.238652237033193e-05
-0.0014694835423227281   -0.00023881269645431482   6.642743305607138e-05
-0.0032383119600302834   -0.004151805248879658   1.2993428618600523e-05
-0.0031766437176754653   -0.004216125759590167   -2.1559809602232068e-05
-0.003268901663070712   -0.00046394037415274533   -4.072190562420661e-06
-0.005330997804446   -0.004265098152068688   -7.874231543570123e-05
-0.00320667943432366   -0.0041860314650005205   -4.819907210159908e-06
-0.003268901663070712   -0.00046394037415274533   -4.072190562420661e-06
-0.00538290131181577   -0.0004978799553398395   -3.880029996458854e-05
-0.005330997804446   -0.004265098152068688   -7.874231543570123e-05
-0.005408517725703331   -0.0004667679318528179   -3.506510180029391e-05
-0.00320667943432366   -0.0041860314650005205   -4.819907210159908e-06
-0.00535813064479376   -0.004234129503318601   -6.565101453254937e-05
-0.005408517725703331   -0.0004667679318528179   -3.506510180029391e-05
-0.005330997804446   -0.004265098152068688   -7.874231543570123e-05
-0.00320667943432366   -0.0041860314650005205   -4.819907210159908e-06
-0.005408517725703331   -0.0004667679318528179   -3.506510180029391e-05
-0.0033106976811889256   -0.0004231215416172434   8.574219995651305e-06
-0.003268901663070712   -0.00046394037415274533   -4.072190562420661e-06
-0.00320667943432366   -0.0041860314650005205   -4.819907210159908e-06
-0.005408517725703331   -0.0004667679318528179   -3.506510180029391e-05
-0.003268901663070712   -0.00046394037415274533   -4.072190562420661e-06
-0.005330997804446   -0.004265098152068688   -7.874231543570123e-05
-0.00320667943432366   -0.0041860314650005205   -4.819907210159908e-06
-0.0033106976811889256   -0.0004231215416172434   8.574219995651305e-06
-0.00535813064479376   -0.004234129503318601   -6.565101453254937e-05
-0.0032383119600302834   -0.004151805248879658   1.2993428618600523e-05
-0.0033106976811889256   -0.0004231215416172434   8.574219995651305e-06
-0.005408517725703331   -0.0004667679318528179   -3.506510180029391e-05
-0.00535813064479376   -0.004234129503318601   -6.565101453254937e-05
-0.005435200013304407   -0.0004303002761398413   -2.8643115215951082e-05
-0.0032383119600302834   -0.004151805248879658   1.2993428618600523e-05
-0.005384211226369558   -0.00420131208811624   -5.2532773958863745e-05
-0.005435200013304407   -0.0004303002761398413   -2.8643115215951082e-05
-0.00535813064479376   -0.004234129503318601   -6.565101453254937e-05
-0.0032383119600302834   -0.004151805248879658   1.2993428618600523e-05
-0.005435200013304407   -0.0004303002761398413   -2.8643115215951082e-05
-0.003352479318880581   -0.0003751881980715958   3.0828972859780545e-05
-0.0033106976811889256   -0.0004231215416172434   8.574219995651305e-06
-0.0032383119600302834   -0.004151805248879658   1.2993428618600523e-05
-0.005435200013304407   -0.0004303002761398413   -2.8643115215951082e-05
-0.0033106976811889256   -0.0004231215416172434   8.574219995651305e-06
-0.00535813064479376   -0.004234129503318601   -6.565101453254937e-05
-0.0032383119600302834   -0.004151805248879658   1.2993428618600523e-05
-0.003352479318880581   -0.0003751881980715958   3.0828972859780545e-05
-0.005384211226369558   -0.00420131208811624   -5.2532773958863745e-05
-0.003268538727047506   -0.004114290415647787   3.269659574175498e-05
-0.003352479318880581   -0.0003751881980715958   3.0828972859780545e-05
-0.005435200013304407   -0.0004303002761398413   -2.8643115215951082e-05
-0.005384211226369558   -0.00420131208811624   -5.2532773958863745e-05
-0.005461037797749584   -0.00038533667730300926   -2.01443573827466e-05
-0.003268538727047506   -0.004114290415647787   3.269659574175498e-05
-0.005408340917008085   -0.004165695204849356   -3.817732548958539e-05
-0.005461037797749584   -0.00038533667730300926   -2.01443573827466e-05
-0.005384211226369558   -0.00420131208811624   -5.2532773958863745e-05
-0.003268538727047506   -0.004114290415647787   3.269659574175498e-05
-0.005461037797749584   -0.00038533667730300926   -2.01443573827466e-05
-0.003399375385905436   -0.00031937471020562167   5.238652237033193e-05
-0.003352479318880581   -0.0003751881980715958   3.0828972859780545e-05
-0.003268538727047506   -0.004114290415647787   3.269659574175498e-05
-0.005461037797749584   -0.00038533667730300926   -2.01443573827466e-05
-0.003352479318880581   -0.0003751881980715958   3.0828972859780545e-05
-0.005384211226369558   -0.00420131208811624   -5.2532773958863745e-05
-0.005330997804446   -0.004265098152068688   -7.874231543570123e-05
-0.00538290131181577   -0.0004978799553398395   -3.880029996458854e-05
-0.007561090302356726   -0.004285306181685314   -0.00013138595642378262
-0.00535813064479376   -0.004234129503318601   -6.565101453254937e-05
-0.00538290131181577   -0.0004978799553398395   -3.880029996458854e-05
-0.007600614666487618   -0.0004947487494321544   -9.059339262165079e-05
-0.007561090302356726   -0.004285306181685314   -0.00013138595642378262
-0.007617983113214908   -0.00046732732774781106   -8.895915490574201e-05
-0.00535813064479376   -0.004234129503318601   -6.565101453254937e-05
-0.007585569055245231   -0.004257679153887532   -0.00012174408287328974
-0.007617983113214908   -0.00046732732774781106   -8.895915490574201e-05
-0.007561090302356726   -0.004285306181685314   -0.00013138595642378262
-0.00535813064479376   -0.004234129503318601   -6.565101453254937e-05
-0.007617983113214908   -0.00046732732774781106   -8.895915490574201e-05
-0.005408517725703331   -0.0004667679318528179   -3.506510180029391e-05
-0.00538290131181577   -0.0004978799553398395   -3.880029996458854e-05
-0.00535813064479376   -0.004234129503318601   -6.565101453254937e-05
-0.007617983113214908   -0.00046732732774781106   -8.895915490574201e-05
-0.00538290131181577   -0.0004978799553398395   -3.880029996458854e-05
-0.007561090302356726   -0.004285306181685314   -0.00013138595642378262
-0.00535813064479376   -0.004234129503318601   -6.565101453254937e-05
-0.005408517725703331   -0.0004667679318528179   -3.506510180029391e-05
-0.007585569055245231   -0.004257679153887532   -0.00012174408287328974
-0.005384211226369558   -0.00420131208811624   -5.2532773958863745e-05
-0.005408517725703331   -0.0004667679318528179   -3.506510180029391e-05
-0.007617983113214908   -0.00046732732774781106   -8.895915490574201e-05
-0.007585569055245231   -0.004257679153887532   -0.00012174408287328974
-0.00763608778745421   -0.00043646127236817686   -8.762640100409103e-05
-0.005384211226369558   -0.00420131208811624   -5.2532773958863745e-05
-0.007607389176914467   -0.0042274406425716   -0.00011231331957717766
-0.00763608778745421   -0.00043646127236817686   -8.762640100409103e-05
-0.007585569055245231   -0.004257679153887532   -0.00012174408287328974
-0.005384211226369558   -0.00420131208811624   -5.2532773958863745e-05
-0.00763608778745421   -0.00043646127236817686   -8.762640100409103e-05
-0.005435200013304407   -0.0004303002761398413   -2.8643115215951082e-05
-0.005408517725703331   -0.0004667679318528179   -3.506510180029391e-05
-0.005384211226369558   -0.00420131208811624   -5.2532773958863745e-05
-0.00763608778745421   -0.00043646127236817686   -8.762640100409103e-05
-0.005408517725703331   -0.0004667679318528179   -3.506510180029391e-05
-0.007585569055245231   -0.004257679153887532   -0.00012174408287328974
-0.005384211226369558   -0.00420131208811624   -5.2532773958863745e-05
-0.005435200013304407   -0.0004303002761398413   -2.8643115215951082e-05
-0.007607389176914467   -0.0042274406425716   -0.00011231331957717766
-0.005408340917008085   -0.004165695204849356   -3.817732548958539e-05
-0.005435200013304407   -0.0004303002761398413   -2.8643115215951082e-05
-0.00763608778745421   -0.00043646127236817686   -8.762640100409103e-05
-0.007607389176914467   -0.0042274406425716   -0.00011231331957717766
-0.0076502012640965195   -0.0004026909361516996   -8.665366407269417e-05
-0.005408340917008085   -0.004165695204849356   -3.817732548958539e-05
-0.0076271748502888285   -0.004195179486864716   -0.00010252801346280793
-0.0076502012640965195   -0.0004026909361516996   -8.665366407269417e-05
-0.007607389176914467   -0.0042274406425716   -0.00011231331957717766
-0.005408340917008085   -0.004165695204849356   -3.817732548958539e-05
-0.0076502012640965195   -0.0004026909361516996   -8.665366407269417e-05
-0.005461037797749584   -0.00038533667730300926   -2.01443573827466e-05
-0.005435200013304407   -0.0004303002761398413   -2.8643115215951082e-05
-0.005408340917008085   -0.004165695204849356   -3.817732548958539e-05
-0.0076502012640965195   -0.0004026909361516996   -8.665366407269417e-05
-0.005435200013304407   -0.0004303002761398413   -2.8643115215951082e-05
-0.007607389176914467   -0.0042274406425716   -0.00011231331957717766
-0.007561090302356726   -0.004285306181685314   -0.00013138595642378262
-0.007600614666487618   -0.0004947487494321544   -9.059339262165079e-05
-0.00987264499444871   -0.004287384661777196   -0.00017459735090763481
-0.007585569055245231   -0.004257679153887532   -0.00012174408287328974
-0.007600614666487618   -0.0004947487494321544   -9.059339262165079e-05
-0.009881033737156712   -0.0004916032579118368   -0.00014175266763862451
-0.00987264499444871   -0.004287384661777196   -0.00017459735090763481
-0.009894958754975307   -0.0004619843675587783   -0.0001416131885556764
-0.007585569055245231   -0.004257679153887532   -0.00012174408287328974
-0.009893513974132895   -0.004260653623340017   -0.00017026758198611326
-0.009894958754975307   -0.0004619843675587783   -0.0001416131885556764
-0.00987264499444871   -0.004287384661777196   -0.00017459735090763481
-0.007585569055245231   -0.004257679153887532   -0.00012174408287328974
-0.009894958754975307   -0.0004619843675587783   -0.0001416131885556764
-0.007617983113214908   -0.00046732732774781106   -8.895915490574201e-05
-0.007600614666487618   -0.0004947487494321544   -9.059339262165079e-05
-0.007585569055245231   -0.004257679153887532   -0.00012174408287328974
-0.009894958754975307   -0.0004619843675587783   -0.0001416131885556764
-0.007600614666487618   -0.0004947487494321544   -9.059339262165079e-05
-0.00987264499444871   -0.004287384661777196   -0.00017459735090763481
-0.007585569055245231   -0.004257679153887532   -0.00012174408287328974
-0.007617983113214908   -0.00046732732774781106   -8.895915490574201e-05
-0.009893513974132895   -0.004260653623340017   -0.00017026758198611326
-0.007607389176914467   -0.0042274406425716   -0.00011231331957717766
-0.007617983113214908   -0.00046732732774781106   -8.895915490574201e-05
-0.009894958754975307   -0.0004619843675587783   -0.0001416131885556764
-0.009893513974132895   -0.004260653623340017   -0.00017026758198611326
-0.009910213340911212   -0.0004321614388677061   -0.00014379717561683545
-0.007607389176914467   -0.0042274406425716   -0.00011231331957717766
-0.009912210957080659   -0.0042316026173719835   -0.00016516840266489499
-0.009910213340911212   -0.0004321614388677061   -0.00014379717561683545
-0.009893513974132895   -0.004260653623340017   -0.00017026758198611326
-0.007607389176914467   -0.0042274406425716   -0.00011231331957717766
-0.009910213340911212   -0.0004321614388677061   -0.00014379717561683545
-0.00763608778745421   -0.00043646127236817686   -8.762640100409103e-05
-0.007617983113214908   -0.00046732732774781106   -8.895915490574201e-05
-0.007607389176914467   -0.0042274406425716   -0.00011231331957717766
-0.009910213340911212   -0.0004321614388677061   -0.00014379717561683545
-0.007617983113214908   -0.00046732732774781106   -8.895915490574201e-05
-0.009893513974132895   -0.004260653623340017   -0.00017026758198611326
-0.007607389176914467   -0.0042274406425716   -0.00011231331957717766
-0.00763608778745421   -0.00043646127236817686   -8.762640100409103e-05
-0.009912210957080659   -0.0042316026173719835   -0.00016516840266489499
-0.0076271748502888285   -0.004195179486864716   -0.00010252801346280793
-0.00763608778745421   -0.00043646127236817686   -8.762640100409103e-05
-0.009910213340911212   -0.0004321614388677061   -0.00014379717561683545
-0.009912210957080659   -0.0042316026173719835   -0.00016516840266489499
-0.00992157073656876   -0.00039952955315416644   -0.0001460643598021721
-0.0076271748502888285   -0.004195179486864716   -0.00010252801346280793
-0.009927723432572194   -0.004200868755867701   -0.00016030481303179112
-0.00992157073656876   -0.00039952955315416644   -0.0001460643598021721
-0.009912210957080659   -0.0042316026173719835   -0.00016516840266489499
-0.0076271748502888285   -0.004195179486864716   -0.00010252801346280793
-0.00992157073656876   -0.00039952955315416644   -0.0001460643598021721
-0.0076502012640965195   -0.0004026909361516996   -8.665366407269417e-05
-0.00763608778745421   -0.00043646127236817686   -8.762640100409103e-05
-0.0076271748502888285   -0.004195179486864716   -0.00010252801346280793
-0.00992157073656876   -0.00039952955315416644   -0.0001460643598021721
-0.00763608778745421   -0.00043646127236817686   -8.762640100409103e-05
-0.009912210957080659   -0.0042316026173719835   -0.00016516840266489499
              </DataArray>   
          </PointData>  
       </Piece>  
   </UnstructuredGrid> 
</VTKFile> 
