<?xml version="1.0"?> 
<VTKFile type="UnstructuredGrid"> 
   <UnstructuredGrid> 
      <Piece NumberOfPoints="6000"  NumberOfCells="1500">  
          <Points>  
             <DataArray type="Float64" NumberOfComponents="3" format="ascii">   
-500.0   0.0   0.0
-450.0   0.0   0.0
-500.0   30.0   0.0
-500.0   0.0   16.666666666666668
-450.0   0.0   0.0
-450.0   30.0   0.0
-500.0   30.0   0.0
-450.0   30.0   16.666666666666668
-500.0   0.0   16.666666666666668
-500.0   30.0   16.666666666666668
-450.0   30.0   16.666666666666668
-500.0   30.0   0.0
-500.0   0.0   16.666666666666668
-450.0   30.0   16.666666666666668
-450.0   0.0   16.666666666666668
-450.0   0.0   0.0
-500.0   0.0   16.666666666666668
-450.0   30.0   16.666666666666668
-450.0   0.0   0.0
-500.0   30.0   0.0
-500.0   0.0   16.666666666666668
-450.0   0.0   16.666666666666668
-500.0   30.0   16.666666666666668
-500.0   0.0   33.333333333333336
-450.0   0.0   16.666666666666668
-450.0   30.0   16.666666666666668
-500.0   30.0   16.666666666666668
-450.0   30.0   33.333333333333336
-500.0   0.0   33.333333333333336
-500.0   30.0   33.333333333333336
-450.0   30.0   33.333333333333336
-500.0   30.0   16.666666666666668
-500.0   0.0   33.333333333333336
-450.0   30.0   33.333333333333336
-450.0   0.0   33.333333333333336
-450.0   0.0   16.666666666666668
-500.0   0.0   33.333333333333336
-450.0   30.0   33.333333333333336
-450.0   0.0   16.666666666666668
-500.0   30.0   16.666666666666668
-500.0   0.0   33.333333333333336
-450.0   0.0   33.333333333333336
-500.0   30.0   33.333333333333336
-500.0   0.0   50.0
-450.0   0.0   33.333333333333336
-450.0   30.0   33.333333333333336
-500.0   30.0   33.333333333333336
-450.0   30.0   50.0
-500.0   0.0   50.0
-500.0   30.0   50.0
-450.0   30.0   50.0
-500.0   30.0   33.333333333333336
-500.0   0.0   50.0
-450.0   30.0   50.0
-450.0   0.0   50.0
-450.0   0.0   33.333333333333336
-500.0   0.0   50.0
-450.0   30.0   50.0
-450.0   0.0   33.333333333333336
-500.0   30.0   33.333333333333336
-500.0   30.0   0.0
-450.0   30.0   0.0
-500.0   60.0   0.0
-500.0   30.0   16.666666666666668
-450.0   30.0   0.0
-450.0   60.0   0.0
-500.0   60.0   0.0
-450.0   60.0   16.666666666666668
-500.0   30.0   16.666666666666668
-500.0   60.0   16.666666666666668
-450.0   60.0   16.666666666666668
-500.0   60.0   0.0
-500.0   30.0   16.666666666666668
-450.0   60.0   16.666666666666668
-450.0   30.0   16.666666666666668
-450.0   30.0   0.0
-500.0   30.0   16.666666666666668
-450.0   60.0   16.666666666666668
-450.0   30.0   0.0
-500.0   60.0   0.0
-500.0   30.0   16.666666666666668
-450.0   30.0   16.666666666666668
-500.0   60.0   16.666666666666668
-500.0   30.0   33.333333333333336
-450.0   30.0   16.666666666666668
-450.0   60.0   16.666666666666668
-500.0   60.0   16.666666666666668
-450.0   60.0   33.333333333333336
-500.0   30.0   33.333333333333336
-500.0   60.0   33.333333333333336
-450.0   60.0   33.333333333333336
-500.0   60.0   16.666666666666668
-500.0   30.0   33.333333333333336
-450.0   60.0   33.333333333333336
-450.0   30.0   33.333333333333336
-450.0   30.0   16.666666666666668
-500.0   30.0   33.333333333333336
-450.0   60.0   33.333333333333336
-450.0   30.0   16.666666666666668
-500.0   60.0   16.666666666666668
-500.0   30.0   33.333333333333336
-450.0   30.0   33.333333333333336
-500.0   60.0   33.333333333333336
-500.0   30.0   50.0
-450.0   30.0   33.333333333333336
-450.0   60.0   33.333333333333336
-500.0   60.0   33.333333333333336
-450.0   60.0   50.0
-500.0   30.0   50.0
-500.0   60.0   50.0
-450.0   60.0   50.0
-500.0   60.0   33.333333333333336
-500.0   30.0   50.0
-450.0   60.0   50.0
-450.0   30.0   50.0
-450.0   30.0   33.333333333333336
-500.0   30.0   50.0
-450.0   60.0   50.0
-450.0   30.0   33.333333333333336
-500.0   60.0   33.333333333333336
-500.0   60.0   0.0
-450.0   60.0   0.0
-500.0   90.0   0.0
-500.0   60.0   16.666666666666668
-450.0   60.0   0.0
-450.0   90.0   0.0
-500.0   90.0   0.0
-450.0   90.0   16.666666666666668
-500.0   60.0   16.666666666666668
-500.0   90.0   16.666666666666668
-450.0   90.0   16.666666666666668
-500.0   90.0   0.0
-500.0   60.0   16.666666666666668
-450.0   90.0   16.666666666666668
-450.0   60.0   16.666666666666668
-450.0   60.0   0.0
-500.0   60.0   16.666666666666668
-450.0   90.0   16.666666666666668
-450.0   60.0   0.0
-500.0   90.0   0.0
-500.0   60.0   16.666666666666668
-450.0   60.0   16.666666666666668
-500.0   90.0   16.666666666666668
-500.0   60.0   33.333333333333336
-450.0   60.0   16.666666666666668
-450.0   90.0   16.666666666666668
-500.0   90.0   16.666666666666668
-450.0   90.0   33.333333333333336
-500.0   60.0   33.333333333333336
-500.0   90.0   33.333333333333336
-450.0   90.0   33.333333333333336
-500.0   90.0   16.666666666666668
-500.0   60.0   33.333333333333336
-450.0   90.0   33.333333333333336
-450.0   60.0   33.333333333333336
-450.0   60.0   16.666666666666668
-500.0   60.0   33.333333333333336
-450.0   90.0   33.333333333333336
-450.0   60.0   16.666666666666668
-500.0   90.0   16.666666666666668
-500.0   60.0   33.333333333333336
-450.0   60.0   33.333333333333336
-500.0   90.0   33.333333333333336
-500.0   60.0   50.0
-450.0   60.0   33.333333333333336
-450.0   90.0   33.333333333333336
-500.0   90.0   33.333333333333336
-450.0   90.0   50.0
-500.0   60.0   50.0
-500.0   90.0   50.0
-450.0   90.0   50.0
-500.0   90.0   33.333333333333336
-500.0   60.0   50.0
-450.0   90.0   50.0
-450.0   60.0   50.0
-450.0   60.0   33.333333333333336
-500.0   60.0   50.0
-450.0   90.0   50.0
-450.0   60.0   33.333333333333336
-500.0   90.0   33.333333333333336
-500.0   90.0   0.0
-450.0   90.0   0.0
-500.0   120.0   0.0
-500.0   90.0   16.666666666666668
-450.0   90.0   0.0
-450.0   120.0   0.0
-500.0   120.0   0.0
-450.0   120.0   16.666666666666668
-500.0   90.0   16.666666666666668
-500.0   120.0   16.666666666666668
-450.0   120.0   16.666666666666668
-500.0   120.0   0.0
-500.0   90.0   16.666666666666668
-450.0   120.0   16.666666666666668
-450.0   90.0   16.666666666666668
-450.0   90.0   0.0
-500.0   90.0   16.666666666666668
-450.0   120.0   16.666666666666668
-450.0   90.0   0.0
-500.0   120.0   0.0
-500.0   90.0   16.666666666666668
-450.0   90.0   16.666666666666668
-500.0   120.0   16.666666666666668
-500.0   90.0   33.333333333333336
-450.0   90.0   16.666666666666668
-450.0   120.0   16.666666666666668
-500.0   120.0   16.666666666666668
-450.0   120.0   33.333333333333336
-500.0   90.0   33.333333333333336
-500.0   120.0   33.333333333333336
-450.0   120.0   33.333333333333336
-500.0   120.0   16.666666666666668
-500.0   90.0   33.333333333333336
-450.0   120.0   33.333333333333336
-450.0   90.0   33.333333333333336
-450.0   90.0   16.666666666666668
-500.0   90.0   33.333333333333336
-450.0   120.0   33.333333333333336
-450.0   90.0   16.666666666666668
-500.0   120.0   16.666666666666668
-500.0   90.0   33.333333333333336
-450.0   90.0   33.333333333333336
-500.0   120.0   33.333333333333336
-500.0   90.0   50.0
-450.0   90.0   33.333333333333336
-450.0   120.0   33.333333333333336
-500.0   120.0   33.333333333333336
-450.0   120.0   50.0
-500.0   90.0   50.0
-500.0   120.0   50.0
-450.0   120.0   50.0
-500.0   120.0   33.333333333333336
-500.0   90.0   50.0
-450.0   120.0   50.0
-450.0   90.0   50.0
-450.0   90.0   33.333333333333336
-500.0   90.0   50.0
-450.0   120.0   50.0
-450.0   90.0   33.333333333333336
-500.0   120.0   33.333333333333336
-500.0   120.0   0.0
-450.0   120.0   0.0
-500.0   150.0   0.0
-500.0   120.0   16.666666666666668
-450.0   120.0   0.0
-450.0   150.0   0.0
-500.0   150.0   0.0
-450.0   150.0   16.666666666666668
-500.0   120.0   16.666666666666668
-500.0   150.0   16.666666666666668
-450.0   150.0   16.666666666666668
-500.0   150.0   0.0
-500.0   120.0   16.666666666666668
-450.0   150.0   16.666666666666668
-450.0   120.0   16.666666666666668
-450.0   120.0   0.0
-500.0   120.0   16.666666666666668
-450.0   150.0   16.666666666666668
-450.0   120.0   0.0
-500.0   150.0   0.0
-500.0   120.0   16.666666666666668
-450.0   120.0   16.666666666666668
-500.0   150.0   16.666666666666668
-500.0   120.0   33.333333333333336
-450.0   120.0   16.666666666666668
-450.0   150.0   16.666666666666668
-500.0   150.0   16.666666666666668
-450.0   150.0   33.333333333333336
-500.0   120.0   33.333333333333336
-500.0   150.0   33.333333333333336
-450.0   150.0   33.333333333333336
-500.0   150.0   16.666666666666668
-500.0   120.0   33.333333333333336
-450.0   150.0   33.333333333333336
-450.0   120.0   33.333333333333336
-450.0   120.0   16.666666666666668
-500.0   120.0   33.333333333333336
-450.0   150.0   33.333333333333336
-450.0   120.0   16.666666666666668
-500.0   150.0   16.666666666666668
-500.0   120.0   33.333333333333336
-450.0   120.0   33.333333333333336
-500.0   150.0   33.333333333333336
-500.0   120.0   50.0
-450.0   120.0   33.333333333333336
-450.0   150.0   33.333333333333336
-500.0   150.0   33.333333333333336
-450.0   150.0   50.0
-500.0   120.0   50.0
-500.0   150.0   50.0
-450.0   150.0   50.0
-500.0   150.0   33.333333333333336
-500.0   120.0   50.0
-450.0   150.0   50.0
-450.0   120.0   50.0
-450.0   120.0   33.333333333333336
-500.0   120.0   50.0
-450.0   150.0   50.0
-450.0   120.0   33.333333333333336
-500.0   150.0   33.333333333333336
-450.0   0.0   0.0
-400.0   0.0   0.0
-450.0   30.0   0.0
-450.0   0.0   16.666666666666668
-400.0   0.0   0.0
-400.0   30.0   0.0
-450.0   30.0   0.0
-400.0   30.0   16.666666666666668
-450.0   0.0   16.666666666666668
-450.0   30.0   16.666666666666668
-400.0   30.0   16.666666666666668
-450.0   30.0   0.0
-450.0   0.0   16.666666666666668
-400.0   30.0   16.666666666666668
-400.0   0.0   16.666666666666668
-400.0   0.0   0.0
-450.0   0.0   16.666666666666668
-400.0   30.0   16.666666666666668
-400.0   0.0   0.0
-450.0   30.0   0.0
-450.0   0.0   16.666666666666668
-400.0   0.0   16.666666666666668
-450.0   30.0   16.666666666666668
-450.0   0.0   33.333333333333336
-400.0   0.0   16.666666666666668
-400.0   30.0   16.666666666666668
-450.0   30.0   16.666666666666668
-400.0   30.0   33.333333333333336
-450.0   0.0   33.333333333333336
-450.0   30.0   33.333333333333336
-400.0   30.0   33.333333333333336
-450.0   30.0   16.666666666666668
-450.0   0.0   33.333333333333336
-400.0   30.0   33.333333333333336
-400.0   0.0   33.333333333333336
-400.0   0.0   16.666666666666668
-450.0   0.0   33.333333333333336
-400.0   30.0   33.333333333333336
-400.0   0.0   16.666666666666668
-450.0   30.0   16.666666666666668
-450.0   0.0   33.333333333333336
-400.0   0.0   33.333333333333336
-450.0   30.0   33.333333333333336
-450.0   0.0   50.0
-400.0   0.0   33.333333333333336
-400.0   30.0   33.333333333333336
-450.0   30.0   33.333333333333336
-400.0   30.0   50.0
-450.0   0.0   50.0
-450.0   30.0   50.0
-400.0   30.0   50.0
-450.0   30.0   33.333333333333336
-450.0   0.0   50.0
-400.0   30.0   50.0
-400.0   0.0   50.0
-400.0   0.0   33.333333333333336
-450.0   0.0   50.0
-400.0   30.0   50.0
-400.0   0.0   33.333333333333336
-450.0   30.0   33.333333333333336
-450.0   30.0   0.0
-400.0   30.0   0.0
-450.0   60.0   0.0
-450.0   30.0   16.666666666666668
-400.0   30.0   0.0
-400.0   60.0   0.0
-450.0   60.0   0.0
-400.0   60.0   16.666666666666668
-450.0   30.0   16.666666666666668
-450.0   60.0   16.666666666666668
-400.0   60.0   16.666666666666668
-450.0   60.0   0.0
-450.0   30.0   16.666666666666668
-400.0   60.0   16.666666666666668
-400.0   30.0   16.666666666666668
-400.0   30.0   0.0
-450.0   30.0   16.666666666666668
-400.0   60.0   16.666666666666668
-400.0   30.0   0.0
-450.0   60.0   0.0
-450.0   30.0   16.666666666666668
-400.0   30.0   16.666666666666668
-450.0   60.0   16.666666666666668
-450.0   30.0   33.333333333333336
-400.0   30.0   16.666666666666668
-400.0   60.0   16.666666666666668
-450.0   60.0   16.666666666666668
-400.0   60.0   33.333333333333336
-450.0   30.0   33.333333333333336
-450.0   60.0   33.333333333333336
-400.0   60.0   33.333333333333336
-450.0   60.0   16.666666666666668
-450.0   30.0   33.333333333333336
-400.0   60.0   33.333333333333336
-400.0   30.0   33.333333333333336
-400.0   30.0   16.666666666666668
-450.0   30.0   33.333333333333336
-400.0   60.0   33.333333333333336
-400.0   30.0   16.666666666666668
-450.0   60.0   16.666666666666668
-450.0   30.0   33.333333333333336
-400.0   30.0   33.333333333333336
-450.0   60.0   33.333333333333336
-450.0   30.0   50.0
-400.0   30.0   33.333333333333336
-400.0   60.0   33.333333333333336
-450.0   60.0   33.333333333333336
-400.0   60.0   50.0
-450.0   30.0   50.0
-450.0   60.0   50.0
-400.0   60.0   50.0
-450.0   60.0   33.333333333333336
-450.0   30.0   50.0
-400.0   60.0   50.0
-400.0   30.0   50.0
-400.0   30.0   33.333333333333336
-450.0   30.0   50.0
-400.0   60.0   50.0
-400.0   30.0   33.333333333333336
-450.0   60.0   33.333333333333336
-450.0   60.0   0.0
-400.0   60.0   0.0
-450.0   90.0   0.0
-450.0   60.0   16.666666666666668
-400.0   60.0   0.0
-400.0   90.0   0.0
-450.0   90.0   0.0
-400.0   90.0   16.666666666666668
-450.0   60.0   16.666666666666668
-450.0   90.0   16.666666666666668
-400.0   90.0   16.666666666666668
-450.0   90.0   0.0
-450.0   60.0   16.666666666666668
-400.0   90.0   16.666666666666668
-400.0   60.0   16.666666666666668
-400.0   60.0   0.0
-450.0   60.0   16.666666666666668
-400.0   90.0   16.666666666666668
-400.0   60.0   0.0
-450.0   90.0   0.0
-450.0   60.0   16.666666666666668
-400.0   60.0   16.666666666666668
-450.0   90.0   16.666666666666668
-450.0   60.0   33.333333333333336
-400.0   60.0   16.666666666666668
-400.0   90.0   16.666666666666668
-450.0   90.0   16.666666666666668
-400.0   90.0   33.333333333333336
-450.0   60.0   33.333333333333336
-450.0   90.0   33.333333333333336
-400.0   90.0   33.333333333333336
-450.0   90.0   16.666666666666668
-450.0   60.0   33.333333333333336
-400.0   90.0   33.333333333333336
-400.0   60.0   33.333333333333336
-400.0   60.0   16.666666666666668
-450.0   60.0   33.333333333333336
-400.0   90.0   33.333333333333336
-400.0   60.0   16.666666666666668
-450.0   90.0   16.666666666666668
-450.0   60.0   33.333333333333336
-400.0   60.0   33.333333333333336
-450.0   90.0   33.333333333333336
-450.0   60.0   50.0
-400.0   60.0   33.333333333333336
-400.0   90.0   33.333333333333336
-450.0   90.0   33.333333333333336
-400.0   90.0   50.0
-450.0   60.0   50.0
-450.0   90.0   50.0
-400.0   90.0   50.0
-450.0   90.0   33.333333333333336
-450.0   60.0   50.0
-400.0   90.0   50.0
-400.0   60.0   50.0
-400.0   60.0   33.333333333333336
-450.0   60.0   50.0
-400.0   90.0   50.0
-400.0   60.0   33.333333333333336
-450.0   90.0   33.333333333333336
-450.0   90.0   0.0
-400.0   90.0   0.0
-450.0   120.0   0.0
-450.0   90.0   16.666666666666668
-400.0   90.0   0.0
-400.0   120.0   0.0
-450.0   120.0   0.0
-400.0   120.0   16.666666666666668
-450.0   90.0   16.666666666666668
-450.0   120.0   16.666666666666668
-400.0   120.0   16.666666666666668
-450.0   120.0   0.0
-450.0   90.0   16.666666666666668
-400.0   120.0   16.666666666666668
-400.0   90.0   16.666666666666668
-400.0   90.0   0.0
-450.0   90.0   16.666666666666668
-400.0   120.0   16.666666666666668
-400.0   90.0   0.0
-450.0   120.0   0.0
-450.0   90.0   16.666666666666668
-400.0   90.0   16.666666666666668
-450.0   120.0   16.666666666666668
-450.0   90.0   33.333333333333336
-400.0   90.0   16.666666666666668
-400.0   120.0   16.666666666666668
-450.0   120.0   16.666666666666668
-400.0   120.0   33.333333333333336
-450.0   90.0   33.333333333333336
-450.0   120.0   33.333333333333336
-400.0   120.0   33.333333333333336
-450.0   120.0   16.666666666666668
-450.0   90.0   33.333333333333336
-400.0   120.0   33.333333333333336
-400.0   90.0   33.333333333333336
-400.0   90.0   16.666666666666668
-450.0   90.0   33.333333333333336
-400.0   120.0   33.333333333333336
-400.0   90.0   16.666666666666668
-450.0   120.0   16.666666666666668
-450.0   90.0   33.333333333333336
-400.0   90.0   33.333333333333336
-450.0   120.0   33.333333333333336
-450.0   90.0   50.0
-400.0   90.0   33.333333333333336
-400.0   120.0   33.333333333333336
-450.0   120.0   33.333333333333336
-400.0   120.0   50.0
-450.0   90.0   50.0
-450.0   120.0   50.0
-400.0   120.0   50.0
-450.0   120.0   33.333333333333336
-450.0   90.0   50.0
-400.0   120.0   50.0
-400.0   90.0   50.0
-400.0   90.0   33.333333333333336
-450.0   90.0   50.0
-400.0   120.0   50.0
-400.0   90.0   33.333333333333336
-450.0   120.0   33.333333333333336
-450.0   120.0   0.0
-400.0   120.0   0.0
-450.0   150.0   0.0
-450.0   120.0   16.666666666666668
-400.0   120.0   0.0
-400.0   150.0   0.0
-450.0   150.0   0.0
-400.0   150.0   16.666666666666668
-450.0   120.0   16.666666666666668
-450.0   150.0   16.666666666666668
-400.0   150.0   16.666666666666668
-450.0   150.0   0.0
-450.0   120.0   16.666666666666668
-400.0   150.0   16.666666666666668
-400.0   120.0   16.666666666666668
-400.0   120.0   0.0
-450.0   120.0   16.666666666666668
-400.0   150.0   16.666666666666668
-400.0   120.0   0.0
-450.0   150.0   0.0
-450.0   120.0   16.666666666666668
-400.0   120.0   16.666666666666668
-450.0   150.0   16.666666666666668
-450.0   120.0   33.333333333333336
-400.0   120.0   16.666666666666668
-400.0   150.0   16.666666666666668
-450.0   150.0   16.666666666666668
-400.0   150.0   33.333333333333336
-450.0   120.0   33.333333333333336
-450.0   150.0   33.333333333333336
-400.0   150.0   33.333333333333336
-450.0   150.0   16.666666666666668
-450.0   120.0   33.333333333333336
-400.0   150.0   33.333333333333336
-400.0   120.0   33.333333333333336
-400.0   120.0   16.666666666666668
-450.0   120.0   33.333333333333336
-400.0   150.0   33.333333333333336
-400.0   120.0   16.666666666666668
-450.0   150.0   16.666666666666668
-450.0   120.0   33.333333333333336
-400.0   120.0   33.333333333333336
-450.0   150.0   33.333333333333336
-450.0   120.0   50.0
-400.0   120.0   33.333333333333336
-400.0   150.0   33.333333333333336
-450.0   150.0   33.333333333333336
-400.0   150.0   50.0
-450.0   120.0   50.0
-450.0   150.0   50.0
-400.0   150.0   50.0
-450.0   150.0   33.333333333333336
-450.0   120.0   50.0
-400.0   150.0   50.0
-400.0   120.0   50.0
-400.0   120.0   33.333333333333336
-450.0   120.0   50.0
-400.0   150.0   50.0
-400.0   120.0   33.333333333333336
-450.0   150.0   33.333333333333336
-400.0   0.0   0.0
-350.0   0.0   0.0
-400.0   30.0   0.0
-400.0   0.0   16.666666666666668
-350.0   0.0   0.0
-350.0   30.0   0.0
-400.0   30.0   0.0
-350.0   30.0   16.666666666666668
-400.0   0.0   16.666666666666668
-400.0   30.0   16.666666666666668
-350.0   30.0   16.666666666666668
-400.0   30.0   0.0
-400.0   0.0   16.666666666666668
-350.0   30.0   16.666666666666668
-350.0   0.0   16.666666666666668
-350.0   0.0   0.0
-400.0   0.0   16.666666666666668
-350.0   30.0   16.666666666666668
-350.0   0.0   0.0
-400.0   30.0   0.0
-400.0   0.0   16.666666666666668
-350.0   0.0   16.666666666666668
-400.0   30.0   16.666666666666668
-400.0   0.0   33.333333333333336
-350.0   0.0   16.666666666666668
-350.0   30.0   16.666666666666668
-400.0   30.0   16.666666666666668
-350.0   30.0   33.333333333333336
-400.0   0.0   33.333333333333336
-400.0   30.0   33.333333333333336
-350.0   30.0   33.333333333333336
-400.0   30.0   16.666666666666668
-400.0   0.0   33.333333333333336
-350.0   30.0   33.333333333333336
-350.0   0.0   33.333333333333336
-350.0   0.0   16.666666666666668
-400.0   0.0   33.333333333333336
-350.0   30.0   33.333333333333336
-350.0   0.0   16.666666666666668
-400.0   30.0   16.666666666666668
-400.0   0.0   33.333333333333336
-350.0   0.0   33.333333333333336
-400.0   30.0   33.333333333333336
-400.0   0.0   50.0
-350.0   0.0   33.333333333333336
-350.0   30.0   33.333333333333336
-400.0   30.0   33.333333333333336
-350.0   30.0   50.0
-400.0   0.0   50.0
-400.0   30.0   50.0
-350.0   30.0   50.0
-400.0   30.0   33.333333333333336
-400.0   0.0   50.0
-350.0   30.0   50.0
-350.0   0.0   50.0
-350.0   0.0   33.333333333333336
-400.0   0.0   50.0
-350.0   30.0   50.0
-350.0   0.0   33.333333333333336
-400.0   30.0   33.333333333333336
-400.0   30.0   0.0
-350.0   30.0   0.0
-400.0   60.0   0.0
-400.0   30.0   16.666666666666668
-350.0   30.0   0.0
-350.0   60.0   0.0
-400.0   60.0   0.0
-350.0   60.0   16.666666666666668
-400.0   30.0   16.666666666666668
-400.0   60.0   16.666666666666668
-350.0   60.0   16.666666666666668
-400.0   60.0   0.0
-400.0   30.0   16.666666666666668
-350.0   60.0   16.666666666666668
-350.0   30.0   16.666666666666668
-350.0   30.0   0.0
-400.0   30.0   16.666666666666668
-350.0   60.0   16.666666666666668
-350.0   30.0   0.0
-400.0   60.0   0.0
-400.0   30.0   16.666666666666668
-350.0   30.0   16.666666666666668
-400.0   60.0   16.666666666666668
-400.0   30.0   33.333333333333336
-350.0   30.0   16.666666666666668
-350.0   60.0   16.666666666666668
-400.0   60.0   16.666666666666668
-350.0   60.0   33.333333333333336
-400.0   30.0   33.333333333333336
-400.0   60.0   33.333333333333336
-350.0   60.0   33.333333333333336
-400.0   60.0   16.666666666666668
-400.0   30.0   33.333333333333336
-350.0   60.0   33.333333333333336
-350.0   30.0   33.333333333333336
-350.0   30.0   16.666666666666668
-400.0   30.0   33.333333333333336
-350.0   60.0   33.333333333333336
-350.0   30.0   16.666666666666668
-400.0   60.0   16.666666666666668
-400.0   30.0   33.333333333333336
-350.0   30.0   33.333333333333336
-400.0   60.0   33.333333333333336
-400.0   30.0   50.0
-350.0   30.0   33.333333333333336
-350.0   60.0   33.333333333333336
-400.0   60.0   33.333333333333336
-350.0   60.0   50.0
-400.0   30.0   50.0
-400.0   60.0   50.0
-350.0   60.0   50.0
-400.0   60.0   33.333333333333336
-400.0   30.0   50.0
-350.0   60.0   50.0
-350.0   30.0   50.0
-350.0   30.0   33.333333333333336
-400.0   30.0   50.0
-350.0   60.0   50.0
-350.0   30.0   33.333333333333336
-400.0   60.0   33.333333333333336
-400.0   60.0   0.0
-350.0   60.0   0.0
-400.0   90.0   0.0
-400.0   60.0   16.666666666666668
-350.0   60.0   0.0
-350.0   90.0   0.0
-400.0   90.0   0.0
-350.0   90.0   16.666666666666668
-400.0   60.0   16.666666666666668
-400.0   90.0   16.666666666666668
-350.0   90.0   16.666666666666668
-400.0   90.0   0.0
-400.0   60.0   16.666666666666668
-350.0   90.0   16.666666666666668
-350.0   60.0   16.666666666666668
-350.0   60.0   0.0
-400.0   60.0   16.666666666666668
-350.0   90.0   16.666666666666668
-350.0   60.0   0.0
-400.0   90.0   0.0
-400.0   60.0   16.666666666666668
-350.0   60.0   16.666666666666668
-400.0   90.0   16.666666666666668
-400.0   60.0   33.333333333333336
-350.0   60.0   16.666666666666668
-350.0   90.0   16.666666666666668
-400.0   90.0   16.666666666666668
-350.0   90.0   33.333333333333336
-400.0   60.0   33.333333333333336
-400.0   90.0   33.333333333333336
-350.0   90.0   33.333333333333336
-400.0   90.0   16.666666666666668
-400.0   60.0   33.333333333333336
-350.0   90.0   33.333333333333336
-350.0   60.0   33.333333333333336
-350.0   60.0   16.666666666666668
-400.0   60.0   33.333333333333336
-350.0   90.0   33.333333333333336
-350.0   60.0   16.666666666666668
-400.0   90.0   16.666666666666668
-400.0   60.0   33.333333333333336
-350.0   60.0   33.333333333333336
-400.0   90.0   33.333333333333336
-400.0   60.0   50.0
-350.0   60.0   33.333333333333336
-350.0   90.0   33.333333333333336
-400.0   90.0   33.333333333333336
-350.0   90.0   50.0
-400.0   60.0   50.0
-400.0   90.0   50.0
-350.0   90.0   50.0
-400.0   90.0   33.333333333333336
-400.0   60.0   50.0
-350.0   90.0   50.0
-350.0   60.0   50.0
-350.0   60.0   33.333333333333336
-400.0   60.0   50.0
-350.0   90.0   50.0
-350.0   60.0   33.333333333333336
-400.0   90.0   33.333333333333336
-400.0   90.0   0.0
-350.0   90.0   0.0
-400.0   120.0   0.0
-400.0   90.0   16.666666666666668
-350.0   90.0   0.0
-350.0   120.0   0.0
-400.0   120.0   0.0
-350.0   120.0   16.666666666666668
-400.0   90.0   16.666666666666668
-400.0   120.0   16.666666666666668
-350.0   120.0   16.666666666666668
-400.0   120.0   0.0
-400.0   90.0   16.666666666666668
-350.0   120.0   16.666666666666668
-350.0   90.0   16.666666666666668
-350.0   90.0   0.0
-400.0   90.0   16.666666666666668
-350.0   120.0   16.666666666666668
-350.0   90.0   0.0
-400.0   120.0   0.0
-400.0   90.0   16.666666666666668
-350.0   90.0   16.666666666666668
-400.0   120.0   16.666666666666668
-400.0   90.0   33.333333333333336
-350.0   90.0   16.666666666666668
-350.0   120.0   16.666666666666668
-400.0   120.0   16.666666666666668
-350.0   120.0   33.333333333333336
-400.0   90.0   33.333333333333336
-400.0   120.0   33.333333333333336
-350.0   120.0   33.333333333333336
-400.0   120.0   16.666666666666668
-400.0   90.0   33.333333333333336
-350.0   120.0   33.333333333333336
-350.0   90.0   33.333333333333336
-350.0   90.0   16.666666666666668
-400.0   90.0   33.333333333333336
-350.0   120.0   33.333333333333336
-350.0   90.0   16.666666666666668
-400.0   120.0   16.666666666666668
-400.0   90.0   33.333333333333336
-350.0   90.0   33.333333333333336
-400.0   120.0   33.333333333333336
-400.0   90.0   50.0
-350.0   90.0   33.333333333333336
-350.0   120.0   33.333333333333336
-400.0   120.0   33.333333333333336
-350.0   120.0   50.0
-400.0   90.0   50.0
-400.0   120.0   50.0
-350.0   120.0   50.0
-400.0   120.0   33.333333333333336
-400.0   90.0   50.0
-350.0   120.0   50.0
-350.0   90.0   50.0
-350.0   90.0   33.333333333333336
-400.0   90.0   50.0
-350.0   120.0   50.0
-350.0   90.0   33.333333333333336
-400.0   120.0   33.333333333333336
-400.0   120.0   0.0
-350.0   120.0   0.0
-400.0   150.0   0.0
-400.0   120.0   16.666666666666668
-350.0   120.0   0.0
-350.0   150.0   0.0
-400.0   150.0   0.0
-350.0   150.0   16.666666666666668
-400.0   120.0   16.666666666666668
-400.0   150.0   16.666666666666668
-350.0   150.0   16.666666666666668
-400.0   150.0   0.0
-400.0   120.0   16.666666666666668
-350.0   150.0   16.666666666666668
-350.0   120.0   16.666666666666668
-350.0   120.0   0.0
-400.0   120.0   16.666666666666668
-350.0   150.0   16.666666666666668
-350.0   120.0   0.0
-400.0   150.0   0.0
-400.0   120.0   16.666666666666668
-350.0   120.0   16.666666666666668
-400.0   150.0   16.666666666666668
-400.0   120.0   33.333333333333336
-350.0   120.0   16.666666666666668
-350.0   150.0   16.666666666666668
-400.0   150.0   16.666666666666668
-350.0   150.0   33.333333333333336
-400.0   120.0   33.333333333333336
-400.0   150.0   33.333333333333336
-350.0   150.0   33.333333333333336
-400.0   150.0   16.666666666666668
-400.0   120.0   33.333333333333336
-350.0   150.0   33.333333333333336
-350.0   120.0   33.333333333333336
-350.0   120.0   16.666666666666668
-400.0   120.0   33.333333333333336
-350.0   150.0   33.333333333333336
-350.0   120.0   16.666666666666668
-400.0   150.0   16.666666666666668
-400.0   120.0   33.333333333333336
-350.0   120.0   33.333333333333336
-400.0   150.0   33.333333333333336
-400.0   120.0   50.0
-350.0   120.0   33.333333333333336
-350.0   150.0   33.333333333333336
-400.0   150.0   33.333333333333336
-350.0   150.0   50.0
-400.0   120.0   50.0
-400.0   150.0   50.0
-350.0   150.0   50.0
-400.0   150.0   33.333333333333336
-400.0   120.0   50.0
-350.0   150.0   50.0
-350.0   120.0   50.0
-350.0   120.0   33.333333333333336
-400.0   120.0   50.0
-350.0   150.0   50.0
-350.0   120.0   33.333333333333336
-400.0   150.0   33.333333333333336
-350.0   0.0   0.0
-300.0   0.0   0.0
-350.0   30.0   0.0
-350.0   0.0   16.666666666666668
-300.0   0.0   0.0
-300.0   30.0   0.0
-350.0   30.0   0.0
-300.0   30.0   16.666666666666668
-350.0   0.0   16.666666666666668
-350.0   30.0   16.666666666666668
-300.0   30.0   16.666666666666668
-350.0   30.0   0.0
-350.0   0.0   16.666666666666668
-300.0   30.0   16.666666666666668
-300.0   0.0   16.666666666666668
-300.0   0.0   0.0
-350.0   0.0   16.666666666666668
-300.0   30.0   16.666666666666668
-300.0   0.0   0.0
-350.0   30.0   0.0
-350.0   0.0   16.666666666666668
-300.0   0.0   16.666666666666668
-350.0   30.0   16.666666666666668
-350.0   0.0   33.333333333333336
-300.0   0.0   16.666666666666668
-300.0   30.0   16.666666666666668
-350.0   30.0   16.666666666666668
-300.0   30.0   33.333333333333336
-350.0   0.0   33.333333333333336
-350.0   30.0   33.333333333333336
-300.0   30.0   33.333333333333336
-350.0   30.0   16.666666666666668
-350.0   0.0   33.333333333333336
-300.0   30.0   33.333333333333336
-300.0   0.0   33.333333333333336
-300.0   0.0   16.666666666666668
-350.0   0.0   33.333333333333336
-300.0   30.0   33.333333333333336
-300.0   0.0   16.666666666666668
-350.0   30.0   16.666666666666668
-350.0   0.0   33.333333333333336
-300.0   0.0   33.333333333333336
-350.0   30.0   33.333333333333336
-350.0   0.0   50.0
-300.0   0.0   33.333333333333336
-300.0   30.0   33.333333333333336
-350.0   30.0   33.333333333333336
-300.0   30.0   50.0
-350.0   0.0   50.0
-350.0   30.0   50.0
-300.0   30.0   50.0
-350.0   30.0   33.333333333333336
-350.0   0.0   50.0
-300.0   30.0   50.0
-300.0   0.0   50.0
-300.0   0.0   33.333333333333336
-350.0   0.0   50.0
-300.0   30.0   50.0
-300.0   0.0   33.333333333333336
-350.0   30.0   33.333333333333336
-350.0   30.0   0.0
-300.0   30.0   0.0
-350.0   60.0   0.0
-350.0   30.0   16.666666666666668
-300.0   30.0   0.0
-300.0   60.0   0.0
-350.0   60.0   0.0
-300.0   60.0   16.666666666666668
-350.0   30.0   16.666666666666668
-350.0   60.0   16.666666666666668
-300.0   60.0   16.666666666666668
-350.0   60.0   0.0
-350.0   30.0   16.666666666666668
-300.0   60.0   16.666666666666668
-300.0   30.0   16.666666666666668
-300.0   30.0   0.0
-350.0   30.0   16.666666666666668
-300.0   60.0   16.666666666666668
-300.0   30.0   0.0
-350.0   60.0   0.0
-350.0   30.0   16.666666666666668
-300.0   30.0   16.666666666666668
-350.0   60.0   16.666666666666668
-350.0   30.0   33.333333333333336
-300.0   30.0   16.666666666666668
-300.0   60.0   16.666666666666668
-350.0   60.0   16.666666666666668
-300.0   60.0   33.333333333333336
-350.0   30.0   33.333333333333336
-350.0   60.0   33.333333333333336
-300.0   60.0   33.333333333333336
-350.0   60.0   16.666666666666668
-350.0   30.0   33.333333333333336
-300.0   60.0   33.333333333333336
-300.0   30.0   33.333333333333336
-300.0   30.0   16.666666666666668
-350.0   30.0   33.333333333333336
-300.0   60.0   33.333333333333336
-300.0   30.0   16.666666666666668
-350.0   60.0   16.666666666666668
-350.0   30.0   33.333333333333336
-300.0   30.0   33.333333333333336
-350.0   60.0   33.333333333333336
-350.0   30.0   50.0
-300.0   30.0   33.333333333333336
-300.0   60.0   33.333333333333336
-350.0   60.0   33.333333333333336
-300.0   60.0   50.0
-350.0   30.0   50.0
-350.0   60.0   50.0
-300.0   60.0   50.0
-350.0   60.0   33.333333333333336
-350.0   30.0   50.0
-300.0   60.0   50.0
-300.0   30.0   50.0
-300.0   30.0   33.333333333333336
-350.0   30.0   50.0
-300.0   60.0   50.0
-300.0   30.0   33.333333333333336
-350.0   60.0   33.333333333333336
-350.0   60.0   0.0
-300.0   60.0   0.0
-350.0   90.0   0.0
-350.0   60.0   16.666666666666668
-300.0   60.0   0.0
-300.0   90.0   0.0
-350.0   90.0   0.0
-300.0   90.0   16.666666666666668
-350.0   60.0   16.666666666666668
-350.0   90.0   16.666666666666668
-300.0   90.0   16.666666666666668
-350.0   90.0   0.0
-350.0   60.0   16.666666666666668
-300.0   90.0   16.666666666666668
-300.0   60.0   16.666666666666668
-300.0   60.0   0.0
-350.0   60.0   16.666666666666668
-300.0   90.0   16.666666666666668
-300.0   60.0   0.0
-350.0   90.0   0.0
-350.0   60.0   16.666666666666668
-300.0   60.0   16.666666666666668
-350.0   90.0   16.666666666666668
-350.0   60.0   33.333333333333336
-300.0   60.0   16.666666666666668
-300.0   90.0   16.666666666666668
-350.0   90.0   16.666666666666668
-300.0   90.0   33.333333333333336
-350.0   60.0   33.333333333333336
-350.0   90.0   33.333333333333336
-300.0   90.0   33.333333333333336
-350.0   90.0   16.666666666666668
-350.0   60.0   33.333333333333336
-300.0   90.0   33.333333333333336
-300.0   60.0   33.333333333333336
-300.0   60.0   16.666666666666668
-350.0   60.0   33.333333333333336
-300.0   90.0   33.333333333333336
-300.0   60.0   16.666666666666668
-350.0   90.0   16.666666666666668
-350.0   60.0   33.333333333333336
-300.0   60.0   33.333333333333336
-350.0   90.0   33.333333333333336
-350.0   60.0   50.0
-300.0   60.0   33.333333333333336
-300.0   90.0   33.333333333333336
-350.0   90.0   33.333333333333336
-300.0   90.0   50.0
-350.0   60.0   50.0
-350.0   90.0   50.0
-300.0   90.0   50.0
-350.0   90.0   33.333333333333336
-350.0   60.0   50.0
-300.0   90.0   50.0
-300.0   60.0   50.0
-300.0   60.0   33.333333333333336
-350.0   60.0   50.0
-300.0   90.0   50.0
-300.0   60.0   33.333333333333336
-350.0   90.0   33.333333333333336
-350.0   90.0   0.0
-300.0   90.0   0.0
-350.0   120.0   0.0
-350.0   90.0   16.666666666666668
-300.0   90.0   0.0
-300.0   120.0   0.0
-350.0   120.0   0.0
-300.0   120.0   16.666666666666668
-350.0   90.0   16.666666666666668
-350.0   120.0   16.666666666666668
-300.0   120.0   16.666666666666668
-350.0   120.0   0.0
-350.0   90.0   16.666666666666668
-300.0   120.0   16.666666666666668
-300.0   90.0   16.666666666666668
-300.0   90.0   0.0
-350.0   90.0   16.666666666666668
-300.0   120.0   16.666666666666668
-300.0   90.0   0.0
-350.0   120.0   0.0
-350.0   90.0   16.666666666666668
-300.0   90.0   16.666666666666668
-350.0   120.0   16.666666666666668
-350.0   90.0   33.333333333333336
-300.0   90.0   16.666666666666668
-300.0   120.0   16.666666666666668
-350.0   120.0   16.666666666666668
-300.0   120.0   33.333333333333336
-350.0   90.0   33.333333333333336
-350.0   120.0   33.333333333333336
-300.0   120.0   33.333333333333336
-350.0   120.0   16.666666666666668
-350.0   90.0   33.333333333333336
-300.0   120.0   33.333333333333336
-300.0   90.0   33.333333333333336
-300.0   90.0   16.666666666666668
-350.0   90.0   33.333333333333336
-300.0   120.0   33.333333333333336
-300.0   90.0   16.666666666666668
-350.0   120.0   16.666666666666668
-350.0   90.0   33.333333333333336
-300.0   90.0   33.333333333333336
-350.0   120.0   33.333333333333336
-350.0   90.0   50.0
-300.0   90.0   33.333333333333336
-300.0   120.0   33.333333333333336
-350.0   120.0   33.333333333333336
-300.0   120.0   50.0
-350.0   90.0   50.0
-350.0   120.0   50.0
-300.0   120.0   50.0
-350.0   120.0   33.333333333333336
-350.0   90.0   50.0
-300.0   120.0   50.0
-300.0   90.0   50.0
-300.0   90.0   33.333333333333336
-350.0   90.0   50.0
-300.0   120.0   50.0
-300.0   90.0   33.333333333333336
-350.0   120.0   33.333333333333336
-350.0   120.0   0.0
-300.0   120.0   0.0
-350.0   150.0   0.0
-350.0   120.0   16.666666666666668
-300.0   120.0   0.0
-300.0   150.0   0.0
-350.0   150.0   0.0
-300.0   150.0   16.666666666666668
-350.0   120.0   16.666666666666668
-350.0   150.0   16.666666666666668
-300.0   150.0   16.666666666666668
-350.0   150.0   0.0
-350.0   120.0   16.666666666666668
-300.0   150.0   16.666666666666668
-300.0   120.0   16.666666666666668
-300.0   120.0   0.0
-350.0   120.0   16.666666666666668
-300.0   150.0   16.666666666666668
-300.0   120.0   0.0
-350.0   150.0   0.0
-350.0   120.0   16.666666666666668
-300.0   120.0   16.666666666666668
-350.0   150.0   16.666666666666668
-350.0   120.0   33.333333333333336
-300.0   120.0   16.666666666666668
-300.0   150.0   16.666666666666668
-350.0   150.0   16.666666666666668
-300.0   150.0   33.333333333333336
-350.0   120.0   33.333333333333336
-350.0   150.0   33.333333333333336
-300.0   150.0   33.333333333333336
-350.0   150.0   16.666666666666668
-350.0   120.0   33.333333333333336
-300.0   150.0   33.333333333333336
-300.0   120.0   33.333333333333336
-300.0   120.0   16.666666666666668
-350.0   120.0   33.333333333333336
-300.0   150.0   33.333333333333336
-300.0   120.0   16.666666666666668
-350.0   150.0   16.666666666666668
-350.0   120.0   33.333333333333336
-300.0   120.0   33.333333333333336
-350.0   150.0   33.333333333333336
-350.0   120.0   50.0
-300.0   120.0   33.333333333333336
-300.0   150.0   33.333333333333336
-350.0   150.0   33.333333333333336
-300.0   150.0   50.0
-350.0   120.0   50.0
-350.0   150.0   50.0
-300.0   150.0   50.0
-350.0   150.0   33.333333333333336
-350.0   120.0   50.0
-300.0   150.0   50.0
-300.0   120.0   50.0
-300.0   120.0   33.333333333333336
-350.0   120.0   50.0
-300.0   150.0   50.0
-300.0   120.0   33.333333333333336
-350.0   150.0   33.333333333333336
-300.0   0.0   0.0
-250.0   0.0   0.0
-300.0   30.0   0.0
-300.0   0.0   16.666666666666668
-250.0   0.0   0.0
-250.0   30.0   0.0
-300.0   30.0   0.0
-250.0   30.0   16.666666666666668
-300.0   0.0   16.666666666666668
-300.0   30.0   16.666666666666668
-250.0   30.0   16.666666666666668
-300.0   30.0   0.0
-300.0   0.0   16.666666666666668
-250.0   30.0   16.666666666666668
-250.0   0.0   16.666666666666668
-250.0   0.0   0.0
-300.0   0.0   16.666666666666668
-250.0   30.0   16.666666666666668
-250.0   0.0   0.0
-300.0   30.0   0.0
-300.0   0.0   16.666666666666668
-250.0   0.0   16.666666666666668
-300.0   30.0   16.666666666666668
-300.0   0.0   33.333333333333336
-250.0   0.0   16.666666666666668
-250.0   30.0   16.666666666666668
-300.0   30.0   16.666666666666668
-250.0   30.0   33.333333333333336
-300.0   0.0   33.333333333333336
-300.0   30.0   33.333333333333336
-250.0   30.0   33.333333333333336
-300.0   30.0   16.666666666666668
-300.0   0.0   33.333333333333336
-250.0   30.0   33.333333333333336
-250.0   0.0   33.333333333333336
-250.0   0.0   16.666666666666668
-300.0   0.0   33.333333333333336
-250.0   30.0   33.333333333333336
-250.0   0.0   16.666666666666668
-300.0   30.0   16.666666666666668
-300.0   0.0   33.333333333333336
-250.0   0.0   33.333333333333336
-300.0   30.0   33.333333333333336
-300.0   0.0   50.0
-250.0   0.0   33.333333333333336
-250.0   30.0   33.333333333333336
-300.0   30.0   33.333333333333336
-250.0   30.0   50.0
-300.0   0.0   50.0
-300.0   30.0   50.0
-250.0   30.0   50.0
-300.0   30.0   33.333333333333336
-300.0   0.0   50.0
-250.0   30.0   50.0
-250.0   0.0   50.0
-250.0   0.0   33.333333333333336
-300.0   0.0   50.0
-250.0   30.0   50.0
-250.0   0.0   33.333333333333336
-300.0   30.0   33.333333333333336
-300.0   30.0   0.0
-250.0   30.0   0.0
-300.0   60.0   0.0
-300.0   30.0   16.666666666666668
-250.0   30.0   0.0
-250.0   60.0   0.0
-300.0   60.0   0.0
-250.0   60.0   16.666666666666668
-300.0   30.0   16.666666666666668
-300.0   60.0   16.666666666666668
-250.0   60.0   16.666666666666668
-300.0   60.0   0.0
-300.0   30.0   16.666666666666668
-250.0   60.0   16.666666666666668
-250.0   30.0   16.666666666666668
-250.0   30.0   0.0
-300.0   30.0   16.666666666666668
-250.0   60.0   16.666666666666668
-250.0   30.0   0.0
-300.0   60.0   0.0
-300.0   30.0   16.666666666666668
-250.0   30.0   16.666666666666668
-300.0   60.0   16.666666666666668
-300.0   30.0   33.333333333333336
-250.0   30.0   16.666666666666668
-250.0   60.0   16.666666666666668
-300.0   60.0   16.666666666666668
-250.0   60.0   33.333333333333336
-300.0   30.0   33.333333333333336
-300.0   60.0   33.333333333333336
-250.0   60.0   33.333333333333336
-300.0   60.0   16.666666666666668
-300.0   30.0   33.333333333333336
-250.0   60.0   33.333333333333336
-250.0   30.0   33.333333333333336
-250.0   30.0   16.666666666666668
-300.0   30.0   33.333333333333336
-250.0   60.0   33.333333333333336
-250.0   30.0   16.666666666666668
-300.0   60.0   16.666666666666668
-300.0   30.0   33.333333333333336
-250.0   30.0   33.333333333333336
-300.0   60.0   33.333333333333336
-300.0   30.0   50.0
-250.0   30.0   33.333333333333336
-250.0   60.0   33.333333333333336
-300.0   60.0   33.333333333333336
-250.0   60.0   50.0
-300.0   30.0   50.0
-300.0   60.0   50.0
-250.0   60.0   50.0
-300.0   60.0   33.333333333333336
-300.0   30.0   50.0
-250.0   60.0   50.0
-250.0   30.0   50.0
-250.0   30.0   33.333333333333336
-300.0   30.0   50.0
-250.0   60.0   50.0
-250.0   30.0   33.333333333333336
-300.0   60.0   33.333333333333336
-300.0   60.0   0.0
-250.0   60.0   0.0
-300.0   90.0   0.0
-300.0   60.0   16.666666666666668
-250.0   60.0   0.0
-250.0   90.0   0.0
-300.0   90.0   0.0
-250.0   90.0   16.666666666666668
-300.0   60.0   16.666666666666668
-300.0   90.0   16.666666666666668
-250.0   90.0   16.666666666666668
-300.0   90.0   0.0
-300.0   60.0   16.666666666666668
-250.0   90.0   16.666666666666668
-250.0   60.0   16.666666666666668
-250.0   60.0   0.0
-300.0   60.0   16.666666666666668
-250.0   90.0   16.666666666666668
-250.0   60.0   0.0
-300.0   90.0   0.0
-300.0   60.0   16.666666666666668
-250.0   60.0   16.666666666666668
-300.0   90.0   16.666666666666668
-300.0   60.0   33.333333333333336
-250.0   60.0   16.666666666666668
-250.0   90.0   16.666666666666668
-300.0   90.0   16.666666666666668
-250.0   90.0   33.333333333333336
-300.0   60.0   33.333333333333336
-300.0   90.0   33.333333333333336
-250.0   90.0   33.333333333333336
-300.0   90.0   16.666666666666668
-300.0   60.0   33.333333333333336
-250.0   90.0   33.333333333333336
-250.0   60.0   33.333333333333336
-250.0   60.0   16.666666666666668
-300.0   60.0   33.333333333333336
-250.0   90.0   33.333333333333336
-250.0   60.0   16.666666666666668
-300.0   90.0   16.666666666666668
-300.0   60.0   33.333333333333336
-250.0   60.0   33.333333333333336
-300.0   90.0   33.333333333333336
-300.0   60.0   50.0
-250.0   60.0   33.333333333333336
-250.0   90.0   33.333333333333336
-300.0   90.0   33.333333333333336
-250.0   90.0   50.0
-300.0   60.0   50.0
-300.0   90.0   50.0
-250.0   90.0   50.0
-300.0   90.0   33.333333333333336
-300.0   60.0   50.0
-250.0   90.0   50.0
-250.0   60.0   50.0
-250.0   60.0   33.333333333333336
-300.0   60.0   50.0
-250.0   90.0   50.0
-250.0   60.0   33.333333333333336
-300.0   90.0   33.333333333333336
-300.0   90.0   0.0
-250.0   90.0   0.0
-300.0   120.0   0.0
-300.0   90.0   16.666666666666668
-250.0   90.0   0.0
-250.0   120.0   0.0
-300.0   120.0   0.0
-250.0   120.0   16.666666666666668
-300.0   90.0   16.666666666666668
-300.0   120.0   16.666666666666668
-250.0   120.0   16.666666666666668
-300.0   120.0   0.0
-300.0   90.0   16.666666666666668
-250.0   120.0   16.666666666666668
-250.0   90.0   16.666666666666668
-250.0   90.0   0.0
-300.0   90.0   16.666666666666668
-250.0   120.0   16.666666666666668
-250.0   90.0   0.0
-300.0   120.0   0.0
-300.0   90.0   16.666666666666668
-250.0   90.0   16.666666666666668
-300.0   120.0   16.666666666666668
-300.0   90.0   33.333333333333336
-250.0   90.0   16.666666666666668
-250.0   120.0   16.666666666666668
-300.0   120.0   16.666666666666668
-250.0   120.0   33.333333333333336
-300.0   90.0   33.333333333333336
-300.0   120.0   33.333333333333336
-250.0   120.0   33.333333333333336
-300.0   120.0   16.666666666666668
-300.0   90.0   33.333333333333336
-250.0   120.0   33.333333333333336
-250.0   90.0   33.333333333333336
-250.0   90.0   16.666666666666668
-300.0   90.0   33.333333333333336
-250.0   120.0   33.333333333333336
-250.0   90.0   16.666666666666668
-300.0   120.0   16.666666666666668
-300.0   90.0   33.333333333333336
-250.0   90.0   33.333333333333336
-300.0   120.0   33.333333333333336
-300.0   90.0   50.0
-250.0   90.0   33.333333333333336
-250.0   120.0   33.333333333333336
-300.0   120.0   33.333333333333336
-250.0   120.0   50.0
-300.0   90.0   50.0
-300.0   120.0   50.0
-250.0   120.0   50.0
-300.0   120.0   33.333333333333336
-300.0   90.0   50.0
-250.0   120.0   50.0
-250.0   90.0   50.0
-250.0   90.0   33.333333333333336
-300.0   90.0   50.0
-250.0   120.0   50.0
-250.0   90.0   33.333333333333336
-300.0   120.0   33.333333333333336
-300.0   120.0   0.0
-250.0   120.0   0.0
-300.0   150.0   0.0
-300.0   120.0   16.666666666666668
-250.0   120.0   0.0
-250.0   150.0   0.0
-300.0   150.0   0.0
-250.0   150.0   16.666666666666668
-300.0   120.0   16.666666666666668
-300.0   150.0   16.666666666666668
-250.0   150.0   16.666666666666668
-300.0   150.0   0.0
-300.0   120.0   16.666666666666668
-250.0   150.0   16.666666666666668
-250.0   120.0   16.666666666666668
-250.0   120.0   0.0
-300.0   120.0   16.666666666666668
-250.0   150.0   16.666666666666668
-250.0   120.0   0.0
-300.0   150.0   0.0
-300.0   120.0   16.666666666666668
-250.0   120.0   16.666666666666668
-300.0   150.0   16.666666666666668
-300.0   120.0   33.333333333333336
-250.0   120.0   16.666666666666668
-250.0   150.0   16.666666666666668
-300.0   150.0   16.666666666666668
-250.0   150.0   33.333333333333336
-300.0   120.0   33.333333333333336
-300.0   150.0   33.333333333333336
-250.0   150.0   33.333333333333336
-300.0   150.0   16.666666666666668
-300.0   120.0   33.333333333333336
-250.0   150.0   33.333333333333336
-250.0   120.0   33.333333333333336
-250.0   120.0   16.666666666666668
-300.0   120.0   33.333333333333336
-250.0   150.0   33.333333333333336
-250.0   120.0   16.666666666666668
-300.0   150.0   16.666666666666668
-300.0   120.0   33.333333333333336
-250.0   120.0   33.333333333333336
-300.0   150.0   33.333333333333336
-300.0   120.0   50.0
-250.0   120.0   33.333333333333336
-250.0   150.0   33.333333333333336
-300.0   150.0   33.333333333333336
-250.0   150.0   50.0
-300.0   120.0   50.0
-300.0   150.0   50.0
-250.0   150.0   50.0
-300.0   150.0   33.333333333333336
-300.0   120.0   50.0
-250.0   150.0   50.0
-250.0   120.0   50.0
-250.0   120.0   33.333333333333336
-300.0   120.0   50.0
-250.0   150.0   50.0
-250.0   120.0   33.333333333333336
-300.0   150.0   33.333333333333336
-250.0   0.0   0.0
-200.0   0.0   0.0
-250.0   30.0   0.0
-250.0   0.0   16.666666666666668
-200.0   0.0   0.0
-200.0   30.0   0.0
-250.0   30.0   0.0
-200.0   30.0   16.666666666666668
-250.0   0.0   16.666666666666668
-250.0   30.0   16.666666666666668
-200.0   30.0   16.666666666666668
-250.0   30.0   0.0
-250.0   0.0   16.666666666666668
-200.0   30.0   16.666666666666668
-200.0   0.0   16.666666666666668
-200.0   0.0   0.0
-250.0   0.0   16.666666666666668
-200.0   30.0   16.666666666666668
-200.0   0.0   0.0
-250.0   30.0   0.0
-250.0   0.0   16.666666666666668
-200.0   0.0   16.666666666666668
-250.0   30.0   16.666666666666668
-250.0   0.0   33.333333333333336
-200.0   0.0   16.666666666666668
-200.0   30.0   16.666666666666668
-250.0   30.0   16.666666666666668
-200.0   30.0   33.333333333333336
-250.0   0.0   33.333333333333336
-250.0   30.0   33.333333333333336
-200.0   30.0   33.333333333333336
-250.0   30.0   16.666666666666668
-250.0   0.0   33.333333333333336
-200.0   30.0   33.333333333333336
-200.0   0.0   33.333333333333336
-200.0   0.0   16.666666666666668
-250.0   0.0   33.333333333333336
-200.0   30.0   33.333333333333336
-200.0   0.0   16.666666666666668
-250.0   30.0   16.666666666666668
-250.0   0.0   33.333333333333336
-200.0   0.0   33.333333333333336
-250.0   30.0   33.333333333333336
-250.0   0.0   50.0
-200.0   0.0   33.333333333333336
-200.0   30.0   33.333333333333336
-250.0   30.0   33.333333333333336
-200.0   30.0   50.0
-250.0   0.0   50.0
-250.0   30.0   50.0
-200.0   30.0   50.0
-250.0   30.0   33.333333333333336
-250.0   0.0   50.0
-200.0   30.0   50.0
-200.0   0.0   50.0
-200.0   0.0   33.333333333333336
-250.0   0.0   50.0
-200.0   30.0   50.0
-200.0   0.0   33.333333333333336
-250.0   30.0   33.333333333333336
-250.0   30.0   0.0
-200.0   30.0   0.0
-250.0   60.0   0.0
-250.0   30.0   16.666666666666668
-200.0   30.0   0.0
-200.0   60.0   0.0
-250.0   60.0   0.0
-200.0   60.0   16.666666666666668
-250.0   30.0   16.666666666666668
-250.0   60.0   16.666666666666668
-200.0   60.0   16.666666666666668
-250.0   60.0   0.0
-250.0   30.0   16.666666666666668
-200.0   60.0   16.666666666666668
-200.0   30.0   16.666666666666668
-200.0   30.0   0.0
-250.0   30.0   16.666666666666668
-200.0   60.0   16.666666666666668
-200.0   30.0   0.0
-250.0   60.0   0.0
-250.0   30.0   16.666666666666668
-200.0   30.0   16.666666666666668
-250.0   60.0   16.666666666666668
-250.0   30.0   33.333333333333336
-200.0   30.0   16.666666666666668
-200.0   60.0   16.666666666666668
-250.0   60.0   16.666666666666668
-200.0   60.0   33.333333333333336
-250.0   30.0   33.333333333333336
-250.0   60.0   33.333333333333336
-200.0   60.0   33.333333333333336
-250.0   60.0   16.666666666666668
-250.0   30.0   33.333333333333336
-200.0   60.0   33.333333333333336
-200.0   30.0   33.333333333333336
-200.0   30.0   16.666666666666668
-250.0   30.0   33.333333333333336
-200.0   60.0   33.333333333333336
-200.0   30.0   16.666666666666668
-250.0   60.0   16.666666666666668
-250.0   30.0   33.333333333333336
-200.0   30.0   33.333333333333336
-250.0   60.0   33.333333333333336
-250.0   30.0   50.0
-200.0   30.0   33.333333333333336
-200.0   60.0   33.333333333333336
-250.0   60.0   33.333333333333336
-200.0   60.0   50.0
-250.0   30.0   50.0
-250.0   60.0   50.0
-200.0   60.0   50.0
-250.0   60.0   33.333333333333336
-250.0   30.0   50.0
-200.0   60.0   50.0
-200.0   30.0   50.0
-200.0   30.0   33.333333333333336
-250.0   30.0   50.0
-200.0   60.0   50.0
-200.0   30.0   33.333333333333336
-250.0   60.0   33.333333333333336
-250.0   60.0   0.0
-200.0   60.0   0.0
-250.0   90.0   0.0
-250.0   60.0   16.666666666666668
-200.0   60.0   0.0
-200.0   90.0   0.0
-250.0   90.0   0.0
-200.0   90.0   16.666666666666668
-250.0   60.0   16.666666666666668
-250.0   90.0   16.666666666666668
-200.0   90.0   16.666666666666668
-250.0   90.0   0.0
-250.0   60.0   16.666666666666668
-200.0   90.0   16.666666666666668
-200.0   60.0   16.666666666666668
-200.0   60.0   0.0
-250.0   60.0   16.666666666666668
-200.0   90.0   16.666666666666668
-200.0   60.0   0.0
-250.0   90.0   0.0
-250.0   60.0   16.666666666666668
-200.0   60.0   16.666666666666668
-250.0   90.0   16.666666666666668
-250.0   60.0   33.333333333333336
-200.0   60.0   16.666666666666668
-200.0   90.0   16.666666666666668
-250.0   90.0   16.666666666666668
-200.0   90.0   33.333333333333336
-250.0   60.0   33.333333333333336
-250.0   90.0   33.333333333333336
-200.0   90.0   33.333333333333336
-250.0   90.0   16.666666666666668
-250.0   60.0   33.333333333333336
-200.0   90.0   33.333333333333336
-200.0   60.0   33.333333333333336
-200.0   60.0   16.666666666666668
-250.0   60.0   33.333333333333336
-200.0   90.0   33.333333333333336
-200.0   60.0   16.666666666666668
-250.0   90.0   16.666666666666668
-250.0   60.0   33.333333333333336
-200.0   60.0   33.333333333333336
-250.0   90.0   33.333333333333336
-250.0   60.0   50.0
-200.0   60.0   33.333333333333336
-200.0   90.0   33.333333333333336
-250.0   90.0   33.333333333333336
-200.0   90.0   50.0
-250.0   60.0   50.0
-250.0   90.0   50.0
-200.0   90.0   50.0
-250.0   90.0   33.333333333333336
-250.0   60.0   50.0
-200.0   90.0   50.0
-200.0   60.0   50.0
-200.0   60.0   33.333333333333336
-250.0   60.0   50.0
-200.0   90.0   50.0
-200.0   60.0   33.333333333333336
-250.0   90.0   33.333333333333336
-250.0   90.0   0.0
-200.0   90.0   0.0
-250.0   120.0   0.0
-250.0   90.0   16.666666666666668
-200.0   90.0   0.0
-200.0   120.0   0.0
-250.0   120.0   0.0
-200.0   120.0   16.666666666666668
-250.0   90.0   16.666666666666668
-250.0   120.0   16.666666666666668
-200.0   120.0   16.666666666666668
-250.0   120.0   0.0
-250.0   90.0   16.666666666666668
-200.0   120.0   16.666666666666668
-200.0   90.0   16.666666666666668
-200.0   90.0   0.0
-250.0   90.0   16.666666666666668
-200.0   120.0   16.666666666666668
-200.0   90.0   0.0
-250.0   120.0   0.0
-250.0   90.0   16.666666666666668
-200.0   90.0   16.666666666666668
-250.0   120.0   16.666666666666668
-250.0   90.0   33.333333333333336
-200.0   90.0   16.666666666666668
-200.0   120.0   16.666666666666668
-250.0   120.0   16.666666666666668
-200.0   120.0   33.333333333333336
-250.0   90.0   33.333333333333336
-250.0   120.0   33.333333333333336
-200.0   120.0   33.333333333333336
-250.0   120.0   16.666666666666668
-250.0   90.0   33.333333333333336
-200.0   120.0   33.333333333333336
-200.0   90.0   33.333333333333336
-200.0   90.0   16.666666666666668
-250.0   90.0   33.333333333333336
-200.0   120.0   33.333333333333336
-200.0   90.0   16.666666666666668
-250.0   120.0   16.666666666666668
-250.0   90.0   33.333333333333336
-200.0   90.0   33.333333333333336
-250.0   120.0   33.333333333333336
-250.0   90.0   50.0
-200.0   90.0   33.333333333333336
-200.0   120.0   33.333333333333336
-250.0   120.0   33.333333333333336
-200.0   120.0   50.0
-250.0   90.0   50.0
-250.0   120.0   50.0
-200.0   120.0   50.0
-250.0   120.0   33.333333333333336
-250.0   90.0   50.0
-200.0   120.0   50.0
-200.0   90.0   50.0
-200.0   90.0   33.333333333333336
-250.0   90.0   50.0
-200.0   120.0   50.0
-200.0   90.0   33.333333333333336
-250.0   120.0   33.333333333333336
-250.0   120.0   0.0
-200.0   120.0   0.0
-250.0   150.0   0.0
-250.0   120.0   16.666666666666668
-200.0   120.0   0.0
-200.0   150.0   0.0
-250.0   150.0   0.0
-200.0   150.0   16.666666666666668
-250.0   120.0   16.666666666666668
-250.0   150.0   16.666666666666668
-200.0   150.0   16.666666666666668
-250.0   150.0   0.0
-250.0   120.0   16.666666666666668
-200.0   150.0   16.666666666666668
-200.0   120.0   16.666666666666668
-200.0   120.0   0.0
-250.0   120.0   16.666666666666668
-200.0   150.0   16.666666666666668
-200.0   120.0   0.0
-250.0   150.0   0.0
-250.0   120.0   16.666666666666668
-200.0   120.0   16.666666666666668
-250.0   150.0   16.666666666666668
-250.0   120.0   33.333333333333336
-200.0   120.0   16.666666666666668
-200.0   150.0   16.666666666666668
-250.0   150.0   16.666666666666668
-200.0   150.0   33.333333333333336
-250.0   120.0   33.333333333333336
-250.0   150.0   33.333333333333336
-200.0   150.0   33.333333333333336
-250.0   150.0   16.666666666666668
-250.0   120.0   33.333333333333336
-200.0   150.0   33.333333333333336
-200.0   120.0   33.333333333333336
-200.0   120.0   16.666666666666668
-250.0   120.0   33.333333333333336
-200.0   150.0   33.333333333333336
-200.0   120.0   16.666666666666668
-250.0   150.0   16.666666666666668
-250.0   120.0   33.333333333333336
-200.0   120.0   33.333333333333336
-250.0   150.0   33.333333333333336
-250.0   120.0   50.0
-200.0   120.0   33.333333333333336
-200.0   150.0   33.333333333333336
-250.0   150.0   33.333333333333336
-200.0   150.0   50.0
-250.0   120.0   50.0
-250.0   150.0   50.0
-200.0   150.0   50.0
-250.0   150.0   33.333333333333336
-250.0   120.0   50.0
-200.0   150.0   50.0
-200.0   120.0   50.0
-200.0   120.0   33.333333333333336
-250.0   120.0   50.0
-200.0   150.0   50.0
-200.0   120.0   33.333333333333336
-250.0   150.0   33.333333333333336
-200.0   0.0   0.0
-150.0   0.0   0.0
-200.0   30.0   0.0
-200.0   0.0   16.666666666666668
-150.0   0.0   0.0
-150.0   30.0   0.0
-200.0   30.0   0.0
-150.0   30.0   16.666666666666668
-200.0   0.0   16.666666666666668
-200.0   30.0   16.666666666666668
-150.0   30.0   16.666666666666668
-200.0   30.0   0.0
-200.0   0.0   16.666666666666668
-150.0   30.0   16.666666666666668
-150.0   0.0   16.666666666666668
-150.0   0.0   0.0
-200.0   0.0   16.666666666666668
-150.0   30.0   16.666666666666668
-150.0   0.0   0.0
-200.0   30.0   0.0
-200.0   0.0   16.666666666666668
-150.0   0.0   16.666666666666668
-200.0   30.0   16.666666666666668
-200.0   0.0   33.333333333333336
-150.0   0.0   16.666666666666668
-150.0   30.0   16.666666666666668
-200.0   30.0   16.666666666666668
-150.0   30.0   33.333333333333336
-200.0   0.0   33.333333333333336
-200.0   30.0   33.333333333333336
-150.0   30.0   33.333333333333336
-200.0   30.0   16.666666666666668
-200.0   0.0   33.333333333333336
-150.0   30.0   33.333333333333336
-150.0   0.0   33.333333333333336
-150.0   0.0   16.666666666666668
-200.0   0.0   33.333333333333336
-150.0   30.0   33.333333333333336
-150.0   0.0   16.666666666666668
-200.0   30.0   16.666666666666668
-200.0   0.0   33.333333333333336
-150.0   0.0   33.333333333333336
-200.0   30.0   33.333333333333336
-200.0   0.0   50.0
-150.0   0.0   33.333333333333336
-150.0   30.0   33.333333333333336
-200.0   30.0   33.333333333333336
-150.0   30.0   50.0
-200.0   0.0   50.0
-200.0   30.0   50.0
-150.0   30.0   50.0
-200.0   30.0   33.333333333333336
-200.0   0.0   50.0
-150.0   30.0   50.0
-150.0   0.0   50.0
-150.0   0.0   33.333333333333336
-200.0   0.0   50.0
-150.0   30.0   50.0
-150.0   0.0   33.333333333333336
-200.0   30.0   33.333333333333336
-200.0   30.0   0.0
-150.0   30.0   0.0
-200.0   60.0   0.0
-200.0   30.0   16.666666666666668
-150.0   30.0   0.0
-150.0   60.0   0.0
-200.0   60.0   0.0
-150.0   60.0   16.666666666666668
-200.0   30.0   16.666666666666668
-200.0   60.0   16.666666666666668
-150.0   60.0   16.666666666666668
-200.0   60.0   0.0
-200.0   30.0   16.666666666666668
-150.0   60.0   16.666666666666668
-150.0   30.0   16.666666666666668
-150.0   30.0   0.0
-200.0   30.0   16.666666666666668
-150.0   60.0   16.666666666666668
-150.0   30.0   0.0
-200.0   60.0   0.0
-200.0   30.0   16.666666666666668
-150.0   30.0   16.666666666666668
-200.0   60.0   16.666666666666668
-200.0   30.0   33.333333333333336
-150.0   30.0   16.666666666666668
-150.0   60.0   16.666666666666668
-200.0   60.0   16.666666666666668
-150.0   60.0   33.333333333333336
-200.0   30.0   33.333333333333336
-200.0   60.0   33.333333333333336
-150.0   60.0   33.333333333333336
-200.0   60.0   16.666666666666668
-200.0   30.0   33.333333333333336
-150.0   60.0   33.333333333333336
-150.0   30.0   33.333333333333336
-150.0   30.0   16.666666666666668
-200.0   30.0   33.333333333333336
-150.0   60.0   33.333333333333336
-150.0   30.0   16.666666666666668
-200.0   60.0   16.666666666666668
-200.0   30.0   33.333333333333336
-150.0   30.0   33.333333333333336
-200.0   60.0   33.333333333333336
-200.0   30.0   50.0
-150.0   30.0   33.333333333333336
-150.0   60.0   33.333333333333336
-200.0   60.0   33.333333333333336
-150.0   60.0   50.0
-200.0   30.0   50.0
-200.0   60.0   50.0
-150.0   60.0   50.0
-200.0   60.0   33.333333333333336
-200.0   30.0   50.0
-150.0   60.0   50.0
-150.0   30.0   50.0
-150.0   30.0   33.333333333333336
-200.0   30.0   50.0
-150.0   60.0   50.0
-150.0   30.0   33.333333333333336
-200.0   60.0   33.333333333333336
-200.0   60.0   0.0
-150.0   60.0   0.0
-200.0   90.0   0.0
-200.0   60.0   16.666666666666668
-150.0   60.0   0.0
-150.0   90.0   0.0
-200.0   90.0   0.0
-150.0   90.0   16.666666666666668
-200.0   60.0   16.666666666666668
-200.0   90.0   16.666666666666668
-150.0   90.0   16.666666666666668
-200.0   90.0   0.0
-200.0   60.0   16.666666666666668
-150.0   90.0   16.666666666666668
-150.0   60.0   16.666666666666668
-150.0   60.0   0.0
-200.0   60.0   16.666666666666668
-150.0   90.0   16.666666666666668
-150.0   60.0   0.0
-200.0   90.0   0.0
-200.0   60.0   16.666666666666668
-150.0   60.0   16.666666666666668
-200.0   90.0   16.666666666666668
-200.0   60.0   33.333333333333336
-150.0   60.0   16.666666666666668
-150.0   90.0   16.666666666666668
-200.0   90.0   16.666666666666668
-150.0   90.0   33.333333333333336
-200.0   60.0   33.333333333333336
-200.0   90.0   33.333333333333336
-150.0   90.0   33.333333333333336
-200.0   90.0   16.666666666666668
-200.0   60.0   33.333333333333336
-150.0   90.0   33.333333333333336
-150.0   60.0   33.333333333333336
-150.0   60.0   16.666666666666668
-200.0   60.0   33.333333333333336
-150.0   90.0   33.333333333333336
-150.0   60.0   16.666666666666668
-200.0   90.0   16.666666666666668
-200.0   60.0   33.333333333333336
-150.0   60.0   33.333333333333336
-200.0   90.0   33.333333333333336
-200.0   60.0   50.0
-150.0   60.0   33.333333333333336
-150.0   90.0   33.333333333333336
-200.0   90.0   33.333333333333336
-150.0   90.0   50.0
-200.0   60.0   50.0
-200.0   90.0   50.0
-150.0   90.0   50.0
-200.0   90.0   33.333333333333336
-200.0   60.0   50.0
-150.0   90.0   50.0
-150.0   60.0   50.0
-150.0   60.0   33.333333333333336
-200.0   60.0   50.0
-150.0   90.0   50.0
-150.0   60.0   33.333333333333336
-200.0   90.0   33.333333333333336
-200.0   90.0   0.0
-150.0   90.0   0.0
-200.0   120.0   0.0
-200.0   90.0   16.666666666666668
-150.0   90.0   0.0
-150.0   120.0   0.0
-200.0   120.0   0.0
-150.0   120.0   16.666666666666668
-200.0   90.0   16.666666666666668
-200.0   120.0   16.666666666666668
-150.0   120.0   16.666666666666668
-200.0   120.0   0.0
-200.0   90.0   16.666666666666668
-150.0   120.0   16.666666666666668
-150.0   90.0   16.666666666666668
-150.0   90.0   0.0
-200.0   90.0   16.666666666666668
-150.0   120.0   16.666666666666668
-150.0   90.0   0.0
-200.0   120.0   0.0
-200.0   90.0   16.666666666666668
-150.0   90.0   16.666666666666668
-200.0   120.0   16.666666666666668
-200.0   90.0   33.333333333333336
-150.0   90.0   16.666666666666668
-150.0   120.0   16.666666666666668
-200.0   120.0   16.666666666666668
-150.0   120.0   33.333333333333336
-200.0   90.0   33.333333333333336
-200.0   120.0   33.333333333333336
-150.0   120.0   33.333333333333336
-200.0   120.0   16.666666666666668
-200.0   90.0   33.333333333333336
-150.0   120.0   33.333333333333336
-150.0   90.0   33.333333333333336
-150.0   90.0   16.666666666666668
-200.0   90.0   33.333333333333336
-150.0   120.0   33.333333333333336
-150.0   90.0   16.666666666666668
-200.0   120.0   16.666666666666668
-200.0   90.0   33.333333333333336
-150.0   90.0   33.333333333333336
-200.0   120.0   33.333333333333336
-200.0   90.0   50.0
-150.0   90.0   33.333333333333336
-150.0   120.0   33.333333333333336
-200.0   120.0   33.333333333333336
-150.0   120.0   50.0
-200.0   90.0   50.0
-200.0   120.0   50.0
-150.0   120.0   50.0
-200.0   120.0   33.333333333333336
-200.0   90.0   50.0
-150.0   120.0   50.0
-150.0   90.0   50.0
-150.0   90.0   33.333333333333336
-200.0   90.0   50.0
-150.0   120.0   50.0
-150.0   90.0   33.333333333333336
-200.0   120.0   33.333333333333336
-200.0   120.0   0.0
-150.0   120.0   0.0
-200.0   150.0   0.0
-200.0   120.0   16.666666666666668
-150.0   120.0   0.0
-150.0   150.0   0.0
-200.0   150.0   0.0
-150.0   150.0   16.666666666666668
-200.0   120.0   16.666666666666668
-200.0   150.0   16.666666666666668
-150.0   150.0   16.666666666666668
-200.0   150.0   0.0
-200.0   120.0   16.666666666666668
-150.0   150.0   16.666666666666668
-150.0   120.0   16.666666666666668
-150.0   120.0   0.0
-200.0   120.0   16.666666666666668
-150.0   150.0   16.666666666666668
-150.0   120.0   0.0
-200.0   150.0   0.0
-200.0   120.0   16.666666666666668
-150.0   120.0   16.666666666666668
-200.0   150.0   16.666666666666668
-200.0   120.0   33.333333333333336
-150.0   120.0   16.666666666666668
-150.0   150.0   16.666666666666668
-200.0   150.0   16.666666666666668
-150.0   150.0   33.333333333333336
-200.0   120.0   33.333333333333336
-200.0   150.0   33.333333333333336
-150.0   150.0   33.333333333333336
-200.0   150.0   16.666666666666668
-200.0   120.0   33.333333333333336
-150.0   150.0   33.333333333333336
-150.0   120.0   33.333333333333336
-150.0   120.0   16.666666666666668
-200.0   120.0   33.333333333333336
-150.0   150.0   33.333333333333336
-150.0   120.0   16.666666666666668
-200.0   150.0   16.666666666666668
-200.0   120.0   33.333333333333336
-150.0   120.0   33.333333333333336
-200.0   150.0   33.333333333333336
-200.0   120.0   50.0
-150.0   120.0   33.333333333333336
-150.0   150.0   33.333333333333336
-200.0   150.0   33.333333333333336
-150.0   150.0   50.0
-200.0   120.0   50.0
-200.0   150.0   50.0
-150.0   150.0   50.0
-200.0   150.0   33.333333333333336
-200.0   120.0   50.0
-150.0   150.0   50.0
-150.0   120.0   50.0
-150.0   120.0   33.333333333333336
-200.0   120.0   50.0
-150.0   150.0   50.0
-150.0   120.0   33.333333333333336
-200.0   150.0   33.333333333333336
-150.0   0.0   0.0
-100.0   0.0   0.0
-150.0   30.0   0.0
-150.0   0.0   16.666666666666668
-100.0   0.0   0.0
-100.0   30.0   0.0
-150.0   30.0   0.0
-100.0   30.0   16.666666666666668
-150.0   0.0   16.666666666666668
-150.0   30.0   16.666666666666668
-100.0   30.0   16.666666666666668
-150.0   30.0   0.0
-150.0   0.0   16.666666666666668
-100.0   30.0   16.666666666666668
-100.0   0.0   16.666666666666668
-100.0   0.0   0.0
-150.0   0.0   16.666666666666668
-100.0   30.0   16.666666666666668
-100.0   0.0   0.0
-150.0   30.0   0.0
-150.0   0.0   16.666666666666668
-100.0   0.0   16.666666666666668
-150.0   30.0   16.666666666666668
-150.0   0.0   33.333333333333336
-100.0   0.0   16.666666666666668
-100.0   30.0   16.666666666666668
-150.0   30.0   16.666666666666668
-100.0   30.0   33.333333333333336
-150.0   0.0   33.333333333333336
-150.0   30.0   33.333333333333336
-100.0   30.0   33.333333333333336
-150.0   30.0   16.666666666666668
-150.0   0.0   33.333333333333336
-100.0   30.0   33.333333333333336
-100.0   0.0   33.333333333333336
-100.0   0.0   16.666666666666668
-150.0   0.0   33.333333333333336
-100.0   30.0   33.333333333333336
-100.0   0.0   16.666666666666668
-150.0   30.0   16.666666666666668
-150.0   0.0   33.333333333333336
-100.0   0.0   33.333333333333336
-150.0   30.0   33.333333333333336
-150.0   0.0   50.0
-100.0   0.0   33.333333333333336
-100.0   30.0   33.333333333333336
-150.0   30.0   33.333333333333336
-100.0   30.0   50.0
-150.0   0.0   50.0
-150.0   30.0   50.0
-100.0   30.0   50.0
-150.0   30.0   33.333333333333336
-150.0   0.0   50.0
-100.0   30.0   50.0
-100.0   0.0   50.0
-100.0   0.0   33.333333333333336
-150.0   0.0   50.0
-100.0   30.0   50.0
-100.0   0.0   33.333333333333336
-150.0   30.0   33.333333333333336
-150.0   30.0   0.0
-100.0   30.0   0.0
-150.0   60.0   0.0
-150.0   30.0   16.666666666666668
-100.0   30.0   0.0
-100.0   60.0   0.0
-150.0   60.0   0.0
-100.0   60.0   16.666666666666668
-150.0   30.0   16.666666666666668
-150.0   60.0   16.666666666666668
-100.0   60.0   16.666666666666668
-150.0   60.0   0.0
-150.0   30.0   16.666666666666668
-100.0   60.0   16.666666666666668
-100.0   30.0   16.666666666666668
-100.0   30.0   0.0
-150.0   30.0   16.666666666666668
-100.0   60.0   16.666666666666668
-100.0   30.0   0.0
-150.0   60.0   0.0
-150.0   30.0   16.666666666666668
-100.0   30.0   16.666666666666668
-150.0   60.0   16.666666666666668
-150.0   30.0   33.333333333333336
-100.0   30.0   16.666666666666668
-100.0   60.0   16.666666666666668
-150.0   60.0   16.666666666666668
-100.0   60.0   33.333333333333336
-150.0   30.0   33.333333333333336
-150.0   60.0   33.333333333333336
-100.0   60.0   33.333333333333336
-150.0   60.0   16.666666666666668
-150.0   30.0   33.333333333333336
-100.0   60.0   33.333333333333336
-100.0   30.0   33.333333333333336
-100.0   30.0   16.666666666666668
-150.0   30.0   33.333333333333336
-100.0   60.0   33.333333333333336
-100.0   30.0   16.666666666666668
-150.0   60.0   16.666666666666668
-150.0   30.0   33.333333333333336
-100.0   30.0   33.333333333333336
-150.0   60.0   33.333333333333336
-150.0   30.0   50.0
-100.0   30.0   33.333333333333336
-100.0   60.0   33.333333333333336
-150.0   60.0   33.333333333333336
-100.0   60.0   50.0
-150.0   30.0   50.0
-150.0   60.0   50.0
-100.0   60.0   50.0
-150.0   60.0   33.333333333333336
-150.0   30.0   50.0
-100.0   60.0   50.0
-100.0   30.0   50.0
-100.0   30.0   33.333333333333336
-150.0   30.0   50.0
-100.0   60.0   50.0
-100.0   30.0   33.333333333333336
-150.0   60.0   33.333333333333336
-150.0   60.0   0.0
-100.0   60.0   0.0
-150.0   90.0   0.0
-150.0   60.0   16.666666666666668
-100.0   60.0   0.0
-100.0   90.0   0.0
-150.0   90.0   0.0
-100.0   90.0   16.666666666666668
-150.0   60.0   16.666666666666668
-150.0   90.0   16.666666666666668
-100.0   90.0   16.666666666666668
-150.0   90.0   0.0
-150.0   60.0   16.666666666666668
-100.0   90.0   16.666666666666668
-100.0   60.0   16.666666666666668
-100.0   60.0   0.0
-150.0   60.0   16.666666666666668
-100.0   90.0   16.666666666666668
-100.0   60.0   0.0
-150.0   90.0   0.0
-150.0   60.0   16.666666666666668
-100.0   60.0   16.666666666666668
-150.0   90.0   16.666666666666668
-150.0   60.0   33.333333333333336
-100.0   60.0   16.666666666666668
-100.0   90.0   16.666666666666668
-150.0   90.0   16.666666666666668
-100.0   90.0   33.333333333333336
-150.0   60.0   33.333333333333336
-150.0   90.0   33.333333333333336
-100.0   90.0   33.333333333333336
-150.0   90.0   16.666666666666668
-150.0   60.0   33.333333333333336
-100.0   90.0   33.333333333333336
-100.0   60.0   33.333333333333336
-100.0   60.0   16.666666666666668
-150.0   60.0   33.333333333333336
-100.0   90.0   33.333333333333336
-100.0   60.0   16.666666666666668
-150.0   90.0   16.666666666666668
-150.0   60.0   33.333333333333336
-100.0   60.0   33.333333333333336
-150.0   90.0   33.333333333333336
-150.0   60.0   50.0
-100.0   60.0   33.333333333333336
-100.0   90.0   33.333333333333336
-150.0   90.0   33.333333333333336
-100.0   90.0   50.0
-150.0   60.0   50.0
-150.0   90.0   50.0
-100.0   90.0   50.0
-150.0   90.0   33.333333333333336
-150.0   60.0   50.0
-100.0   90.0   50.0
-100.0   60.0   50.0
-100.0   60.0   33.333333333333336
-150.0   60.0   50.0
-100.0   90.0   50.0
-100.0   60.0   33.333333333333336
-150.0   90.0   33.333333333333336
-150.0   90.0   0.0
-100.0   90.0   0.0
-150.0   120.0   0.0
-150.0   90.0   16.666666666666668
-100.0   90.0   0.0
-100.0   120.0   0.0
-150.0   120.0   0.0
-100.0   120.0   16.666666666666668
-150.0   90.0   16.666666666666668
-150.0   120.0   16.666666666666668
-100.0   120.0   16.666666666666668
-150.0   120.0   0.0
-150.0   90.0   16.666666666666668
-100.0   120.0   16.666666666666668
-100.0   90.0   16.666666666666668
-100.0   90.0   0.0
-150.0   90.0   16.666666666666668
-100.0   120.0   16.666666666666668
-100.0   90.0   0.0
-150.0   120.0   0.0
-150.0   90.0   16.666666666666668
-100.0   90.0   16.666666666666668
-150.0   120.0   16.666666666666668
-150.0   90.0   33.333333333333336
-100.0   90.0   16.666666666666668
-100.0   120.0   16.666666666666668
-150.0   120.0   16.666666666666668
-100.0   120.0   33.333333333333336
-150.0   90.0   33.333333333333336
-150.0   120.0   33.333333333333336
-100.0   120.0   33.333333333333336
-150.0   120.0   16.666666666666668
-150.0   90.0   33.333333333333336
-100.0   120.0   33.333333333333336
-100.0   90.0   33.333333333333336
-100.0   90.0   16.666666666666668
-150.0   90.0   33.333333333333336
-100.0   120.0   33.333333333333336
-100.0   90.0   16.666666666666668
-150.0   120.0   16.666666666666668
-150.0   90.0   33.333333333333336
-100.0   90.0   33.333333333333336
-150.0   120.0   33.333333333333336
-150.0   90.0   50.0
-100.0   90.0   33.333333333333336
-100.0   120.0   33.333333333333336
-150.0   120.0   33.333333333333336
-100.0   120.0   50.0
-150.0   90.0   50.0
-150.0   120.0   50.0
-100.0   120.0   50.0
-150.0   120.0   33.333333333333336
-150.0   90.0   50.0
-100.0   120.0   50.0
-100.0   90.0   50.0
-100.0   90.0   33.333333333333336
-150.0   90.0   50.0
-100.0   120.0   50.0
-100.0   90.0   33.333333333333336
-150.0   120.0   33.333333333333336
-150.0   120.0   0.0
-100.0   120.0   0.0
-150.0   150.0   0.0
-150.0   120.0   16.666666666666668
-100.0   120.0   0.0
-100.0   150.0   0.0
-150.0   150.0   0.0
-100.0   150.0   16.666666666666668
-150.0   120.0   16.666666666666668
-150.0   150.0   16.666666666666668
-100.0   150.0   16.666666666666668
-150.0   150.0   0.0
-150.0   120.0   16.666666666666668
-100.0   150.0   16.666666666666668
-100.0   120.0   16.666666666666668
-100.0   120.0   0.0
-150.0   120.0   16.666666666666668
-100.0   150.0   16.666666666666668
-100.0   120.0   0.0
-150.0   150.0   0.0
-150.0   120.0   16.666666666666668
-100.0   120.0   16.666666666666668
-150.0   150.0   16.666666666666668
-150.0   120.0   33.333333333333336
-100.0   120.0   16.666666666666668
-100.0   150.0   16.666666666666668
-150.0   150.0   16.666666666666668
-100.0   150.0   33.333333333333336
-150.0   120.0   33.333333333333336
-150.0   150.0   33.333333333333336
-100.0   150.0   33.333333333333336
-150.0   150.0   16.666666666666668
-150.0   120.0   33.333333333333336
-100.0   150.0   33.333333333333336
-100.0   120.0   33.333333333333336
-100.0   120.0   16.666666666666668
-150.0   120.0   33.333333333333336
-100.0   150.0   33.333333333333336
-100.0   120.0   16.666666666666668
-150.0   150.0   16.666666666666668
-150.0   120.0   33.333333333333336
-100.0   120.0   33.333333333333336
-150.0   150.0   33.333333333333336
-150.0   120.0   50.0
-100.0   120.0   33.333333333333336
-100.0   150.0   33.333333333333336
-150.0   150.0   33.333333333333336
-100.0   150.0   50.0
-150.0   120.0   50.0
-150.0   150.0   50.0
-100.0   150.0   50.0
-150.0   150.0   33.333333333333336
-150.0   120.0   50.0
-100.0   150.0   50.0
-100.0   120.0   50.0
-100.0   120.0   33.333333333333336
-150.0   120.0   50.0
-100.0   150.0   50.0
-100.0   120.0   33.333333333333336
-150.0   150.0   33.333333333333336
-100.0   0.0   0.0
-50.0   0.0   0.0
-100.0   30.0   0.0
-100.0   0.0   16.666666666666668
-50.0   0.0   0.0
-50.0   30.0   0.0
-100.0   30.0   0.0
-50.0   30.0   16.666666666666668
-100.0   0.0   16.666666666666668
-100.0   30.0   16.666666666666668
-50.0   30.0   16.666666666666668
-100.0   30.0   0.0
-100.0   0.0   16.666666666666668
-50.0   30.0   16.666666666666668
-50.0   0.0   16.666666666666668
-50.0   0.0   0.0
-100.0   0.0   16.666666666666668
-50.0   30.0   16.666666666666668
-50.0   0.0   0.0
-100.0   30.0   0.0
-100.0   0.0   16.666666666666668
-50.0   0.0   16.666666666666668
-100.0   30.0   16.666666666666668
-100.0   0.0   33.333333333333336
-50.0   0.0   16.666666666666668
-50.0   30.0   16.666666666666668
-100.0   30.0   16.666666666666668
-50.0   30.0   33.333333333333336
-100.0   0.0   33.333333333333336
-100.0   30.0   33.333333333333336
-50.0   30.0   33.333333333333336
-100.0   30.0   16.666666666666668
-100.0   0.0   33.333333333333336
-50.0   30.0   33.333333333333336
-50.0   0.0   33.333333333333336
-50.0   0.0   16.666666666666668
-100.0   0.0   33.333333333333336
-50.0   30.0   33.333333333333336
-50.0   0.0   16.666666666666668
-100.0   30.0   16.666666666666668
-100.0   0.0   33.333333333333336
-50.0   0.0   33.333333333333336
-100.0   30.0   33.333333333333336
-100.0   0.0   50.0
-50.0   0.0   33.333333333333336
-50.0   30.0   33.333333333333336
-100.0   30.0   33.333333333333336
-50.0   30.0   50.0
-100.0   0.0   50.0
-100.0   30.0   50.0
-50.0   30.0   50.0
-100.0   30.0   33.333333333333336
-100.0   0.0   50.0
-50.0   30.0   50.0
-50.0   0.0   50.0
-50.0   0.0   33.333333333333336
-100.0   0.0   50.0
-50.0   30.0   50.0
-50.0   0.0   33.333333333333336
-100.0   30.0   33.333333333333336
-100.0   30.0   0.0
-50.0   30.0   0.0
-100.0   60.0   0.0
-100.0   30.0   16.666666666666668
-50.0   30.0   0.0
-50.0   60.0   0.0
-100.0   60.0   0.0
-50.0   60.0   16.666666666666668
-100.0   30.0   16.666666666666668
-100.0   60.0   16.666666666666668
-50.0   60.0   16.666666666666668
-100.0   60.0   0.0
-100.0   30.0   16.666666666666668
-50.0   60.0   16.666666666666668
-50.0   30.0   16.666666666666668
-50.0   30.0   0.0
-100.0   30.0   16.666666666666668
-50.0   60.0   16.666666666666668
-50.0   30.0   0.0
-100.0   60.0   0.0
-100.0   30.0   16.666666666666668
-50.0   30.0   16.666666666666668
-100.0   60.0   16.666666666666668
-100.0   30.0   33.333333333333336
-50.0   30.0   16.666666666666668
-50.0   60.0   16.666666666666668
-100.0   60.0   16.666666666666668
-50.0   60.0   33.333333333333336
-100.0   30.0   33.333333333333336
-100.0   60.0   33.333333333333336
-50.0   60.0   33.333333333333336
-100.0   60.0   16.666666666666668
-100.0   30.0   33.333333333333336
-50.0   60.0   33.333333333333336
-50.0   30.0   33.333333333333336
-50.0   30.0   16.666666666666668
-100.0   30.0   33.333333333333336
-50.0   60.0   33.333333333333336
-50.0   30.0   16.666666666666668
-100.0   60.0   16.666666666666668
-100.0   30.0   33.333333333333336
-50.0   30.0   33.333333333333336
-100.0   60.0   33.333333333333336
-100.0   30.0   50.0
-50.0   30.0   33.333333333333336
-50.0   60.0   33.333333333333336
-100.0   60.0   33.333333333333336
-50.0   60.0   50.0
-100.0   30.0   50.0
-100.0   60.0   50.0
-50.0   60.0   50.0
-100.0   60.0   33.333333333333336
-100.0   30.0   50.0
-50.0   60.0   50.0
-50.0   30.0   50.0
-50.0   30.0   33.333333333333336
-100.0   30.0   50.0
-50.0   60.0   50.0
-50.0   30.0   33.333333333333336
-100.0   60.0   33.333333333333336
-100.0   60.0   0.0
-50.0   60.0   0.0
-100.0   90.0   0.0
-100.0   60.0   16.666666666666668
-50.0   60.0   0.0
-50.0   90.0   0.0
-100.0   90.0   0.0
-50.0   90.0   16.666666666666668
-100.0   60.0   16.666666666666668
-100.0   90.0   16.666666666666668
-50.0   90.0   16.666666666666668
-100.0   90.0   0.0
-100.0   60.0   16.666666666666668
-50.0   90.0   16.666666666666668
-50.0   60.0   16.666666666666668
-50.0   60.0   0.0
-100.0   60.0   16.666666666666668
-50.0   90.0   16.666666666666668
-50.0   60.0   0.0
-100.0   90.0   0.0
-100.0   60.0   16.666666666666668
-50.0   60.0   16.666666666666668
-100.0   90.0   16.666666666666668
-100.0   60.0   33.333333333333336
-50.0   60.0   16.666666666666668
-50.0   90.0   16.666666666666668
-100.0   90.0   16.666666666666668
-50.0   90.0   33.333333333333336
-100.0   60.0   33.333333333333336
-100.0   90.0   33.333333333333336
-50.0   90.0   33.333333333333336
-100.0   90.0   16.666666666666668
-100.0   60.0   33.333333333333336
-50.0   90.0   33.333333333333336
-50.0   60.0   33.333333333333336
-50.0   60.0   16.666666666666668
-100.0   60.0   33.333333333333336
-50.0   90.0   33.333333333333336
-50.0   60.0   16.666666666666668
-100.0   90.0   16.666666666666668
-100.0   60.0   33.333333333333336
-50.0   60.0   33.333333333333336
-100.0   90.0   33.333333333333336
-100.0   60.0   50.0
-50.0   60.0   33.333333333333336
-50.0   90.0   33.333333333333336
-100.0   90.0   33.333333333333336
-50.0   90.0   50.0
-100.0   60.0   50.0
-100.0   90.0   50.0
-50.0   90.0   50.0
-100.0   90.0   33.333333333333336
-100.0   60.0   50.0
-50.0   90.0   50.0
-50.0   60.0   50.0
-50.0   60.0   33.333333333333336
-100.0   60.0   50.0
-50.0   90.0   50.0
-50.0   60.0   33.333333333333336
-100.0   90.0   33.333333333333336
-100.0   90.0   0.0
-50.0   90.0   0.0
-100.0   120.0   0.0
-100.0   90.0   16.666666666666668
-50.0   90.0   0.0
-50.0   120.0   0.0
-100.0   120.0   0.0
-50.0   120.0   16.666666666666668
-100.0   90.0   16.666666666666668
-100.0   120.0   16.666666666666668
-50.0   120.0   16.666666666666668
-100.0   120.0   0.0
-100.0   90.0   16.666666666666668
-50.0   120.0   16.666666666666668
-50.0   90.0   16.666666666666668
-50.0   90.0   0.0
-100.0   90.0   16.666666666666668
-50.0   120.0   16.666666666666668
-50.0   90.0   0.0
-100.0   120.0   0.0
-100.0   90.0   16.666666666666668
-50.0   90.0   16.666666666666668
-100.0   120.0   16.666666666666668
-100.0   90.0   33.333333333333336
-50.0   90.0   16.666666666666668
-50.0   120.0   16.666666666666668
-100.0   120.0   16.666666666666668
-50.0   120.0   33.333333333333336
-100.0   90.0   33.333333333333336
-100.0   120.0   33.333333333333336
-50.0   120.0   33.333333333333336
-100.0   120.0   16.666666666666668
-100.0   90.0   33.333333333333336
-50.0   120.0   33.333333333333336
-50.0   90.0   33.333333333333336
-50.0   90.0   16.666666666666668
-100.0   90.0   33.333333333333336
-50.0   120.0   33.333333333333336
-50.0   90.0   16.666666666666668
-100.0   120.0   16.666666666666668
-100.0   90.0   33.333333333333336
-50.0   90.0   33.333333333333336
-100.0   120.0   33.333333333333336
-100.0   90.0   50.0
-50.0   90.0   33.333333333333336
-50.0   120.0   33.333333333333336
-100.0   120.0   33.333333333333336
-50.0   120.0   50.0
-100.0   90.0   50.0
-100.0   120.0   50.0
-50.0   120.0   50.0
-100.0   120.0   33.333333333333336
-100.0   90.0   50.0
-50.0   120.0   50.0
-50.0   90.0   50.0
-50.0   90.0   33.333333333333336
-100.0   90.0   50.0
-50.0   120.0   50.0
-50.0   90.0   33.333333333333336
-100.0   120.0   33.333333333333336
-100.0   120.0   0.0
-50.0   120.0   0.0
-100.0   150.0   0.0
-100.0   120.0   16.666666666666668
-50.0   120.0   0.0
-50.0   150.0   0.0
-100.0   150.0   0.0
-50.0   150.0   16.666666666666668
-100.0   120.0   16.666666666666668
-100.0   150.0   16.666666666666668
-50.0   150.0   16.666666666666668
-100.0   150.0   0.0
-100.0   120.0   16.666666666666668
-50.0   150.0   16.666666666666668
-50.0   120.0   16.666666666666668
-50.0   120.0   0.0
-100.0   120.0   16.666666666666668
-50.0   150.0   16.666666666666668
-50.0   120.0   0.0
-100.0   150.0   0.0
-100.0   120.0   16.666666666666668
-50.0   120.0   16.666666666666668
-100.0   150.0   16.666666666666668
-100.0   120.0   33.333333333333336
-50.0   120.0   16.666666666666668
-50.0   150.0   16.666666666666668
-100.0   150.0   16.666666666666668
-50.0   150.0   33.333333333333336
-100.0   120.0   33.333333333333336
-100.0   150.0   33.333333333333336
-50.0   150.0   33.333333333333336
-100.0   150.0   16.666666666666668
-100.0   120.0   33.333333333333336
-50.0   150.0   33.333333333333336
-50.0   120.0   33.333333333333336
-50.0   120.0   16.666666666666668
-100.0   120.0   33.333333333333336
-50.0   150.0   33.333333333333336
-50.0   120.0   16.666666666666668
-100.0   150.0   16.666666666666668
-100.0   120.0   33.333333333333336
-50.0   120.0   33.333333333333336
-100.0   150.0   33.333333333333336
-100.0   120.0   50.0
-50.0   120.0   33.333333333333336
-50.0   150.0   33.333333333333336
-100.0   150.0   33.333333333333336
-50.0   150.0   50.0
-100.0   120.0   50.0
-100.0   150.0   50.0
-50.0   150.0   50.0
-100.0   150.0   33.333333333333336
-100.0   120.0   50.0
-50.0   150.0   50.0
-50.0   120.0   50.0
-50.0   120.0   33.333333333333336
-100.0   120.0   50.0
-50.0   150.0   50.0
-50.0   120.0   33.333333333333336
-100.0   150.0   33.333333333333336
-50.0   0.0   0.0
0.0   0.0   0.0
-50.0   30.0   0.0
-50.0   0.0   16.666666666666668
0.0   0.0   0.0
0.0   30.0   0.0
-50.0   30.0   0.0
0.0   30.0   16.666666666666668
-50.0   0.0   16.666666666666668
-50.0   30.0   16.666666666666668
0.0   30.0   16.666666666666668
-50.0   30.0   0.0
-50.0   0.0   16.666666666666668
0.0   30.0   16.666666666666668
0.0   0.0   16.666666666666668
0.0   0.0   0.0
-50.0   0.0   16.666666666666668
0.0   30.0   16.666666666666668
0.0   0.0   0.0
-50.0   30.0   0.0
-50.0   0.0   16.666666666666668
0.0   0.0   16.666666666666668
-50.0   30.0   16.666666666666668
-50.0   0.0   33.333333333333336
0.0   0.0   16.666666666666668
0.0   30.0   16.666666666666668
-50.0   30.0   16.666666666666668
0.0   30.0   33.333333333333336
-50.0   0.0   33.333333333333336
-50.0   30.0   33.333333333333336
0.0   30.0   33.333333333333336
-50.0   30.0   16.666666666666668
-50.0   0.0   33.333333333333336
0.0   30.0   33.333333333333336
0.0   0.0   33.333333333333336
0.0   0.0   16.666666666666668
-50.0   0.0   33.333333333333336
0.0   30.0   33.333333333333336
0.0   0.0   16.666666666666668
-50.0   30.0   16.666666666666668
-50.0   0.0   33.333333333333336
0.0   0.0   33.333333333333336
-50.0   30.0   33.333333333333336
-50.0   0.0   50.0
0.0   0.0   33.333333333333336
0.0   30.0   33.333333333333336
-50.0   30.0   33.333333333333336
0.0   30.0   50.0
-50.0   0.0   50.0
-50.0   30.0   50.0
0.0   30.0   50.0
-50.0   30.0   33.333333333333336
-50.0   0.0   50.0
0.0   30.0   50.0
0.0   0.0   50.0
0.0   0.0   33.333333333333336
-50.0   0.0   50.0
0.0   30.0   50.0
0.0   0.0   33.333333333333336
-50.0   30.0   33.333333333333336
-50.0   30.0   0.0
0.0   30.0   0.0
-50.0   60.0   0.0
-50.0   30.0   16.666666666666668
0.0   30.0   0.0
0.0   60.0   0.0
-50.0   60.0   0.0
0.0   60.0   16.666666666666668
-50.0   30.0   16.666666666666668
-50.0   60.0   16.666666666666668
0.0   60.0   16.666666666666668
-50.0   60.0   0.0
-50.0   30.0   16.666666666666668
0.0   60.0   16.666666666666668
0.0   30.0   16.666666666666668
0.0   30.0   0.0
-50.0   30.0   16.666666666666668
0.0   60.0   16.666666666666668
0.0   30.0   0.0
-50.0   60.0   0.0
-50.0   30.0   16.666666666666668
0.0   30.0   16.666666666666668
-50.0   60.0   16.666666666666668
-50.0   30.0   33.333333333333336
0.0   30.0   16.666666666666668
0.0   60.0   16.666666666666668
-50.0   60.0   16.666666666666668
0.0   60.0   33.333333333333336
-50.0   30.0   33.333333333333336
-50.0   60.0   33.333333333333336
0.0   60.0   33.333333333333336
-50.0   60.0   16.666666666666668
-50.0   30.0   33.333333333333336
0.0   60.0   33.333333333333336
0.0   30.0   33.333333333333336
0.0   30.0   16.666666666666668
-50.0   30.0   33.333333333333336
0.0   60.0   33.333333333333336
0.0   30.0   16.666666666666668
-50.0   60.0   16.666666666666668
-50.0   30.0   33.333333333333336
0.0   30.0   33.333333333333336
-50.0   60.0   33.333333333333336
-50.0   30.0   50.0
0.0   30.0   33.333333333333336
0.0   60.0   33.333333333333336
-50.0   60.0   33.333333333333336
0.0   60.0   50.0
-50.0   30.0   50.0
-50.0   60.0   50.0
0.0   60.0   50.0
-50.0   60.0   33.333333333333336
-50.0   30.0   50.0
0.0   60.0   50.0
0.0   30.0   50.0
0.0   30.0   33.333333333333336
-50.0   30.0   50.0
0.0   60.0   50.0
0.0   30.0   33.333333333333336
-50.0   60.0   33.333333333333336
-50.0   60.0   0.0
0.0   60.0   0.0
-50.0   90.0   0.0
-50.0   60.0   16.666666666666668
0.0   60.0   0.0
0.0   90.0   0.0
-50.0   90.0   0.0
0.0   90.0   16.666666666666668
-50.0   60.0   16.666666666666668
-50.0   90.0   16.666666666666668
0.0   90.0   16.666666666666668
-50.0   90.0   0.0
-50.0   60.0   16.666666666666668
0.0   90.0   16.666666666666668
0.0   60.0   16.666666666666668
0.0   60.0   0.0
-50.0   60.0   16.666666666666668
0.0   90.0   16.666666666666668
0.0   60.0   0.0
-50.0   90.0   0.0
-50.0   60.0   16.666666666666668
0.0   60.0   16.666666666666668
-50.0   90.0   16.666666666666668
-50.0   60.0   33.333333333333336
0.0   60.0   16.666666666666668
0.0   90.0   16.666666666666668
-50.0   90.0   16.666666666666668
0.0   90.0   33.333333333333336
-50.0   60.0   33.333333333333336
-50.0   90.0   33.333333333333336
0.0   90.0   33.333333333333336
-50.0   90.0   16.666666666666668
-50.0   60.0   33.333333333333336
0.0   90.0   33.333333333333336
0.0   60.0   33.333333333333336
0.0   60.0   16.666666666666668
-50.0   60.0   33.333333333333336
0.0   90.0   33.333333333333336
0.0   60.0   16.666666666666668
-50.0   90.0   16.666666666666668
-50.0   60.0   33.333333333333336
0.0   60.0   33.333333333333336
-50.0   90.0   33.333333333333336
-50.0   60.0   50.0
0.0   60.0   33.333333333333336
0.0   90.0   33.333333333333336
-50.0   90.0   33.333333333333336
0.0   90.0   50.0
-50.0   60.0   50.0
-50.0   90.0   50.0
0.0   90.0   50.0
-50.0   90.0   33.333333333333336
-50.0   60.0   50.0
0.0   90.0   50.0
0.0   60.0   50.0
0.0   60.0   33.333333333333336
-50.0   60.0   50.0
0.0   90.0   50.0
0.0   60.0   33.333333333333336
-50.0   90.0   33.333333333333336
-50.0   90.0   0.0
0.0   90.0   0.0
-50.0   120.0   0.0
-50.0   90.0   16.666666666666668
0.0   90.0   0.0
0.0   120.0   0.0
-50.0   120.0   0.0
0.0   120.0   16.666666666666668
-50.0   90.0   16.666666666666668
-50.0   120.0   16.666666666666668
0.0   120.0   16.666666666666668
-50.0   120.0   0.0
-50.0   90.0   16.666666666666668
0.0   120.0   16.666666666666668
0.0   90.0   16.666666666666668
0.0   90.0   0.0
-50.0   90.0   16.666666666666668
0.0   120.0   16.666666666666668
0.0   90.0   0.0
-50.0   120.0   0.0
-50.0   90.0   16.666666666666668
0.0   90.0   16.666666666666668
-50.0   120.0   16.666666666666668
-50.0   90.0   33.333333333333336
0.0   90.0   16.666666666666668
0.0   120.0   16.666666666666668
-50.0   120.0   16.666666666666668
0.0   120.0   33.333333333333336
-50.0   90.0   33.333333333333336
-50.0   120.0   33.333333333333336
0.0   120.0   33.333333333333336
-50.0   120.0   16.666666666666668
-50.0   90.0   33.333333333333336
0.0   120.0   33.333333333333336
0.0   90.0   33.333333333333336
0.0   90.0   16.666666666666668
-50.0   90.0   33.333333333333336
0.0   120.0   33.333333333333336
0.0   90.0   16.666666666666668
-50.0   120.0   16.666666666666668
-50.0   90.0   33.333333333333336
0.0   90.0   33.333333333333336
-50.0   120.0   33.333333333333336
-50.0   90.0   50.0
0.0   90.0   33.333333333333336
0.0   120.0   33.333333333333336
-50.0   120.0   33.333333333333336
0.0   120.0   50.0
-50.0   90.0   50.0
-50.0   120.0   50.0
0.0   120.0   50.0
-50.0   120.0   33.333333333333336
-50.0   90.0   50.0
0.0   120.0   50.0
0.0   90.0   50.0
0.0   90.0   33.333333333333336
-50.0   90.0   50.0
0.0   120.0   50.0
0.0   90.0   33.333333333333336
-50.0   120.0   33.333333333333336
-50.0   120.0   0.0
0.0   120.0   0.0
-50.0   150.0   0.0
-50.0   120.0   16.666666666666668
0.0   120.0   0.0
0.0   150.0   0.0
-50.0   150.0   0.0
0.0   150.0   16.666666666666668
-50.0   120.0   16.666666666666668
-50.0   150.0   16.666666666666668
0.0   150.0   16.666666666666668
-50.0   150.0   0.0
-50.0   120.0   16.666666666666668
0.0   150.0   16.666666666666668
0.0   120.0   16.666666666666668
0.0   120.0   0.0
-50.0   120.0   16.666666666666668
0.0   150.0   16.666666666666668
0.0   120.0   0.0
-50.0   150.0   0.0
-50.0   120.0   16.666666666666668
0.0   120.0   16.666666666666668
-50.0   150.0   16.666666666666668
-50.0   120.0   33.333333333333336
0.0   120.0   16.666666666666668
0.0   150.0   16.666666666666668
-50.0   150.0   16.666666666666668
0.0   150.0   33.333333333333336
-50.0   120.0   33.333333333333336
-50.0   150.0   33.333333333333336
0.0   150.0   33.333333333333336
-50.0   150.0   16.666666666666668
-50.0   120.0   33.333333333333336
0.0   150.0   33.333333333333336
0.0   120.0   33.333333333333336
0.0   120.0   16.666666666666668
-50.0   120.0   33.333333333333336
0.0   150.0   33.333333333333336
0.0   120.0   16.666666666666668
-50.0   150.0   16.666666666666668
-50.0   120.0   33.333333333333336
0.0   120.0   33.333333333333336
-50.0   150.0   33.333333333333336
-50.0   120.0   50.0
0.0   120.0   33.333333333333336
0.0   150.0   33.333333333333336
-50.0   150.0   33.333333333333336
0.0   150.0   50.0
-50.0   120.0   50.0
-50.0   150.0   50.0
0.0   150.0   50.0
-50.0   150.0   33.333333333333336
-50.0   120.0   50.0
0.0   150.0   50.0
0.0   120.0   50.0
0.0   120.0   33.333333333333336
-50.0   120.0   50.0
0.0   150.0   50.0
0.0   120.0   33.333333333333336
-50.0   150.0   33.333333333333336
0.0   0.0   0.0
50.0   0.0   0.0
0.0   30.0   0.0
0.0   0.0   16.666666666666668
50.0   0.0   0.0
50.0   30.0   0.0
0.0   30.0   0.0
50.0   30.0   16.666666666666668
0.0   0.0   16.666666666666668
0.0   30.0   16.666666666666668
50.0   30.0   16.666666666666668
0.0   30.0   0.0
0.0   0.0   16.666666666666668
50.0   30.0   16.666666666666668
50.0   0.0   16.666666666666668
50.0   0.0   0.0
0.0   0.0   16.666666666666668
50.0   30.0   16.666666666666668
50.0   0.0   0.0
0.0   30.0   0.0
0.0   0.0   16.666666666666668
50.0   0.0   16.666666666666668
0.0   30.0   16.666666666666668
0.0   0.0   33.333333333333336
50.0   0.0   16.666666666666668
50.0   30.0   16.666666666666668
0.0   30.0   16.666666666666668
50.0   30.0   33.333333333333336
0.0   0.0   33.333333333333336
0.0   30.0   33.333333333333336
50.0   30.0   33.333333333333336
0.0   30.0   16.666666666666668
0.0   0.0   33.333333333333336
50.0   30.0   33.333333333333336
50.0   0.0   33.333333333333336
50.0   0.0   16.666666666666668
0.0   0.0   33.333333333333336
50.0   30.0   33.333333333333336
50.0   0.0   16.666666666666668
0.0   30.0   16.666666666666668
0.0   0.0   33.333333333333336
50.0   0.0   33.333333333333336
0.0   30.0   33.333333333333336
0.0   0.0   50.0
50.0   0.0   33.333333333333336
50.0   30.0   33.333333333333336
0.0   30.0   33.333333333333336
50.0   30.0   50.0
0.0   0.0   50.0
0.0   30.0   50.0
50.0   30.0   50.0
0.0   30.0   33.333333333333336
0.0   0.0   50.0
50.0   30.0   50.0
50.0   0.0   50.0
50.0   0.0   33.333333333333336
0.0   0.0   50.0
50.0   30.0   50.0
50.0   0.0   33.333333333333336
0.0   30.0   33.333333333333336
0.0   30.0   0.0
50.0   30.0   0.0
0.0   60.0   0.0
0.0   30.0   16.666666666666668
50.0   30.0   0.0
50.0   60.0   0.0
0.0   60.0   0.0
50.0   60.0   16.666666666666668
0.0   30.0   16.666666666666668
0.0   60.0   16.666666666666668
50.0   60.0   16.666666666666668
0.0   60.0   0.0
0.0   30.0   16.666666666666668
50.0   60.0   16.666666666666668
50.0   30.0   16.666666666666668
50.0   30.0   0.0
0.0   30.0   16.666666666666668
50.0   60.0   16.666666666666668
50.0   30.0   0.0
0.0   60.0   0.0
0.0   30.0   16.666666666666668
50.0   30.0   16.666666666666668
0.0   60.0   16.666666666666668
0.0   30.0   33.333333333333336
50.0   30.0   16.666666666666668
50.0   60.0   16.666666666666668
0.0   60.0   16.666666666666668
50.0   60.0   33.333333333333336
0.0   30.0   33.333333333333336
0.0   60.0   33.333333333333336
50.0   60.0   33.333333333333336
0.0   60.0   16.666666666666668
0.0   30.0   33.333333333333336
50.0   60.0   33.333333333333336
50.0   30.0   33.333333333333336
50.0   30.0   16.666666666666668
0.0   30.0   33.333333333333336
50.0   60.0   33.333333333333336
50.0   30.0   16.666666666666668
0.0   60.0   16.666666666666668
0.0   30.0   33.333333333333336
50.0   30.0   33.333333333333336
0.0   60.0   33.333333333333336
0.0   30.0   50.0
50.0   30.0   33.333333333333336
50.0   60.0   33.333333333333336
0.0   60.0   33.333333333333336
50.0   60.0   50.0
0.0   30.0   50.0
0.0   60.0   50.0
50.0   60.0   50.0
0.0   60.0   33.333333333333336
0.0   30.0   50.0
50.0   60.0   50.0
50.0   30.0   50.0
50.0   30.0   33.333333333333336
0.0   30.0   50.0
50.0   60.0   50.0
50.0   30.0   33.333333333333336
0.0   60.0   33.333333333333336
0.0   60.0   0.0
50.0   60.0   0.0
0.0   90.0   0.0
0.0   60.0   16.666666666666668
50.0   60.0   0.0
50.0   90.0   0.0
0.0   90.0   0.0
50.0   90.0   16.666666666666668
0.0   60.0   16.666666666666668
0.0   90.0   16.666666666666668
50.0   90.0   16.666666666666668
0.0   90.0   0.0
0.0   60.0   16.666666666666668
50.0   90.0   16.666666666666668
50.0   60.0   16.666666666666668
50.0   60.0   0.0
0.0   60.0   16.666666666666668
50.0   90.0   16.666666666666668
50.0   60.0   0.0
0.0   90.0   0.0
0.0   60.0   16.666666666666668
50.0   60.0   16.666666666666668
0.0   90.0   16.666666666666668
0.0   60.0   33.333333333333336
50.0   60.0   16.666666666666668
50.0   90.0   16.666666666666668
0.0   90.0   16.666666666666668
50.0   90.0   33.333333333333336
0.0   60.0   33.333333333333336
0.0   90.0   33.333333333333336
50.0   90.0   33.333333333333336
0.0   90.0   16.666666666666668
0.0   60.0   33.333333333333336
50.0   90.0   33.333333333333336
50.0   60.0   33.333333333333336
50.0   60.0   16.666666666666668
0.0   60.0   33.333333333333336
50.0   90.0   33.333333333333336
50.0   60.0   16.666666666666668
0.0   90.0   16.666666666666668
0.0   60.0   33.333333333333336
50.0   60.0   33.333333333333336
0.0   90.0   33.333333333333336
0.0   60.0   50.0
50.0   60.0   33.333333333333336
50.0   90.0   33.333333333333336
0.0   90.0   33.333333333333336
50.0   90.0   50.0
0.0   60.0   50.0
0.0   90.0   50.0
50.0   90.0   50.0
0.0   90.0   33.333333333333336
0.0   60.0   50.0
50.0   90.0   50.0
50.0   60.0   50.0
50.0   60.0   33.333333333333336
0.0   60.0   50.0
50.0   90.0   50.0
50.0   60.0   33.333333333333336
0.0   90.0   33.333333333333336
0.0   90.0   0.0
50.0   90.0   0.0
0.0   120.0   0.0
0.0   90.0   16.666666666666668
50.0   90.0   0.0
50.0   120.0   0.0
0.0   120.0   0.0
50.0   120.0   16.666666666666668
0.0   90.0   16.666666666666668
0.0   120.0   16.666666666666668
50.0   120.0   16.666666666666668
0.0   120.0   0.0
0.0   90.0   16.666666666666668
50.0   120.0   16.666666666666668
50.0   90.0   16.666666666666668
50.0   90.0   0.0
0.0   90.0   16.666666666666668
50.0   120.0   16.666666666666668
50.0   90.0   0.0
0.0   120.0   0.0
0.0   90.0   16.666666666666668
50.0   90.0   16.666666666666668
0.0   120.0   16.666666666666668
0.0   90.0   33.333333333333336
50.0   90.0   16.666666666666668
50.0   120.0   16.666666666666668
0.0   120.0   16.666666666666668
50.0   120.0   33.333333333333336
0.0   90.0   33.333333333333336
0.0   120.0   33.333333333333336
50.0   120.0   33.333333333333336
0.0   120.0   16.666666666666668
0.0   90.0   33.333333333333336
50.0   120.0   33.333333333333336
50.0   90.0   33.333333333333336
50.0   90.0   16.666666666666668
0.0   90.0   33.333333333333336
50.0   120.0   33.333333333333336
50.0   90.0   16.666666666666668
0.0   120.0   16.666666666666668
0.0   90.0   33.333333333333336
50.0   90.0   33.333333333333336
0.0   120.0   33.333333333333336
0.0   90.0   50.0
50.0   90.0   33.333333333333336
50.0   120.0   33.333333333333336
0.0   120.0   33.333333333333336
50.0   120.0   50.0
0.0   90.0   50.0
0.0   120.0   50.0
50.0   120.0   50.0
0.0   120.0   33.333333333333336
0.0   90.0   50.0
50.0   120.0   50.0
50.0   90.0   50.0
50.0   90.0   33.333333333333336
0.0   90.0   50.0
50.0   120.0   50.0
50.0   90.0   33.333333333333336
0.0   120.0   33.333333333333336
0.0   120.0   0.0
50.0   120.0   0.0
0.0   150.0   0.0
0.0   120.0   16.666666666666668
50.0   120.0   0.0
50.0   150.0   0.0
0.0   150.0   0.0
50.0   150.0   16.666666666666668
0.0   120.0   16.666666666666668
0.0   150.0   16.666666666666668
50.0   150.0   16.666666666666668
0.0   150.0   0.0
0.0   120.0   16.666666666666668
50.0   150.0   16.666666666666668
50.0   120.0   16.666666666666668
50.0   120.0   0.0
0.0   120.0   16.666666666666668
50.0   150.0   16.666666666666668
50.0   120.0   0.0
0.0   150.0   0.0
0.0   120.0   16.666666666666668
50.0   120.0   16.666666666666668
0.0   150.0   16.666666666666668
0.0   120.0   33.333333333333336
50.0   120.0   16.666666666666668
50.0   150.0   16.666666666666668
0.0   150.0   16.666666666666668
50.0   150.0   33.333333333333336
0.0   120.0   33.333333333333336
0.0   150.0   33.333333333333336
50.0   150.0   33.333333333333336
0.0   150.0   16.666666666666668
0.0   120.0   33.333333333333336
50.0   150.0   33.333333333333336
50.0   120.0   33.333333333333336
50.0   120.0   16.666666666666668
0.0   120.0   33.333333333333336
50.0   150.0   33.333333333333336
50.0   120.0   16.666666666666668
0.0   150.0   16.666666666666668
0.0   120.0   33.333333333333336
50.0   120.0   33.333333333333336
0.0   150.0   33.333333333333336
0.0   120.0   50.0
50.0   120.0   33.333333333333336
50.0   150.0   33.333333333333336
0.0   150.0   33.333333333333336
50.0   150.0   50.0
0.0   120.0   50.0
0.0   150.0   50.0
50.0   150.0   50.0
0.0   150.0   33.333333333333336
0.0   120.0   50.0
50.0   150.0   50.0
50.0   120.0   50.0
50.0   120.0   33.333333333333336
0.0   120.0   50.0
50.0   150.0   50.0
50.0   120.0   33.333333333333336
0.0   150.0   33.333333333333336
50.0   0.0   0.0
100.0   0.0   0.0
50.0   30.0   0.0
50.0   0.0   16.666666666666668
100.0   0.0   0.0
100.0   30.0   0.0
50.0   30.0   0.0
100.0   30.0   16.666666666666668
50.0   0.0   16.666666666666668
50.0   30.0   16.666666666666668
100.0   30.0   16.666666666666668
50.0   30.0   0.0
50.0   0.0   16.666666666666668
100.0   30.0   16.666666666666668
100.0   0.0   16.666666666666668
100.0   0.0   0.0
50.0   0.0   16.666666666666668
100.0   30.0   16.666666666666668
100.0   0.0   0.0
50.0   30.0   0.0
50.0   0.0   16.666666666666668
100.0   0.0   16.666666666666668
50.0   30.0   16.666666666666668
50.0   0.0   33.333333333333336
100.0   0.0   16.666666666666668
100.0   30.0   16.666666666666668
50.0   30.0   16.666666666666668
100.0   30.0   33.333333333333336
50.0   0.0   33.333333333333336
50.0   30.0   33.333333333333336
100.0   30.0   33.333333333333336
50.0   30.0   16.666666666666668
50.0   0.0   33.333333333333336
100.0   30.0   33.333333333333336
100.0   0.0   33.333333333333336
100.0   0.0   16.666666666666668
50.0   0.0   33.333333333333336
100.0   30.0   33.333333333333336
100.0   0.0   16.666666666666668
50.0   30.0   16.666666666666668
50.0   0.0   33.333333333333336
100.0   0.0   33.333333333333336
50.0   30.0   33.333333333333336
50.0   0.0   50.0
100.0   0.0   33.333333333333336
100.0   30.0   33.333333333333336
50.0   30.0   33.333333333333336
100.0   30.0   50.0
50.0   0.0   50.0
50.0   30.0   50.0
100.0   30.0   50.0
50.0   30.0   33.333333333333336
50.0   0.0   50.0
100.0   30.0   50.0
100.0   0.0   50.0
100.0   0.0   33.333333333333336
50.0   0.0   50.0
100.0   30.0   50.0
100.0   0.0   33.333333333333336
50.0   30.0   33.333333333333336
50.0   30.0   0.0
100.0   30.0   0.0
50.0   60.0   0.0
50.0   30.0   16.666666666666668
100.0   30.0   0.0
100.0   60.0   0.0
50.0   60.0   0.0
100.0   60.0   16.666666666666668
50.0   30.0   16.666666666666668
50.0   60.0   16.666666666666668
100.0   60.0   16.666666666666668
50.0   60.0   0.0
50.0   30.0   16.666666666666668
100.0   60.0   16.666666666666668
100.0   30.0   16.666666666666668
100.0   30.0   0.0
50.0   30.0   16.666666666666668
100.0   60.0   16.666666666666668
100.0   30.0   0.0
50.0   60.0   0.0
50.0   30.0   16.666666666666668
100.0   30.0   16.666666666666668
50.0   60.0   16.666666666666668
50.0   30.0   33.333333333333336
100.0   30.0   16.666666666666668
100.0   60.0   16.666666666666668
50.0   60.0   16.666666666666668
100.0   60.0   33.333333333333336
50.0   30.0   33.333333333333336
50.0   60.0   33.333333333333336
100.0   60.0   33.333333333333336
50.0   60.0   16.666666666666668
50.0   30.0   33.333333333333336
100.0   60.0   33.333333333333336
100.0   30.0   33.333333333333336
100.0   30.0   16.666666666666668
50.0   30.0   33.333333333333336
100.0   60.0   33.333333333333336
100.0   30.0   16.666666666666668
50.0   60.0   16.666666666666668
50.0   30.0   33.333333333333336
100.0   30.0   33.333333333333336
50.0   60.0   33.333333333333336
50.0   30.0   50.0
100.0   30.0   33.333333333333336
100.0   60.0   33.333333333333336
50.0   60.0   33.333333333333336
100.0   60.0   50.0
50.0   30.0   50.0
50.0   60.0   50.0
100.0   60.0   50.0
50.0   60.0   33.333333333333336
50.0   30.0   50.0
100.0   60.0   50.0
100.0   30.0   50.0
100.0   30.0   33.333333333333336
50.0   30.0   50.0
100.0   60.0   50.0
100.0   30.0   33.333333333333336
50.0   60.0   33.333333333333336
50.0   60.0   0.0
100.0   60.0   0.0
50.0   90.0   0.0
50.0   60.0   16.666666666666668
100.0   60.0   0.0
100.0   90.0   0.0
50.0   90.0   0.0
100.0   90.0   16.666666666666668
50.0   60.0   16.666666666666668
50.0   90.0   16.666666666666668
100.0   90.0   16.666666666666668
50.0   90.0   0.0
50.0   60.0   16.666666666666668
100.0   90.0   16.666666666666668
100.0   60.0   16.666666666666668
100.0   60.0   0.0
50.0   60.0   16.666666666666668
100.0   90.0   16.666666666666668
100.0   60.0   0.0
50.0   90.0   0.0
50.0   60.0   16.666666666666668
100.0   60.0   16.666666666666668
50.0   90.0   16.666666666666668
50.0   60.0   33.333333333333336
100.0   60.0   16.666666666666668
100.0   90.0   16.666666666666668
50.0   90.0   16.666666666666668
100.0   90.0   33.333333333333336
50.0   60.0   33.333333333333336
50.0   90.0   33.333333333333336
100.0   90.0   33.333333333333336
50.0   90.0   16.666666666666668
50.0   60.0   33.333333333333336
100.0   90.0   33.333333333333336
100.0   60.0   33.333333333333336
100.0   60.0   16.666666666666668
50.0   60.0   33.333333333333336
100.0   90.0   33.333333333333336
100.0   60.0   16.666666666666668
50.0   90.0   16.666666666666668
50.0   60.0   33.333333333333336
100.0   60.0   33.333333333333336
50.0   90.0   33.333333333333336
50.0   60.0   50.0
100.0   60.0   33.333333333333336
100.0   90.0   33.333333333333336
50.0   90.0   33.333333333333336
100.0   90.0   50.0
50.0   60.0   50.0
50.0   90.0   50.0
100.0   90.0   50.0
50.0   90.0   33.333333333333336
50.0   60.0   50.0
100.0   90.0   50.0
100.0   60.0   50.0
100.0   60.0   33.333333333333336
50.0   60.0   50.0
100.0   90.0   50.0
100.0   60.0   33.333333333333336
50.0   90.0   33.333333333333336
50.0   90.0   0.0
100.0   90.0   0.0
50.0   120.0   0.0
50.0   90.0   16.666666666666668
100.0   90.0   0.0
100.0   120.0   0.0
50.0   120.0   0.0
100.0   120.0   16.666666666666668
50.0   90.0   16.666666666666668
50.0   120.0   16.666666666666668
100.0   120.0   16.666666666666668
50.0   120.0   0.0
50.0   90.0   16.666666666666668
100.0   120.0   16.666666666666668
100.0   90.0   16.666666666666668
100.0   90.0   0.0
50.0   90.0   16.666666666666668
100.0   120.0   16.666666666666668
100.0   90.0   0.0
50.0   120.0   0.0
50.0   90.0   16.666666666666668
100.0   90.0   16.666666666666668
50.0   120.0   16.666666666666668
50.0   90.0   33.333333333333336
100.0   90.0   16.666666666666668
100.0   120.0   16.666666666666668
50.0   120.0   16.666666666666668
100.0   120.0   33.333333333333336
50.0   90.0   33.333333333333336
50.0   120.0   33.333333333333336
100.0   120.0   33.333333333333336
50.0   120.0   16.666666666666668
50.0   90.0   33.333333333333336
100.0   120.0   33.333333333333336
100.0   90.0   33.333333333333336
100.0   90.0   16.666666666666668
50.0   90.0   33.333333333333336
100.0   120.0   33.333333333333336
100.0   90.0   16.666666666666668
50.0   120.0   16.666666666666668
50.0   90.0   33.333333333333336
100.0   90.0   33.333333333333336
50.0   120.0   33.333333333333336
50.0   90.0   50.0
100.0   90.0   33.333333333333336
100.0   120.0   33.333333333333336
50.0   120.0   33.333333333333336
100.0   120.0   50.0
50.0   90.0   50.0
50.0   120.0   50.0
100.0   120.0   50.0
50.0   120.0   33.333333333333336
50.0   90.0   50.0
100.0   120.0   50.0
100.0   90.0   50.0
100.0   90.0   33.333333333333336
50.0   90.0   50.0
100.0   120.0   50.0
100.0   90.0   33.333333333333336
50.0   120.0   33.333333333333336
50.0   120.0   0.0
100.0   120.0   0.0
50.0   150.0   0.0
50.0   120.0   16.666666666666668
100.0   120.0   0.0
100.0   150.0   0.0
50.0   150.0   0.0
100.0   150.0   16.666666666666668
50.0   120.0   16.666666666666668
50.0   150.0   16.666666666666668
100.0   150.0   16.666666666666668
50.0   150.0   0.0
50.0   120.0   16.666666666666668
100.0   150.0   16.666666666666668
100.0   120.0   16.666666666666668
100.0   120.0   0.0
50.0   120.0   16.666666666666668
100.0   150.0   16.666666666666668
100.0   120.0   0.0
50.0   150.0   0.0
50.0   120.0   16.666666666666668
100.0   120.0   16.666666666666668
50.0   150.0   16.666666666666668
50.0   120.0   33.333333333333336
100.0   120.0   16.666666666666668
100.0   150.0   16.666666666666668
50.0   150.0   16.666666666666668
100.0   150.0   33.333333333333336
50.0   120.0   33.333333333333336
50.0   150.0   33.333333333333336
100.0   150.0   33.333333333333336
50.0   150.0   16.666666666666668
50.0   120.0   33.333333333333336
100.0   150.0   33.333333333333336
100.0   120.0   33.333333333333336
100.0   120.0   16.666666666666668
50.0   120.0   33.333333333333336
100.0   150.0   33.333333333333336
100.0   120.0   16.666666666666668
50.0   150.0   16.666666666666668
50.0   120.0   33.333333333333336
100.0   120.0   33.333333333333336
50.0   150.0   33.333333333333336
50.0   120.0   50.0
100.0   120.0   33.333333333333336
100.0   150.0   33.333333333333336
50.0   150.0   33.333333333333336
100.0   150.0   50.0
50.0   120.0   50.0
50.0   150.0   50.0
100.0   150.0   50.0
50.0   150.0   33.333333333333336
50.0   120.0   50.0
100.0   150.0   50.0
100.0   120.0   50.0
100.0   120.0   33.333333333333336
50.0   120.0   50.0
100.0   150.0   50.0
100.0   120.0   33.333333333333336
50.0   150.0   33.333333333333336
100.0   0.0   0.0
150.0   0.0   0.0
100.0   30.0   0.0
100.0   0.0   16.666666666666668
150.0   0.0   0.0
150.0   30.0   0.0
100.0   30.0   0.0
150.0   30.0   16.666666666666668
100.0   0.0   16.666666666666668
100.0   30.0   16.666666666666668
150.0   30.0   16.666666666666668
100.0   30.0   0.0
100.0   0.0   16.666666666666668
150.0   30.0   16.666666666666668
150.0   0.0   16.666666666666668
150.0   0.0   0.0
100.0   0.0   16.666666666666668
150.0   30.0   16.666666666666668
150.0   0.0   0.0
100.0   30.0   0.0
100.0   0.0   16.666666666666668
150.0   0.0   16.666666666666668
100.0   30.0   16.666666666666668
100.0   0.0   33.333333333333336
150.0   0.0   16.666666666666668
150.0   30.0   16.666666666666668
100.0   30.0   16.666666666666668
150.0   30.0   33.333333333333336
100.0   0.0   33.333333333333336
100.0   30.0   33.333333333333336
150.0   30.0   33.333333333333336
100.0   30.0   16.666666666666668
100.0   0.0   33.333333333333336
150.0   30.0   33.333333333333336
150.0   0.0   33.333333333333336
150.0   0.0   16.666666666666668
100.0   0.0   33.333333333333336
150.0   30.0   33.333333333333336
150.0   0.0   16.666666666666668
100.0   30.0   16.666666666666668
100.0   0.0   33.333333333333336
150.0   0.0   33.333333333333336
100.0   30.0   33.333333333333336
100.0   0.0   50.0
150.0   0.0   33.333333333333336
150.0   30.0   33.333333333333336
100.0   30.0   33.333333333333336
150.0   30.0   50.0
100.0   0.0   50.0
100.0   30.0   50.0
150.0   30.0   50.0
100.0   30.0   33.333333333333336
100.0   0.0   50.0
150.0   30.0   50.0
150.0   0.0   50.0
150.0   0.0   33.333333333333336
100.0   0.0   50.0
150.0   30.0   50.0
150.0   0.0   33.333333333333336
100.0   30.0   33.333333333333336
100.0   30.0   0.0
150.0   30.0   0.0
100.0   60.0   0.0
100.0   30.0   16.666666666666668
150.0   30.0   0.0
150.0   60.0   0.0
100.0   60.0   0.0
150.0   60.0   16.666666666666668
100.0   30.0   16.666666666666668
100.0   60.0   16.666666666666668
150.0   60.0   16.666666666666668
100.0   60.0   0.0
100.0   30.0   16.666666666666668
150.0   60.0   16.666666666666668
150.0   30.0   16.666666666666668
150.0   30.0   0.0
100.0   30.0   16.666666666666668
150.0   60.0   16.666666666666668
150.0   30.0   0.0
100.0   60.0   0.0
100.0   30.0   16.666666666666668
150.0   30.0   16.666666666666668
100.0   60.0   16.666666666666668
100.0   30.0   33.333333333333336
150.0   30.0   16.666666666666668
150.0   60.0   16.666666666666668
100.0   60.0   16.666666666666668
150.0   60.0   33.333333333333336
100.0   30.0   33.333333333333336
100.0   60.0   33.333333333333336
150.0   60.0   33.333333333333336
100.0   60.0   16.666666666666668
100.0   30.0   33.333333333333336
150.0   60.0   33.333333333333336
150.0   30.0   33.333333333333336
150.0   30.0   16.666666666666668
100.0   30.0   33.333333333333336
150.0   60.0   33.333333333333336
150.0   30.0   16.666666666666668
100.0   60.0   16.666666666666668
100.0   30.0   33.333333333333336
150.0   30.0   33.333333333333336
100.0   60.0   33.333333333333336
100.0   30.0   50.0
150.0   30.0   33.333333333333336
150.0   60.0   33.333333333333336
100.0   60.0   33.333333333333336
150.0   60.0   50.0
100.0   30.0   50.0
100.0   60.0   50.0
150.0   60.0   50.0
100.0   60.0   33.333333333333336
100.0   30.0   50.0
150.0   60.0   50.0
150.0   30.0   50.0
150.0   30.0   33.333333333333336
100.0   30.0   50.0
150.0   60.0   50.0
150.0   30.0   33.333333333333336
100.0   60.0   33.333333333333336
100.0   60.0   0.0
150.0   60.0   0.0
100.0   90.0   0.0
100.0   60.0   16.666666666666668
150.0   60.0   0.0
150.0   90.0   0.0
100.0   90.0   0.0
150.0   90.0   16.666666666666668
100.0   60.0   16.666666666666668
100.0   90.0   16.666666666666668
150.0   90.0   16.666666666666668
100.0   90.0   0.0
100.0   60.0   16.666666666666668
150.0   90.0   16.666666666666668
150.0   60.0   16.666666666666668
150.0   60.0   0.0
100.0   60.0   16.666666666666668
150.0   90.0   16.666666666666668
150.0   60.0   0.0
100.0   90.0   0.0
100.0   60.0   16.666666666666668
150.0   60.0   16.666666666666668
100.0   90.0   16.666666666666668
100.0   60.0   33.333333333333336
150.0   60.0   16.666666666666668
150.0   90.0   16.666666666666668
100.0   90.0   16.666666666666668
150.0   90.0   33.333333333333336
100.0   60.0   33.333333333333336
100.0   90.0   33.333333333333336
150.0   90.0   33.333333333333336
100.0   90.0   16.666666666666668
100.0   60.0   33.333333333333336
150.0   90.0   33.333333333333336
150.0   60.0   33.333333333333336
150.0   60.0   16.666666666666668
100.0   60.0   33.333333333333336
150.0   90.0   33.333333333333336
150.0   60.0   16.666666666666668
100.0   90.0   16.666666666666668
100.0   60.0   33.333333333333336
150.0   60.0   33.333333333333336
100.0   90.0   33.333333333333336
100.0   60.0   50.0
150.0   60.0   33.333333333333336
150.0   90.0   33.333333333333336
100.0   90.0   33.333333333333336
150.0   90.0   50.0
100.0   60.0   50.0
100.0   90.0   50.0
150.0   90.0   50.0
100.0   90.0   33.333333333333336
100.0   60.0   50.0
150.0   90.0   50.0
150.0   60.0   50.0
150.0   60.0   33.333333333333336
100.0   60.0   50.0
150.0   90.0   50.0
150.0   60.0   33.333333333333336
100.0   90.0   33.333333333333336
100.0   90.0   0.0
150.0   90.0   0.0
100.0   120.0   0.0
100.0   90.0   16.666666666666668
150.0   90.0   0.0
150.0   120.0   0.0
100.0   120.0   0.0
150.0   120.0   16.666666666666668
100.0   90.0   16.666666666666668
100.0   120.0   16.666666666666668
150.0   120.0   16.666666666666668
100.0   120.0   0.0
100.0   90.0   16.666666666666668
150.0   120.0   16.666666666666668
150.0   90.0   16.666666666666668
150.0   90.0   0.0
100.0   90.0   16.666666666666668
150.0   120.0   16.666666666666668
150.0   90.0   0.0
100.0   120.0   0.0
100.0   90.0   16.666666666666668
150.0   90.0   16.666666666666668
100.0   120.0   16.666666666666668
100.0   90.0   33.333333333333336
150.0   90.0   16.666666666666668
150.0   120.0   16.666666666666668
100.0   120.0   16.666666666666668
150.0   120.0   33.333333333333336
100.0   90.0   33.333333333333336
100.0   120.0   33.333333333333336
150.0   120.0   33.333333333333336
100.0   120.0   16.666666666666668
100.0   90.0   33.333333333333336
150.0   120.0   33.333333333333336
150.0   90.0   33.333333333333336
150.0   90.0   16.666666666666668
100.0   90.0   33.333333333333336
150.0   120.0   33.333333333333336
150.0   90.0   16.666666666666668
100.0   120.0   16.666666666666668
100.0   90.0   33.333333333333336
150.0   90.0   33.333333333333336
100.0   120.0   33.333333333333336
100.0   90.0   50.0
150.0   90.0   33.333333333333336
150.0   120.0   33.333333333333336
100.0   120.0   33.333333333333336
150.0   120.0   50.0
100.0   90.0   50.0
100.0   120.0   50.0
150.0   120.0   50.0
100.0   120.0   33.333333333333336
100.0   90.0   50.0
150.0   120.0   50.0
150.0   90.0   50.0
150.0   90.0   33.333333333333336
100.0   90.0   50.0
150.0   120.0   50.0
150.0   90.0   33.333333333333336
100.0   120.0   33.333333333333336
100.0   120.0   0.0
150.0   120.0   0.0
100.0   150.0   0.0
100.0   120.0   16.666666666666668
150.0   120.0   0.0
150.0   150.0   0.0
100.0   150.0   0.0
150.0   150.0   16.666666666666668
100.0   120.0   16.666666666666668
100.0   150.0   16.666666666666668
150.0   150.0   16.666666666666668
100.0   150.0   0.0
100.0   120.0   16.666666666666668
150.0   150.0   16.666666666666668
150.0   120.0   16.666666666666668
150.0   120.0   0.0
100.0   120.0   16.666666666666668
150.0   150.0   16.666666666666668
150.0   120.0   0.0
100.0   150.0   0.0
100.0   120.0   16.666666666666668
150.0   120.0   16.666666666666668
100.0   150.0   16.666666666666668
100.0   120.0   33.333333333333336
150.0   120.0   16.666666666666668
150.0   150.0   16.666666666666668
100.0   150.0   16.666666666666668
150.0   150.0   33.333333333333336
100.0   120.0   33.333333333333336
100.0   150.0   33.333333333333336
150.0   150.0   33.333333333333336
100.0   150.0   16.666666666666668
100.0   120.0   33.333333333333336
150.0   150.0   33.333333333333336
150.0   120.0   33.333333333333336
150.0   120.0   16.666666666666668
100.0   120.0   33.333333333333336
150.0   150.0   33.333333333333336
150.0   120.0   16.666666666666668
100.0   150.0   16.666666666666668
100.0   120.0   33.333333333333336
150.0   120.0   33.333333333333336
100.0   150.0   33.333333333333336
100.0   120.0   50.0
150.0   120.0   33.333333333333336
150.0   150.0   33.333333333333336
100.0   150.0   33.333333333333336
150.0   150.0   50.0
100.0   120.0   50.0
100.0   150.0   50.0
150.0   150.0   50.0
100.0   150.0   33.333333333333336
100.0   120.0   50.0
150.0   150.0   50.0
150.0   120.0   50.0
150.0   120.0   33.333333333333336
100.0   120.0   50.0
150.0   150.0   50.0
150.0   120.0   33.333333333333336
100.0   150.0   33.333333333333336
150.0   0.0   0.0
200.0   0.0   0.0
150.0   30.0   0.0
150.0   0.0   16.666666666666668
200.0   0.0   0.0
200.0   30.0   0.0
150.0   30.0   0.0
200.0   30.0   16.666666666666668
150.0   0.0   16.666666666666668
150.0   30.0   16.666666666666668
200.0   30.0   16.666666666666668
150.0   30.0   0.0
150.0   0.0   16.666666666666668
200.0   30.0   16.666666666666668
200.0   0.0   16.666666666666668
200.0   0.0   0.0
150.0   0.0   16.666666666666668
200.0   30.0   16.666666666666668
200.0   0.0   0.0
150.0   30.0   0.0
150.0   0.0   16.666666666666668
200.0   0.0   16.666666666666668
150.0   30.0   16.666666666666668
150.0   0.0   33.333333333333336
200.0   0.0   16.666666666666668
200.0   30.0   16.666666666666668
150.0   30.0   16.666666666666668
200.0   30.0   33.333333333333336
150.0   0.0   33.333333333333336
150.0   30.0   33.333333333333336
200.0   30.0   33.333333333333336
150.0   30.0   16.666666666666668
150.0   0.0   33.333333333333336
200.0   30.0   33.333333333333336
200.0   0.0   33.333333333333336
200.0   0.0   16.666666666666668
150.0   0.0   33.333333333333336
200.0   30.0   33.333333333333336
200.0   0.0   16.666666666666668
150.0   30.0   16.666666666666668
150.0   0.0   33.333333333333336
200.0   0.0   33.333333333333336
150.0   30.0   33.333333333333336
150.0   0.0   50.0
200.0   0.0   33.333333333333336
200.0   30.0   33.333333333333336
150.0   30.0   33.333333333333336
200.0   30.0   50.0
150.0   0.0   50.0
150.0   30.0   50.0
200.0   30.0   50.0
150.0   30.0   33.333333333333336
150.0   0.0   50.0
200.0   30.0   50.0
200.0   0.0   50.0
200.0   0.0   33.333333333333336
150.0   0.0   50.0
200.0   30.0   50.0
200.0   0.0   33.333333333333336
150.0   30.0   33.333333333333336
150.0   30.0   0.0
200.0   30.0   0.0
150.0   60.0   0.0
150.0   30.0   16.666666666666668
200.0   30.0   0.0
200.0   60.0   0.0
150.0   60.0   0.0
200.0   60.0   16.666666666666668
150.0   30.0   16.666666666666668
150.0   60.0   16.666666666666668
200.0   60.0   16.666666666666668
150.0   60.0   0.0
150.0   30.0   16.666666666666668
200.0   60.0   16.666666666666668
200.0   30.0   16.666666666666668
200.0   30.0   0.0
150.0   30.0   16.666666666666668
200.0   60.0   16.666666666666668
200.0   30.0   0.0
150.0   60.0   0.0
150.0   30.0   16.666666666666668
200.0   30.0   16.666666666666668
150.0   60.0   16.666666666666668
150.0   30.0   33.333333333333336
200.0   30.0   16.666666666666668
200.0   60.0   16.666666666666668
150.0   60.0   16.666666666666668
200.0   60.0   33.333333333333336
150.0   30.0   33.333333333333336
150.0   60.0   33.333333333333336
200.0   60.0   33.333333333333336
150.0   60.0   16.666666666666668
150.0   30.0   33.333333333333336
200.0   60.0   33.333333333333336
200.0   30.0   33.333333333333336
200.0   30.0   16.666666666666668
150.0   30.0   33.333333333333336
200.0   60.0   33.333333333333336
200.0   30.0   16.666666666666668
150.0   60.0   16.666666666666668
150.0   30.0   33.333333333333336
200.0   30.0   33.333333333333336
150.0   60.0   33.333333333333336
150.0   30.0   50.0
200.0   30.0   33.333333333333336
200.0   60.0   33.333333333333336
150.0   60.0   33.333333333333336
200.0   60.0   50.0
150.0   30.0   50.0
150.0   60.0   50.0
200.0   60.0   50.0
150.0   60.0   33.333333333333336
150.0   30.0   50.0
200.0   60.0   50.0
200.0   30.0   50.0
200.0   30.0   33.333333333333336
150.0   30.0   50.0
200.0   60.0   50.0
200.0   30.0   33.333333333333336
150.0   60.0   33.333333333333336
150.0   60.0   0.0
200.0   60.0   0.0
150.0   90.0   0.0
150.0   60.0   16.666666666666668
200.0   60.0   0.0
200.0   90.0   0.0
150.0   90.0   0.0
200.0   90.0   16.666666666666668
150.0   60.0   16.666666666666668
150.0   90.0   16.666666666666668
200.0   90.0   16.666666666666668
150.0   90.0   0.0
150.0   60.0   16.666666666666668
200.0   90.0   16.666666666666668
200.0   60.0   16.666666666666668
200.0   60.0   0.0
150.0   60.0   16.666666666666668
200.0   90.0   16.666666666666668
200.0   60.0   0.0
150.0   90.0   0.0
150.0   60.0   16.666666666666668
200.0   60.0   16.666666666666668
150.0   90.0   16.666666666666668
150.0   60.0   33.333333333333336
200.0   60.0   16.666666666666668
200.0   90.0   16.666666666666668
150.0   90.0   16.666666666666668
200.0   90.0   33.333333333333336
150.0   60.0   33.333333333333336
150.0   90.0   33.333333333333336
200.0   90.0   33.333333333333336
150.0   90.0   16.666666666666668
150.0   60.0   33.333333333333336
200.0   90.0   33.333333333333336
200.0   60.0   33.333333333333336
200.0   60.0   16.666666666666668
150.0   60.0   33.333333333333336
200.0   90.0   33.333333333333336
200.0   60.0   16.666666666666668
150.0   90.0   16.666666666666668
150.0   60.0   33.333333333333336
200.0   60.0   33.333333333333336
150.0   90.0   33.333333333333336
150.0   60.0   50.0
200.0   60.0   33.333333333333336
200.0   90.0   33.333333333333336
150.0   90.0   33.333333333333336
200.0   90.0   50.0
150.0   60.0   50.0
150.0   90.0   50.0
200.0   90.0   50.0
150.0   90.0   33.333333333333336
150.0   60.0   50.0
200.0   90.0   50.0
200.0   60.0   50.0
200.0   60.0   33.333333333333336
150.0   60.0   50.0
200.0   90.0   50.0
200.0   60.0   33.333333333333336
150.0   90.0   33.333333333333336
150.0   90.0   0.0
200.0   90.0   0.0
150.0   120.0   0.0
150.0   90.0   16.666666666666668
200.0   90.0   0.0
200.0   120.0   0.0
150.0   120.0   0.0
200.0   120.0   16.666666666666668
150.0   90.0   16.666666666666668
150.0   120.0   16.666666666666668
200.0   120.0   16.666666666666668
150.0   120.0   0.0
150.0   90.0   16.666666666666668
200.0   120.0   16.666666666666668
200.0   90.0   16.666666666666668
200.0   90.0   0.0
150.0   90.0   16.666666666666668
200.0   120.0   16.666666666666668
200.0   90.0   0.0
150.0   120.0   0.0
150.0   90.0   16.666666666666668
200.0   90.0   16.666666666666668
150.0   120.0   16.666666666666668
150.0   90.0   33.333333333333336
200.0   90.0   16.666666666666668
200.0   120.0   16.666666666666668
150.0   120.0   16.666666666666668
200.0   120.0   33.333333333333336
150.0   90.0   33.333333333333336
150.0   120.0   33.333333333333336
200.0   120.0   33.333333333333336
150.0   120.0   16.666666666666668
150.0   90.0   33.333333333333336
200.0   120.0   33.333333333333336
200.0   90.0   33.333333333333336
200.0   90.0   16.666666666666668
150.0   90.0   33.333333333333336
200.0   120.0   33.333333333333336
200.0   90.0   16.666666666666668
150.0   120.0   16.666666666666668
150.0   90.0   33.333333333333336
200.0   90.0   33.333333333333336
150.0   120.0   33.333333333333336
150.0   90.0   50.0
200.0   90.0   33.333333333333336
200.0   120.0   33.333333333333336
150.0   120.0   33.333333333333336
200.0   120.0   50.0
150.0   90.0   50.0
150.0   120.0   50.0
200.0   120.0   50.0
150.0   120.0   33.333333333333336
150.0   90.0   50.0
200.0   120.0   50.0
200.0   90.0   50.0
200.0   90.0   33.333333333333336
150.0   90.0   50.0
200.0   120.0   50.0
200.0   90.0   33.333333333333336
150.0   120.0   33.333333333333336
150.0   120.0   0.0
200.0   120.0   0.0
150.0   150.0   0.0
150.0   120.0   16.666666666666668
200.0   120.0   0.0
200.0   150.0   0.0
150.0   150.0   0.0
200.0   150.0   16.666666666666668
150.0   120.0   16.666666666666668
150.0   150.0   16.666666666666668
200.0   150.0   16.666666666666668
150.0   150.0   0.0
150.0   120.0   16.666666666666668
200.0   150.0   16.666666666666668
200.0   120.0   16.666666666666668
200.0   120.0   0.0
150.0   120.0   16.666666666666668
200.0   150.0   16.666666666666668
200.0   120.0   0.0
150.0   150.0   0.0
150.0   120.0   16.666666666666668
200.0   120.0   16.666666666666668
150.0   150.0   16.666666666666668
150.0   120.0   33.333333333333336
200.0   120.0   16.666666666666668
200.0   150.0   16.666666666666668
150.0   150.0   16.666666666666668
200.0   150.0   33.333333333333336
150.0   120.0   33.333333333333336
150.0   150.0   33.333333333333336
200.0   150.0   33.333333333333336
150.0   150.0   16.666666666666668
150.0   120.0   33.333333333333336
200.0   150.0   33.333333333333336
200.0   120.0   33.333333333333336
200.0   120.0   16.666666666666668
150.0   120.0   33.333333333333336
200.0   150.0   33.333333333333336
200.0   120.0   16.666666666666668
150.0   150.0   16.666666666666668
150.0   120.0   33.333333333333336
200.0   120.0   33.333333333333336
150.0   150.0   33.333333333333336
150.0   120.0   50.0
200.0   120.0   33.333333333333336
200.0   150.0   33.333333333333336
150.0   150.0   33.333333333333336
200.0   150.0   50.0
150.0   120.0   50.0
150.0   150.0   50.0
200.0   150.0   50.0
150.0   150.0   33.333333333333336
150.0   120.0   50.0
200.0   150.0   50.0
200.0   120.0   50.0
200.0   120.0   33.333333333333336
150.0   120.0   50.0
200.0   150.0   50.0
200.0   120.0   33.333333333333336
150.0   150.0   33.333333333333336
200.0   0.0   0.0
250.0   0.0   0.0
200.0   30.0   0.0
200.0   0.0   16.666666666666668
250.0   0.0   0.0
250.0   30.0   0.0
200.0   30.0   0.0
250.0   30.0   16.666666666666668
200.0   0.0   16.666666666666668
200.0   30.0   16.666666666666668
250.0   30.0   16.666666666666668
200.0   30.0   0.0
200.0   0.0   16.666666666666668
250.0   30.0   16.666666666666668
250.0   0.0   16.666666666666668
250.0   0.0   0.0
200.0   0.0   16.666666666666668
250.0   30.0   16.666666666666668
250.0   0.0   0.0
200.0   30.0   0.0
200.0   0.0   16.666666666666668
250.0   0.0   16.666666666666668
200.0   30.0   16.666666666666668
200.0   0.0   33.333333333333336
250.0   0.0   16.666666666666668
250.0   30.0   16.666666666666668
200.0   30.0   16.666666666666668
250.0   30.0   33.333333333333336
200.0   0.0   33.333333333333336
200.0   30.0   33.333333333333336
250.0   30.0   33.333333333333336
200.0   30.0   16.666666666666668
200.0   0.0   33.333333333333336
250.0   30.0   33.333333333333336
250.0   0.0   33.333333333333336
250.0   0.0   16.666666666666668
200.0   0.0   33.333333333333336
250.0   30.0   33.333333333333336
250.0   0.0   16.666666666666668
200.0   30.0   16.666666666666668
200.0   0.0   33.333333333333336
250.0   0.0   33.333333333333336
200.0   30.0   33.333333333333336
200.0   0.0   50.0
250.0   0.0   33.333333333333336
250.0   30.0   33.333333333333336
200.0   30.0   33.333333333333336
250.0   30.0   50.0
200.0   0.0   50.0
200.0   30.0   50.0
250.0   30.0   50.0
200.0   30.0   33.333333333333336
200.0   0.0   50.0
250.0   30.0   50.0
250.0   0.0   50.0
250.0   0.0   33.333333333333336
200.0   0.0   50.0
250.0   30.0   50.0
250.0   0.0   33.333333333333336
200.0   30.0   33.333333333333336
200.0   30.0   0.0
250.0   30.0   0.0
200.0   60.0   0.0
200.0   30.0   16.666666666666668
250.0   30.0   0.0
250.0   60.0   0.0
200.0   60.0   0.0
250.0   60.0   16.666666666666668
200.0   30.0   16.666666666666668
200.0   60.0   16.666666666666668
250.0   60.0   16.666666666666668
200.0   60.0   0.0
200.0   30.0   16.666666666666668
250.0   60.0   16.666666666666668
250.0   30.0   16.666666666666668
250.0   30.0   0.0
200.0   30.0   16.666666666666668
250.0   60.0   16.666666666666668
250.0   30.0   0.0
200.0   60.0   0.0
200.0   30.0   16.666666666666668
250.0   30.0   16.666666666666668
200.0   60.0   16.666666666666668
200.0   30.0   33.333333333333336
250.0   30.0   16.666666666666668
250.0   60.0   16.666666666666668
200.0   60.0   16.666666666666668
250.0   60.0   33.333333333333336
200.0   30.0   33.333333333333336
200.0   60.0   33.333333333333336
250.0   60.0   33.333333333333336
200.0   60.0   16.666666666666668
200.0   30.0   33.333333333333336
250.0   60.0   33.333333333333336
250.0   30.0   33.333333333333336
250.0   30.0   16.666666666666668
200.0   30.0   33.333333333333336
250.0   60.0   33.333333333333336
250.0   30.0   16.666666666666668
200.0   60.0   16.666666666666668
200.0   30.0   33.333333333333336
250.0   30.0   33.333333333333336
200.0   60.0   33.333333333333336
200.0   30.0   50.0
250.0   30.0   33.333333333333336
250.0   60.0   33.333333333333336
200.0   60.0   33.333333333333336
250.0   60.0   50.0
200.0   30.0   50.0
200.0   60.0   50.0
250.0   60.0   50.0
200.0   60.0   33.333333333333336
200.0   30.0   50.0
250.0   60.0   50.0
250.0   30.0   50.0
250.0   30.0   33.333333333333336
200.0   30.0   50.0
250.0   60.0   50.0
250.0   30.0   33.333333333333336
200.0   60.0   33.333333333333336
200.0   60.0   0.0
250.0   60.0   0.0
200.0   90.0   0.0
200.0   60.0   16.666666666666668
250.0   60.0   0.0
250.0   90.0   0.0
200.0   90.0   0.0
250.0   90.0   16.666666666666668
200.0   60.0   16.666666666666668
200.0   90.0   16.666666666666668
250.0   90.0   16.666666666666668
200.0   90.0   0.0
200.0   60.0   16.666666666666668
250.0   90.0   16.666666666666668
250.0   60.0   16.666666666666668
250.0   60.0   0.0
200.0   60.0   16.666666666666668
250.0   90.0   16.666666666666668
250.0   60.0   0.0
200.0   90.0   0.0
200.0   60.0   16.666666666666668
250.0   60.0   16.666666666666668
200.0   90.0   16.666666666666668
200.0   60.0   33.333333333333336
250.0   60.0   16.666666666666668
250.0   90.0   16.666666666666668
200.0   90.0   16.666666666666668
250.0   90.0   33.333333333333336
200.0   60.0   33.333333333333336
200.0   90.0   33.333333333333336
250.0   90.0   33.333333333333336
200.0   90.0   16.666666666666668
200.0   60.0   33.333333333333336
250.0   90.0   33.333333333333336
250.0   60.0   33.333333333333336
250.0   60.0   16.666666666666668
200.0   60.0   33.333333333333336
250.0   90.0   33.333333333333336
250.0   60.0   16.666666666666668
200.0   90.0   16.666666666666668
200.0   60.0   33.333333333333336
250.0   60.0   33.333333333333336
200.0   90.0   33.333333333333336
200.0   60.0   50.0
250.0   60.0   33.333333333333336
250.0   90.0   33.333333333333336
200.0   90.0   33.333333333333336
250.0   90.0   50.0
200.0   60.0   50.0
200.0   90.0   50.0
250.0   90.0   50.0
200.0   90.0   33.333333333333336
200.0   60.0   50.0
250.0   90.0   50.0
250.0   60.0   50.0
250.0   60.0   33.333333333333336
200.0   60.0   50.0
250.0   90.0   50.0
250.0   60.0   33.333333333333336
200.0   90.0   33.333333333333336
200.0   90.0   0.0
250.0   90.0   0.0
200.0   120.0   0.0
200.0   90.0   16.666666666666668
250.0   90.0   0.0
250.0   120.0   0.0
200.0   120.0   0.0
250.0   120.0   16.666666666666668
200.0   90.0   16.666666666666668
200.0   120.0   16.666666666666668
250.0   120.0   16.666666666666668
200.0   120.0   0.0
200.0   90.0   16.666666666666668
250.0   120.0   16.666666666666668
250.0   90.0   16.666666666666668
250.0   90.0   0.0
200.0   90.0   16.666666666666668
250.0   120.0   16.666666666666668
250.0   90.0   0.0
200.0   120.0   0.0
200.0   90.0   16.666666666666668
250.0   90.0   16.666666666666668
200.0   120.0   16.666666666666668
200.0   90.0   33.333333333333336
250.0   90.0   16.666666666666668
250.0   120.0   16.666666666666668
200.0   120.0   16.666666666666668
250.0   120.0   33.333333333333336
200.0   90.0   33.333333333333336
200.0   120.0   33.333333333333336
250.0   120.0   33.333333333333336
200.0   120.0   16.666666666666668
200.0   90.0   33.333333333333336
250.0   120.0   33.333333333333336
250.0   90.0   33.333333333333336
250.0   90.0   16.666666666666668
200.0   90.0   33.333333333333336
250.0   120.0   33.333333333333336
250.0   90.0   16.666666666666668
200.0   120.0   16.666666666666668
200.0   90.0   33.333333333333336
250.0   90.0   33.333333333333336
200.0   120.0   33.333333333333336
200.0   90.0   50.0
250.0   90.0   33.333333333333336
250.0   120.0   33.333333333333336
200.0   120.0   33.333333333333336
250.0   120.0   50.0
200.0   90.0   50.0
200.0   120.0   50.0
250.0   120.0   50.0
200.0   120.0   33.333333333333336
200.0   90.0   50.0
250.0   120.0   50.0
250.0   90.0   50.0
250.0   90.0   33.333333333333336
200.0   90.0   50.0
250.0   120.0   50.0
250.0   90.0   33.333333333333336
200.0   120.0   33.333333333333336
200.0   120.0   0.0
250.0   120.0   0.0
200.0   150.0   0.0
200.0   120.0   16.666666666666668
250.0   120.0   0.0
250.0   150.0   0.0
200.0   150.0   0.0
250.0   150.0   16.666666666666668
200.0   120.0   16.666666666666668
200.0   150.0   16.666666666666668
250.0   150.0   16.666666666666668
200.0   150.0   0.0
200.0   120.0   16.666666666666668
250.0   150.0   16.666666666666668
250.0   120.0   16.666666666666668
250.0   120.0   0.0
200.0   120.0   16.666666666666668
250.0   150.0   16.666666666666668
250.0   120.0   0.0
200.0   150.0   0.0
200.0   120.0   16.666666666666668
250.0   120.0   16.666666666666668
200.0   150.0   16.666666666666668
200.0   120.0   33.333333333333336
250.0   120.0   16.666666666666668
250.0   150.0   16.666666666666668
200.0   150.0   16.666666666666668
250.0   150.0   33.333333333333336
200.0   120.0   33.333333333333336
200.0   150.0   33.333333333333336
250.0   150.0   33.333333333333336
200.0   150.0   16.666666666666668
200.0   120.0   33.333333333333336
250.0   150.0   33.333333333333336
250.0   120.0   33.333333333333336
250.0   120.0   16.666666666666668
200.0   120.0   33.333333333333336
250.0   150.0   33.333333333333336
250.0   120.0   16.666666666666668
200.0   150.0   16.666666666666668
200.0   120.0   33.333333333333336
250.0   120.0   33.333333333333336
200.0   150.0   33.333333333333336
200.0   120.0   50.0
250.0   120.0   33.333333333333336
250.0   150.0   33.333333333333336
200.0   150.0   33.333333333333336
250.0   150.0   50.0
200.0   120.0   50.0
200.0   150.0   50.0
250.0   150.0   50.0
200.0   150.0   33.333333333333336
200.0   120.0   50.0
250.0   150.0   50.0
250.0   120.0   50.0
250.0   120.0   33.333333333333336
200.0   120.0   50.0
250.0   150.0   50.0
250.0   120.0   33.333333333333336
200.0   150.0   33.333333333333336
250.0   0.0   0.0
300.0   0.0   0.0
250.0   30.0   0.0
250.0   0.0   16.666666666666668
300.0   0.0   0.0
300.0   30.0   0.0
250.0   30.0   0.0
300.0   30.0   16.666666666666668
250.0   0.0   16.666666666666668
250.0   30.0   16.666666666666668
300.0   30.0   16.666666666666668
250.0   30.0   0.0
250.0   0.0   16.666666666666668
300.0   30.0   16.666666666666668
300.0   0.0   16.666666666666668
300.0   0.0   0.0
250.0   0.0   16.666666666666668
300.0   30.0   16.666666666666668
300.0   0.0   0.0
250.0   30.0   0.0
250.0   0.0   16.666666666666668
300.0   0.0   16.666666666666668
250.0   30.0   16.666666666666668
250.0   0.0   33.333333333333336
300.0   0.0   16.666666666666668
300.0   30.0   16.666666666666668
250.0   30.0   16.666666666666668
300.0   30.0   33.333333333333336
250.0   0.0   33.333333333333336
250.0   30.0   33.333333333333336
300.0   30.0   33.333333333333336
250.0   30.0   16.666666666666668
250.0   0.0   33.333333333333336
300.0   30.0   33.333333333333336
300.0   0.0   33.333333333333336
300.0   0.0   16.666666666666668
250.0   0.0   33.333333333333336
300.0   30.0   33.333333333333336
300.0   0.0   16.666666666666668
250.0   30.0   16.666666666666668
250.0   0.0   33.333333333333336
300.0   0.0   33.333333333333336
250.0   30.0   33.333333333333336
250.0   0.0   50.0
300.0   0.0   33.333333333333336
300.0   30.0   33.333333333333336
250.0   30.0   33.333333333333336
300.0   30.0   50.0
250.0   0.0   50.0
250.0   30.0   50.0
300.0   30.0   50.0
250.0   30.0   33.333333333333336
250.0   0.0   50.0
300.0   30.0   50.0
300.0   0.0   50.0
300.0   0.0   33.333333333333336
250.0   0.0   50.0
300.0   30.0   50.0
300.0   0.0   33.333333333333336
250.0   30.0   33.333333333333336
250.0   30.0   0.0
300.0   30.0   0.0
250.0   60.0   0.0
250.0   30.0   16.666666666666668
300.0   30.0   0.0
300.0   60.0   0.0
250.0   60.0   0.0
300.0   60.0   16.666666666666668
250.0   30.0   16.666666666666668
250.0   60.0   16.666666666666668
300.0   60.0   16.666666666666668
250.0   60.0   0.0
250.0   30.0   16.666666666666668
300.0   60.0   16.666666666666668
300.0   30.0   16.666666666666668
300.0   30.0   0.0
250.0   30.0   16.666666666666668
300.0   60.0   16.666666666666668
300.0   30.0   0.0
250.0   60.0   0.0
250.0   30.0   16.666666666666668
300.0   30.0   16.666666666666668
250.0   60.0   16.666666666666668
250.0   30.0   33.333333333333336
300.0   30.0   16.666666666666668
300.0   60.0   16.666666666666668
250.0   60.0   16.666666666666668
300.0   60.0   33.333333333333336
250.0   30.0   33.333333333333336
250.0   60.0   33.333333333333336
300.0   60.0   33.333333333333336
250.0   60.0   16.666666666666668
250.0   30.0   33.333333333333336
300.0   60.0   33.333333333333336
300.0   30.0   33.333333333333336
300.0   30.0   16.666666666666668
250.0   30.0   33.333333333333336
300.0   60.0   33.333333333333336
300.0   30.0   16.666666666666668
250.0   60.0   16.666666666666668
250.0   30.0   33.333333333333336
300.0   30.0   33.333333333333336
250.0   60.0   33.333333333333336
250.0   30.0   50.0
300.0   30.0   33.333333333333336
300.0   60.0   33.333333333333336
250.0   60.0   33.333333333333336
300.0   60.0   50.0
250.0   30.0   50.0
250.0   60.0   50.0
300.0   60.0   50.0
250.0   60.0   33.333333333333336
250.0   30.0   50.0
300.0   60.0   50.0
300.0   30.0   50.0
300.0   30.0   33.333333333333336
250.0   30.0   50.0
300.0   60.0   50.0
300.0   30.0   33.333333333333336
250.0   60.0   33.333333333333336
250.0   60.0   0.0
300.0   60.0   0.0
250.0   90.0   0.0
250.0   60.0   16.666666666666668
300.0   60.0   0.0
300.0   90.0   0.0
250.0   90.0   0.0
300.0   90.0   16.666666666666668
250.0   60.0   16.666666666666668
250.0   90.0   16.666666666666668
300.0   90.0   16.666666666666668
250.0   90.0   0.0
250.0   60.0   16.666666666666668
300.0   90.0   16.666666666666668
300.0   60.0   16.666666666666668
300.0   60.0   0.0
250.0   60.0   16.666666666666668
300.0   90.0   16.666666666666668
300.0   60.0   0.0
250.0   90.0   0.0
250.0   60.0   16.666666666666668
300.0   60.0   16.666666666666668
250.0   90.0   16.666666666666668
250.0   60.0   33.333333333333336
300.0   60.0   16.666666666666668
300.0   90.0   16.666666666666668
250.0   90.0   16.666666666666668
300.0   90.0   33.333333333333336
250.0   60.0   33.333333333333336
250.0   90.0   33.333333333333336
300.0   90.0   33.333333333333336
250.0   90.0   16.666666666666668
250.0   60.0   33.333333333333336
300.0   90.0   33.333333333333336
300.0   60.0   33.333333333333336
300.0   60.0   16.666666666666668
250.0   60.0   33.333333333333336
300.0   90.0   33.333333333333336
300.0   60.0   16.666666666666668
250.0   90.0   16.666666666666668
250.0   60.0   33.333333333333336
300.0   60.0   33.333333333333336
250.0   90.0   33.333333333333336
250.0   60.0   50.0
300.0   60.0   33.333333333333336
300.0   90.0   33.333333333333336
250.0   90.0   33.333333333333336
300.0   90.0   50.0
250.0   60.0   50.0
250.0   90.0   50.0
300.0   90.0   50.0
250.0   90.0   33.333333333333336
250.0   60.0   50.0
300.0   90.0   50.0
300.0   60.0   50.0
300.0   60.0   33.333333333333336
250.0   60.0   50.0
300.0   90.0   50.0
300.0   60.0   33.333333333333336
250.0   90.0   33.333333333333336
250.0   90.0   0.0
300.0   90.0   0.0
250.0   120.0   0.0
250.0   90.0   16.666666666666668
300.0   90.0   0.0
300.0   120.0   0.0
250.0   120.0   0.0
300.0   120.0   16.666666666666668
250.0   90.0   16.666666666666668
250.0   120.0   16.666666666666668
300.0   120.0   16.666666666666668
250.0   120.0   0.0
250.0   90.0   16.666666666666668
300.0   120.0   16.666666666666668
300.0   90.0   16.666666666666668
300.0   90.0   0.0
250.0   90.0   16.666666666666668
300.0   120.0   16.666666666666668
300.0   90.0   0.0
250.0   120.0   0.0
250.0   90.0   16.666666666666668
300.0   90.0   16.666666666666668
250.0   120.0   16.666666666666668
250.0   90.0   33.333333333333336
300.0   90.0   16.666666666666668
300.0   120.0   16.666666666666668
250.0   120.0   16.666666666666668
300.0   120.0   33.333333333333336
250.0   90.0   33.333333333333336
250.0   120.0   33.333333333333336
300.0   120.0   33.333333333333336
250.0   120.0   16.666666666666668
250.0   90.0   33.333333333333336
300.0   120.0   33.333333333333336
300.0   90.0   33.333333333333336
300.0   90.0   16.666666666666668
250.0   90.0   33.333333333333336
300.0   120.0   33.333333333333336
300.0   90.0   16.666666666666668
250.0   120.0   16.666666666666668
250.0   90.0   33.333333333333336
300.0   90.0   33.333333333333336
250.0   120.0   33.333333333333336
250.0   90.0   50.0
300.0   90.0   33.333333333333336
300.0   120.0   33.333333333333336
250.0   120.0   33.333333333333336
300.0   120.0   50.0
250.0   90.0   50.0
250.0   120.0   50.0
300.0   120.0   50.0
250.0   120.0   33.333333333333336
250.0   90.0   50.0
300.0   120.0   50.0
300.0   90.0   50.0
300.0   90.0   33.333333333333336
250.0   90.0   50.0
300.0   120.0   50.0
300.0   90.0   33.333333333333336
250.0   120.0   33.333333333333336
250.0   120.0   0.0
300.0   120.0   0.0
250.0   150.0   0.0
250.0   120.0   16.666666666666668
300.0   120.0   0.0
300.0   150.0   0.0
250.0   150.0   0.0
300.0   150.0   16.666666666666668
250.0   120.0   16.666666666666668
250.0   150.0   16.666666666666668
300.0   150.0   16.666666666666668
250.0   150.0   0.0
250.0   120.0   16.666666666666668
300.0   150.0   16.666666666666668
300.0   120.0   16.666666666666668
300.0   120.0   0.0
250.0   120.0   16.666666666666668
300.0   150.0   16.666666666666668
300.0   120.0   0.0
250.0   150.0   0.0
250.0   120.0   16.666666666666668
300.0   120.0   16.666666666666668
250.0   150.0   16.666666666666668
250.0   120.0   33.333333333333336
300.0   120.0   16.666666666666668
300.0   150.0   16.666666666666668
250.0   150.0   16.666666666666668
300.0   150.0   33.333333333333336
250.0   120.0   33.333333333333336
250.0   150.0   33.333333333333336
300.0   150.0   33.333333333333336
250.0   150.0   16.666666666666668
250.0   120.0   33.333333333333336
300.0   150.0   33.333333333333336
300.0   120.0   33.333333333333336
300.0   120.0   16.666666666666668
250.0   120.0   33.333333333333336
300.0   150.0   33.333333333333336
300.0   120.0   16.666666666666668
250.0   150.0   16.666666666666668
250.0   120.0   33.333333333333336
300.0   120.0   33.333333333333336
250.0   150.0   33.333333333333336
250.0   120.0   50.0
300.0   120.0   33.333333333333336
300.0   150.0   33.333333333333336
250.0   150.0   33.333333333333336
300.0   150.0   50.0
250.0   120.0   50.0
250.0   150.0   50.0
300.0   150.0   50.0
250.0   150.0   33.333333333333336
250.0   120.0   50.0
300.0   150.0   50.0
300.0   120.0   50.0
300.0   120.0   33.333333333333336
250.0   120.0   50.0
300.0   150.0   50.0
300.0   120.0   33.333333333333336
250.0   150.0   33.333333333333336
300.0   0.0   0.0
350.0   0.0   0.0
300.0   30.0   0.0
300.0   0.0   16.666666666666668
350.0   0.0   0.0
350.0   30.0   0.0
300.0   30.0   0.0
350.0   30.0   16.666666666666668
300.0   0.0   16.666666666666668
300.0   30.0   16.666666666666668
350.0   30.0   16.666666666666668
300.0   30.0   0.0
300.0   0.0   16.666666666666668
350.0   30.0   16.666666666666668
350.0   0.0   16.666666666666668
350.0   0.0   0.0
300.0   0.0   16.666666666666668
350.0   30.0   16.666666666666668
350.0   0.0   0.0
300.0   30.0   0.0
300.0   0.0   16.666666666666668
350.0   0.0   16.666666666666668
300.0   30.0   16.666666666666668
300.0   0.0   33.333333333333336
350.0   0.0   16.666666666666668
350.0   30.0   16.666666666666668
300.0   30.0   16.666666666666668
350.0   30.0   33.333333333333336
300.0   0.0   33.333333333333336
300.0   30.0   33.333333333333336
350.0   30.0   33.333333333333336
300.0   30.0   16.666666666666668
300.0   0.0   33.333333333333336
350.0   30.0   33.333333333333336
350.0   0.0   33.333333333333336
350.0   0.0   16.666666666666668
300.0   0.0   33.333333333333336
350.0   30.0   33.333333333333336
350.0   0.0   16.666666666666668
300.0   30.0   16.666666666666668
300.0   0.0   33.333333333333336
350.0   0.0   33.333333333333336
300.0   30.0   33.333333333333336
300.0   0.0   50.0
350.0   0.0   33.333333333333336
350.0   30.0   33.333333333333336
300.0   30.0   33.333333333333336
350.0   30.0   50.0
300.0   0.0   50.0
300.0   30.0   50.0
350.0   30.0   50.0
300.0   30.0   33.333333333333336
300.0   0.0   50.0
350.0   30.0   50.0
350.0   0.0   50.0
350.0   0.0   33.333333333333336
300.0   0.0   50.0
350.0   30.0   50.0
350.0   0.0   33.333333333333336
300.0   30.0   33.333333333333336
300.0   30.0   0.0
350.0   30.0   0.0
300.0   60.0   0.0
300.0   30.0   16.666666666666668
350.0   30.0   0.0
350.0   60.0   0.0
300.0   60.0   0.0
350.0   60.0   16.666666666666668
300.0   30.0   16.666666666666668
300.0   60.0   16.666666666666668
350.0   60.0   16.666666666666668
300.0   60.0   0.0
300.0   30.0   16.666666666666668
350.0   60.0   16.666666666666668
350.0   30.0   16.666666666666668
350.0   30.0   0.0
300.0   30.0   16.666666666666668
350.0   60.0   16.666666666666668
350.0   30.0   0.0
300.0   60.0   0.0
300.0   30.0   16.666666666666668
350.0   30.0   16.666666666666668
300.0   60.0   16.666666666666668
300.0   30.0   33.333333333333336
350.0   30.0   16.666666666666668
350.0   60.0   16.666666666666668
300.0   60.0   16.666666666666668
350.0   60.0   33.333333333333336
300.0   30.0   33.333333333333336
300.0   60.0   33.333333333333336
350.0   60.0   33.333333333333336
300.0   60.0   16.666666666666668
300.0   30.0   33.333333333333336
350.0   60.0   33.333333333333336
350.0   30.0   33.333333333333336
350.0   30.0   16.666666666666668
300.0   30.0   33.333333333333336
350.0   60.0   33.333333333333336
350.0   30.0   16.666666666666668
300.0   60.0   16.666666666666668
300.0   30.0   33.333333333333336
350.0   30.0   33.333333333333336
300.0   60.0   33.333333333333336
300.0   30.0   50.0
350.0   30.0   33.333333333333336
350.0   60.0   33.333333333333336
300.0   60.0   33.333333333333336
350.0   60.0   50.0
300.0   30.0   50.0
300.0   60.0   50.0
350.0   60.0   50.0
300.0   60.0   33.333333333333336
300.0   30.0   50.0
350.0   60.0   50.0
350.0   30.0   50.0
350.0   30.0   33.333333333333336
300.0   30.0   50.0
350.0   60.0   50.0
350.0   30.0   33.333333333333336
300.0   60.0   33.333333333333336
300.0   60.0   0.0
350.0   60.0   0.0
300.0   90.0   0.0
300.0   60.0   16.666666666666668
350.0   60.0   0.0
350.0   90.0   0.0
300.0   90.0   0.0
350.0   90.0   16.666666666666668
300.0   60.0   16.666666666666668
300.0   90.0   16.666666666666668
350.0   90.0   16.666666666666668
300.0   90.0   0.0
300.0   60.0   16.666666666666668
350.0   90.0   16.666666666666668
350.0   60.0   16.666666666666668
350.0   60.0   0.0
300.0   60.0   16.666666666666668
350.0   90.0   16.666666666666668
350.0   60.0   0.0
300.0   90.0   0.0
300.0   60.0   16.666666666666668
350.0   60.0   16.666666666666668
300.0   90.0   16.666666666666668
300.0   60.0   33.333333333333336
350.0   60.0   16.666666666666668
350.0   90.0   16.666666666666668
300.0   90.0   16.666666666666668
350.0   90.0   33.333333333333336
300.0   60.0   33.333333333333336
300.0   90.0   33.333333333333336
350.0   90.0   33.333333333333336
300.0   90.0   16.666666666666668
300.0   60.0   33.333333333333336
350.0   90.0   33.333333333333336
350.0   60.0   33.333333333333336
350.0   60.0   16.666666666666668
300.0   60.0   33.333333333333336
350.0   90.0   33.333333333333336
350.0   60.0   16.666666666666668
300.0   90.0   16.666666666666668
300.0   60.0   33.333333333333336
350.0   60.0   33.333333333333336
300.0   90.0   33.333333333333336
300.0   60.0   50.0
350.0   60.0   33.333333333333336
350.0   90.0   33.333333333333336
300.0   90.0   33.333333333333336
350.0   90.0   50.0
300.0   60.0   50.0
300.0   90.0   50.0
350.0   90.0   50.0
300.0   90.0   33.333333333333336
300.0   60.0   50.0
350.0   90.0   50.0
350.0   60.0   50.0
350.0   60.0   33.333333333333336
300.0   60.0   50.0
350.0   90.0   50.0
350.0   60.0   33.333333333333336
300.0   90.0   33.333333333333336
300.0   90.0   0.0
350.0   90.0   0.0
300.0   120.0   0.0
300.0   90.0   16.666666666666668
350.0   90.0   0.0
350.0   120.0   0.0
300.0   120.0   0.0
350.0   120.0   16.666666666666668
300.0   90.0   16.666666666666668
300.0   120.0   16.666666666666668
350.0   120.0   16.666666666666668
300.0   120.0   0.0
300.0   90.0   16.666666666666668
350.0   120.0   16.666666666666668
350.0   90.0   16.666666666666668
350.0   90.0   0.0
300.0   90.0   16.666666666666668
350.0   120.0   16.666666666666668
350.0   90.0   0.0
300.0   120.0   0.0
300.0   90.0   16.666666666666668
350.0   90.0   16.666666666666668
300.0   120.0   16.666666666666668
300.0   90.0   33.333333333333336
350.0   90.0   16.666666666666668
350.0   120.0   16.666666666666668
300.0   120.0   16.666666666666668
350.0   120.0   33.333333333333336
300.0   90.0   33.333333333333336
300.0   120.0   33.333333333333336
350.0   120.0   33.333333333333336
300.0   120.0   16.666666666666668
300.0   90.0   33.333333333333336
350.0   120.0   33.333333333333336
350.0   90.0   33.333333333333336
350.0   90.0   16.666666666666668
300.0   90.0   33.333333333333336
350.0   120.0   33.333333333333336
350.0   90.0   16.666666666666668
300.0   120.0   16.666666666666668
300.0   90.0   33.333333333333336
350.0   90.0   33.333333333333336
300.0   120.0   33.333333333333336
300.0   90.0   50.0
350.0   90.0   33.333333333333336
350.0   120.0   33.333333333333336
300.0   120.0   33.333333333333336
350.0   120.0   50.0
300.0   90.0   50.0
300.0   120.0   50.0
350.0   120.0   50.0
300.0   120.0   33.333333333333336
300.0   90.0   50.0
350.0   120.0   50.0
350.0   90.0   50.0
350.0   90.0   33.333333333333336
300.0   90.0   50.0
350.0   120.0   50.0
350.0   90.0   33.333333333333336
300.0   120.0   33.333333333333336
300.0   120.0   0.0
350.0   120.0   0.0
300.0   150.0   0.0
300.0   120.0   16.666666666666668
350.0   120.0   0.0
350.0   150.0   0.0
300.0   150.0   0.0
350.0   150.0   16.666666666666668
300.0   120.0   16.666666666666668
300.0   150.0   16.666666666666668
350.0   150.0   16.666666666666668
300.0   150.0   0.0
300.0   120.0   16.666666666666668
350.0   150.0   16.666666666666668
350.0   120.0   16.666666666666668
350.0   120.0   0.0
300.0   120.0   16.666666666666668
350.0   150.0   16.666666666666668
350.0   120.0   0.0
300.0   150.0   0.0
300.0   120.0   16.666666666666668
350.0   120.0   16.666666666666668
300.0   150.0   16.666666666666668
300.0   120.0   33.333333333333336
350.0   120.0   16.666666666666668
350.0   150.0   16.666666666666668
300.0   150.0   16.666666666666668
350.0   150.0   33.333333333333336
300.0   120.0   33.333333333333336
300.0   150.0   33.333333333333336
350.0   150.0   33.333333333333336
300.0   150.0   16.666666666666668
300.0   120.0   33.333333333333336
350.0   150.0   33.333333333333336
350.0   120.0   33.333333333333336
350.0   120.0   16.666666666666668
300.0   120.0   33.333333333333336
350.0   150.0   33.333333333333336
350.0   120.0   16.666666666666668
300.0   150.0   16.666666666666668
300.0   120.0   33.333333333333336
350.0   120.0   33.333333333333336
300.0   150.0   33.333333333333336
300.0   120.0   50.0
350.0   120.0   33.333333333333336
350.0   150.0   33.333333333333336
300.0   150.0   33.333333333333336
350.0   150.0   50.0
300.0   120.0   50.0
300.0   150.0   50.0
350.0   150.0   50.0
300.0   150.0   33.333333333333336
300.0   120.0   50.0
350.0   150.0   50.0
350.0   120.0   50.0
350.0   120.0   33.333333333333336
300.0   120.0   50.0
350.0   150.0   50.0
350.0   120.0   33.333333333333336
300.0   150.0   33.333333333333336
350.0   0.0   0.0
400.0   0.0   0.0
350.0   30.0   0.0
350.0   0.0   16.666666666666668
400.0   0.0   0.0
400.0   30.0   0.0
350.0   30.0   0.0
400.0   30.0   16.666666666666668
350.0   0.0   16.666666666666668
350.0   30.0   16.666666666666668
400.0   30.0   16.666666666666668
350.0   30.0   0.0
350.0   0.0   16.666666666666668
400.0   30.0   16.666666666666668
400.0   0.0   16.666666666666668
400.0   0.0   0.0
350.0   0.0   16.666666666666668
400.0   30.0   16.666666666666668
400.0   0.0   0.0
350.0   30.0   0.0
350.0   0.0   16.666666666666668
400.0   0.0   16.666666666666668
350.0   30.0   16.666666666666668
350.0   0.0   33.333333333333336
400.0   0.0   16.666666666666668
400.0   30.0   16.666666666666668
350.0   30.0   16.666666666666668
400.0   30.0   33.333333333333336
350.0   0.0   33.333333333333336
350.0   30.0   33.333333333333336
400.0   30.0   33.333333333333336
350.0   30.0   16.666666666666668
350.0   0.0   33.333333333333336
400.0   30.0   33.333333333333336
400.0   0.0   33.333333333333336
400.0   0.0   16.666666666666668
350.0   0.0   33.333333333333336
400.0   30.0   33.333333333333336
400.0   0.0   16.666666666666668
350.0   30.0   16.666666666666668
350.0   0.0   33.333333333333336
400.0   0.0   33.333333333333336
350.0   30.0   33.333333333333336
350.0   0.0   50.0
400.0   0.0   33.333333333333336
400.0   30.0   33.333333333333336
350.0   30.0   33.333333333333336
400.0   30.0   50.0
350.0   0.0   50.0
350.0   30.0   50.0
400.0   30.0   50.0
350.0   30.0   33.333333333333336
350.0   0.0   50.0
400.0   30.0   50.0
400.0   0.0   50.0
400.0   0.0   33.333333333333336
350.0   0.0   50.0
400.0   30.0   50.0
400.0   0.0   33.333333333333336
350.0   30.0   33.333333333333336
350.0   30.0   0.0
400.0   30.0   0.0
350.0   60.0   0.0
350.0   30.0   16.666666666666668
400.0   30.0   0.0
400.0   60.0   0.0
350.0   60.0   0.0
400.0   60.0   16.666666666666668
350.0   30.0   16.666666666666668
350.0   60.0   16.666666666666668
400.0   60.0   16.666666666666668
350.0   60.0   0.0
350.0   30.0   16.666666666666668
400.0   60.0   16.666666666666668
400.0   30.0   16.666666666666668
400.0   30.0   0.0
350.0   30.0   16.666666666666668
400.0   60.0   16.666666666666668
400.0   30.0   0.0
350.0   60.0   0.0
350.0   30.0   16.666666666666668
400.0   30.0   16.666666666666668
350.0   60.0   16.666666666666668
350.0   30.0   33.333333333333336
400.0   30.0   16.666666666666668
400.0   60.0   16.666666666666668
350.0   60.0   16.666666666666668
400.0   60.0   33.333333333333336
350.0   30.0   33.333333333333336
350.0   60.0   33.333333333333336
400.0   60.0   33.333333333333336
350.0   60.0   16.666666666666668
350.0   30.0   33.333333333333336
400.0   60.0   33.333333333333336
400.0   30.0   33.333333333333336
400.0   30.0   16.666666666666668
350.0   30.0   33.333333333333336
400.0   60.0   33.333333333333336
400.0   30.0   16.666666666666668
350.0   60.0   16.666666666666668
350.0   30.0   33.333333333333336
400.0   30.0   33.333333333333336
350.0   60.0   33.333333333333336
350.0   30.0   50.0
400.0   30.0   33.333333333333336
400.0   60.0   33.333333333333336
350.0   60.0   33.333333333333336
400.0   60.0   50.0
350.0   30.0   50.0
350.0   60.0   50.0
400.0   60.0   50.0
350.0   60.0   33.333333333333336
350.0   30.0   50.0
400.0   60.0   50.0
400.0   30.0   50.0
400.0   30.0   33.333333333333336
350.0   30.0   50.0
400.0   60.0   50.0
400.0   30.0   33.333333333333336
350.0   60.0   33.333333333333336
350.0   60.0   0.0
400.0   60.0   0.0
350.0   90.0   0.0
350.0   60.0   16.666666666666668
400.0   60.0   0.0
400.0   90.0   0.0
350.0   90.0   0.0
400.0   90.0   16.666666666666668
350.0   60.0   16.666666666666668
350.0   90.0   16.666666666666668
400.0   90.0   16.666666666666668
350.0   90.0   0.0
350.0   60.0   16.666666666666668
400.0   90.0   16.666666666666668
400.0   60.0   16.666666666666668
400.0   60.0   0.0
350.0   60.0   16.666666666666668
400.0   90.0   16.666666666666668
400.0   60.0   0.0
350.0   90.0   0.0
350.0   60.0   16.666666666666668
400.0   60.0   16.666666666666668
350.0   90.0   16.666666666666668
350.0   60.0   33.333333333333336
400.0   60.0   16.666666666666668
400.0   90.0   16.666666666666668
350.0   90.0   16.666666666666668
400.0   90.0   33.333333333333336
350.0   60.0   33.333333333333336
350.0   90.0   33.333333333333336
400.0   90.0   33.333333333333336
350.0   90.0   16.666666666666668
350.0   60.0   33.333333333333336
400.0   90.0   33.333333333333336
400.0   60.0   33.333333333333336
400.0   60.0   16.666666666666668
350.0   60.0   33.333333333333336
400.0   90.0   33.333333333333336
400.0   60.0   16.666666666666668
350.0   90.0   16.666666666666668
350.0   60.0   33.333333333333336
400.0   60.0   33.333333333333336
350.0   90.0   33.333333333333336
350.0   60.0   50.0
400.0   60.0   33.333333333333336
400.0   90.0   33.333333333333336
350.0   90.0   33.333333333333336
400.0   90.0   50.0
350.0   60.0   50.0
350.0   90.0   50.0
400.0   90.0   50.0
350.0   90.0   33.333333333333336
350.0   60.0   50.0
400.0   90.0   50.0
400.0   60.0   50.0
400.0   60.0   33.333333333333336
350.0   60.0   50.0
400.0   90.0   50.0
400.0   60.0   33.333333333333336
350.0   90.0   33.333333333333336
350.0   90.0   0.0
400.0   90.0   0.0
350.0   120.0   0.0
350.0   90.0   16.666666666666668
400.0   90.0   0.0
400.0   120.0   0.0
350.0   120.0   0.0
400.0   120.0   16.666666666666668
350.0   90.0   16.666666666666668
350.0   120.0   16.666666666666668
400.0   120.0   16.666666666666668
350.0   120.0   0.0
350.0   90.0   16.666666666666668
400.0   120.0   16.666666666666668
400.0   90.0   16.666666666666668
400.0   90.0   0.0
350.0   90.0   16.666666666666668
400.0   120.0   16.666666666666668
400.0   90.0   0.0
350.0   120.0   0.0
350.0   90.0   16.666666666666668
400.0   90.0   16.666666666666668
350.0   120.0   16.666666666666668
350.0   90.0   33.333333333333336
400.0   90.0   16.666666666666668
400.0   120.0   16.666666666666668
350.0   120.0   16.666666666666668
400.0   120.0   33.333333333333336
350.0   90.0   33.333333333333336
350.0   120.0   33.333333333333336
400.0   120.0   33.333333333333336
350.0   120.0   16.666666666666668
350.0   90.0   33.333333333333336
400.0   120.0   33.333333333333336
400.0   90.0   33.333333333333336
400.0   90.0   16.666666666666668
350.0   90.0   33.333333333333336
400.0   120.0   33.333333333333336
400.0   90.0   16.666666666666668
350.0   120.0   16.666666666666668
350.0   90.0   33.333333333333336
400.0   90.0   33.333333333333336
350.0   120.0   33.333333333333336
350.0   90.0   50.0
400.0   90.0   33.333333333333336
400.0   120.0   33.333333333333336
350.0   120.0   33.333333333333336
400.0   120.0   50.0
350.0   90.0   50.0
350.0   120.0   50.0
400.0   120.0   50.0
350.0   120.0   33.333333333333336
350.0   90.0   50.0
400.0   120.0   50.0
400.0   90.0   50.0
400.0   90.0   33.333333333333336
350.0   90.0   50.0
400.0   120.0   50.0
400.0   90.0   33.333333333333336
350.0   120.0   33.333333333333336
350.0   120.0   0.0
400.0   120.0   0.0
350.0   150.0   0.0
350.0   120.0   16.666666666666668
400.0   120.0   0.0
400.0   150.0   0.0
350.0   150.0   0.0
400.0   150.0   16.666666666666668
350.0   120.0   16.666666666666668
350.0   150.0   16.666666666666668
400.0   150.0   16.666666666666668
350.0   150.0   0.0
350.0   120.0   16.666666666666668
400.0   150.0   16.666666666666668
400.0   120.0   16.666666666666668
400.0   120.0   0.0
350.0   120.0   16.666666666666668
400.0   150.0   16.666666666666668
400.0   120.0   0.0
350.0   150.0   0.0
350.0   120.0   16.666666666666668
400.0   120.0   16.666666666666668
350.0   150.0   16.666666666666668
350.0   120.0   33.333333333333336
400.0   120.0   16.666666666666668
400.0   150.0   16.666666666666668
350.0   150.0   16.666666666666668
400.0   150.0   33.333333333333336
350.0   120.0   33.333333333333336
350.0   150.0   33.333333333333336
400.0   150.0   33.333333333333336
350.0   150.0   16.666666666666668
350.0   120.0   33.333333333333336
400.0   150.0   33.333333333333336
400.0   120.0   33.333333333333336
400.0   120.0   16.666666666666668
350.0   120.0   33.333333333333336
400.0   150.0   33.333333333333336
400.0   120.0   16.666666666666668
350.0   150.0   16.666666666666668
350.0   120.0   33.333333333333336
400.0   120.0   33.333333333333336
350.0   150.0   33.333333333333336
350.0   120.0   50.0
400.0   120.0   33.333333333333336
400.0   150.0   33.333333333333336
350.0   150.0   33.333333333333336
400.0   150.0   50.0
350.0   120.0   50.0
350.0   150.0   50.0
400.0   150.0   50.0
350.0   150.0   33.333333333333336
350.0   120.0   50.0
400.0   150.0   50.0
400.0   120.0   50.0
400.0   120.0   33.333333333333336
350.0   120.0   50.0
400.0   150.0   50.0
400.0   120.0   33.333333333333336
350.0   150.0   33.333333333333336
400.0   0.0   0.0
450.0   0.0   0.0
400.0   30.0   0.0
400.0   0.0   16.666666666666668
450.0   0.0   0.0
450.0   30.0   0.0
400.0   30.0   0.0
450.0   30.0   16.666666666666668
400.0   0.0   16.666666666666668
400.0   30.0   16.666666666666668
450.0   30.0   16.666666666666668
400.0   30.0   0.0
400.0   0.0   16.666666666666668
450.0   30.0   16.666666666666668
450.0   0.0   16.666666666666668
450.0   0.0   0.0
400.0   0.0   16.666666666666668
450.0   30.0   16.666666666666668
450.0   0.0   0.0
400.0   30.0   0.0
400.0   0.0   16.666666666666668
450.0   0.0   16.666666666666668
400.0   30.0   16.666666666666668
400.0   0.0   33.333333333333336
450.0   0.0   16.666666666666668
450.0   30.0   16.666666666666668
400.0   30.0   16.666666666666668
450.0   30.0   33.333333333333336
400.0   0.0   33.333333333333336
400.0   30.0   33.333333333333336
450.0   30.0   33.333333333333336
400.0   30.0   16.666666666666668
400.0   0.0   33.333333333333336
450.0   30.0   33.333333333333336
450.0   0.0   33.333333333333336
450.0   0.0   16.666666666666668
400.0   0.0   33.333333333333336
450.0   30.0   33.333333333333336
450.0   0.0   16.666666666666668
400.0   30.0   16.666666666666668
400.0   0.0   33.333333333333336
450.0   0.0   33.333333333333336
400.0   30.0   33.333333333333336
400.0   0.0   50.0
450.0   0.0   33.333333333333336
450.0   30.0   33.333333333333336
400.0   30.0   33.333333333333336
450.0   30.0   50.0
400.0   0.0   50.0
400.0   30.0   50.0
450.0   30.0   50.0
400.0   30.0   33.333333333333336
400.0   0.0   50.0
450.0   30.0   50.0
450.0   0.0   50.0
450.0   0.0   33.333333333333336
400.0   0.0   50.0
450.0   30.0   50.0
450.0   0.0   33.333333333333336
400.0   30.0   33.333333333333336
400.0   30.0   0.0
450.0   30.0   0.0
400.0   60.0   0.0
400.0   30.0   16.666666666666668
450.0   30.0   0.0
450.0   60.0   0.0
400.0   60.0   0.0
450.0   60.0   16.666666666666668
400.0   30.0   16.666666666666668
400.0   60.0   16.666666666666668
450.0   60.0   16.666666666666668
400.0   60.0   0.0
400.0   30.0   16.666666666666668
450.0   60.0   16.666666666666668
450.0   30.0   16.666666666666668
450.0   30.0   0.0
400.0   30.0   16.666666666666668
450.0   60.0   16.666666666666668
450.0   30.0   0.0
400.0   60.0   0.0
400.0   30.0   16.666666666666668
450.0   30.0   16.666666666666668
400.0   60.0   16.666666666666668
400.0   30.0   33.333333333333336
450.0   30.0   16.666666666666668
450.0   60.0   16.666666666666668
400.0   60.0   16.666666666666668
450.0   60.0   33.333333333333336
400.0   30.0   33.333333333333336
400.0   60.0   33.333333333333336
450.0   60.0   33.333333333333336
400.0   60.0   16.666666666666668
400.0   30.0   33.333333333333336
450.0   60.0   33.333333333333336
450.0   30.0   33.333333333333336
450.0   30.0   16.666666666666668
400.0   30.0   33.333333333333336
450.0   60.0   33.333333333333336
450.0   30.0   16.666666666666668
400.0   60.0   16.666666666666668
400.0   30.0   33.333333333333336
450.0   30.0   33.333333333333336
400.0   60.0   33.333333333333336
400.0   30.0   50.0
450.0   30.0   33.333333333333336
450.0   60.0   33.333333333333336
400.0   60.0   33.333333333333336
450.0   60.0   50.0
400.0   30.0   50.0
400.0   60.0   50.0
450.0   60.0   50.0
400.0   60.0   33.333333333333336
400.0   30.0   50.0
450.0   60.0   50.0
450.0   30.0   50.0
450.0   30.0   33.333333333333336
400.0   30.0   50.0
450.0   60.0   50.0
450.0   30.0   33.333333333333336
400.0   60.0   33.333333333333336
400.0   60.0   0.0
450.0   60.0   0.0
400.0   90.0   0.0
400.0   60.0   16.666666666666668
450.0   60.0   0.0
450.0   90.0   0.0
400.0   90.0   0.0
450.0   90.0   16.666666666666668
400.0   60.0   16.666666666666668
400.0   90.0   16.666666666666668
450.0   90.0   16.666666666666668
400.0   90.0   0.0
400.0   60.0   16.666666666666668
450.0   90.0   16.666666666666668
450.0   60.0   16.666666666666668
450.0   60.0   0.0
400.0   60.0   16.666666666666668
450.0   90.0   16.666666666666668
450.0   60.0   0.0
400.0   90.0   0.0
400.0   60.0   16.666666666666668
450.0   60.0   16.666666666666668
400.0   90.0   16.666666666666668
400.0   60.0   33.333333333333336
450.0   60.0   16.666666666666668
450.0   90.0   16.666666666666668
400.0   90.0   16.666666666666668
450.0   90.0   33.333333333333336
400.0   60.0   33.333333333333336
400.0   90.0   33.333333333333336
450.0   90.0   33.333333333333336
400.0   90.0   16.666666666666668
400.0   60.0   33.333333333333336
450.0   90.0   33.333333333333336
450.0   60.0   33.333333333333336
450.0   60.0   16.666666666666668
400.0   60.0   33.333333333333336
450.0   90.0   33.333333333333336
450.0   60.0   16.666666666666668
400.0   90.0   16.666666666666668
400.0   60.0   33.333333333333336
450.0   60.0   33.333333333333336
400.0   90.0   33.333333333333336
400.0   60.0   50.0
450.0   60.0   33.333333333333336
450.0   90.0   33.333333333333336
400.0   90.0   33.333333333333336
450.0   90.0   50.0
400.0   60.0   50.0
400.0   90.0   50.0
450.0   90.0   50.0
400.0   90.0   33.333333333333336
400.0   60.0   50.0
450.0   90.0   50.0
450.0   60.0   50.0
450.0   60.0   33.333333333333336
400.0   60.0   50.0
450.0   90.0   50.0
450.0   60.0   33.333333333333336
400.0   90.0   33.333333333333336
400.0   90.0   0.0
450.0   90.0   0.0
400.0   120.0   0.0
400.0   90.0   16.666666666666668
450.0   90.0   0.0
450.0   120.0   0.0
400.0   120.0   0.0
450.0   120.0   16.666666666666668
400.0   90.0   16.666666666666668
400.0   120.0   16.666666666666668
450.0   120.0   16.666666666666668
400.0   120.0   0.0
400.0   90.0   16.666666666666668
450.0   120.0   16.666666666666668
450.0   90.0   16.666666666666668
450.0   90.0   0.0
400.0   90.0   16.666666666666668
450.0   120.0   16.666666666666668
450.0   90.0   0.0
400.0   120.0   0.0
400.0   90.0   16.666666666666668
450.0   90.0   16.666666666666668
400.0   120.0   16.666666666666668
400.0   90.0   33.333333333333336
450.0   90.0   16.666666666666668
450.0   120.0   16.666666666666668
400.0   120.0   16.666666666666668
450.0   120.0   33.333333333333336
400.0   90.0   33.333333333333336
400.0   120.0   33.333333333333336
450.0   120.0   33.333333333333336
400.0   120.0   16.666666666666668
400.0   90.0   33.333333333333336
450.0   120.0   33.333333333333336
450.0   90.0   33.333333333333336
450.0   90.0   16.666666666666668
400.0   90.0   33.333333333333336
450.0   120.0   33.333333333333336
450.0   90.0   16.666666666666668
400.0   120.0   16.666666666666668
400.0   90.0   33.333333333333336
450.0   90.0   33.333333333333336
400.0   120.0   33.333333333333336
400.0   90.0   50.0
450.0   90.0   33.333333333333336
450.0   120.0   33.333333333333336
400.0   120.0   33.333333333333336
450.0   120.0   50.0
400.0   90.0   50.0
400.0   120.0   50.0
450.0   120.0   50.0
400.0   120.0   33.333333333333336
400.0   90.0   50.0
450.0   120.0   50.0
450.0   90.0   50.0
450.0   90.0   33.333333333333336
400.0   90.0   50.0
450.0   120.0   50.0
450.0   90.0   33.333333333333336
400.0   120.0   33.333333333333336
400.0   120.0   0.0
450.0   120.0   0.0
400.0   150.0   0.0
400.0   120.0   16.666666666666668
450.0   120.0   0.0
450.0   150.0   0.0
400.0   150.0   0.0
450.0   150.0   16.666666666666668
400.0   120.0   16.666666666666668
400.0   150.0   16.666666666666668
450.0   150.0   16.666666666666668
400.0   150.0   0.0
400.0   120.0   16.666666666666668
450.0   150.0   16.666666666666668
450.0   120.0   16.666666666666668
450.0   120.0   0.0
400.0   120.0   16.666666666666668
450.0   150.0   16.666666666666668
450.0   120.0   0.0
400.0   150.0   0.0
400.0   120.0   16.666666666666668
450.0   120.0   16.666666666666668
400.0   150.0   16.666666666666668
400.0   120.0   33.333333333333336
450.0   120.0   16.666666666666668
450.0   150.0   16.666666666666668
400.0   150.0   16.666666666666668
450.0   150.0   33.333333333333336
400.0   120.0   33.333333333333336
400.0   150.0   33.333333333333336
450.0   150.0   33.333333333333336
400.0   150.0   16.666666666666668
400.0   120.0   33.333333333333336
450.0   150.0   33.333333333333336
450.0   120.0   33.333333333333336
450.0   120.0   16.666666666666668
400.0   120.0   33.333333333333336
450.0   150.0   33.333333333333336
450.0   120.0   16.666666666666668
400.0   150.0   16.666666666666668
400.0   120.0   33.333333333333336
450.0   120.0   33.333333333333336
400.0   150.0   33.333333333333336
400.0   120.0   50.0
450.0   120.0   33.333333333333336
450.0   150.0   33.333333333333336
400.0   150.0   33.333333333333336
450.0   150.0   50.0
400.0   120.0   50.0
400.0   150.0   50.0
450.0   150.0   50.0
400.0   150.0   33.333333333333336
400.0   120.0   50.0
450.0   150.0   50.0
450.0   120.0   50.0
450.0   120.0   33.333333333333336
400.0   120.0   50.0
450.0   150.0   50.0
450.0   120.0   33.333333333333336
400.0   150.0   33.333333333333336
450.0   0.0   0.0
500.0   0.0   0.0
450.0   30.0   0.0
450.0   0.0   16.666666666666668
500.0   0.0   0.0
500.0   30.0   0.0
450.0   30.0   0.0
500.0   30.0   16.666666666666668
450.0   0.0   16.666666666666668
450.0   30.0   16.666666666666668
500.0   30.0   16.666666666666668
450.0   30.0   0.0
450.0   0.0   16.666666666666668
500.0   30.0   16.666666666666668
500.0   0.0   16.666666666666668
500.0   0.0   0.0
450.0   0.0   16.666666666666668
500.0   30.0   16.666666666666668
500.0   0.0   0.0
450.0   30.0   0.0
450.0   0.0   16.666666666666668
500.0   0.0   16.666666666666668
450.0   30.0   16.666666666666668
450.0   0.0   33.333333333333336
500.0   0.0   16.666666666666668
500.0   30.0   16.666666666666668
450.0   30.0   16.666666666666668
500.0   30.0   33.333333333333336
450.0   0.0   33.333333333333336
450.0   30.0   33.333333333333336
500.0   30.0   33.333333333333336
450.0   30.0   16.666666666666668
450.0   0.0   33.333333333333336
500.0   30.0   33.333333333333336
500.0   0.0   33.333333333333336
500.0   0.0   16.666666666666668
450.0   0.0   33.333333333333336
500.0   30.0   33.333333333333336
500.0   0.0   16.666666666666668
450.0   30.0   16.666666666666668
450.0   0.0   33.333333333333336
500.0   0.0   33.333333333333336
450.0   30.0   33.333333333333336
450.0   0.0   50.0
500.0   0.0   33.333333333333336
500.0   30.0   33.333333333333336
450.0   30.0   33.333333333333336
500.0   30.0   50.0
450.0   0.0   50.0
450.0   30.0   50.0
500.0   30.0   50.0
450.0   30.0   33.333333333333336
450.0   0.0   50.0
500.0   30.0   50.0
500.0   0.0   50.0
500.0   0.0   33.333333333333336
450.0   0.0   50.0
500.0   30.0   50.0
500.0   0.0   33.333333333333336
450.0   30.0   33.333333333333336
450.0   30.0   0.0
500.0   30.0   0.0
450.0   60.0   0.0
450.0   30.0   16.666666666666668
500.0   30.0   0.0
500.0   60.0   0.0
450.0   60.0   0.0
500.0   60.0   16.666666666666668
450.0   30.0   16.666666666666668
450.0   60.0   16.666666666666668
500.0   60.0   16.666666666666668
450.0   60.0   0.0
450.0   30.0   16.666666666666668
500.0   60.0   16.666666666666668
500.0   30.0   16.666666666666668
500.0   30.0   0.0
450.0   30.0   16.666666666666668
500.0   60.0   16.666666666666668
500.0   30.0   0.0
450.0   60.0   0.0
450.0   30.0   16.666666666666668
500.0   30.0   16.666666666666668
450.0   60.0   16.666666666666668
450.0   30.0   33.333333333333336
500.0   30.0   16.666666666666668
500.0   60.0   16.666666666666668
450.0   60.0   16.666666666666668
500.0   60.0   33.333333333333336
450.0   30.0   33.333333333333336
450.0   60.0   33.333333333333336
500.0   60.0   33.333333333333336
450.0   60.0   16.666666666666668
450.0   30.0   33.333333333333336
500.0   60.0   33.333333333333336
500.0   30.0   33.333333333333336
500.0   30.0   16.666666666666668
450.0   30.0   33.333333333333336
500.0   60.0   33.333333333333336
500.0   30.0   16.666666666666668
450.0   60.0   16.666666666666668
450.0   30.0   33.333333333333336
500.0   30.0   33.333333333333336
450.0   60.0   33.333333333333336
450.0   30.0   50.0
500.0   30.0   33.333333333333336
500.0   60.0   33.333333333333336
450.0   60.0   33.333333333333336
500.0   60.0   50.0
450.0   30.0   50.0
450.0   60.0   50.0
500.0   60.0   50.0
450.0   60.0   33.333333333333336
450.0   30.0   50.0
500.0   60.0   50.0
500.0   30.0   50.0
500.0   30.0   33.333333333333336
450.0   30.0   50.0
500.0   60.0   50.0
500.0   30.0   33.333333333333336
450.0   60.0   33.333333333333336
450.0   60.0   0.0
500.0   60.0   0.0
450.0   90.0   0.0
450.0   60.0   16.666666666666668
500.0   60.0   0.0
500.0   90.0   0.0
450.0   90.0   0.0
500.0   90.0   16.666666666666668
450.0   60.0   16.666666666666668
450.0   90.0   16.666666666666668
500.0   90.0   16.666666666666668
450.0   90.0   0.0
450.0   60.0   16.666666666666668
500.0   90.0   16.666666666666668
500.0   60.0   16.666666666666668
500.0   60.0   0.0
450.0   60.0   16.666666666666668
500.0   90.0   16.666666666666668
500.0   60.0   0.0
450.0   90.0   0.0
450.0   60.0   16.666666666666668
500.0   60.0   16.666666666666668
450.0   90.0   16.666666666666668
450.0   60.0   33.333333333333336
500.0   60.0   16.666666666666668
500.0   90.0   16.666666666666668
450.0   90.0   16.666666666666668
500.0   90.0   33.333333333333336
450.0   60.0   33.333333333333336
450.0   90.0   33.333333333333336
500.0   90.0   33.333333333333336
450.0   90.0   16.666666666666668
450.0   60.0   33.333333333333336
500.0   90.0   33.333333333333336
500.0   60.0   33.333333333333336
500.0   60.0   16.666666666666668
450.0   60.0   33.333333333333336
500.0   90.0   33.333333333333336
500.0   60.0   16.666666666666668
450.0   90.0   16.666666666666668
450.0   60.0   33.333333333333336
500.0   60.0   33.333333333333336
450.0   90.0   33.333333333333336
450.0   60.0   50.0
500.0   60.0   33.333333333333336
500.0   90.0   33.333333333333336
450.0   90.0   33.333333333333336
500.0   90.0   50.0
450.0   60.0   50.0
450.0   90.0   50.0
500.0   90.0   50.0
450.0   90.0   33.333333333333336
450.0   60.0   50.0
500.0   90.0   50.0
500.0   60.0   50.0
500.0   60.0   33.333333333333336
450.0   60.0   50.0
500.0   90.0   50.0
500.0   60.0   33.333333333333336
450.0   90.0   33.333333333333336
450.0   90.0   0.0
500.0   90.0   0.0
450.0   120.0   0.0
450.0   90.0   16.666666666666668
500.0   90.0   0.0
500.0   120.0   0.0
450.0   120.0   0.0
500.0   120.0   16.666666666666668
450.0   90.0   16.666666666666668
450.0   120.0   16.666666666666668
500.0   120.0   16.666666666666668
450.0   120.0   0.0
450.0   90.0   16.666666666666668
500.0   120.0   16.666666666666668
500.0   90.0   16.666666666666668
500.0   90.0   0.0
450.0   90.0   16.666666666666668
500.0   120.0   16.666666666666668
500.0   90.0   0.0
450.0   120.0   0.0
450.0   90.0   16.666666666666668
500.0   90.0   16.666666666666668
450.0   120.0   16.666666666666668
450.0   90.0   33.333333333333336
500.0   90.0   16.666666666666668
500.0   120.0   16.666666666666668
450.0   120.0   16.666666666666668
500.0   120.0   33.333333333333336
450.0   90.0   33.333333333333336
450.0   120.0   33.333333333333336
500.0   120.0   33.333333333333336
450.0   120.0   16.666666666666668
450.0   90.0   33.333333333333336
500.0   120.0   33.333333333333336
500.0   90.0   33.333333333333336
500.0   90.0   16.666666666666668
450.0   90.0   33.333333333333336
500.0   120.0   33.333333333333336
500.0   90.0   16.666666666666668
450.0   120.0   16.666666666666668
450.0   90.0   33.333333333333336
500.0   90.0   33.333333333333336
450.0   120.0   33.333333333333336
450.0   90.0   50.0
500.0   90.0   33.333333333333336
500.0   120.0   33.333333333333336
450.0   120.0   33.333333333333336
500.0   120.0   50.0
450.0   90.0   50.0
450.0   120.0   50.0
500.0   120.0   50.0
450.0   120.0   33.333333333333336
450.0   90.0   50.0
500.0   120.0   50.0
500.0   90.0   50.0
500.0   90.0   33.333333333333336
450.0   90.0   50.0
500.0   120.0   50.0
500.0   90.0   33.333333333333336
450.0   120.0   33.333333333333336
450.0   120.0   0.0
500.0   120.0   0.0
450.0   150.0   0.0
450.0   120.0   16.666666666666668
500.0   120.0   0.0
500.0   150.0   0.0
450.0   150.0   0.0
500.0   150.0   16.666666666666668
450.0   120.0   16.666666666666668
450.0   150.0   16.666666666666668
500.0   150.0   16.666666666666668
450.0   150.0   0.0
450.0   120.0   16.666666666666668
500.0   150.0   16.666666666666668
500.0   120.0   16.666666666666668
500.0   120.0   0.0
450.0   120.0   16.666666666666668
500.0   150.0   16.666666666666668
500.0   120.0   0.0
450.0   150.0   0.0
450.0   120.0   16.666666666666668
500.0   120.0   16.666666666666668
450.0   150.0   16.666666666666668
450.0   120.0   33.333333333333336
500.0   120.0   16.666666666666668
500.0   150.0   16.666666666666668
450.0   150.0   16.666666666666668
500.0   150.0   33.333333333333336
450.0   120.0   33.333333333333336
450.0   150.0   33.333333333333336
500.0   150.0   33.333333333333336
450.0   150.0   16.666666666666668
450.0   120.0   33.333333333333336
500.0   150.0   33.333333333333336
500.0   120.0   33.333333333333336
500.0   120.0   16.666666666666668
450.0   120.0   33.333333333333336
500.0   150.0   33.333333333333336
500.0   120.0   16.666666666666668
450.0   150.0   16.666666666666668
450.0   120.0   33.333333333333336
500.0   120.0   33.333333333333336
450.0   150.0   33.333333333333336
450.0   120.0   50.0
500.0   120.0   33.333333333333336
500.0   150.0   33.333333333333336
450.0   150.0   33.333333333333336
500.0   150.0   50.0
450.0   120.0   50.0
450.0   150.0   50.0
500.0   150.0   50.0
450.0   150.0   33.333333333333336
450.0   120.0   50.0
500.0   150.0   50.0
500.0   120.0   50.0
500.0   120.0   33.333333333333336
450.0   120.0   50.0
500.0   150.0   50.0
500.0   120.0   33.333333333333336
450.0   150.0   33.333333333333336
             </DataArray>   
          </Points>  
          <Cells>  
             <DataArray type="Int32" Name="connectivity" format="ascii">   
0   1   2   3
4   5   6   7
8   9   10   11
12   13   14   15
16   17   18   19
20   21   22   23
24   25   26   27
28   29   30   31
32   33   34   35
36   37   38   39
40   41   42   43
44   45   46   47
48   49   50   51
52   53   54   55
56   57   58   59
60   61   62   63
64   65   66   67
68   69   70   71
72   73   74   75
76   77   78   79
80   81   82   83
84   85   86   87
88   89   90   91
92   93   94   95
96   97   98   99
100   101   102   103
104   105   106   107
108   109   110   111
112   113   114   115
116   117   118   119
120   121   122   123
124   125   126   127
128   129   130   131
132   133   134   135
136   137   138   139
140   141   142   143
144   145   146   147
148   149   150   151
152   153   154   155
156   157   158   159
160   161   162   163
164   165   166   167
168   169   170   171
172   173   174   175
176   177   178   179
180   181   182   183
184   185   186   187
188   189   190   191
192   193   194   195
196   197   198   199
200   201   202   203
204   205   206   207
208   209   210   211
212   213   214   215
216   217   218   219
220   221   222   223
224   225   226   227
228   229   230   231
232   233   234   235
236   237   238   239
240   241   242   243
244   245   246   247
248   249   250   251
252   253   254   255
256   257   258   259
260   261   262   263
264   265   266   267
268   269   270   271
272   273   274   275
276   277   278   279
280   281   282   283
284   285   286   287
288   289   290   291
292   293   294   295
296   297   298   299
300   301   302   303
304   305   306   307
308   309   310   311
312   313   314   315
316   317   318   319
320   321   322   323
324   325   326   327
328   329   330   331
332   333   334   335
336   337   338   339
340   341   342   343
344   345   346   347
348   349   350   351
352   353   354   355
356   357   358   359
360   361   362   363
364   365   366   367
368   369   370   371
372   373   374   375
376   377   378   379
380   381   382   383
384   385   386   387
388   389   390   391
392   393   394   395
396   397   398   399
400   401   402   403
404   405   406   407
408   409   410   411
412   413   414   415
416   417   418   419
420   421   422   423
424   425   426   427
428   429   430   431
432   433   434   435
436   437   438   439
440   441   442   443
444   445   446   447
448   449   450   451
452   453   454   455
456   457   458   459
460   461   462   463
464   465   466   467
468   469   470   471
472   473   474   475
476   477   478   479
480   481   482   483
484   485   486   487
488   489   490   491
492   493   494   495
496   497   498   499
500   501   502   503
504   505   506   507
508   509   510   511
512   513   514   515
516   517   518   519
520   521   522   523
524   525   526   527
528   529   530   531
532   533   534   535
536   537   538   539
540   541   542   543
544   545   546   547
548   549   550   551
552   553   554   555
556   557   558   559
560   561   562   563
564   565   566   567
568   569   570   571
572   573   574   575
576   577   578   579
580   581   582   583
584   585   586   587
588   589   590   591
592   593   594   595
596   597   598   599
600   601   602   603
604   605   606   607
608   609   610   611
612   613   614   615
616   617   618   619
620   621   622   623
624   625   626   627
628   629   630   631
632   633   634   635
636   637   638   639
640   641   642   643
644   645   646   647
648   649   650   651
652   653   654   655
656   657   658   659
660   661   662   663
664   665   666   667
668   669   670   671
672   673   674   675
676   677   678   679
680   681   682   683
684   685   686   687
688   689   690   691
692   693   694   695
696   697   698   699
700   701   702   703
704   705   706   707
708   709   710   711
712   713   714   715
716   717   718   719
720   721   722   723
724   725   726   727
728   729   730   731
732   733   734   735
736   737   738   739
740   741   742   743
744   745   746   747
748   749   750   751
752   753   754   755
756   757   758   759
760   761   762   763
764   765   766   767
768   769   770   771
772   773   774   775
776   777   778   779
780   781   782   783
784   785   786   787
788   789   790   791
792   793   794   795
796   797   798   799
800   801   802   803
804   805   806   807
808   809   810   811
812   813   814   815
816   817   818   819
820   821   822   823
824   825   826   827
828   829   830   831
832   833   834   835
836   837   838   839
840   841   842   843
844   845   846   847
848   849   850   851
852   853   854   855
856   857   858   859
860   861   862   863
864   865   866   867
868   869   870   871
872   873   874   875
876   877   878   879
880   881   882   883
884   885   886   887
888   889   890   891
892   893   894   895
896   897   898   899
900   901   902   903
904   905   906   907
908   909   910   911
912   913   914   915
916   917   918   919
920   921   922   923
924   925   926   927
928   929   930   931
932   933   934   935
936   937   938   939
940   941   942   943
944   945   946   947
948   949   950   951
952   953   954   955
956   957   958   959
960   961   962   963
964   965   966   967
968   969   970   971
972   973   974   975
976   977   978   979
980   981   982   983
984   985   986   987
988   989   990   991
992   993   994   995
996   997   998   999
1000   1001   1002   1003
1004   1005   1006   1007
1008   1009   1010   1011
1012   1013   1014   1015
1016   1017   1018   1019
1020   1021   1022   1023
1024   1025   1026   1027
1028   1029   1030   1031
1032   1033   1034   1035
1036   1037   1038   1039
1040   1041   1042   1043
1044   1045   1046   1047
1048   1049   1050   1051
1052   1053   1054   1055
1056   1057   1058   1059
1060   1061   1062   1063
1064   1065   1066   1067
1068   1069   1070   1071
1072   1073   1074   1075
1076   1077   1078   1079
1080   1081   1082   1083
1084   1085   1086   1087
1088   1089   1090   1091
1092   1093   1094   1095
1096   1097   1098   1099
1100   1101   1102   1103
1104   1105   1106   1107
1108   1109   1110   1111
1112   1113   1114   1115
1116   1117   1118   1119
1120   1121   1122   1123
1124   1125   1126   1127
1128   1129   1130   1131
1132   1133   1134   1135
1136   1137   1138   1139
1140   1141   1142   1143
1144   1145   1146   1147
1148   1149   1150   1151
1152   1153   1154   1155
1156   1157   1158   1159
1160   1161   1162   1163
1164   1165   1166   1167
1168   1169   1170   1171
1172   1173   1174   1175
1176   1177   1178   1179
1180   1181   1182   1183
1184   1185   1186   1187
1188   1189   1190   1191
1192   1193   1194   1195
1196   1197   1198   1199
1200   1201   1202   1203
1204   1205   1206   1207
1208   1209   1210   1211
1212   1213   1214   1215
1216   1217   1218   1219
1220   1221   1222   1223
1224   1225   1226   1227
1228   1229   1230   1231
1232   1233   1234   1235
1236   1237   1238   1239
1240   1241   1242   1243
1244   1245   1246   1247
1248   1249   1250   1251
1252   1253   1254   1255
1256   1257   1258   1259
1260   1261   1262   1263
1264   1265   1266   1267
1268   1269   1270   1271
1272   1273   1274   1275
1276   1277   1278   1279
1280   1281   1282   1283
1284   1285   1286   1287
1288   1289   1290   1291
1292   1293   1294   1295
1296   1297   1298   1299
1300   1301   1302   1303
1304   1305   1306   1307
1308   1309   1310   1311
1312   1313   1314   1315
1316   1317   1318   1319
1320   1321   1322   1323
1324   1325   1326   1327
1328   1329   1330   1331
1332   1333   1334   1335
1336   1337   1338   1339
1340   1341   1342   1343
1344   1345   1346   1347
1348   1349   1350   1351
1352   1353   1354   1355
1356   1357   1358   1359
1360   1361   1362   1363
1364   1365   1366   1367
1368   1369   1370   1371
1372   1373   1374   1375
1376   1377   1378   1379
1380   1381   1382   1383
1384   1385   1386   1387
1388   1389   1390   1391
1392   1393   1394   1395
1396   1397   1398   1399
1400   1401   1402   1403
1404   1405   1406   1407
1408   1409   1410   1411
1412   1413   1414   1415
1416   1417   1418   1419
1420   1421   1422   1423
1424   1425   1426   1427
1428   1429   1430   1431
1432   1433   1434   1435
1436   1437   1438   1439
1440   1441   1442   1443
1444   1445   1446   1447
1448   1449   1450   1451
1452   1453   1454   1455
1456   1457   1458   1459
1460   1461   1462   1463
1464   1465   1466   1467
1468   1469   1470   1471
1472   1473   1474   1475
1476   1477   1478   1479
1480   1481   1482   1483
1484   1485   1486   1487
1488   1489   1490   1491
1492   1493   1494   1495
1496   1497   1498   1499
1500   1501   1502   1503
1504   1505   1506   1507
1508   1509   1510   1511
1512   1513   1514   1515
1516   1517   1518   1519
1520   1521   1522   1523
1524   1525   1526   1527
1528   1529   1530   1531
1532   1533   1534   1535
1536   1537   1538   1539
1540   1541   1542   1543
1544   1545   1546   1547
1548   1549   1550   1551
1552   1553   1554   1555
1556   1557   1558   1559
1560   1561   1562   1563
1564   1565   1566   1567
1568   1569   1570   1571
1572   1573   1574   1575
1576   1577   1578   1579
1580   1581   1582   1583
1584   1585   1586   1587
1588   1589   1590   1591
1592   1593   1594   1595
1596   1597   1598   1599
1600   1601   1602   1603
1604   1605   1606   1607
1608   1609   1610   1611
1612   1613   1614   1615
1616   1617   1618   1619
1620   1621   1622   1623
1624   1625   1626   1627
1628   1629   1630   1631
1632   1633   1634   1635
1636   1637   1638   1639
1640   1641   1642   1643
1644   1645   1646   1647
1648   1649   1650   1651
1652   1653   1654   1655
1656   1657   1658   1659
1660   1661   1662   1663
1664   1665   1666   1667
1668   1669   1670   1671
1672   1673   1674   1675
1676   1677   1678   1679
1680   1681   1682   1683
1684   1685   1686   1687
1688   1689   1690   1691
1692   1693   1694   1695
1696   1697   1698   1699
1700   1701   1702   1703
1704   1705   1706   1707
1708   1709   1710   1711
1712   1713   1714   1715
1716   1717   1718   1719
1720   1721   1722   1723
1724   1725   1726   1727
1728   1729   1730   1731
1732   1733   1734   1735
1736   1737   1738   1739
1740   1741   1742   1743
1744   1745   1746   1747
1748   1749   1750   1751
1752   1753   1754   1755
1756   1757   1758   1759
1760   1761   1762   1763
1764   1765   1766   1767
1768   1769   1770   1771
1772   1773   1774   1775
1776   1777   1778   1779
1780   1781   1782   1783
1784   1785   1786   1787
1788   1789   1790   1791
1792   1793   1794   1795
1796   1797   1798   1799
1800   1801   1802   1803
1804   1805   1806   1807
1808   1809   1810   1811
1812   1813   1814   1815
1816   1817   1818   1819
1820   1821   1822   1823
1824   1825   1826   1827
1828   1829   1830   1831
1832   1833   1834   1835
1836   1837   1838   1839
1840   1841   1842   1843
1844   1845   1846   1847
1848   1849   1850   1851
1852   1853   1854   1855
1856   1857   1858   1859
1860   1861   1862   1863
1864   1865   1866   1867
1868   1869   1870   1871
1872   1873   1874   1875
1876   1877   1878   1879
1880   1881   1882   1883
1884   1885   1886   1887
1888   1889   1890   1891
1892   1893   1894   1895
1896   1897   1898   1899
1900   1901   1902   1903
1904   1905   1906   1907
1908   1909   1910   1911
1912   1913   1914   1915
1916   1917   1918   1919
1920   1921   1922   1923
1924   1925   1926   1927
1928   1929   1930   1931
1932   1933   1934   1935
1936   1937   1938   1939
1940   1941   1942   1943
1944   1945   1946   1947
1948   1949   1950   1951
1952   1953   1954   1955
1956   1957   1958   1959
1960   1961   1962   1963
1964   1965   1966   1967
1968   1969   1970   1971
1972   1973   1974   1975
1976   1977   1978   1979
1980   1981   1982   1983
1984   1985   1986   1987
1988   1989   1990   1991
1992   1993   1994   1995
1996   1997   1998   1999
2000   2001   2002   2003
2004   2005   2006   2007
2008   2009   2010   2011
2012   2013   2014   2015
2016   2017   2018   2019
2020   2021   2022   2023
2024   2025   2026   2027
2028   2029   2030   2031
2032   2033   2034   2035
2036   2037   2038   2039
2040   2041   2042   2043
2044   2045   2046   2047
2048   2049   2050   2051
2052   2053   2054   2055
2056   2057   2058   2059
2060   2061   2062   2063
2064   2065   2066   2067
2068   2069   2070   2071
2072   2073   2074   2075
2076   2077   2078   2079
2080   2081   2082   2083
2084   2085   2086   2087
2088   2089   2090   2091
2092   2093   2094   2095
2096   2097   2098   2099
2100   2101   2102   2103
2104   2105   2106   2107
2108   2109   2110   2111
2112   2113   2114   2115
2116   2117   2118   2119
2120   2121   2122   2123
2124   2125   2126   2127
2128   2129   2130   2131
2132   2133   2134   2135
2136   2137   2138   2139
2140   2141   2142   2143
2144   2145   2146   2147
2148   2149   2150   2151
2152   2153   2154   2155
2156   2157   2158   2159
2160   2161   2162   2163
2164   2165   2166   2167
2168   2169   2170   2171
2172   2173   2174   2175
2176   2177   2178   2179
2180   2181   2182   2183
2184   2185   2186   2187
2188   2189   2190   2191
2192   2193   2194   2195
2196   2197   2198   2199
2200   2201   2202   2203
2204   2205   2206   2207
2208   2209   2210   2211
2212   2213   2214   2215
2216   2217   2218   2219
2220   2221   2222   2223
2224   2225   2226   2227
2228   2229   2230   2231
2232   2233   2234   2235
2236   2237   2238   2239
2240   2241   2242   2243
2244   2245   2246   2247
2248   2249   2250   2251
2252   2253   2254   2255
2256   2257   2258   2259
2260   2261   2262   2263
2264   2265   2266   2267
2268   2269   2270   2271
2272   2273   2274   2275
2276   2277   2278   2279
2280   2281   2282   2283
2284   2285   2286   2287
2288   2289   2290   2291
2292   2293   2294   2295
2296   2297   2298   2299
2300   2301   2302   2303
2304   2305   2306   2307
2308   2309   2310   2311
2312   2313   2314   2315
2316   2317   2318   2319
2320   2321   2322   2323
2324   2325   2326   2327
2328   2329   2330   2331
2332   2333   2334   2335
2336   2337   2338   2339
2340   2341   2342   2343
2344   2345   2346   2347
2348   2349   2350   2351
2352   2353   2354   2355
2356   2357   2358   2359
2360   2361   2362   2363
2364   2365   2366   2367
2368   2369   2370   2371
2372   2373   2374   2375
2376   2377   2378   2379
2380   2381   2382   2383
2384   2385   2386   2387
2388   2389   2390   2391
2392   2393   2394   2395
2396   2397   2398   2399
2400   2401   2402   2403
2404   2405   2406   2407
2408   2409   2410   2411
2412   2413   2414   2415
2416   2417   2418   2419
2420   2421   2422   2423
2424   2425   2426   2427
2428   2429   2430   2431
2432   2433   2434   2435
2436   2437   2438   2439
2440   2441   2442   2443
2444   2445   2446   2447
2448   2449   2450   2451
2452   2453   2454   2455
2456   2457   2458   2459
2460   2461   2462   2463
2464   2465   2466   2467
2468   2469   2470   2471
2472   2473   2474   2475
2476   2477   2478   2479
2480   2481   2482   2483
2484   2485   2486   2487
2488   2489   2490   2491
2492   2493   2494   2495
2496   2497   2498   2499
2500   2501   2502   2503
2504   2505   2506   2507
2508   2509   2510   2511
2512   2513   2514   2515
2516   2517   2518   2519
2520   2521   2522   2523
2524   2525   2526   2527
2528   2529   2530   2531
2532   2533   2534   2535
2536   2537   2538   2539
2540   2541   2542   2543
2544   2545   2546   2547
2548   2549   2550   2551
2552   2553   2554   2555
2556   2557   2558   2559
2560   2561   2562   2563
2564   2565   2566   2567
2568   2569   2570   2571
2572   2573   2574   2575
2576   2577   2578   2579
2580   2581   2582   2583
2584   2585   2586   2587
2588   2589   2590   2591
2592   2593   2594   2595
2596   2597   2598   2599
2600   2601   2602   2603
2604   2605   2606   2607
2608   2609   2610   2611
2612   2613   2614   2615
2616   2617   2618   2619
2620   2621   2622   2623
2624   2625   2626   2627
2628   2629   2630   2631
2632   2633   2634   2635
2636   2637   2638   2639
2640   2641   2642   2643
2644   2645   2646   2647
2648   2649   2650   2651
2652   2653   2654   2655
2656   2657   2658   2659
2660   2661   2662   2663
2664   2665   2666   2667
2668   2669   2670   2671
2672   2673   2674   2675
2676   2677   2678   2679
2680   2681   2682   2683
2684   2685   2686   2687
2688   2689   2690   2691
2692   2693   2694   2695
2696   2697   2698   2699
2700   2701   2702   2703
2704   2705   2706   2707
2708   2709   2710   2711
2712   2713   2714   2715
2716   2717   2718   2719
2720   2721   2722   2723
2724   2725   2726   2727
2728   2729   2730   2731
2732   2733   2734   2735
2736   2737   2738   2739
2740   2741   2742   2743
2744   2745   2746   2747
2748   2749   2750   2751
2752   2753   2754   2755
2756   2757   2758   2759
2760   2761   2762   2763
2764   2765   2766   2767
2768   2769   2770   2771
2772   2773   2774   2775
2776   2777   2778   2779
2780   2781   2782   2783
2784   2785   2786   2787
2788   2789   2790   2791
2792   2793   2794   2795
2796   2797   2798   2799
2800   2801   2802   2803
2804   2805   2806   2807
2808   2809   2810   2811
2812   2813   2814   2815
2816   2817   2818   2819
2820   2821   2822   2823
2824   2825   2826   2827
2828   2829   2830   2831
2832   2833   2834   2835
2836   2837   2838   2839
2840   2841   2842   2843
2844   2845   2846   2847
2848   2849   2850   2851
2852   2853   2854   2855
2856   2857   2858   2859
2860   2861   2862   2863
2864   2865   2866   2867
2868   2869   2870   2871
2872   2873   2874   2875
2876   2877   2878   2879
2880   2881   2882   2883
2884   2885   2886   2887
2888   2889   2890   2891
2892   2893   2894   2895
2896   2897   2898   2899
2900   2901   2902   2903
2904   2905   2906   2907
2908   2909   2910   2911
2912   2913   2914   2915
2916   2917   2918   2919
2920   2921   2922   2923
2924   2925   2926   2927
2928   2929   2930   2931
2932   2933   2934   2935
2936   2937   2938   2939
2940   2941   2942   2943
2944   2945   2946   2947
2948   2949   2950   2951
2952   2953   2954   2955
2956   2957   2958   2959
2960   2961   2962   2963
2964   2965   2966   2967
2968   2969   2970   2971
2972   2973   2974   2975
2976   2977   2978   2979
2980   2981   2982   2983
2984   2985   2986   2987
2988   2989   2990   2991
2992   2993   2994   2995
2996   2997   2998   2999
3000   3001   3002   3003
3004   3005   3006   3007
3008   3009   3010   3011
3012   3013   3014   3015
3016   3017   3018   3019
3020   3021   3022   3023
3024   3025   3026   3027
3028   3029   3030   3031
3032   3033   3034   3035
3036   3037   3038   3039
3040   3041   3042   3043
3044   3045   3046   3047
3048   3049   3050   3051
3052   3053   3054   3055
3056   3057   3058   3059
3060   3061   3062   3063
3064   3065   3066   3067
3068   3069   3070   3071
3072   3073   3074   3075
3076   3077   3078   3079
3080   3081   3082   3083
3084   3085   3086   3087
3088   3089   3090   3091
3092   3093   3094   3095
3096   3097   3098   3099
3100   3101   3102   3103
3104   3105   3106   3107
3108   3109   3110   3111
3112   3113   3114   3115
3116   3117   3118   3119
3120   3121   3122   3123
3124   3125   3126   3127
3128   3129   3130   3131
3132   3133   3134   3135
3136   3137   3138   3139
3140   3141   3142   3143
3144   3145   3146   3147
3148   3149   3150   3151
3152   3153   3154   3155
3156   3157   3158   3159
3160   3161   3162   3163
3164   3165   3166   3167
3168   3169   3170   3171
3172   3173   3174   3175
3176   3177   3178   3179
3180   3181   3182   3183
3184   3185   3186   3187
3188   3189   3190   3191
3192   3193   3194   3195
3196   3197   3198   3199
3200   3201   3202   3203
3204   3205   3206   3207
3208   3209   3210   3211
3212   3213   3214   3215
3216   3217   3218   3219
3220   3221   3222   3223
3224   3225   3226   3227
3228   3229   3230   3231
3232   3233   3234   3235
3236   3237   3238   3239
3240   3241   3242   3243
3244   3245   3246   3247
3248   3249   3250   3251
3252   3253   3254   3255
3256   3257   3258   3259
3260   3261   3262   3263
3264   3265   3266   3267
3268   3269   3270   3271
3272   3273   3274   3275
3276   3277   3278   3279
3280   3281   3282   3283
3284   3285   3286   3287
3288   3289   3290   3291
3292   3293   3294   3295
3296   3297   3298   3299
3300   3301   3302   3303
3304   3305   3306   3307
3308   3309   3310   3311
3312   3313   3314   3315
3316   3317   3318   3319
3320   3321   3322   3323
3324   3325   3326   3327
3328   3329   3330   3331
3332   3333   3334   3335
3336   3337   3338   3339
3340   3341   3342   3343
3344   3345   3346   3347
3348   3349   3350   3351
3352   3353   3354   3355
3356   3357   3358   3359
3360   3361   3362   3363
3364   3365   3366   3367
3368   3369   3370   3371
3372   3373   3374   3375
3376   3377   3378   3379
3380   3381   3382   3383
3384   3385   3386   3387
3388   3389   3390   3391
3392   3393   3394   3395
3396   3397   3398   3399
3400   3401   3402   3403
3404   3405   3406   3407
3408   3409   3410   3411
3412   3413   3414   3415
3416   3417   3418   3419
3420   3421   3422   3423
3424   3425   3426   3427
3428   3429   3430   3431
3432   3433   3434   3435
3436   3437   3438   3439
3440   3441   3442   3443
3444   3445   3446   3447
3448   3449   3450   3451
3452   3453   3454   3455
3456   3457   3458   3459
3460   3461   3462   3463
3464   3465   3466   3467
3468   3469   3470   3471
3472   3473   3474   3475
3476   3477   3478   3479
3480   3481   3482   3483
3484   3485   3486   3487
3488   3489   3490   3491
3492   3493   3494   3495
3496   3497   3498   3499
3500   3501   3502   3503
3504   3505   3506   3507
3508   3509   3510   3511
3512   3513   3514   3515
3516   3517   3518   3519
3520   3521   3522   3523
3524   3525   3526   3527
3528   3529   3530   3531
3532   3533   3534   3535
3536   3537   3538   3539
3540   3541   3542   3543
3544   3545   3546   3547
3548   3549   3550   3551
3552   3553   3554   3555
3556   3557   3558   3559
3560   3561   3562   3563
3564   3565   3566   3567
3568   3569   3570   3571
3572   3573   3574   3575
3576   3577   3578   3579
3580   3581   3582   3583
3584   3585   3586   3587
3588   3589   3590   3591
3592   3593   3594   3595
3596   3597   3598   3599
3600   3601   3602   3603
3604   3605   3606   3607
3608   3609   3610   3611
3612   3613   3614   3615
3616   3617   3618   3619
3620   3621   3622   3623
3624   3625   3626   3627
3628   3629   3630   3631
3632   3633   3634   3635
3636   3637   3638   3639
3640   3641   3642   3643
3644   3645   3646   3647
3648   3649   3650   3651
3652   3653   3654   3655
3656   3657   3658   3659
3660   3661   3662   3663
3664   3665   3666   3667
3668   3669   3670   3671
3672   3673   3674   3675
3676   3677   3678   3679
3680   3681   3682   3683
3684   3685   3686   3687
3688   3689   3690   3691
3692   3693   3694   3695
3696   3697   3698   3699
3700   3701   3702   3703
3704   3705   3706   3707
3708   3709   3710   3711
3712   3713   3714   3715
3716   3717   3718   3719
3720   3721   3722   3723
3724   3725   3726   3727
3728   3729   3730   3731
3732   3733   3734   3735
3736   3737   3738   3739
3740   3741   3742   3743
3744   3745   3746   3747
3748   3749   3750   3751
3752   3753   3754   3755
3756   3757   3758   3759
3760   3761   3762   3763
3764   3765   3766   3767
3768   3769   3770   3771
3772   3773   3774   3775
3776   3777   3778   3779
3780   3781   3782   3783
3784   3785   3786   3787
3788   3789   3790   3791
3792   3793   3794   3795
3796   3797   3798   3799
3800   3801   3802   3803
3804   3805   3806   3807
3808   3809   3810   3811
3812   3813   3814   3815
3816   3817   3818   3819
3820   3821   3822   3823
3824   3825   3826   3827
3828   3829   3830   3831
3832   3833   3834   3835
3836   3837   3838   3839
3840   3841   3842   3843
3844   3845   3846   3847
3848   3849   3850   3851
3852   3853   3854   3855
3856   3857   3858   3859
3860   3861   3862   3863
3864   3865   3866   3867
3868   3869   3870   3871
3872   3873   3874   3875
3876   3877   3878   3879
3880   3881   3882   3883
3884   3885   3886   3887
3888   3889   3890   3891
3892   3893   3894   3895
3896   3897   3898   3899
3900   3901   3902   3903
3904   3905   3906   3907
3908   3909   3910   3911
3912   3913   3914   3915
3916   3917   3918   3919
3920   3921   3922   3923
3924   3925   3926   3927
3928   3929   3930   3931
3932   3933   3934   3935
3936   3937   3938   3939
3940   3941   3942   3943
3944   3945   3946   3947
3948   3949   3950   3951
3952   3953   3954   3955
3956   3957   3958   3959
3960   3961   3962   3963
3964   3965   3966   3967
3968   3969   3970   3971
3972   3973   3974   3975
3976   3977   3978   3979
3980   3981   3982   3983
3984   3985   3986   3987
3988   3989   3990   3991
3992   3993   3994   3995
3996   3997   3998   3999
4000   4001   4002   4003
4004   4005   4006   4007
4008   4009   4010   4011
4012   4013   4014   4015
4016   4017   4018   4019
4020   4021   4022   4023
4024   4025   4026   4027
4028   4029   4030   4031
4032   4033   4034   4035
4036   4037   4038   4039
4040   4041   4042   4043
4044   4045   4046   4047
4048   4049   4050   4051
4052   4053   4054   4055
4056   4057   4058   4059
4060   4061   4062   4063
4064   4065   4066   4067
4068   4069   4070   4071
4072   4073   4074   4075
4076   4077   4078   4079
4080   4081   4082   4083
4084   4085   4086   4087
4088   4089   4090   4091
4092   4093   4094   4095
4096   4097   4098   4099
4100   4101   4102   4103
4104   4105   4106   4107
4108   4109   4110   4111
4112   4113   4114   4115
4116   4117   4118   4119
4120   4121   4122   4123
4124   4125   4126   4127
4128   4129   4130   4131
4132   4133   4134   4135
4136   4137   4138   4139
4140   4141   4142   4143
4144   4145   4146   4147
4148   4149   4150   4151
4152   4153   4154   4155
4156   4157   4158   4159
4160   4161   4162   4163
4164   4165   4166   4167
4168   4169   4170   4171
4172   4173   4174   4175
4176   4177   4178   4179
4180   4181   4182   4183
4184   4185   4186   4187
4188   4189   4190   4191
4192   4193   4194   4195
4196   4197   4198   4199
4200   4201   4202   4203
4204   4205   4206   4207
4208   4209   4210   4211
4212   4213   4214   4215
4216   4217   4218   4219
4220   4221   4222   4223
4224   4225   4226   4227
4228   4229   4230   4231
4232   4233   4234   4235
4236   4237   4238   4239
4240   4241   4242   4243
4244   4245   4246   4247
4248   4249   4250   4251
4252   4253   4254   4255
4256   4257   4258   4259
4260   4261   4262   4263
4264   4265   4266   4267
4268   4269   4270   4271
4272   4273   4274   4275
4276   4277   4278   4279
4280   4281   4282   4283
4284   4285   4286   4287
4288   4289   4290   4291
4292   4293   4294   4295
4296   4297   4298   4299
4300   4301   4302   4303
4304   4305   4306   4307
4308   4309   4310   4311
4312   4313   4314   4315
4316   4317   4318   4319
4320   4321   4322   4323
4324   4325   4326   4327
4328   4329   4330   4331
4332   4333   4334   4335
4336   4337   4338   4339
4340   4341   4342   4343
4344   4345   4346   4347
4348   4349   4350   4351
4352   4353   4354   4355
4356   4357   4358   4359
4360   4361   4362   4363
4364   4365   4366   4367
4368   4369   4370   4371
4372   4373   4374   4375
4376   4377   4378   4379
4380   4381   4382   4383
4384   4385   4386   4387
4388   4389   4390   4391
4392   4393   4394   4395
4396   4397   4398   4399
4400   4401   4402   4403
4404   4405   4406   4407
4408   4409   4410   4411
4412   4413   4414   4415
4416   4417   4418   4419
4420   4421   4422   4423
4424   4425   4426   4427
4428   4429   4430   4431
4432   4433   4434   4435
4436   4437   4438   4439
4440   4441   4442   4443
4444   4445   4446   4447
4448   4449   4450   4451
4452   4453   4454   4455
4456   4457   4458   4459
4460   4461   4462   4463
4464   4465   4466   4467
4468   4469   4470   4471
4472   4473   4474   4475
4476   4477   4478   4479
4480   4481   4482   4483
4484   4485   4486   4487
4488   4489   4490   4491
4492   4493   4494   4495
4496   4497   4498   4499
4500   4501   4502   4503
4504   4505   4506   4507
4508   4509   4510   4511
4512   4513   4514   4515
4516   4517   4518   4519
4520   4521   4522   4523
4524   4525   4526   4527
4528   4529   4530   4531
4532   4533   4534   4535
4536   4537   4538   4539
4540   4541   4542   4543
4544   4545   4546   4547
4548   4549   4550   4551
4552   4553   4554   4555
4556   4557   4558   4559
4560   4561   4562   4563
4564   4565   4566   4567
4568   4569   4570   4571
4572   4573   4574   4575
4576   4577   4578   4579
4580   4581   4582   4583
4584   4585   4586   4587
4588   4589   4590   4591
4592   4593   4594   4595
4596   4597   4598   4599
4600   4601   4602   4603
4604   4605   4606   4607
4608   4609   4610   4611
4612   4613   4614   4615
4616   4617   4618   4619
4620   4621   4622   4623
4624   4625   4626   4627
4628   4629   4630   4631
4632   4633   4634   4635
4636   4637   4638   4639
4640   4641   4642   4643
4644   4645   4646   4647
4648   4649   4650   4651
4652   4653   4654   4655
4656   4657   4658   4659
4660   4661   4662   4663
4664   4665   4666   4667
4668   4669   4670   4671
4672   4673   4674   4675
4676   4677   4678   4679
4680   4681   4682   4683
4684   4685   4686   4687
4688   4689   4690   4691
4692   4693   4694   4695
4696   4697   4698   4699
4700   4701   4702   4703
4704   4705   4706   4707
4708   4709   4710   4711
4712   4713   4714   4715
4716   4717   4718   4719
4720   4721   4722   4723
4724   4725   4726   4727
4728   4729   4730   4731
4732   4733   4734   4735
4736   4737   4738   4739
4740   4741   4742   4743
4744   4745   4746   4747
4748   4749   4750   4751
4752   4753   4754   4755
4756   4757   4758   4759
4760   4761   4762   4763
4764   4765   4766   4767
4768   4769   4770   4771
4772   4773   4774   4775
4776   4777   4778   4779
4780   4781   4782   4783
4784   4785   4786   4787
4788   4789   4790   4791
4792   4793   4794   4795
4796   4797   4798   4799
4800   4801   4802   4803
4804   4805   4806   4807
4808   4809   4810   4811
4812   4813   4814   4815
4816   4817   4818   4819
4820   4821   4822   4823
4824   4825   4826   4827
4828   4829   4830   4831
4832   4833   4834   4835
4836   4837   4838   4839
4840   4841   4842   4843
4844   4845   4846   4847
4848   4849   4850   4851
4852   4853   4854   4855
4856   4857   4858   4859
4860   4861   4862   4863
4864   4865   4866   4867
4868   4869   4870   4871
4872   4873   4874   4875
4876   4877   4878   4879
4880   4881   4882   4883
4884   4885   4886   4887
4888   4889   4890   4891
4892   4893   4894   4895
4896   4897   4898   4899
4900   4901   4902   4903
4904   4905   4906   4907
4908   4909   4910   4911
4912   4913   4914   4915
4916   4917   4918   4919
4920   4921   4922   4923
4924   4925   4926   4927
4928   4929   4930   4931
4932   4933   4934   4935
4936   4937   4938   4939
4940   4941   4942   4943
4944   4945   4946   4947
4948   4949   4950   4951
4952   4953   4954   4955
4956   4957   4958   4959
4960   4961   4962   4963
4964   4965   4966   4967
4968   4969   4970   4971
4972   4973   4974   4975
4976   4977   4978   4979
4980   4981   4982   4983
4984   4985   4986   4987
4988   4989   4990   4991
4992   4993   4994   4995
4996   4997   4998   4999
5000   5001   5002   5003
5004   5005   5006   5007
5008   5009   5010   5011
5012   5013   5014   5015
5016   5017   5018   5019
5020   5021   5022   5023
5024   5025   5026   5027
5028   5029   5030   5031
5032   5033   5034   5035
5036   5037   5038   5039
5040   5041   5042   5043
5044   5045   5046   5047
5048   5049   5050   5051
5052   5053   5054   5055
5056   5057   5058   5059
5060   5061   5062   5063
5064   5065   5066   5067
5068   5069   5070   5071
5072   5073   5074   5075
5076   5077   5078   5079
5080   5081   5082   5083
5084   5085   5086   5087
5088   5089   5090   5091
5092   5093   5094   5095
5096   5097   5098   5099
5100   5101   5102   5103
5104   5105   5106   5107
5108   5109   5110   5111
5112   5113   5114   5115
5116   5117   5118   5119
5120   5121   5122   5123
5124   5125   5126   5127
5128   5129   5130   5131
5132   5133   5134   5135
5136   5137   5138   5139
5140   5141   5142   5143
5144   5145   5146   5147
5148   5149   5150   5151
5152   5153   5154   5155
5156   5157   5158   5159
5160   5161   5162   5163
5164   5165   5166   5167
5168   5169   5170   5171
5172   5173   5174   5175
5176   5177   5178   5179
5180   5181   5182   5183
5184   5185   5186   5187
5188   5189   5190   5191
5192   5193   5194   5195
5196   5197   5198   5199
5200   5201   5202   5203
5204   5205   5206   5207
5208   5209   5210   5211
5212   5213   5214   5215
5216   5217   5218   5219
5220   5221   5222   5223
5224   5225   5226   5227
5228   5229   5230   5231
5232   5233   5234   5235
5236   5237   5238   5239
5240   5241   5242   5243
5244   5245   5246   5247
5248   5249   5250   5251
5252   5253   5254   5255
5256   5257   5258   5259
5260   5261   5262   5263
5264   5265   5266   5267
5268   5269   5270   5271
5272   5273   5274   5275
5276   5277   5278   5279
5280   5281   5282   5283
5284   5285   5286   5287
5288   5289   5290   5291
5292   5293   5294   5295
5296   5297   5298   5299
5300   5301   5302   5303
5304   5305   5306   5307
5308   5309   5310   5311
5312   5313   5314   5315
5316   5317   5318   5319
5320   5321   5322   5323
5324   5325   5326   5327
5328   5329   5330   5331
5332   5333   5334   5335
5336   5337   5338   5339
5340   5341   5342   5343
5344   5345   5346   5347
5348   5349   5350   5351
5352   5353   5354   5355
5356   5357   5358   5359
5360   5361   5362   5363
5364   5365   5366   5367
5368   5369   5370   5371
5372   5373   5374   5375
5376   5377   5378   5379
5380   5381   5382   5383
5384   5385   5386   5387
5388   5389   5390   5391
5392   5393   5394   5395
5396   5397   5398   5399
5400   5401   5402   5403
5404   5405   5406   5407
5408   5409   5410   5411
5412   5413   5414   5415
5416   5417   5418   5419
5420   5421   5422   5423
5424   5425   5426   5427
5428   5429   5430   5431
5432   5433   5434   5435
5436   5437   5438   5439
5440   5441   5442   5443
5444   5445   5446   5447
5448   5449   5450   5451
5452   5453   5454   5455
5456   5457   5458   5459
5460   5461   5462   5463
5464   5465   5466   5467
5468   5469   5470   5471
5472   5473   5474   5475
5476   5477   5478   5479
5480   5481   5482   5483
5484   5485   5486   5487
5488   5489   5490   5491
5492   5493   5494   5495
5496   5497   5498   5499
5500   5501   5502   5503
5504   5505   5506   5507
5508   5509   5510   5511
5512   5513   5514   5515
5516   5517   5518   5519
5520   5521   5522   5523
5524   5525   5526   5527
5528   5529   5530   5531
5532   5533   5534   5535
5536   5537   5538   5539
5540   5541   5542   5543
5544   5545   5546   5547
5548   5549   5550   5551
5552   5553   5554   5555
5556   5557   5558   5559
5560   5561   5562   5563
5564   5565   5566   5567
5568   5569   5570   5571
5572   5573   5574   5575
5576   5577   5578   5579
5580   5581   5582   5583
5584   5585   5586   5587
5588   5589   5590   5591
5592   5593   5594   5595
5596   5597   5598   5599
5600   5601   5602   5603
5604   5605   5606   5607
5608   5609   5610   5611
5612   5613   5614   5615
5616   5617   5618   5619
5620   5621   5622   5623
5624   5625   5626   5627
5628   5629   5630   5631
5632   5633   5634   5635
5636   5637   5638   5639
5640   5641   5642   5643
5644   5645   5646   5647
5648   5649   5650   5651
5652   5653   5654   5655
5656   5657   5658   5659
5660   5661   5662   5663
5664   5665   5666   5667
5668   5669   5670   5671
5672   5673   5674   5675
5676   5677   5678   5679
5680   5681   5682   5683
5684   5685   5686   5687
5688   5689   5690   5691
5692   5693   5694   5695
5696   5697   5698   5699
5700   5701   5702   5703
5704   5705   5706   5707
5708   5709   5710   5711
5712   5713   5714   5715
5716   5717   5718   5719
5720   5721   5722   5723
5724   5725   5726   5727
5728   5729   5730   5731
5732   5733   5734   5735
5736   5737   5738   5739
5740   5741   5742   5743
5744   5745   5746   5747
5748   5749   5750   5751
5752   5753   5754   5755
5756   5757   5758   5759
5760   5761   5762   5763
5764   5765   5766   5767
5768   5769   5770   5771
5772   5773   5774   5775
5776   5777   5778   5779
5780   5781   5782   5783
5784   5785   5786   5787
5788   5789   5790   5791
5792   5793   5794   5795
5796   5797   5798   5799
5800   5801   5802   5803
5804   5805   5806   5807
5808   5809   5810   5811
5812   5813   5814   5815
5816   5817   5818   5819
5820   5821   5822   5823
5824   5825   5826   5827
5828   5829   5830   5831
5832   5833   5834   5835
5836   5837   5838   5839
5840   5841   5842   5843
5844   5845   5846   5847
5848   5849   5850   5851
5852   5853   5854   5855
5856   5857   5858   5859
5860   5861   5862   5863
5864   5865   5866   5867
5868   5869   5870   5871
5872   5873   5874   5875
5876   5877   5878   5879
5880   5881   5882   5883
5884   5885   5886   5887
5888   5889   5890   5891
5892   5893   5894   5895
5896   5897   5898   5899
5900   5901   5902   5903
5904   5905   5906   5907
5908   5909   5910   5911
5912   5913   5914   5915
5916   5917   5918   5919
5920   5921   5922   5923
5924   5925   5926   5927
5928   5929   5930   5931
5932   5933   5934   5935
5936   5937   5938   5939
5940   5941   5942   5943
5944   5945   5946   5947
5948   5949   5950   5951
5952   5953   5954   5955
5956   5957   5958   5959
5960   5961   5962   5963
5964   5965   5966   5967
5968   5969   5970   5971
5972   5973   5974   5975
5976   5977   5978   5979
5980   5981   5982   5983
5984   5985   5986   5987
5988   5989   5990   5991
5992   5993   5994   5995
5996   5997   5998   5999
              </DataArray>   
              <DataArray type="Int32" Name="offsets" format="ascii">   
4
8
12
16
20
24
28
32
36
40
44
48
52
56
60
64
68
72
76
80
84
88
92
96
100
104
108
112
116
120
124
128
132
136
140
144
148
152
156
160
164
168
172
176
180
184
188
192
196
200
204
208
212
216
220
224
228
232
236
240
244
248
252
256
260
264
268
272
276
280
284
288
292
296
300
304
308
312
316
320
324
328
332
336
340
344
348
352
356
360
364
368
372
376
380
384
388
392
396
400
404
408
412
416
420
424
428
432
436
440
444
448
452
456
460
464
468
472
476
480
484
488
492
496
500
504
508
512
516
520
524
528
532
536
540
544
548
552
556
560
564
568
572
576
580
584
588
592
596
600
604
608
612
616
620
624
628
632
636
640
644
648
652
656
660
664
668
672
676
680
684
688
692
696
700
704
708
712
716
720
724
728
732
736
740
744
748
752
756
760
764
768
772
776
780
784
788
792
796
800
804
808
812
816
820
824
828
832
836
840
844
848
852
856
860
864
868
872
876
880
884
888
892
896
900
904
908
912
916
920
924
928
932
936
940
944
948
952
956
960
964
968
972
976
980
984
988
992
996
1000
1004
1008
1012
1016
1020
1024
1028
1032
1036
1040
1044
1048
1052
1056
1060
1064
1068
1072
1076
1080
1084
1088
1092
1096
1100
1104
1108
1112
1116
1120
1124
1128
1132
1136
1140
1144
1148
1152
1156
1160
1164
1168
1172
1176
1180
1184
1188
1192
1196
1200
1204
1208
1212
1216
1220
1224
1228
1232
1236
1240
1244
1248
1252
1256
1260
1264
1268
1272
1276
1280
1284
1288
1292
1296
1300
1304
1308
1312
1316
1320
1324
1328
1332
1336
1340
1344
1348
1352
1356
1360
1364
1368
1372
1376
1380
1384
1388
1392
1396
1400
1404
1408
1412
1416
1420
1424
1428
1432
1436
1440
1444
1448
1452
1456
1460
1464
1468
1472
1476
1480
1484
1488
1492
1496
1500
1504
1508
1512
1516
1520
1524
1528
1532
1536
1540
1544
1548
1552
1556
1560
1564
1568
1572
1576
1580
1584
1588
1592
1596
1600
1604
1608
1612
1616
1620
1624
1628
1632
1636
1640
1644
1648
1652
1656
1660
1664
1668
1672
1676
1680
1684
1688
1692
1696
1700
1704
1708
1712
1716
1720
1724
1728
1732
1736
1740
1744
1748
1752
1756
1760
1764
1768
1772
1776
1780
1784
1788
1792
1796
1800
1804
1808
1812
1816
1820
1824
1828
1832
1836
1840
1844
1848
1852
1856
1860
1864
1868
1872
1876
1880
1884
1888
1892
1896
1900
1904
1908
1912
1916
1920
1924
1928
1932
1936
1940
1944
1948
1952
1956
1960
1964
1968
1972
1976
1980
1984
1988
1992
1996
2000
2004
2008
2012
2016
2020
2024
2028
2032
2036
2040
2044
2048
2052
2056
2060
2064
2068
2072
2076
2080
2084
2088
2092
2096
2100
2104
2108
2112
2116
2120
2124
2128
2132
2136
2140
2144
2148
2152
2156
2160
2164
2168
2172
2176
2180
2184
2188
2192
2196
2200
2204
2208
2212
2216
2220
2224
2228
2232
2236
2240
2244
2248
2252
2256
2260
2264
2268
2272
2276
2280
2284
2288
2292
2296
2300
2304
2308
2312
2316
2320
2324
2328
2332
2336
2340
2344
2348
2352
2356
2360
2364
2368
2372
2376
2380
2384
2388
2392
2396
2400
2404
2408
2412
2416
2420
2424
2428
2432
2436
2440
2444
2448
2452
2456
2460
2464
2468
2472
2476
2480
2484
2488
2492
2496
2500
2504
2508
2512
2516
2520
2524
2528
2532
2536
2540
2544
2548
2552
2556
2560
2564
2568
2572
2576
2580
2584
2588
2592
2596
2600
2604
2608
2612
2616
2620
2624
2628
2632
2636
2640
2644
2648
2652
2656
2660
2664
2668
2672
2676
2680
2684
2688
2692
2696
2700
2704
2708
2712
2716
2720
2724
2728
2732
2736
2740
2744
2748
2752
2756
2760
2764
2768
2772
2776
2780
2784
2788
2792
2796
2800
2804
2808
2812
2816
2820
2824
2828
2832
2836
2840
2844
2848
2852
2856
2860
2864
2868
2872
2876
2880
2884
2888
2892
2896
2900
2904
2908
2912
2916
2920
2924
2928
2932
2936
2940
2944
2948
2952
2956
2960
2964
2968
2972
2976
2980
2984
2988
2992
2996
3000
3004
3008
3012
3016
3020
3024
3028
3032
3036
3040
3044
3048
3052
3056
3060
3064
3068
3072
3076
3080
3084
3088
3092
3096
3100
3104
3108
3112
3116
3120
3124
3128
3132
3136
3140
3144
3148
3152
3156
3160
3164
3168
3172
3176
3180
3184
3188
3192
3196
3200
3204
3208
3212
3216
3220
3224
3228
3232
3236
3240
3244
3248
3252
3256
3260
3264
3268
3272
3276
3280
3284
3288
3292
3296
3300
3304
3308
3312
3316
3320
3324
3328
3332
3336
3340
3344
3348
3352
3356
3360
3364
3368
3372
3376
3380
3384
3388
3392
3396
3400
3404
3408
3412
3416
3420
3424
3428
3432
3436
3440
3444
3448
3452
3456
3460
3464
3468
3472
3476
3480
3484
3488
3492
3496
3500
3504
3508
3512
3516
3520
3524
3528
3532
3536
3540
3544
3548
3552
3556
3560
3564
3568
3572
3576
3580
3584
3588
3592
3596
3600
3604
3608
3612
3616
3620
3624
3628
3632
3636
3640
3644
3648
3652
3656
3660
3664
3668
3672
3676
3680
3684
3688
3692
3696
3700
3704
3708
3712
3716
3720
3724
3728
3732
3736
3740
3744
3748
3752
3756
3760
3764
3768
3772
3776
3780
3784
3788
3792
3796
3800
3804
3808
3812
3816
3820
3824
3828
3832
3836
3840
3844
3848
3852
3856
3860
3864
3868
3872
3876
3880
3884
3888
3892
3896
3900
3904
3908
3912
3916
3920
3924
3928
3932
3936
3940
3944
3948
3952
3956
3960
3964
3968
3972
3976
3980
3984
3988
3992
3996
4000
4004
4008
4012
4016
4020
4024
4028
4032
4036
4040
4044
4048
4052
4056
4060
4064
4068
4072
4076
4080
4084
4088
4092
4096
4100
4104
4108
4112
4116
4120
4124
4128
4132
4136
4140
4144
4148
4152
4156
4160
4164
4168
4172
4176
4180
4184
4188
4192
4196
4200
4204
4208
4212
4216
4220
4224
4228
4232
4236
4240
4244
4248
4252
4256
4260
4264
4268
4272
4276
4280
4284
4288
4292
4296
4300
4304
4308
4312
4316
4320
4324
4328
4332
4336
4340
4344
4348
4352
4356
4360
4364
4368
4372
4376
4380
4384
4388
4392
4396
4400
4404
4408
4412
4416
4420
4424
4428
4432
4436
4440
4444
4448
4452
4456
4460
4464
4468
4472
4476
4480
4484
4488
4492
4496
4500
4504
4508
4512
4516
4520
4524
4528
4532
4536
4540
4544
4548
4552
4556
4560
4564
4568
4572
4576
4580
4584
4588
4592
4596
4600
4604
4608
4612
4616
4620
4624
4628
4632
4636
4640
4644
4648
4652
4656
4660
4664
4668
4672
4676
4680
4684
4688
4692
4696
4700
4704
4708
4712
4716
4720
4724
4728
4732
4736
4740
4744
4748
4752
4756
4760
4764
4768
4772
4776
4780
4784
4788
4792
4796
4800
4804
4808
4812
4816
4820
4824
4828
4832
4836
4840
4844
4848
4852
4856
4860
4864
4868
4872
4876
4880
4884
4888
4892
4896
4900
4904
4908
4912
4916
4920
4924
4928
4932
4936
4940
4944
4948
4952
4956
4960
4964
4968
4972
4976
4980
4984
4988
4992
4996
5000
5004
5008
5012
5016
5020
5024
5028
5032
5036
5040
5044
5048
5052
5056
5060
5064
5068
5072
5076
5080
5084
5088
5092
5096
5100
5104
5108
5112
5116
5120
5124
5128
5132
5136
5140
5144
5148
5152
5156
5160
5164
5168
5172
5176
5180
5184
5188
5192
5196
5200
5204
5208
5212
5216
5220
5224
5228
5232
5236
5240
5244
5248
5252
5256
5260
5264
5268
5272
5276
5280
5284
5288
5292
5296
5300
5304
5308
5312
5316
5320
5324
5328
5332
5336
5340
5344
5348
5352
5356
5360
5364
5368
5372
5376
5380
5384
5388
5392
5396
5400
5404
5408
5412
5416
5420
5424
5428
5432
5436
5440
5444
5448
5452
5456
5460
5464
5468
5472
5476
5480
5484
5488
5492
5496
5500
5504
5508
5512
5516
5520
5524
5528
5532
5536
5540
5544
5548
5552
5556
5560
5564
5568
5572
5576
5580
5584
5588
5592
5596
5600
5604
5608
5612
5616
5620
5624
5628
5632
5636
5640
5644
5648
5652
5656
5660
5664
5668
5672
5676
5680
5684
5688
5692
5696
5700
5704
5708
5712
5716
5720
5724
5728
5732
5736
5740
5744
5748
5752
5756
5760
5764
5768
5772
5776
5780
5784
5788
5792
5796
5800
5804
5808
5812
5816
5820
5824
5828
5832
5836
5840
5844
5848
5852
5856
5860
5864
5868
5872
5876
5880
5884
5888
5892
5896
5900
5904
5908
5912
5916
5920
5924
5928
5932
5936
5940
5944
5948
5952
5956
5960
5964
5968
5972
5976
5980
5984
5988
5992
5996
6000
              </DataArray>   
              <DataArray type="UInt8" Name="types" format="ascii">   
10
10
10
10
10
10
10
10
10
10
10
10
10
10
10
10
10
10
10
10
10
10
10
10
10
10
10
10
10
10
10
10
10
10
10
10
10
10
10
10
10
10
10
10
10
10
10
10
10
10
10
10
10
10
10
10
10
10
10
10
10
10
10
10
10
10
10
10
10
10
10
10
10
10
10
10
10
10
10
10
10
10
10
10
10
10
10
10
10
10
10
10
10
10
10
10
10
10
10
10
10
10
10
10
10
10
10
10
10
10
10
10
10
10
10
10
10
10
10
10
10
10
10
10
10
10
10
10
10
10
10
10
10
10
10
10
10
10
10
10
10
10
10
10
10
10
10
10
10
10
10
10
10
10
10
10
10
10
10
10
10
10
10
10
10
10
10
10
10
10
10
10
10
10
10
10
10
10
10
10
10
10
10
10
10
10
10
10
10
10
10
10
10
10
10
10
10
10
10
10
10
10
10
10
10
10
10
10
10
10
10
10
10
10
10
10
10
10
10
10
10
10
10
10
10
10
10
10
10
10
10
10
10
10
10
10
10
10
10
10
10
10
10
10
10
10
10
10
10
10
10
10
10
10
10
10
10
10
10
10
10
10
10
10
10
10
10
10
10
10
10
10
10
10
10
10
10
10
10
10
10
10
10
10
10
10
10
10
10
10
10
10
10
10
10
10
10
10
10
10
10
10
10
10
10
10
10
10
10
10
10
10
10
10
10
10
10
10
10
10
10
10
10
10
10
10
10
10
10
10
10
10
10
10
10
10
10
10
10
10
10
10
10
10
10
10
10
10
10
10
10
10
10
10
10
10
10
10
10
10
10
10
10
10
10
10
10
10
10
10
10
10
10
10
10
10
10
10
10
10
10
10
10
10
10
10
10
10
10
10
10
10
10
10
10
10
10
10
10
10
10
10
10
10
10
10
10
10
10
10
10
10
10
10
10
10
10
10
10
10
10
10
10
10
10
10
10
10
10
10
10
10
10
10
10
10
10
10
10
10
10
10
10
10
10
10
10
10
10
10
10
10
10
10
10
10
10
10
10
10
10
10
10
10
10
10
10
10
10
10
10
10
10
10
10
10
10
10
10
10
10
10
10
10
10
10
10
10
10
10
10
10
10
10
10
10
10
10
10
10
10
10
10
10
10
10
10
10
10
10
10
10
10
10
10
10
10
10
10
10
10
10
10
10
10
10
10
10
10
10
10
10
10
10
10
10
10
10
10
10
10
10
10
10
10
10
10
10
10
10
10
10
10
10
10
10
10
10
10
10
10
10
10
10
10
10
10
10
10
10
10
10
10
10
10
10
10
10
10
10
10
10
10
10
10
10
10
10
10
10
10
10
10
10
10
10
10
10
10
10
10
10
10
10
10
10
10
10
10
10
10
10
10
10
10
10
10
10
10
10
10
10
10
10
10
10
10
10
10
10
10
10
10
10
10
10
10
10
10
10
10
10
10
10
10
10
10
10
10
10
10
10
10
10
10
10
10
10
10
10
10
10
10
10
10
10
10
10
10
10
10
10
10
10
10
10
10
10
10
10
10
10
10
10
10
10
10
10
10
10
10
10
10
10
10
10
10
10
10
10
10
10
10
10
10
10
10
10
10
10
10
10
10
10
10
10
10
10
10
10
10
10
10
10
10
10
10
10
10
10
10
10
10
10
10
10
10
10
10
10
10
10
10
10
10
10
10
10
10
10
10
10
10
10
10
10
10
10
10
10
10
10
10
10
10
10
10
10
10
10
10
10
10
10
10
10
10
10
10
10
10
10
10
10
10
10
10
10
10
10
10
10
10
10
10
10
10
10
10
10
10
10
10
10
10
10
10
10
10
10
10
10
10
10
10
10
10
10
10
10
10
10
10
10
10
10
10
10
10
10
10
10
10
10
10
10
10
10
10
10
10
10
10
10
10
10
10
10
10
10
10
10
10
10
10
10
10
10
10
10
10
10
10
10
10
10
10
10
10
10
10
10
10
10
10
10
10
10
10
10
10
10
10
10
10
10
10
10
10
10
10
10
10
10
10
10
10
10
10
10
10
10
10
10
10
10
10
10
10
10
10
10
10
10
10
10
10
10
10
10
10
10
10
10
10
10
10
10
10
10
10
10
10
10
10
10
10
10
10
10
10
10
10
10
10
10
10
10
10
10
10
10
10
10
10
10
10
10
10
10
10
10
10
10
10
10
10
10
10
10
10
10
10
10
10
10
10
10
10
10
10
10
10
10
10
10
10
10
10
10
10
10
10
10
10
10
10
10
10
10
10
10
10
10
10
10
10
10
10
10
10
10
10
10
10
10
10
10
10
10
10
10
10
10
10
10
10
10
10
10
10
10
10
10
10
10
10
10
10
10
10
10
10
10
10
10
10
10
10
10
10
10
10
10
10
10
10
10
10
10
10
10
10
10
10
10
10
10
10
10
10
10
10
10
10
10
10
10
10
10
10
10
10
10
10
10
10
10
10
10
10
10
10
10
10
10
10
10
10
10
10
10
10
10
10
10
10
10
10
10
10
10
10
10
10
10
10
10
10
10
10
10
10
10
10
10
10
10
10
10
10
10
10
10
10
10
10
10
10
10
10
10
10
10
10
10
10
10
10
10
10
10
10
10
10
10
10
10
10
10
10
10
10
10
10
10
10
10
10
10
10
10
10
10
10
10
10
10
10
10
10
10
10
10
10
10
10
10
10
10
10
10
10
10
10
10
10
10
10
10
10
10
10
10
10
10
10
10
10
10
10
10
10
10
10
10
10
10
10
10
10
10
10
10
10
10
10
10
10
10
10
10
10
10
10
10
10
10
10
10
10
10
10
10
10
10
10
10
10
10
10
10
10
10
10
10
10
10
10
10
10
10
10
10
10
10
10
10
10
10
10
10
10
10
10
10
10
10
10
10
10
10
10
10
10
10
10
10
10
10
10
10
10
10
10
10
10
10
10
10
10
10
10
10
10
10
10
10
10
10
10
10
10
10
10
10
10
10
10
10
10
10
10
10
10
10
10
10
10
10
10
10
10
10
10
10
10
10
10
10
10
10
10
10
10
10
10
10
10
10
10
10
10
10
10
10
10
10
10
10
10
10
10
10
10
10
10
10
10
10
10
10
10
10
10
10
10
10
10
10
10
10
10
10
10
10
10
10
10
10
10
10
10
10
10
10
10
10
10
10
10
10
10
10
10
10
10
10
10
10
10
10
10
10
10
10
10
10
10
10
10
10
10
10
10
10
10
10
10
10
10
10
10
10
10
10
10
10
10
10
10
10
10
10
10
10
10
10
10
10
10
10
10
10
10
10
10
10
10
10
10
10
10
10
10
10
10
10
10
10
10
10
10
10
10
10
10
10
10
10
10
10
10
10
10
10
10
10
10
10
10
10
10
10
10
10
10
10
10
10
              </DataArray>   
          </Cells>  
          <PointData>  
             <DataArray type="Float64" NumberOfComponents="3" Name="Strains" format="ascii">   
-0.00012566627725337908   0.0   -8.238872985365861e-05
-0.00012566627725337908   0.0   -8.238872985365861e-05
-0.00012566627725337908   0.0   -8.238872985365861e-05
-0.00012566627725337908   0.0   -8.238872985365861e-05
-7.997242082078042e-05   1.3932860892949974e-05   2.1274140697756614e-06
-7.997242082078042e-05   1.3932860892949974e-05   2.1274140697756614e-06
-7.997242082078042e-05   1.3932860892949974e-05   2.1274140697756614e-06
-7.997242082078042e-05   1.3932860892949974e-05   2.1274140697756614e-06
-7.839695842424467e-05   0.0   -7.774734525313736e-05
-7.839695842424467e-05   0.0   -7.774734525313736e-05
-7.839695842424467e-05   0.0   -7.774734525313736e-05
-7.839695842424467e-05   0.0   -7.774734525313736e-05
-0.00013152329092700832   1.671468108232349e-05   7.677336020750166e-07
-0.00013152329092700832   1.671468108232349e-05   7.677336020750166e-07
-0.00013152329092700832   1.671468108232349e-05   7.677336020750166e-07
-0.00013152329092700832   1.671468108232349e-05   7.677336020750166e-07
-0.0001020316178388117   3.8678205004343685e-06   -4.067693852911921e-05
-0.0001020316178388117   3.8678205004343685e-06   -4.067693852911921e-05
-0.0001020316178388117   3.8678205004343685e-06   -4.067693852911921e-05
-0.0001020316178388117   3.8678205004343685e-06   -4.067693852911921e-05
-0.00013152329092700857   0.0   -8.777615390253147e-05
-0.00013152329092700857   0.0   -8.777615390253147e-05
-0.00013152329092700857   0.0   -8.777615390253147e-05
-0.00013152329092700857   0.0   -8.777615390253147e-05
-7.839695842424467e-05   1.6714681082323517e-05   1.0796542251469105e-05
-7.839695842424467e-05   1.6714681082323517e-05   1.0796542251469105e-05
-7.839695842424467e-05   1.6714681082323517e-05   1.0796542251469105e-05
-7.839695842424467e-05   1.6714681082323517e-05   1.0796542251469105e-05
-7.862468381293002e-05   0.0   -7.965211219230105e-05
-7.862468381293002e-05   0.0   -7.965211219230105e-05
-7.862468381293002e-05   0.0   -7.965211219230105e-05
-7.862468381293002e-05   0.0   -7.965211219230105e-05
-0.00013563965890356884   1.7905773259718245e-05   4.629382336266406e-06
-0.00013563965890356884   1.7905773259718245e-05   4.629382336266406e-06
-0.00013563965890356884   1.7905773259718245e-05   4.629382336266406e-06
-0.00013563965890356884   1.7905773259718245e-05   4.629382336266406e-06
-0.00010507398736996911   6.7700347585253405e-06   -3.963196045235071e-05
-0.00010507398736996911   6.7700347585253405e-06   -3.963196045235071e-05
-0.00010507398736996911   6.7700347585253405e-06   -3.963196045235071e-05
-0.00010507398736996911   6.7700347585253405e-06   -3.963196045235071e-05
-0.00013563965890356908   0.0   -9.039557614813202e-05
-0.00013563965890356908   0.0   -9.039557614813202e-05
-0.00013563965890356908   0.0   -9.039557614813202e-05
-0.00013563965890356908   0.0   -9.039557614813202e-05
-7.862468381293002e-05   1.7905773259718245e-05   1.5372846292097396e-05
-7.862468381293002e-05   1.7905773259718245e-05   1.5372846292097396e-05
-7.862468381293002e-05   1.7905773259718245e-05   1.5372846292097396e-05
-7.862468381293002e-05   1.7905773259718245e-05   1.5372846292097396e-05
-7.859083316390495e-05   0.0   -8.014051551688213e-05
-7.859083316390495e-05   0.0   -8.014051551688213e-05
-7.859083316390495e-05   0.0   -8.014051551688213e-05
-7.859083316390495e-05   0.0   -8.014051551688213e-05
-0.00014450086792640492   2.0393697999184824e-05   1.747332362110726e-05
-0.00014450086792640492   2.0393697999184824e-05   1.747332362110726e-05
-0.00014450086792640492   2.0393697999184824e-05   1.747332362110726e-05
-0.00014450086792640492   2.0393697999184824e-05   1.747332362110726e-05
-0.00010711524603373683   8.545883859374897e-06   -3.772735771612019e-05
-0.00010711524603373683   8.545883859374897e-06   -3.772735771612019e-05
-0.00010711524603373683   8.545883859374897e-06   -3.772735771612019e-05
-0.00010711524603373683   8.545883859374897e-06   -3.772735771612019e-05
-7.997242082078055e-05   0.0   -7.40290133178886e-05
-7.997242082078055e-05   0.0   -7.40290133178886e-05
-7.997242082078055e-05   0.0   -7.40290133178886e-05
-7.997242082078055e-05   0.0   -7.40290133178886e-05
-3.641220336714357e-05   5.112234174995057e-06   1.6386896098366898e-06
-3.641220336714357e-05   5.112234174995057e-06   1.6386896098366898e-06
-3.641220336714357e-05   5.112234174995057e-06   1.6386896098366898e-06
-3.641220336714357e-05   5.112234174995057e-06   1.6386896098366898e-06
-3.5027205958291656e-05   0.0   -7.338266513899008e-05
-3.5027205958291656e-05   0.0   -7.338266513899008e-05
-3.5027205958291656e-05   0.0   -7.338266513899008e-05
-3.5027205958291656e-05   0.0   -7.338266513899008e-05
-7.839695842424467e-05   7.274466856912136e-06   -5.464424476549017e-06
-7.839695842424467e-05   7.274466856912136e-06   -5.464424476549017e-06
-7.839695842424467e-05   7.274466856912136e-06   -5.464424476549017e-06
-7.839695842424467e-05   7.274466856912136e-06   -5.464424476549017e-06
-5.749981338953601e-05   5.386234824154363e-07   -3.625149350969851e-05
-5.749981338953601e-05   5.386234824154363e-07   -3.625149350969851e-05
-5.749981338953601e-05   5.386234824154363e-07   -3.625149350969851e-05
-5.749981338953601e-05   5.386234824154363e-07   -3.625149350969851e-05
-7.83969584242446e-05   0.0   -7.774734525313729e-05
-7.83969584242446e-05   0.0   -7.774734525313729e-05
-7.83969584242446e-05   0.0   -7.774734525313729e-05
-7.83969584242446e-05   0.0   -7.774734525313729e-05
-3.5027205958291656e-05   7.274466856912136e-06   -1.099744362401738e-06
-3.5027205958291656e-05   7.274466856912136e-06   -1.099744362401738e-06
-3.5027205958291656e-05   7.274466856912136e-06   -1.099744362401738e-06
-3.5027205958291656e-05   7.274466856912136e-06   -1.099744362401738e-06
-3.425205980279793e-05   0.0   -7.430518708936538e-05
-3.425205980279793e-05   0.0   -7.430518708936538e-05
-3.425205980279793e-05   0.0   -7.430518708936538e-05
-3.425205980279793e-05   0.0   -7.430518708936538e-05
-7.862468381293002e-05   8.911541838226125e-06   -5.697738842080924e-06
-7.862468381293002e-05   8.911541838226125e-06   -5.697738842080924e-06
-7.862468381293002e-05   8.911541838226125e-06   -5.697738842080924e-06
-7.862468381293002e-05   8.911541838226125e-06   -5.697738842080924e-06
-5.632450911352119e-05   2.8684651364766444e-06   -3.923885065337897e-05
-5.632450911352119e-05   2.8684651364766444e-06   -3.923885065337897e-05
-5.632450911352119e-05   2.8684651364766444e-06   -3.923885065337897e-05
-5.632450911352119e-05   2.8684651364766444e-06   -3.923885065337897e-05
-7.862468381293002e-05   0.0   -7.965211219230105e-05
-7.862468381293002e-05   0.0   -7.965211219230105e-05
-7.862468381293002e-05   0.0   -7.965211219230105e-05
-7.862468381293002e-05   0.0   -7.965211219230105e-05
-3.425205980279793e-05   8.911541838226125e-06   -3.5081373914524843e-07
-3.425205980279793e-05   8.911541838226125e-06   -3.5081373914524843e-07
-3.425205980279793e-05   8.911541838226125e-06   -3.5081373914524843e-07
-3.425205980279793e-05   8.911541838226125e-06   -3.5081373914524843e-07
-3.3547324096916035e-05   0.0   -7.391968799240574e-05
-3.3547324096916035e-05   0.0   -7.391968799240574e-05
-3.3547324096916035e-05   0.0   -7.391968799240574e-05
-3.3547324096916035e-05   0.0   -7.391968799240574e-05
-7.859083316390475e-05   1.036804587412719e-05   -5.068000405233897e-06
-7.859083316390475e-05   1.036804587412719e-05   -5.068000405233897e-06
-7.859083316390475e-05   1.036804587412719e-05   -5.068000405233897e-06
-7.859083316390475e-05   1.036804587412719e-05   -5.068000405233897e-06
-5.608600395492301e-05   4.777020166579383e-06   -3.922143366234174e-05
-5.608600395492301e-05   4.777020166579383e-06   -3.922143366234174e-05
-5.608600395492301e-05   4.777020166579383e-06   -3.922143366234174e-05
-5.608600395492301e-05   4.777020166579383e-06   -3.922143366234174e-05
-3.641220336714363e-05   0.0   -7.096167281289157e-05
-3.641220336714363e-05   0.0   -7.096167281289157e-05
-3.641220336714363e-05   0.0   -7.096167281289157e-05
-3.641220336714363e-05   0.0   -7.096167281289157e-05
4.749687099940889e-06   -6.532899665072486e-07   -2.7504960143216543e-06
4.749687099940889e-06   -6.532899665072486e-07   -2.7504960143216543e-06
4.749687099940889e-06   -6.532899665072486e-07   -2.7504960143216543e-06
4.749687099940889e-06   -6.532899665072486e-07   -2.7504960143216543e-06
5.6306543159248885e-06   0.0   -7.260930740040606e-05
5.6306543159248885e-06   0.0   -7.260930740040606e-05
5.6306543159248885e-06   0.0   -7.260930740040606e-05
5.6306543159248885e-06   0.0   -7.260930740040606e-05
-3.5027205958291656e-05   1.2889295643062716e-06   -5.6195646819624866e-06
-3.5027205958291656e-05   1.2889295643062716e-06   -5.6195646819624866e-06
-3.5027205958291656e-05   1.2889295643062716e-06   -5.6195646819624866e-06
-3.5027205958291656e-05   1.2889295643062716e-06   -5.6195646819624866e-06
-1.5390774525609335e-05   -1.3730288229289427e-06   -3.67497753707584e-05
-1.5390774525609335e-05   -1.3730288229289427e-06   -3.67497753707584e-05
-1.5390774525609335e-05   -1.3730288229289427e-06   -3.67497753707584e-05
-1.5390774525609335e-05   -1.3730288229289427e-06   -3.67497753707584e-05
-3.5027205958291656e-05   0.0   -7.338266513899008e-05
-3.5027205958291656e-05   0.0   -7.338266513899008e-05
-3.5027205958291656e-05   0.0   -7.338266513899008e-05
-3.5027205958291656e-05   0.0   -7.338266513899008e-05
5.630654315924898e-06   1.2889295643062851e-06   -4.8462069433786955e-06
5.630654315924898e-06   1.2889295643062851e-06   -4.8462069433786955e-06
5.630654315924898e-06   1.2889295643062851e-06   -4.8462069433786955e-06
5.630654315924898e-06   1.2889295643062851e-06   -4.8462069433786955e-06
6.325092892861848e-06   0.0   -7.25059381348304e-05
6.325092892861848e-06   0.0   -7.25059381348304e-05
6.325092892861848e-06   0.0   -7.25059381348304e-05
6.325092892861848e-06   0.0   -7.25059381348304e-05
-3.4252059802797876e-05   2.9987482575580878e-06   -6.676599263265721e-06
-3.4252059802797876e-05   2.9987482575580878e-06   -6.676599263265721e-06
-3.4252059802797876e-05   2.9987482575580878e-06   -6.676599263265721e-06
-3.4252059802797876e-05   2.9987482575580878e-06   -6.676599263265721e-06
-1.43510565327149e-05   7.306058367996337e-07   -3.848405259428234e-05
-1.43510565327149e-05   7.306058367996337e-07   -3.848405259428234e-05
-1.43510565327149e-05   7.306058367996337e-07   -3.848405259428234e-05
-1.43510565327149e-05   7.306058367996337e-07   -3.848405259428234e-05
-3.425205980279793e-05   0.0   -7.430518708936538e-05
-3.425205980279793e-05   0.0   -7.430518708936538e-05
-3.425205980279793e-05   0.0   -7.430518708936538e-05
-3.425205980279793e-05   0.0   -7.430518708936538e-05
6.325092892861859e-06   2.9987482575581013e-06   -4.877350308730877e-06
6.325092892861859e-06   2.9987482575581013e-06   -4.877350308730877e-06
6.325092892861859e-06   2.9987482575581013e-06   -4.877350308730877e-06
6.325092892861859e-06   2.9987482575581013e-06   -4.877350308730877e-06
7.261664879810335e-06   0.0   -7.093195895801848e-05
7.261664879810335e-06   0.0   -7.093195895801848e-05
7.261664879810335e-06   0.0   -7.093195895801848e-05
7.261664879810335e-06   0.0   -7.093195895801848e-05
-3.354732409691601e-05   4.979548390645334e-06   -5.90470636452845e-06
-3.354732409691601e-05   4.979548390645334e-06   -5.90470636452845e-06
-3.354732409691601e-05   4.979548390645334e-06   -5.90470636452845e-06
-3.354732409691601e-05   4.979548390645334e-06   -5.90470636452845e-06
-1.3495197461493771e-05   2.811023442788974e-06   -3.802380245485166e-05
-1.3495197461493771e-05   2.811023442788974e-06   -3.802380245485166e-05
-1.3495197461493771e-05   2.811023442788974e-06   -3.802380245485166e-05
-1.3495197461493771e-05   2.811023442788974e-06   -3.802380245485166e-05
4.749687099940897e-06   0.0   -7.135364679279592e-05
4.749687099940897e-06   0.0   -7.135364679279592e-05
4.749687099940897e-06   0.0   -7.135364679279592e-05
4.749687099940897e-06   0.0   -7.135364679279592e-05
4.942465396976446e-05   -5.7969721387490135e-06   -3.7355195967266107e-07
4.942465396976446e-05   -5.7969721387490135e-06   -3.7355195967266107e-07
4.942465396976446e-05   -5.7969721387490135e-06   -3.7355195967266107e-07
4.942465396976446e-05   -5.7969721387490135e-06   -3.7355195967266107e-07
4.950345281438091e-05   0.0   -7.523251895698408e-05
4.950345281438091e-05   0.0   -7.523251895698408e-05
4.950345281438091e-05   0.0   -7.523251895698408e-05
4.950345281438091e-05   0.0   -7.523251895698408e-05
5.630654315924908e-06   -4.372019260962947e-06   5.120234303536871e-07
5.630654315924908e-06   -4.372019260962947e-06   5.120234303536871e-07
5.630654315924908e-06   -4.372019260962947e-06   5.120234303536871e-07
5.630654315924908e-06   -4.372019260962947e-06   5.120234303536871e-07
2.7126569957160906e-05   -3.232393470156785e-06   -3.599827811285663e-05
2.7126569957160906e-05   -3.232393470156785e-06   -3.599827811285663e-05
2.7126569957160906e-05   -3.232393470156785e-06   -3.599827811285663e-05
2.7126569957160906e-05   -3.232393470156785e-06   -3.599827811285663e-05
5.630654315924908e-06   0.0   -7.260930740040631e-05
5.630654315924908e-06   0.0   -7.260930740040631e-05
5.630654315924908e-06   0.0   -7.260930740040631e-05
5.630654315924908e-06   0.0   -7.260930740040631e-05
4.950345281438091e-05   -4.372019260962947e-06   -2.111188126224079e-06
4.950345281438091e-05   -4.372019260962947e-06   -2.111188126224079e-06
4.950345281438091e-05   -4.372019260962947e-06   -2.111188126224079e-06
4.950345281438091e-05   -4.372019260962947e-06   -2.111188126224079e-06
4.9283606127484e-05   0.0   -7.415816189459291e-05
4.9283606127484e-05   0.0   -7.415816189459291e-05
4.9283606127484e-05   0.0   -7.415816189459291e-05
4.9283606127484e-05   0.0   -7.415816189459291e-05
6.325092892861859e-06   -2.753706266270665e-06   -9.084160771269663e-07
6.325092892861859e-06   -2.753706266270665e-06   -9.084160771269663e-07
6.325092892861859e-06   -2.753706266270665e-06   -9.084160771269663e-07
6.325092892861859e-06   -2.753706266270665e-06   -9.084160771269663e-07
2.7457130221704454e-05   -1.2907120784888483e-06   -3.7006274804533666e-05
2.7457130221704454e-05   -1.2907120784888483e-06   -3.7006274804533666e-05
2.7457130221704454e-05   -1.2907120784888483e-06   -3.7006274804533666e-05
2.7457130221704454e-05   -1.2907120784888483e-06   -3.7006274804533666e-05
6.325092892861853e-06   0.0   -7.250593813483045e-05
6.325092892861853e-06   0.0   -7.250593813483045e-05
6.325092892861853e-06   0.0   -7.250593813483045e-05
6.325092892861853e-06   0.0   -7.250593813483045e-05
4.9283606127484e-05   -2.753706266270665e-06   -2.5606398368893657e-06
4.9283606127484e-05   -2.753706266270665e-06   -2.5606398368893657e-06
4.9283606127484e-05   -2.753706266270665e-06   -2.5606398368893657e-06
4.9283606127484e-05   -2.753706266270665e-06   -2.5606398368893657e-06
5.02305571363168e-05   0.0   -7.127910561239919e-05
5.02305571363168e-05   0.0   -7.127910561239919e-05
5.02305571363168e-05   0.0   -7.127910561239919e-05
5.02305571363168e-05   0.0   -7.127910561239919e-05
7.2616648798103476e-06   -5.785777573009791e-07   6.828614694921394e-07
7.2616648798103476e-06   -5.785777573009791e-07   6.828614694921394e-07
7.2616648798103476e-06   -5.785777573009791e-07   6.828614694921394e-07
7.2616648798103476e-06   -5.785777573009791e-07   6.828614694921394e-07
2.8277825014589306e-05   1.0223604353594404e-06   -3.5304635004069014e-05
2.8277825014589306e-05   1.0223604353594404e-06   -3.5304635004069014e-05
2.8277825014589306e-05   1.0223604353594404e-06   -3.5304635004069014e-05
2.8277825014589306e-05   1.0223604353594404e-06   -3.5304635004069014e-05
4.942465396976446e-05   0.0   -7.483183007604534e-05
4.942465396976446e-05   0.0   -7.483183007604534e-05
4.942465396976446e-05   0.0   -7.483183007604534e-05
4.942465396976446e-05   0.0   -7.483183007604534e-05
0.00011153517017765475   -1.4689184772362552e-05   1.987218607368821e-05
0.00011153517017765475   -1.4689184772362552e-05   1.987218607368821e-05
0.00011153517017765475   -1.4689184772362552e-05   1.987218607368821e-05
0.00011153517017765475   -1.4689184772362552e-05   1.987218607368821e-05
0.00010473772147074457   0.0   -8.273429378856173e-05
0.00010473772147074457   0.0   -8.273429378856173e-05
0.00010473772147074457   0.0   -8.273429378856173e-05
0.00010473772147074457   0.0   -8.273429378856173e-05
4.950345281438091e-05   -1.25029580526294e-05   1.682459547028868e-05
4.950345281438091e-05   -1.25029580526294e-05   1.682459547028868e-05
4.950345281438091e-05   -1.25029580526294e-05   1.682459547028868e-05
4.950345281438091e-05   -1.25029580526294e-05   1.682459547028868e-05
7.708118772025452e-05   -6.585386427096992e-06   -3.2688839014820086e-05
7.708118772025452e-05   -6.585386427096992e-06   -3.2688839014820086e-05
7.708118772025452e-05   -6.585386427096992e-06   -3.2688839014820086e-05
7.708118772025452e-05   -6.585386427096992e-06   -3.2688839014820086e-05
4.9503452814380864e-05   0.0   -7.523251895698401e-05
4.9503452814380864e-05   0.0   -7.523251895698401e-05
4.9503452814380864e-05   0.0   -7.523251895698401e-05
4.9503452814380864e-05   0.0   -7.523251895698401e-05
0.0001047377214707442   -1.2502958052629373e-05   9.322820638710987e-06
0.0001047377214707442   -1.2502958052629373e-05   9.322820638710987e-06
0.0001047377214707442   -1.2502958052629373e-05   9.322820638710987e-06
0.0001047377214707442   -1.2502958052629373e-05   9.322820638710987e-06
0.00010159960908629946   0.0   -8.101411670467898e-05
0.00010159960908629946   0.0   -8.101411670467898e-05
0.00010159960908629946   0.0   -8.101411670467898e-05
0.00010159960908629946   0.0   -8.101411670467898e-05
4.9283606127484e-05   -1.142659135014345e-05   1.3035176370099514e-05
4.9283606127484e-05   -1.142659135014345e-05   1.3035176370099514e-05
4.9283606127484e-05   -1.142659135014345e-05   1.3035176370099514e-05
4.9283606127484e-05   -1.142659135014345e-05   1.3035176370099514e-05
7.555153095034015e-05   -4.8179981230791065e-06   -3.470985427089932e-05
7.555153095034015e-05   -4.8179981230791065e-06   -3.470985427089932e-05
7.555153095034015e-05   -4.8179981230791065e-06   -3.470985427089932e-05
7.555153095034015e-05   -4.8179981230791065e-06   -3.470985427089932e-05
4.9283606127484e-05   0.0   -7.415816189459291e-05
4.9283606127484e-05   0.0   -7.415816189459291e-05
4.9283606127484e-05   0.0   -7.415816189459291e-05
4.9283606127484e-05   0.0   -7.415816189459291e-05
0.00010159960908629911   -1.1426591350143395e-05   6.179221560013401e-06
0.00010159960908629911   -1.1426591350143395e-05   6.179221560013401e-06
0.00010159960908629911   -1.1426591350143395e-05   6.179221560013401e-06
0.00010159960908629911   -1.1426591350143395e-05   6.179221560013401e-06
9.693331556675776e-05   0.0   -7.661110353883564e-05
9.693331556675776e-05   0.0   -7.661110353883564e-05
9.693331556675776e-05   0.0   -7.661110353883564e-05
9.693331556675776e-05   0.0   -7.661110353883564e-05
5.02305571363168e-05   -8.886663210727651e-06   6.558825105002674e-06
5.02305571363168e-05   -8.886663210727651e-06   6.558825105002674e-06
5.02305571363168e-05   -8.886663210727651e-06   6.558825105002674e-06
5.02305571363168e-05   -8.886663210727651e-06   6.558825105002674e-06
7.310846084712097e-05   -2.0441180368690527e-06   -3.5676541517319384e-05
7.310846084712097e-05   -2.0441180368690527e-06   -3.5676541517319384e-05
7.310846084712097e-05   -2.0441180368690527e-06   -3.5676541517319384e-05
7.310846084712097e-05   -2.0441180368690527e-06   -3.5676541517319384e-05
-0.00010909722178394944   1.3932860892949974e-05   -7.15244972958159e-05
-0.00010909722178394944   1.3932860892949974e-05   -7.15244972958159e-05
-0.00010909722178394944   1.3932860892949974e-05   -7.15244972958159e-05
-0.00010909722178394944   1.3932860892949974e-05   -7.15244972958159e-05
-6.987013748204507e-05   1.2533449570726034e-05   -6.98567025264298e-06
-6.987013748204507e-05   1.2533449570726034e-05   -6.98567025264298e-06
-6.987013748204507e-05   1.2533449570726034e-05   -6.98567025264298e-06
-6.987013748204507e-05   1.2533449570726034e-05   -6.98567025264298e-06
-7.16319391763132e-05   1.6714681082323463e-05   -6.006364445157816e-05
-7.16319391763132e-05   1.6714681082323463e-05   -6.006364445157816e-05
-7.16319391763132e-05   1.6714681082323463e-05   -6.006364445157816e-05
-7.16319391763132e-05   1.6714681082323463e-05   -6.006364445157816e-05
-0.00011028625163829125   1.5039470044827987e-05   5.365336274216115e-06
-0.00011028625163829125   1.5039470044827987e-05   5.365336274216115e-06
-0.00011028625163829125   1.5039470044827987e-05   5.365336274216115e-06
-0.00011028625163829125   1.5039470044827987e-05   5.365336274216115e-06
-8.66483424450488e-05   1.4551598260382982e-05   -3.373845597718817e-05
-8.66483424450488e-05   1.4551598260382982e-05   -3.373845597718817e-05
-8.66483424450488e-05   1.4551598260382982e-05   -3.373845597718817e-05
-8.66483424450488e-05   1.4551598260382982e-05   -3.373845597718817e-05
-0.00011028625163829125   1.6714681082323463e-05   -5.905851782908089e-05
-0.00011028625163829125   1.6714681082323463e-05   -5.905851782908089e-05
-0.00011028625163829125   1.6714681082323463e-05   -5.905851782908089e-05
-0.00011028625163829125   1.6714681082323463e-05   -5.905851782908089e-05
-7.163193917631344e-05   1.5039470044827987e-05   4.360209651718775e-06
-7.163193917631344e-05   1.5039470044827987e-05   4.360209651718775e-06
-7.163193917631344e-05   1.5039470044827987e-05   4.360209651718775e-06
-7.163193917631344e-05   1.5039470044827987e-05   4.360209651718775e-06
-7.200509476833616e-05   1.7905773259718218e-05   -5.399670005356628e-05
-7.200509476833616e-05   1.7905773259718218e-05   -5.399670005356628e-05
-7.200509476833616e-05   1.7905773259718218e-05   -5.399670005356628e-05
-7.200509476833616e-05   1.7905773259718218e-05   -5.399670005356628e-05
-0.00011106934913519251   1.617036973591406e-05   1.2151632672143095e-05
-0.00011106934913519251   1.617036973591406e-05   1.2151632672143095e-05
-0.00011106934913519251   1.617036973591406e-05   1.2151632672143095e-05
-0.00011106934913519251   1.617036973591406e-05   1.2151632672143095e-05
-8.92013519093763e-05   1.6127516167456545e-05   -2.4269317229809093e-05
-8.92013519093763e-05   1.6127516167456545e-05   -2.4269317229809093e-05
-8.92013519093763e-05   1.6127516167456545e-05   -2.4269317229809093e-05
-8.92013519093763e-05   1.6127516167456545e-05   -2.4269317229809093e-05
-0.00011106934913519229   1.7905773259718218e-05   -5.295545793928375e-05
-0.00011106934913519229   1.7905773259718218e-05   -5.295545793928375e-05
-0.00011106934913519229   1.7905773259718218e-05   -5.295545793928375e-05
-0.00011106934913519229   1.7905773259718218e-05   -5.295545793928375e-05
-7.20050947683363e-05   1.617036973591406e-05   1.1110390557860514e-05
-7.20050947683363e-05   1.617036973591406e-05   1.1110390557860514e-05
-7.20050947683363e-05   1.617036973591406e-05   1.1110390557860514e-05
-7.20050947683363e-05   1.617036973591406e-05   1.1110390557860514e-05
-7.160055847508363e-05   2.0393697999184797e-05   -3.988514808382697e-05
-7.160055847508363e-05   2.0393697999184797e-05   -3.988514808382697e-05
-7.160055847508363e-05   2.0393697999184797e-05   -3.988514808382697e-05
-7.160055847508363e-05   2.0393697999184797e-05   -3.988514808382697e-05
-0.00010799953986924575   1.7067740274780174e-05   2.2775395541085723e-05
-0.00010799953986924575   1.7067740274780174e-05   2.2775395541085723e-05
-0.00010799953986924575   1.7067740274780174e-05   2.2775395541085723e-05
-0.00010799953986924575   1.7067740274780174e-05   2.2775395541085723e-05
-8.688742396920757e-05   1.7687410964747322e-05   -1.2783266706291481e-05
-8.688742396920757e-05   1.7687410964747322e-05   -1.2783266706291481e-05
-8.688742396920757e-05   1.7687410964747322e-05   -1.2783266706291481e-05
-8.688742396920757e-05   1.7687410964747322e-05   -1.2783266706291481e-05
-6.987013748204507e-05   5.112234174995043e-06   -7.592020905408628e-05
-6.987013748204507e-05   5.112234174995043e-06   -7.592020905408628e-05
-6.987013748204507e-05   5.112234174995043e-06   -7.592020905408628e-05
-6.987013748204507e-05   5.112234174995043e-06   -7.592020905408628e-05
-3.3098183929778736e-05   5.831885783778878e-06   -1.4201828835038642e-05
-3.3098183929778736e-05   5.831885783778878e-06   -1.4201828835038642e-05
-3.3098183929778736e-05   5.831885783778878e-06   -1.4201828835038642e-05
-3.3098183929778736e-05   5.831885783778878e-06   -1.4201828835038642e-05
-3.389305255940786e-05   7.274466856912109e-06   -7.580744101415719e-05
-3.389305255940786e-05   7.274466856912109e-06   -7.580744101415719e-05
-3.389305255940786e-05   7.274466856912109e-06   -7.580744101415719e-05
-3.389305255940786e-05   7.274466856912109e-06   -7.580744101415719e-05
-7.16319391763132e-05   8.136417132643915e-06   -1.3426466818087254e-05
-7.16319391763132e-05   8.136417132643915e-06   -1.3426466818087254e-05
-7.16319391763132e-05   8.136417132643915e-06   -1.3426466818087254e-05
-7.16319391763132e-05   8.136417132643915e-06   -1.3426466818087254e-05
-5.197682751456851e-05   6.551858587677665e-06   -4.523425112734901e-05
-5.197682751456851e-05   6.551858587677665e-06   -4.523425112734901e-05
-5.197682751456851e-05   6.551858587677665e-06   -4.523425112734901e-05
-5.197682751456851e-05   6.551858587677665e-06   -4.523425112734901e-05
-7.163193917631313e-05   7.274466856912109e-06   -7.632461117959616e-05
-7.163193917631313e-05   7.274466856912109e-06   -7.632461117959616e-05
-7.163193917631313e-05   7.274466856912109e-06   -7.632461117959616e-05
-7.163193917631313e-05   7.274466856912109e-06   -7.632461117959616e-05
-3.3893052559407905e-05   8.136417132643969e-06   -1.2909296652648153e-05
-3.3893052559407905e-05   8.136417132643969e-06   -1.2909296652648153e-05
-3.3893052559407905e-05   8.136417132643969e-06   -1.2909296652648153e-05
-3.3893052559407905e-05   8.136417132643969e-06   -1.2909296652648153e-05
-3.4146326252283335e-05   8.911541838226098e-06   -7.438810427028302e-05
-3.4146326252283335e-05   8.911541838226098e-06   -7.438810427028302e-05
-3.4146326252283335e-05   8.911541838226098e-06   -7.438810427028302e-05
-3.4146326252283335e-05   8.911541838226098e-06   -7.438810427028302e-05
-7.200509476833616e-05   1.0043510033995234e-05   -1.1969337660989847e-05
-7.200509476833616e-05   1.0043510033995234e-05   -1.1969337660989847e-05
-7.200509476833616e-05   1.0043510033995234e-05   -1.1969337660989847e-05
-7.200509476833616e-05   1.0043510033995234e-05   -1.1969337660989847e-05
-5.238769694220879e-05   8.313882960637087e-06   -4.3627224460520504e-05
-5.238769694220879e-05   8.313882960637087e-06   -4.3627224460520504e-05
-5.238769694220879e-05   8.313882960637087e-06   -4.3627224460520504e-05
-5.238769694220879e-05   8.313882960637087e-06   -4.3627224460520504e-05
-7.200509476833616e-05   8.911541838226098e-06   -7.50672851877445e-05
-7.200509476833616e-05   8.911541838226098e-06   -7.50672851877445e-05
-7.200509476833616e-05   8.911541838226098e-06   -7.50672851877445e-05
-7.200509476833616e-05   8.911541838226098e-06   -7.50672851877445e-05
-3.4146326252283464e-05   1.004351003399518e-05   -1.129015674352842e-05
-3.4146326252283464e-05   1.004351003399518e-05   -1.129015674352842e-05
-3.4146326252283464e-05   1.004351003399518e-05   -1.129015674352842e-05
-3.4146326252283464e-05   1.004351003399518e-05   -1.129015674352842e-05
-3.4067811995976145e-05   1.036804587412719e-05   -7.362646507508229e-05
-3.4067811995976145e-05   1.036804587412719e-05   -7.362646507508229e-05
-3.4067811995976145e-05   1.036804587412719e-05   -7.362646507508229e-05
-3.4067811995976145e-05   1.036804587412719e-05   -7.362646507508229e-05
-7.160055847508357e-05   1.209508893178831e-05   -1.2108113444499928e-05
-7.160055847508357e-05   1.209508893178831e-05   -1.2108113444499928e-05
-7.160055847508357e-05   1.209508893178831e-05   -1.2108113444499928e-05
-7.160055847508357e-05   1.209508893178831e-05   -1.2108113444499928e-05
-5.270101085372782e-05   9.908692482205083e-06   -4.229552161034311e-05
-5.270101085372782e-05   9.908692482205083e-06   -4.229552161034311e-05
-5.270101085372782e-05   9.908692482205083e-06   -4.229552161034311e-05
-5.270101085372782e-05   9.908692482205083e-06   -4.229552161034311e-05
-3.309818392977868e-05   -6.532899665072622e-07   -7.948562973306995e-05
-3.309818392977868e-05   -6.532899665072622e-07   -7.948562973306995e-05
-3.309818392977868e-05   -6.532899665072622e-07   -7.948562973306995e-05
-3.309818392977868e-05   -6.532899665072622e-07   -7.948562973306995e-05
3.2106179482561247e-06   -1.7268159866287063e-07   -1.868259491563861e-05
3.2106179482561247e-06   -1.7268159866287063e-07   -1.868259491563861e-05
3.2106179482561247e-06   -1.7268159866287063e-07   -1.868259491563861e-05
3.2106179482561247e-06   -1.7268159866287063e-07   -1.868259491563861e-05
3.0566645665051614e-06   1.2889295643062987e-06   -7.993037206618239e-05
3.0566645665051614e-06   1.2889295643062987e-06   -7.993037206618239e-05
3.0566645665051614e-06   1.2889295643062987e-06   -7.993037206618239e-05
3.0566645665051614e-06   1.2889295643062987e-06   -7.993037206618239e-05
-3.389305255940786e-05   1.95041167686574e-06   -1.8744399457196076e-05
-3.389305255940786e-05   1.95041167686574e-06   -1.8744399457196076e-05
-3.389305255940786e-05   1.95041167686574e-06   -1.8744399457196076e-05
-3.389305255940786e-05   1.95041167686574e-06   -1.8744399457196076e-05
-1.5272774778070743e-05   6.472431225113765e-07   -4.8996294626812154e-05
-1.5272774778070743e-05   6.472431225113765e-07   -4.8996294626812154e-05
-1.5272774778070743e-05   6.472431225113765e-07   -4.8996294626812154e-05
-1.5272774778070743e-05   6.472431225113765e-07   -4.8996294626812154e-05
-3.389305255940786e-05   1.2889295643062851e-06   -8.032726133371792e-05
-3.389305255940786e-05   1.2889295643062851e-06   -8.032726133371792e-05
-3.389305255940786e-05   1.2889295643062851e-06   -8.032726133371792e-05
-3.389305255940786e-05   1.2889295643062851e-06   -8.032726133371792e-05
3.0566645665051614e-06   1.95041167686574e-06   -1.834751018966045e-05
3.0566645665051614e-06   1.95041167686574e-06   -1.834751018966045e-05
3.0566645665051614e-06   1.95041167686574e-06   -1.834751018966045e-05
3.0566645665051614e-06   1.95041167686574e-06   -1.834751018966045e-05
2.848363998074255e-06   2.9987482575580742e-06   -8.009832271450897e-05
2.848363998074255e-06   2.9987482575580742e-06   -8.009832271450897e-05
2.848363998074255e-06   2.9987482575580742e-06   -8.009832271450897e-05
2.848363998074255e-06   2.9987482575580742e-06   -8.009832271450897e-05
-3.4146326252283335e-05   4.0246933907156545e-06   -1.9056072710474254e-05
-3.4146326252283335e-05   4.0246933907156545e-06   -1.9056072710474254e-05
-3.4146326252283335e-05   4.0246933907156545e-06   -1.9056072710474254e-05
-3.4146326252283335e-05   4.0246933907156545e-06   -1.9056072710474254e-05
-1.5562698069945186e-05   2.44671495271305e-06   -4.908199928490278e-05
-1.5562698069945186e-05   2.44671495271305e-06   -4.908199928490278e-05
-1.5562698069945186e-05   2.44671495271305e-06   -4.908199928490278e-05
-1.5562698069945186e-05   2.44671495271305e-06   -4.908199928490278e-05
-3.4146326252283335e-05   2.9987482575580742e-06   -8.07138897944035e-05
-3.4146326252283335e-05   2.9987482575580742e-06   -8.07138897944035e-05
-3.4146326252283335e-05   2.9987482575580742e-06   -8.07138897944035e-05
-3.4146326252283335e-05   2.9987482575580742e-06   -8.07138897944035e-05
2.848363998074261e-06   4.0246933907156545e-06   -1.844050563057973e-05
2.848363998074261e-06   4.0246933907156545e-06   -1.844050563057973e-05
2.848363998074261e-06   4.0246933907156545e-06   -1.844050563057973e-05
2.848363998074261e-06   4.0246933907156545e-06   -1.844050563057973e-05
2.434058164974272e-06   4.9795483906453204e-06   -7.996009385376711e-05
2.434058164974272e-06   4.9795483906453204e-06   -7.996009385376711e-05
2.434058164974272e-06   4.9795483906453204e-06   -7.996009385376711e-05
2.434058164974272e-06   4.9795483906453204e-06   -7.996009385376711e-05
-3.406781199597617e-05   6.186056232455363e-06   -1.9847548290602524e-05
-3.406781199597617e-05   6.186056232455363e-06   -1.9847548290602524e-05
-3.406781199597617e-05   6.186056232455363e-06   -1.9847548290602524e-05
-3.406781199597617e-05   6.186056232455363e-06   -1.9847548290602524e-05
-1.5740215903121223e-05   4.2953167731505965e-06   -4.9259098103111156e-05
-1.5740215903121223e-05   4.2953167731505965e-06   -4.9259098103111156e-05
-1.5740215903121223e-05   4.2953167731505965e-06   -4.9259098103111156e-05
-1.5740215903121223e-05   4.2953167731505965e-06   -4.9259098103111156e-05
3.2106179482561247e-06   -5.796972138749e-06   -7.334213737446496e-05
3.2106179482561247e-06   -5.796972138749e-06   -7.334213737446496e-05
3.2106179482561247e-06   -5.796972138749e-06   -7.334213737446496e-05
3.2106179482561247e-06   -5.796972138749e-06   -7.334213737446496e-05
4.0627589835621035e-05   -5.960198253493216e-06   -1.1078453231036609e-05
4.0627589835621035e-05   -5.960198253493216e-06   -1.1078453231036609e-05
4.0627589835621035e-05   -5.960198253493216e-06   -1.1078453231036609e-05
4.0627589835621035e-05   -5.960198253493216e-06   -1.1078453231036609e-05
4.0955099411511456e-05   -4.372019260962906e-06   -7.436803134482976e-05
4.0955099411511456e-05   -4.372019260962906e-06   -7.436803134482976e-05
4.0955099411511456e-05   -4.372019260962906e-06   -7.436803134482976e-05
4.0955099411511456e-05   -4.372019260962906e-06   -7.436803134482976e-05
3.0566645665051614e-06   -4.03183534826299e-06   -1.1408083617439094e-05
3.0566645665051614e-06   -4.03183534826299e-06   -1.1408083617439094e-05
3.0566645665051614e-06   -4.03183534826299e-06   -1.1408083617439094e-05
3.0566645665051614e-06   -4.03183534826299e-06   -1.1408083617439094e-05
2.1681774494200047e-05   -4.825284603816285e-06   -4.1973863943598695e-05
2.1681774494200047e-05   -4.825284603816285e-06   -4.1973863943598695e-05
2.1681774494200047e-05   -4.825284603816285e-06   -4.1973863943598695e-05
2.1681774494200047e-05   -4.825284603816285e-06   -4.1973863943598695e-05
3.0566645665051555e-06   -4.372019260962933e-06   -7.457214169244986e-05
3.0566645665051555e-06   -4.372019260962933e-06   -7.457214169244986e-05
3.0566645665051555e-06   -4.372019260962933e-06   -7.457214169244986e-05
3.0566645665051555e-06   -4.372019260962933e-06   -7.457214169244986e-05
4.095509941151154e-05   -4.031835348262936e-06   -1.1203973269819062e-05
4.095509941151154e-05   -4.031835348262936e-06   -1.1203973269819062e-05
4.095509941151154e-05   -4.031835348262936e-06   -1.1203973269819062e-05
4.095509941151154e-05   -4.031835348262936e-06   -1.1203973269819062e-05
4.074685460169722e-05   -2.7537062662706517e-06   -7.576265583721029e-05
4.074685460169722e-05   -2.7537062662706517e-06   -7.576265583721029e-05
4.074685460169722e-05   -2.7537062662706517e-06   -7.576265583721029e-05
4.074685460169722e-05   -2.7537062662706517e-06   -7.576265583721029e-05
2.848363998074255e-06   -2.1424851901129206e-06   -1.296523747686675e-05
2.848363998074255e-06   -2.1424851901129206e-06   -1.296523747686675e-05
2.848363998074255e-06   -2.1424851901129206e-06   -1.296523747686675e-05
2.848363998074255e-06   -2.1424851901129206e-06   -1.296523747686675e-05
2.1444616952184293e-05   -3.2851172400367773e-06   -4.327341317042905e-05
2.1444616952184293e-05   -3.2851172400367773e-06   -4.327341317042905e-05
2.1444616952184293e-05   -3.2851172400367773e-06   -4.327341317042905e-05
2.1444616952184293e-05   -3.2851172400367773e-06   -4.327341317042905e-05
2.8483639980742524e-06   -2.753706266270638e-06   -7.612938848290492e-05
2.8483639980742524e-06   -2.753706266270638e-06   -7.612938848290492e-05
2.8483639980742524e-06   -2.753706266270638e-06   -7.612938848290492e-05
2.8483639980742524e-06   -2.753706266270638e-06   -7.612938848290492e-05
4.074685460169736e-05   -2.1424851901129206e-06   -1.2598504831172122e-05
4.074685460169736e-05   -2.1424851901129206e-06   -1.2598504831172122e-05
4.074685460169736e-05   -2.1424851901129206e-06   -1.2598504831172122e-05
4.074685460169736e-05   -2.1424851901129206e-06   -1.2598504831172122e-05
3.955092298349625e-05   -5.785777573009791e-07   -7.58961461566223e-05
3.955092298349625e-05   -5.785777573009791e-07   -7.58961461566223e-05
3.955092298349625e-05   -5.785777573009791e-07   -7.58961461566223e-05
3.955092298349625e-05   -5.785777573009791e-07   -7.58961461566223e-05
2.434058164974272e-06   1.9493707188451663e-07   -1.4498813689930395e-05
2.434058164974272e-06   1.9493707188451663e-07   -1.4498813689930395e-05
2.434058164974272e-06   1.9493707188451663e-07   -1.4498813689930395e-05
2.434058164974272e-06   1.9493707188451663e-07   -1.4498813689930395e-05
2.1204833001727443e-05   -1.486188714722945e-06   -4.4774762945887784e-05
2.1204833001727443e-05   -1.486188714722945e-06   -4.4774762945887784e-05
2.1204833001727443e-05   -1.486188714722945e-06   -4.4774762945887784e-05
2.1204833001727443e-05   -1.486188714722945e-06   -4.4774762945887784e-05
4.0627589835621035e-05   -1.4689184772362552e-05   -4.4380824146533074e-05
4.0627589835621035e-05   -1.4689184772362552e-05   -4.4380824146533074e-05
4.0627589835621035e-05   -1.4689184772362552e-05   -4.4380824146533074e-05
4.0627589835621035e-05   -1.4689184772362552e-05   -4.4380824146533074e-05
7.756557170714349e-05   -1.1081494925193735e-05   1.934709288097219e-05
7.756557170714349e-05   -1.1081494925193735e-05   1.934709288097219e-05
7.756557170714349e-05   -1.1081494925193735e-05   1.934709288097219e-05
7.756557170714349e-05   -1.1081494925193735e-05   1.934709288097219e-05
8.05013318125417e-05   -1.25029580526294e-05   -5.396444222632027e-05
8.05013318125417e-05   -1.25029580526294e-05   -5.396444222632027e-05
8.05013318125417e-05   -1.25029580526294e-05   -5.396444222632027e-05
8.05013318125417e-05   -1.25029580526294e-05   -5.396444222632027e-05
4.095509941151161e-05   -1.0056615515967717e-05   1.0478139586733086e-05
4.095509941151161e-05   -1.0056615515967717e-05   1.0478139586733086e-05
4.095509941151161e-05   -1.0056615515967717e-05   1.0478139586733086e-05
4.095509941151161e-05   -1.0056615515967717e-05   1.0478139586733086e-05
5.712633704831791e-05   -1.2032075990753386e-05   -1.5288646856406133e-05
5.712633704831791e-05   -1.2032075990753386e-05   -1.5288646856406133e-05
5.712633704831791e-05   -1.2032075990753386e-05   -1.5288646856406133e-05
5.712633704831791e-05   -1.2032075990753386e-05   -1.5288646856406133e-05
4.09550994115115e-05   -1.2502958052629373e-05   -5.543224774831707e-05
4.09550994115115e-05   -1.2502958052629373e-05   -5.543224774831707e-05
4.09550994115115e-05   -1.2502958052629373e-05   -5.543224774831707e-05
4.09550994115115e-05   -1.2502958052629373e-05   -5.543224774831707e-05
8.05013318125417e-05   -1.0056615515967717e-05   1.1945945108730069e-05
8.05013318125417e-05   -1.0056615515967717e-05   1.1945945108730069e-05
8.05013318125417e-05   -1.0056615515967717e-05   1.1945945108730069e-05
8.05013318125417e-05   -1.0056615515967717e-05   1.1945945108730069e-05
8.018955808054449e-05   -1.142659135014345e-05   -5.8692432932225334e-05
8.018955808054449e-05   -1.142659135014345e-05   -5.8692432932225334e-05
8.018955808054449e-05   -1.142659135014345e-05   -5.8692432932225334e-05
8.018955808054449e-05   -1.142659135014345e-05   -5.8692432932225334e-05
4.074685460169736e-05   -8.969246853482806e-06   5.5709995011901355e-06
4.074685460169736e-05   -8.969246853482806e-06   5.5709995011901355e-06
4.074685460169736e-05   -8.969246853482806e-06   5.5709995011901355e-06
4.074685460169736e-05   -8.969246853482806e-06   5.5709995011901355e-06
5.9113195897253885e-05   -1.0628448885826127e-05   -2.4044048105331407e-05
5.9113195897253885e-05   -1.0628448885826127e-05   -2.4044048105331407e-05
5.9113195897253885e-05   -1.0628448885826127e-05   -2.4044048105331407e-05
5.9113195897253885e-05   -1.0628448885826127e-05   -2.4044048105331407e-05
4.074685460169728e-05   -1.1426591350143422e-05   -6.016683963022164e-05
4.074685460169728e-05   -1.1426591350143422e-05   -6.016683963022164e-05
4.074685460169728e-05   -1.1426591350143422e-05   -6.016683963022164e-05
4.074685460169728e-05   -1.1426591350143422e-05   -6.016683963022164e-05
8.018955808054449e-05   -8.969246853482806e-06   7.04540619918644e-06
8.018955808054449e-05   -8.969246853482806e-06   7.04540619918644e-06
8.018955808054449e-05   -8.969246853482806e-06   7.04540619918644e-06
8.018955808054449e-05   -8.969246853482806e-06   7.04540619918644e-06
7.969248951604594e-05   -8.886663210727638e-06   -6.831840942032205e-05
7.969248951604594e-05   -8.886663210727638e-06   -6.831840942032205e-05
7.969248951604594e-05   -8.886663210727638e-06   -6.831840942032205e-05
7.969248951604594e-05   -8.886663210727638e-06   -6.831840942032205e-05
3.955092298349639e-05   -6.628952466711951e-06   -2.7704249791489337e-06
3.955092298349639e-05   -6.628952466711951e-06   -2.7704249791489337e-06
3.955092298349639e-05   -6.628952466711951e-06   -2.7704249791489337e-06
3.955092298349639e-05   -6.628952466711951e-06   -2.7704249791489337e-06
5.741304979468449e-05   -9.153429149443682e-06   -3.102595032148997e-05
5.741304979468449e-05   -9.153429149443682e-06   -3.102595032148997e-05
5.741304979468449e-05   -9.153429149443682e-06   -3.102595032148997e-05
5.741304979468449e-05   -9.153429149443682e-06   -3.102595032148997e-05
-8.695835534423815e-05   1.2533449570726089e-05   -5.998247298663831e-05
-8.695835534423815e-05   1.2533449570726089e-05   -5.998247298663831e-05
-8.695835534423815e-05   1.2533449570726089e-05   -5.998247298663831e-05
-8.695835534423815e-05   1.2533449570726089e-05   -5.998247298663831e-05
-5.699646035832597e-05   9.581361589026016e-06   -1.1817234132471344e-05
-5.699646035832597e-05   9.581361589026016e-06   -1.1817234132471344e-05
-5.699646035832597e-05   9.581361589026016e-06   -1.1817234132471344e-05
-5.699646035832597e-05   9.581361589026016e-06   -1.1817234132471344e-05
-5.7274560390507606e-05   1.5039470044827987e-05   -4.980124693856067e-05
-5.7274560390507606e-05   1.5039470044827987e-05   -4.980124693856067e-05
-5.7274560390507606e-05   1.5039470044827987e-05   -4.980124693856067e-05
-5.7274560390507606e-05   1.5039470044827987e-05   -4.980124693856067e-05
-8.564819204124406e-05   1.1588242182651197e-05   -4.4112413669387604e-07
-8.564819204124406e-05   1.1588242182651197e-05   -4.4112413669387604e-07
-8.564819204124406e-05   1.1588242182651197e-05   -4.4112413669387604e-07
-8.564819204124406e-05   1.1588242182651197e-05   -4.4112413669387604e-07
-6.868660575225346e-05   1.274344786139853e-05   -2.9403558025593456e-05
-6.868660575225346e-05   1.274344786139853e-05   -2.9403558025593456e-05
-6.868660575225346e-05   1.274344786139853e-05   -2.9403558025593456e-05
-6.868660575225346e-05   1.274344786139853e-05   -2.9403558025593456e-05
-8.564819204124406e-05   1.5039470044827987e-05   -4.773051022125452e-05
-8.564819204124406e-05   1.5039470044827987e-05   -4.773051022125452e-05
-8.564819204124406e-05   1.5039470044827987e-05   -4.773051022125452e-05
-8.564819204124406e-05   1.5039470044827987e-05   -4.773051022125452e-05
-5.7274560390507606e-05   1.1588242182651088e-05   -2.511860853999701e-06
-5.7274560390507606e-05   1.1588242182651088e-05   -2.511860853999701e-06
-5.7274560390507606e-05   1.1588242182651088e-05   -2.511860853999701e-06
-5.7274560390507606e-05   1.1588242182651088e-05   -2.511860853999701e-06
-5.721926017091336e-05   1.617036973591406e-05   -4.2603839654159676e-05
-5.721926017091336e-05   1.617036973591406e-05   -4.2603839654159676e-05
-5.721926017091336e-05   1.617036973591406e-05   -4.2603839654159676e-05
-5.721926017091336e-05   1.617036973591406e-05   -4.2603839654159676e-05
-8.43697105368455e-05   1.2469558473273247e-05   4.86739771331159e-06
-8.43697105368455e-05   1.2469558473273247e-05   4.86739771331159e-06
-8.43697105368455e-05   1.2469558473273247e-05   4.86739771331159e-06
-8.43697105368455e-05   1.2469558473273247e-05   4.86739771331159e-06
-6.928443385970211e-05   1.3906889123015609e-05   -2.1137128471772077e-05
-6.928443385970211e-05   1.3906889123015609e-05   -2.1137128471772077e-05
-6.928443385970211e-05   1.3906889123015609e-05   -2.1137128471772077e-05
-6.928443385970211e-05   1.3906889123015609e-05   -2.1137128471772077e-05
-8.43697105368455e-05   1.617036973591406e-05   -4.038335289657509e-05
-8.43697105368455e-05   1.617036973591406e-05   -4.038335289657509e-05
-8.43697105368455e-05   1.617036973591406e-05   -4.038335289657509e-05
-8.43697105368455e-05   1.617036973591406e-05   -4.038335289657509e-05
-5.721926017091344e-05   1.2469558473273247e-05   2.646910955727438e-06
-5.721926017091344e-05   1.2469558473273247e-05   2.646910955727438e-06
-5.721926017091344e-05   1.2469558473273247e-05   2.646910955727438e-06
-5.721926017091344e-05   1.2469558473273247e-05   2.646910955727438e-06
-5.7279584853607904e-05   1.7067740274780174e-05   -3.2521630174851086e-05
-5.7279584853607904e-05   1.7067740274780174e-05   -3.2521630174851086e-05
-5.7279584853607904e-05   1.7067740274780174e-05   -3.2521630174851086e-05
-5.7279584853607904e-05   1.7067740274780174e-05   -3.2521630174851086e-05
-8.2698265287816e-05   1.3335653644817261e-05   1.2082089193472985e-05
-8.2698265287816e-05   1.3335653644817261e-05   1.2082089193472985e-05
-8.2698265287816e-05   1.3335653644817261e-05   1.2082089193472985e-05
-8.2698265287816e-05   1.3335653644817261e-05   1.2082089193472985e-05
-6.770975434564324e-05   1.4518009080163419e-05   -1.3608175638021673e-05
-6.770975434564324e-05   1.4518009080163419e-05   -1.3608175638021673e-05
-6.770975434564324e-05   1.4518009080163419e-05   -1.3608175638021673e-05
-6.770975434564324e-05   1.4518009080163419e-05   -1.3608175638021673e-05
-5.699646035832597e-05   5.831885783778824e-06   -6.940167532332422e-05
-5.699646035832597e-05   5.831885783778824e-06   -6.940167532332422e-05
-5.699646035832597e-05   5.831885783778824e-06   -6.940167532332422e-05
-5.699646035832597e-05   5.831885783778824e-06   -6.940167532332422e-05
-2.899536473919283e-05   4.775848544350827e-06   -2.3366804968425798e-05
-2.899536473919283e-05   4.775848544350827e-06   -2.3366804968425798e-05
-2.899536473919283e-05   4.775848544350827e-06   -2.3366804968425798e-05
-2.899536473919283e-05   4.775848544350827e-06   -2.3366804968425798e-05
-2.9349718210768886e-05   8.136417132643915e-06   -6.842023284351511e-05
-2.9349718210768886e-05   8.136417132643915e-06   -6.842023284351511e-05
-2.9349718210768886e-05   8.136417132643915e-06   -6.842023284351511e-05
-2.9349718210768886e-05   8.136417132643915e-06   -6.842023284351511e-05
-5.72745603905075e-05   6.7492347407300136e-06   -2.1046519775468747e-05
-5.72745603905075e-05   6.7492347407300136e-06   -2.1046519775468747e-05
-5.72745603905075e-05   6.7492347407300136e-06   -2.1046519775468747e-05
-5.72745603905075e-05   6.7492347407300136e-06   -2.1046519775468747e-05
-4.2784855246069916e-05   6.723592306725839e-06   -4.518064288912922e-05
-4.2784855246069916e-05   6.723592306725839e-06   -4.518064288912922e-05
-4.2784855246069916e-05   6.723592306725839e-06   -4.518064288912922e-05
-4.2784855246069916e-05   6.723592306725839e-06   -4.518064288912922e-05
-5.727456039050758e-05   8.136417132643915e-06   -6.758792340836654e-05
-5.727456039050758e-05   8.136417132643915e-06   -6.758792340836654e-05
-5.727456039050758e-05   8.136417132643915e-06   -6.758792340836654e-05
-5.727456039050758e-05   8.136417132643915e-06   -6.758792340836654e-05
-2.9349718210768927e-05   6.7492347407300136e-06   -2.1878829210617084e-05
-2.9349718210768927e-05   6.7492347407300136e-06   -2.1878829210617084e-05
-2.9349718210768927e-05   6.7492347407300136e-06   -2.1878829210617084e-05
-2.9349718210768927e-05   6.7492347407300136e-06   -2.1878829210617084e-05
-2.9580262323447332e-05   1.0043510033995234e-05   -6.660853858530896e-05
-2.9580262323447332e-05   1.0043510033995234e-05   -6.660853858530896e-05
-2.9580262323447332e-05   1.0043510033995234e-05   -6.660853858530896e-05
-2.9580262323447332e-05   1.0043510033995234e-05   -6.660853858530896e-05
-5.721926017091336e-05   8.501892180163358e-06   -1.9618571460566802e-05
-5.721926017091336e-05   8.501892180163358e-06   -1.9618571460566802e-05
-5.721926017091336e-05   8.501892180163358e-06   -1.9618571460566802e-05
-5.721926017091336e-05   8.501892180163358e-06   -1.9618571460566802e-05
-4.286603463531416e-05   8.346737820136589e-06   -4.344752140388199e-05
-4.286603463531416e-05   8.346737820136589e-06   -4.344752140388199e-05
-4.286603463531416e-05   8.346737820136589e-06   -4.344752140388199e-05
-4.286603463531416e-05   8.346737820136589e-06   -4.344752140388199e-05
-5.721926017091336e-05   1.0043510033995234e-05   -6.568356787300998e-05
-5.721926017091336e-05   1.0043510033995234e-05   -6.568356787300998e-05
-5.721926017091336e-05   1.0043510033995234e-05   -6.568356787300998e-05
-5.721926017091336e-05   1.0043510033995234e-05   -6.568356787300998e-05
-2.9580262323447427e-05   8.501892180163466e-06   -2.054354217286566e-05
-2.9580262323447427e-05   8.501892180163466e-06   -2.054354217286566e-05
-2.9580262323447427e-05   8.501892180163466e-06   -2.054354217286566e-05
-2.9580262323447427e-05   8.501892180163466e-06   -2.054354217286566e-05
-2.9877773756834116e-05   1.209508893178831e-05   -6.644718598287469e-05
-2.9877773756834116e-05   1.209508893178831e-05   -6.644718598287469e-05
-2.9877773756834116e-05   1.209508893178831e-05   -6.644718598287469e-05
-2.9877773756834116e-05   1.209508893178831e-05   -6.644718598287469e-05
-5.727958485360785e-05   1.0365719836653744e-05   -1.97398793645044e-05
-5.727958485360785e-05   1.0365719836653744e-05   -1.97398793645044e-05
-5.727958485360785e-05   1.0365719836653744e-05   -1.97398793645044e-05
-5.727958485360785e-05   1.0365719836653744e-05   -1.97398793645044e-05
-4.3376085453917935e-05   9.953974641461116e-06   -4.2665331246871484e-05
-4.3376085453917935e-05   9.953974641461116e-06   -4.2665331246871484e-05
-4.3376085453917935e-05   9.953974641461116e-06   -4.2665331246871484e-05
-4.3376085453917935e-05   9.953974641461116e-06   -4.2665331246871484e-05
-2.8995364739192777e-05   -1.7268159866287063e-07   -7.48044287682877e-05
-2.8995364739192777e-05   -1.7268159866287063e-07   -7.48044287682877e-05
-2.8995364739192777e-05   -1.7268159866287063e-07   -7.48044287682877e-05
-2.8995364739192777e-05   -1.7268159866287063e-07   -7.48044287682877e-05
-1.3098513289896898e-06   2.539306507793942e-07   -2.8405939068283837e-05
-1.3098513289896898e-06   2.539306507793942e-07   -2.8405939068283837e-05
-1.3098513289896898e-06   2.539306507793942e-07   -2.8405939068283837e-05
-1.3098513289896898e-06   2.539306507793942e-07   -2.8405939068283837e-05
-1.5944487310369054e-06   1.95041167686574e-06   -7.410800808050125e-05
-1.5944487310369054e-06   1.95041167686574e-06   -7.410800808050125e-05
-1.5944487310369054e-06   1.95041167686574e-06   -7.410800808050125e-05
-1.5944487310369054e-06   1.95041167686574e-06   -7.410800808050125e-05
-2.9349718210768886e-05   2.1959576228018857e-06   -2.7996553181843073e-05
-2.9349718210768886e-05   2.1959576228018857e-06   -2.7996553181843073e-05
-2.9349718210768886e-05   2.1959576228018857e-06   -2.7996553181843073e-05
-2.9349718210768886e-05   2.1959576228018857e-06   -2.7996553181843073e-05
-1.5226464207609726e-05   1.2790974802980026e-06   -5.0985193768272736e-05
-1.5226464207609726e-05   1.2790974802980026e-06   -5.0985193768272736e-05
-1.5226464207609726e-05   1.2790974802980026e-06   -5.0985193768272736e-05
-1.5226464207609726e-05   1.2790974802980026e-06   -5.0985193768272736e-05
-2.9349718210768886e-05   1.95041167686574e-06   -7.425533564806301e-05
-2.9349718210768886e-05   1.95041167686574e-06   -7.425533564806301e-05
-2.9349718210768886e-05   1.95041167686574e-06   -7.425533564806301e-05
-2.9349718210768886e-05   1.95041167686574e-06   -7.425533564806301e-05
-1.594448731036908e-06   2.1959576228018857e-06   -2.7849225614281283e-05
-1.594448731036908e-06   2.1959576228018857e-06   -2.7849225614281283e-05
-1.594448731036908e-06   2.1959576228018857e-06   -2.7849225614281283e-05
-1.594448731036908e-06   2.1959576228018857e-06   -2.7849225614281283e-05
-1.8008542978680187e-06   4.0246933907156545e-06   -7.430998222696892e-05
-1.8008542978680187e-06   4.0246933907156545e-06   -7.430998222696892e-05
-1.8008542978680187e-06   4.0246933907156545e-06   -7.430998222696892e-05
-1.8008542978680187e-06   4.0246933907156545e-06   -7.430998222696892e-05
-2.9580262323447386e-05   4.132147266192195e-06   -2.807544117628953e-05
-2.9580262323447386e-05   4.132147266192195e-06   -2.807544117628953e-05
-2.9580262323447386e-05   4.132147266192195e-06   -2.807544117628953e-05
-2.9580262323447386e-05   4.132147266192195e-06   -2.807544117628953e-05
-1.5593153481374543e-05   2.9916449043029597e-06   -5.070298782927697e-05
-1.5593153481374543e-05   2.9916449043029597e-06   -5.070298782927697e-05
-1.5593153481374543e-05   2.9916449043029597e-06   -5.070298782927697e-05
-1.5593153481374543e-05   2.9916449043029597e-06   -5.070298782927697e-05
-2.9580262323447386e-05   4.0246933907156545e-06   -7.43744545522549e-05
-2.9580262323447386e-05   4.0246933907156545e-06   -7.43744545522549e-05
-2.9580262323447386e-05   4.0246933907156545e-06   -7.43744545522549e-05
-2.9580262323447386e-05   4.0246933907156545e-06   -7.43744545522549e-05
-1.800854297868023e-06   4.132147266192195e-06   -2.801096885100333e-05
-1.800854297868023e-06   4.132147266192195e-06   -2.801096885100333e-05
-1.800854297868023e-06   4.132147266192195e-06   -2.801096885100333e-05
-1.800854297868023e-06   4.132147266192195e-06   -2.801096885100333e-05
-2.1239146452680306e-06   6.186056232455363e-06   -7.526644006310363e-05
-2.1239146452680306e-06   6.186056232455363e-06   -7.526644006310363e-05
-2.1239146452680306e-06   6.186056232455363e-06   -7.526644006310363e-05
-2.1239146452680306e-06   6.186056232455363e-06   -7.526644006310363e-05
-2.9877773756834076e-05   6.113400566572398e-06   -2.896641481096404e-05
-2.9877773756834076e-05   6.113400566572398e-06   -2.896641481096404e-05
-2.9877773756834076e-05   6.113400566572398e-06   -2.896641481096404e-05
-2.9877773756834076e-05   6.113400566572398e-06   -2.896641481096404e-05
-1.5982580388527976e-05   4.724531064129308e-06   -5.129174872334124e-05
-1.5982580388527976e-05   4.724531064129308e-06   -5.129174872334124e-05
-1.5982580388527976e-05   4.724531064129308e-06   -5.129174872334124e-05
-1.5982580388527976e-05   4.724531064129308e-06   -5.129174872334124e-05
-1.3098513289896932e-06   -5.96019825349327e-06   -6.684638406517375e-05
-1.3098513289896932e-06   -5.96019825349327e-06   -6.684638406517375e-05
-1.3098513289896932e-06   -5.96019825349327e-06   -6.684638406517375e-05
-1.3098513289896932e-06   -5.96019825349327e-06   -6.684638406517375e-05
2.6239534405973308e-05   -3.99935286578279e-06   -1.97542339409426e-05
2.6239534405973308e-05   -3.99935286578279e-06   -1.97542339409426e-05
2.6239534405973308e-05   -3.99935286578279e-06   -1.97542339409426e-05
2.6239534405973308e-05   -3.99935286578279e-06   -1.97542339409426e-05
2.6217229226944145e-05   -4.03183534826299e-06   -6.608142721673725e-05
2.6217229226944145e-05   -4.03183534826299e-06   -6.608142721673725e-05
2.6217229226944145e-05   -4.03183534826299e-06   -6.608142721673725e-05
2.6217229226944145e-05   -4.03183534826299e-06   -6.608142721673725e-05
-1.594448731036908e-06   -2.219911529024814e-06   -2.0815784911645e-05
-1.594448731036908e-06   -2.219911529024814e-06   -2.0815784911645e-05
-1.594448731036908e-06   -2.219911529024814e-06   -2.0815784911645e-05
-1.594448731036908e-06   -2.219911529024814e-06   -2.0815784911645e-05
1.2293336242114158e-05   -3.9131285747835524e-06   -4.294616297277486e-05
1.2293336242114158e-05   -3.9131285747835524e-06   -4.294616297277486e-05
1.2293336242114158e-05   -3.9131285747835524e-06   -4.294616297277486e-05
1.2293336242114158e-05   -3.9131285747835524e-06   -4.294616297277486e-05
-1.594448731036908e-06   -4.031835348262936e-06   -6.716858150828e-05
-1.594448731036908e-06   -4.031835348262936e-06   -6.716858150828e-05
-1.594448731036908e-06   -4.031835348262936e-06   -6.716858150828e-05
-1.594448731036908e-06   -4.031835348262936e-06   -6.716858150828e-05
2.6217229226944145e-05   -2.219911529024814e-06   -1.9728630620102034e-05
2.6217229226944145e-05   -2.219911529024814e-06   -1.9728630620102034e-05
2.6217229226944145e-05   -2.219911529024814e-06   -1.9728630620102034e-05
2.6217229226944145e-05   -2.219911529024814e-06   -1.9728630620102034e-05
2.633804564405084e-05   -2.1424851901129206e-06   -6.783170894955804e-05
2.633804564405084e-05   -2.1424851901129206e-06   -6.783170894955804e-05
2.633804564405084e-05   -2.1424851901129206e-06   -6.783170894955804e-05
2.633804564405084e-05   -2.1424851901129206e-06   -6.783170894955804e-05
-1.8008542978680255e-06   -4.708099839492979e-07   -2.193654750339163e-05
-1.8008542978680255e-06   -4.708099839492979e-07   -2.193654750339163e-05
-1.8008542978680255e-06   -4.708099839492979e-07   -2.193654750339163e-05
-1.8008542978680255e-06   -4.708099839492979e-07   -2.193654750339163e-05
1.1914683703898335e-05   -2.3700032685619815e-06   -4.365626153556762e-05
1.1914683703898335e-05   -2.3700032685619815e-06   -4.365626153556762e-05
1.1914683703898335e-05   -2.3700032685619815e-06   -4.365626153556762e-05
1.1914683703898335e-05   -2.3700032685619815e-06   -4.365626153556762e-05
-1.8008542978680204e-06   -2.1424851901129206e-06   -6.883471407325591e-05
-1.8008542978680204e-06   -2.1424851901129206e-06   -6.883471407325591e-05
-1.8008542978680204e-06   -2.1424851901129206e-06   -6.883471407325591e-05
-1.8008542978680204e-06   -2.1424851901129206e-06   -6.883471407325591e-05
2.633804564405084e-05   -4.708099839494063e-07   -2.093354237969313e-05
2.633804564405084e-05   -4.708099839494063e-07   -2.093354237969313e-05
2.633804564405084e-05   -4.708099839494063e-07   -2.093354237969313e-05
2.633804564405084e-05   -4.708099839494063e-07   -2.093354237969313e-05
2.6133359526435846e-05   1.9493707188446242e-07   -6.98136407387186e-05
2.6133359526435846e-05   1.9493707188446242e-07   -6.98136407387186e-05
2.6133359526435846e-05   1.9493707188446242e-07   -6.98136407387186e-05
2.6133359526435846e-05   1.9493707188446242e-07   -6.98136407387186e-05
-2.123914645268035e-06   1.574886119883154e-06   -2.3546153214678105e-05
-2.123914645268035e-06   1.574886119883154e-06   -2.3546153214678105e-05
-2.123914645268035e-06   1.574886119883154e-06   -2.3546153214678105e-05
-2.123914645268035e-06   1.574886119883154e-06   -2.3546153214678105e-05
1.1780629232675529e-05   -7.183702203092997e-07   -4.534443920713483e-05
1.1780629232675529e-05   -7.183702203092997e-07   -4.534443920713483e-05
1.1780629232675529e-05   -7.183702203092997e-07   -4.534443920713483e-05
1.1780629232675529e-05   -7.183702203092997e-07   -4.534443920713483e-05
2.6239534405973267e-05   -1.108149492519368e-05   -3.7408944628840025e-05
2.6239534405973267e-05   -1.108149492519368e-05   -3.7408944628840025e-05
2.6239534405973267e-05   -1.108149492519368e-05   -3.7408944628840025e-05
2.6239534405973267e-05   -1.108149492519368e-05   -3.7408944628840025e-05
5.2049988464137936e-05   -7.257726285489637e-06   7.902739985256942e-06
5.2049988464137936e-05   -7.257726285489637e-06   7.902739985256942e-06
5.2049988464137936e-05   -7.257726285489637e-06   7.902739985256942e-06
5.2049988464137936e-05   -7.257726285489637e-06   7.902739985256942e-06
5.379748315347129e-05   -1.0056615515967717e-05   -4.210535554709898e-05
5.379748315347129e-05   -1.0056615515967717e-05   -4.210535554709898e-05
5.379748315347129e-05   -1.0056615515967717e-05   -4.210535554709898e-05
5.379748315347129e-05   -1.0056615515967717e-05   -4.210535554709898e-05
2.621722922694409e-05   -6.233350827491101e-06   1.5677755173605418e-06
2.621722922694409e-05   -6.233350827491101e-06   1.5677755173605418e-06
2.621722922694409e-05   -6.233350827491101e-06   1.5677755173605418e-06
2.621722922694409e-05   -6.233350827491101e-06   1.5677755173605418e-06
3.788451026871262e-05   -8.554957344102999e-06   -1.6484728975619926e-05
3.788451026871262e-05   -8.554957344102999e-06   -1.6484728975619926e-05
3.788451026871262e-05   -8.554957344102999e-06   -1.6484728975619926e-05
3.788451026871262e-05   -8.554957344102999e-06   -1.6484728975619926e-05
2.6217229226944063e-05   -1.0056615515967717e-05   -4.4399314360184835e-05
2.6217229226944063e-05   -1.0056615515967717e-05   -4.4399314360184835e-05
2.6217229226944063e-05   -1.0056615515967717e-05   -4.4399314360184835e-05
2.6217229226944063e-05   -1.0056615515967717e-05   -4.4399314360184835e-05
5.379748315347129e-05   -6.233350827491101e-06   3.861734330446571e-06
5.379748315347129e-05   -6.233350827491101e-06   3.861734330446571e-06
5.379748315347129e-05   -6.233350827491101e-06   3.861734330446571e-06
5.379748315347129e-05   -6.233350827491101e-06   3.861734330446571e-06
5.513926125833227e-05   -8.969246853482806e-06   -4.749282952976329e-05
5.513926125833227e-05   -8.969246853482806e-06   -4.749282952976329e-05
5.513926125833227e-05   -8.969246853482806e-06   -4.749282952976329e-05
5.513926125833227e-05   -8.969246853482806e-06   -4.749282952976329e-05
2.6338045644050745e-05   -5.3536217077621365e-06   -1.6601785933934184e-06
2.6338045644050745e-05   -5.3536217077621365e-06   -1.6601785933934184e-06
2.6338045644050745e-05   -5.3536217077621365e-06   -1.6601785933934184e-06
2.6338045644050745e-05   -5.3536217077621365e-06   -1.6601785933934184e-06
3.916734793277251e-05   -7.893923520858014e-06   -2.1518167986738553e-05
3.916734793277251e-05   -7.893923520858014e-06   -2.1518167986738553e-05
3.916734793277251e-05   -7.893923520858014e-06   -2.1518167986738553e-05
3.916734793277251e-05   -7.893923520858014e-06   -2.1518167986738553e-05
2.6338045644050786e-05   -8.969246853482806e-06   -4.9662204617195705e-05
2.6338045644050786e-05   -8.969246853482806e-06   -4.9662204617195705e-05
2.6338045644050786e-05   -8.969246853482806e-06   -4.9662204617195705e-05
2.6338045644050786e-05   -8.969246853482806e-06   -4.9662204617195705e-05
5.513926125833216e-05   -5.3536217077621365e-06   5.091964940393467e-07
5.513926125833216e-05   -5.3536217077621365e-06   5.091964940393467e-07
5.513926125833216e-05   -5.3536217077621365e-06   5.091964940393467e-07
5.513926125833216e-05   -5.3536217077621365e-06   5.091964940393467e-07
5.656794323754286e-05   -6.628952466711951e-06   -5.665605328154924e-05
5.656794323754286e-05   -6.628952466711951e-06   -5.665605328154924e-05
5.656794323754286e-05   -6.628952466711951e-06   -5.665605328154924e-05
5.656794323754286e-05   -6.628952466711951e-06   -5.665605328154924e-05
2.6133359526435765e-05   -3.473439726880273e-06   -7.82505474027003e-06
2.6133359526435765e-05   -3.473439726880273e-06   -7.82505474027003e-06
2.6133359526435765e-05   -3.473439726880273e-06   -7.82505474027003e-06
2.6133359526435765e-05   -3.473439726880273e-06   -7.82505474027003e-06
3.899580370346087e-05   -6.8017770544583946e-06   -2.7265459305431393e-05
3.899580370346087e-05   -6.8017770544583946e-06   -2.7265459305431393e-05
3.899580370346087e-05   -6.8017770544583946e-06   -2.7265459305431393e-05
3.899580370346087e-05   -6.8017770544583946e-06   -2.7265459305431393e-05
-6.253237589006779e-05   9.581361589026016e-06   -4.754661189744697e-05
-6.253237589006779e-05   9.581361589026016e-06   -4.754661189744697e-05
-6.253237589006779e-05   9.581361589026016e-06   -4.754661189744697e-05
-6.253237589006779e-05   9.581361589026016e-06   -4.754661189744697e-05
-4.256182901102125e-05   6.099137573547034e-06   -1.6351701508323317e-05
-4.256182901102125e-05   6.099137573547034e-06   -1.6351701508323317e-05
-4.256182901102125e-05   6.099137573547034e-06   -1.6351701508323317e-05
-4.256182901102125e-05   6.099137573547034e-06   -1.6351701508323317e-05
-4.240722225141489e-05   1.1588242182651197e-05   -4.0392015885421005e-05
-4.240722225141489e-05   1.1588242182651197e-05   -4.0392015885421005e-05
-4.240722225141489e-05   1.1588242182651197e-05   -4.0392015885421005e-05
-4.240722225141489e-05   1.1588242182651197e-05   -4.0392015885421005e-05
-6.0665930851023706e-05   7.761225777418472e-06   -7.664625042933426e-06
-6.0665930851023706e-05   7.761225777418472e-06   -7.664625042933426e-06
-6.0665930851023706e-05   7.761225777418472e-06   -7.664625042933426e-06
-6.0665930851023706e-05   7.761225777418472e-06   -7.664625042933426e-06
-4.9834078623209666e-05   9.225519541605559e-06   -2.6596288347802274e-05
-4.9834078623209666e-05   9.225519541605559e-06   -2.6596288347802274e-05
-4.9834078623209666e-05   9.225519541605559e-06   -2.6596288347802274e-05
-4.9834078623209666e-05   9.225519541605559e-06   -2.6596288347802274e-05
-6.0665930851023706e-05   1.1588242182651197e-05   -3.809580604228146e-05
-6.0665930851023706e-05   1.1588242182651197e-05   -3.809580604228146e-05
-6.0665930851023706e-05   1.1588242182651197e-05   -3.809580604228146e-05
-6.0665930851023706e-05   1.1588242182651197e-05   -3.809580604228146e-05
-4.240722225141495e-05   7.761225777418689e-06   -9.960834886072942e-06
-4.240722225141495e-05   7.761225777418689e-06   -9.960834886072942e-06
-4.240722225141495e-05   7.761225777418689e-06   -9.960834886072942e-06
-4.240722225141495e-05   7.761225777418689e-06   -9.960834886072942e-06
-4.2085832231703935e-05   1.2469558473273247e-05   -3.522139053975201e-05
-4.2085832231703935e-05   1.2469558473273247e-05   -3.522139053975201e-05
-4.2085832231703935e-05   1.2469558473273247e-05   -3.522139053975201e-05
-4.2085832231703935e-05   1.2469558473273247e-05   -3.522139053975201e-05
-5.927003989865669e-05   8.535112021692973e-06   -4.220376557215622e-06
-5.927003989865669e-05   8.535112021692973e-06   -4.220376557215622e-06
-5.927003989865669e-05   8.535112021692973e-06   -4.220376557215622e-06
-5.927003989865669e-05   8.535112021692973e-06   -4.220376557215622e-06
-4.983817993738946e-05   1.0152853235696649e-05   -2.0910787887730388e-05
-4.983817993738946e-05   1.0152853235696649e-05   -2.0910787887730388e-05
-4.983817993738946e-05   1.0152853235696649e-05   -2.0910787887730388e-05
-4.983817993738946e-05   1.0152853235696649e-05   -2.0910787887730388e-05
-5.927003989865669e-05   1.2469558473273247e-05   -3.2860722668803766e-05
-5.927003989865669e-05   1.2469558473273247e-05   -3.2860722668803766e-05
-5.927003989865669e-05   1.2469558473273247e-05   -3.2860722668803766e-05
-5.927003989865669e-05   1.2469558473273247e-05   -3.2860722668803766e-05
-4.2085832231704017e-05   8.535112021692973e-06   -6.581044428163766e-06
-4.2085832231704017e-05   8.535112021692973e-06   -6.581044428163766e-06
-4.2085832231704017e-05   8.535112021692973e-06   -6.581044428163766e-06
-4.2085832231704017e-05   8.535112021692973e-06   -6.581044428163766e-06
-4.195673925386337e-05   1.3335653644817261e-05   -2.8061950173702103e-05
-4.195673925386337e-05   1.3335653644817261e-05   -2.8061950173702103e-05
-4.195673925386337e-05   1.3335653644817261e-05   -2.8061950173702103e-05
-4.195673925386337e-05   1.3335653644817261e-05   -2.8061950173702103e-05
-5.744285009317299e-05   9.507456175632386e-06   4.515303999176167e-08
-5.744285009317299e-05   9.507456175632386e-06   4.515303999176167e-08
-5.744285009317299e-05   9.507456175632386e-06   4.515303999176167e-08
-5.744285009317299e-05   9.507456175632386e-06   4.515303999176167e-08
-4.8364381192538675e-05   1.0654337627959793e-05   -1.5773757332461676e-05
-4.8364381192538675e-05   1.0654337627959793e-05   -1.5773757332461676e-05
-4.8364381192538675e-05   1.0654337627959793e-05   -1.5773757332461676e-05
-4.8364381192538675e-05   1.0654337627959793e-05   -1.5773757332461676e-05
-4.2561829011021195e-05   4.775848544350827e-06   -6.055189479903185e-05
-4.2561829011021195e-05   4.775848544350827e-06   -6.055189479903185e-05
-4.2561829011021195e-05   4.775848544350827e-06   -6.055189479903185e-05
-4.2561829011021195e-05   4.775848544350827e-06   -6.055189479903185e-05
-2.4465431212139188e-05   3.1506347950157557e-06   -3.136636005049624e-05
-2.4465431212139188e-05   3.1506347950157557e-06   -3.136636005049624e-05
-2.4465431212139188e-05   3.1506347950157557e-06   -3.136636005049624e-05
-2.4465431212139188e-05   3.1506347950157557e-06   -3.136636005049624e-05
-2.4477158634185787e-05   6.749234740729905e-06   -6.003322229084548e-05
-2.4477158634185787e-05   6.749234740729905e-06   -6.003322229084548e-05
-2.4477158634185787e-05   6.749234740729905e-06   -6.003322229084548e-05
-2.4477158634185787e-05   6.749234740729905e-06   -6.003322229084548e-05
-4.240722225141489e-05   4.904988934137508e-06   -2.9043235444841222e-05
-4.240722225141489e-05   4.904988934137508e-06   -2.9043235444841222e-05
-4.240722225141489e-05   4.904988934137508e-06   -2.9043235444841222e-05
-4.240722225141489e-05   4.904988934137508e-06   -2.9043235444841222e-05
-3.316938650382324e-05   5.2222484027505565e-06   -4.46299840386621e-05
-3.316938650382324e-05   5.2222484027505565e-06   -4.46299840386621e-05
-3.316938650382324e-05   5.2222484027505565e-06   -4.46299840386621e-05
-3.316938650382324e-05   5.2222484027505565e-06   -4.46299840386621e-05
-4.240722225141484e-05   6.749234740729905e-06   -5.892667480688962e-05
-4.240722225141484e-05   6.749234740729905e-06   -5.892667480688962e-05
-4.240722225141484e-05   6.749234740729905e-06   -5.892667480688962e-05
-4.240722225141484e-05   6.749234740729905e-06   -5.892667480688962e-05
-2.4477158634185787e-05   4.904988934137291e-06   -3.0149782928796866e-05
-2.4477158634185787e-05   4.904988934137291e-06   -3.0149782928796866e-05
-2.4477158634185787e-05   4.904988934137291e-06   -3.0149782928796866e-05
-2.4477158634185787e-05   4.904988934137291e-06   -3.0149782928796866e-05
-2.4458803052561286e-05   8.501892180163358e-06   -5.868752206612078e-05
-2.4458803052561286e-05   8.501892180163358e-06   -5.868752206612078e-05
-2.4458803052561286e-05   8.501892180163358e-06   -5.868752206612078e-05
-2.4458803052561286e-05   8.501892180163358e-06   -5.868752206612078e-05
-4.2085832231703935e-05   6.500810330038525e-06   -2.810849099080812e-05
-4.2085832231703935e-05   6.500810330038525e-06   -2.810849099080812e-05
-4.2085832231703935e-05   6.500810330038525e-06   -2.810849099080812e-05
-4.2085832231703935e-05   6.500810330038525e-06   -2.810849099080812e-05
-3.301455809646112e-05   6.66248364573495e-06   -4.332428520563035e-05
-3.301455809646112e-05   6.66248364573495e-06   -4.332428520563035e-05
-3.301455809646112e-05   6.66248364573495e-06   -4.332428520563035e-05
-3.301455809646112e-05   6.66248364573495e-06   -4.332428520563035e-05
-4.2085832231703935e-05   8.501892180163358e-06   -5.7486872956045976e-05
-4.2085832231703935e-05   8.501892180163358e-06   -5.7486872956045976e-05
-4.2085832231703935e-05   8.501892180163358e-06   -5.7486872956045976e-05
-4.2085832231703935e-05   8.501892180163358e-06   -5.7486872956045976e-05
-2.4458803052561313e-05   6.500810330038525e-06   -2.9309140100882976e-05
-2.4458803052561313e-05   6.500810330038525e-06   -2.9309140100882976e-05
-2.4458803052561313e-05   6.500810330038525e-06   -2.9309140100882976e-05
-2.4458803052561313e-05   6.500810330038525e-06   -2.9309140100882976e-05
-2.4477988239710215e-05   1.0365719836653744e-05   -5.892389069766786e-05
-2.4477988239710215e-05   1.0365719836653744e-05   -5.892389069766786e-05
-2.4477988239710215e-05   1.0365719836653744e-05   -5.892389069766786e-05
-2.4477988239710215e-05   1.0365719836653744e-05   -5.892389069766786e-05
-4.1956739253863395e-05   8.233679930043326e-06   -2.8513415063446154e-05
-4.1956739253863395e-05   8.233679930043326e-06   -2.8513415063446154e-05
-4.1956739253863395e-05   8.233679930043326e-06   -2.8513415063446154e-05
-4.1956739253863395e-05   8.233679930043326e-06   -2.8513415063446154e-05
-3.3228072101097365e-05   8.086740849807964e-06   -4.2973030203248184e-05
-3.3228072101097365e-05   8.086740849807964e-06   -4.2973030203248184e-05
-3.3228072101097365e-05   8.086740849807964e-06   -4.2973030203248184e-05
-3.3228072101097365e-05   8.086740849807964e-06   -4.2973030203248184e-05
-2.4465431212139147e-05   2.539306507793942e-07   -6.682212449815643e-05
-2.4465431212139147e-05   2.539306507793942e-07   -6.682212449815643e-05
-2.4465431212139147e-05   2.539306507793942e-07   -6.682212449815643e-05
-2.4465431212139147e-05   2.539306507793942e-07   -6.682212449815643e-05
-6.622908912413431e-06   5.407846057341615e-07   -3.691247495897406e-05
-6.622908912413431e-06   5.407846057341615e-07   -3.691247495897406e-05
-6.622908912413431e-06   5.407846057341615e-07   -3.691247495897406e-05
-6.622908912413431e-06   5.407846057341615e-07   -3.691247495897406e-05
-6.635217936954704e-06   2.1959576228018857e-06   -6.608605429564917e-05
-6.635217936954704e-06   2.1959576228018857e-06   -6.608605429564917e-05
-6.635217936954704e-06   2.1959576228018857e-06   -6.608605429564917e-05
-6.635217936954704e-06   2.1959576228018857e-06   -6.608605429564917e-05
-2.4477158634185733e-05   2.30411090017214e-06   -3.6414378433352926e-05
-2.4477158634185733e-05   2.30411090017214e-06   -3.6414378433352926e-05
-2.4477158634185733e-05   2.30411090017214e-06   -3.6414378433352926e-05
-2.4477158634185733e-05   2.30411090017214e-06   -3.6414378433352926e-05
-1.5447004012277364e-05   1.551334410353493e-06   -5.101297024264227e-05
-1.5447004012277364e-05   1.551334410353493e-06   -5.101297024264227e-05
-1.5447004012277364e-05   1.551334410353493e-06   -5.101297024264227e-05
-1.5447004012277364e-05   1.551334410353493e-06   -5.101297024264227e-05
-2.4477158634185733e-05   2.1959576228018857e-06   -6.615094626207126e-05
-2.4477158634185733e-05   2.1959576228018857e-06   -6.615094626207126e-05
-2.4477158634185733e-05   2.1959576228018857e-06   -6.615094626207126e-05
-2.4477158634185733e-05   2.1959576228018857e-06   -6.615094626207126e-05
-6.635217936954704e-06   2.30411090017214e-06   -3.634948646693073e-05
-6.635217936954704e-06   2.30411090017214e-06   -3.634948646693073e-05
-6.635217936954704e-06   2.30411090017214e-06   -3.634948646693073e-05
-6.635217936954704e-06   2.30411090017214e-06   -3.634948646693073e-05
-6.611538675397964e-06   4.132147266192087e-06   -6.62548700145364e-05
-6.611538675397964e-06   4.132147266192087e-06   -6.62548700145364e-05
-6.611538675397964e-06   4.132147266192087e-06   -6.62548700145364e-05
-6.611538675397964e-06   4.132147266192087e-06   -6.62548700145364e-05
-2.4458803052561286e-05   4.073065691205134e-06   -3.6473980440938995e-05
-2.4458803052561286e-05   4.073065691205134e-06   -3.6473980440938995e-05
-2.4458803052561286e-05   4.073065691205134e-06   -3.6473980440938995e-05
-2.4458803052561286e-05   4.073065691205134e-06   -3.6473980440938995e-05
-1.5550146608924252e-05   3.0935547455881356e-06   -5.0734034612963706e-05
-1.5550146608924252e-05   3.0935547455881356e-06   -5.0734034612963706e-05
-1.5550146608924252e-05   3.0935547455881356e-06   -5.0734034612963706e-05
-1.5550146608924252e-05   3.0935547455881356e-06   -5.0734034612963706e-05
-2.4458803052561286e-05   4.132147266192195e-06   -6.621942106954448e-05
-2.4458803052561286e-05   4.132147266192195e-06   -6.621942106954448e-05
-2.4458803052561286e-05   4.132147266192195e-06   -6.621942106954448e-05
-2.4458803052561286e-05   4.132147266192195e-06   -6.621942106954448e-05
-6.611538675397975e-06   4.073065691205351e-06   -3.650942938593089e-05
-6.611538675397975e-06   4.073065691205351e-06   -3.650942938593089e-05
-6.611538675397975e-06   4.073065691205351e-06   -3.650942938593089e-05
-6.611538675397975e-06   4.073065691205351e-06   -3.650942938593089e-05
-6.6218173683930785e-06   6.1134005665725065e-06   -6.72570755015934e-05
-6.6218173683930785e-06   6.1134005665725065e-06   -6.72570755015934e-05
-6.6218173683930785e-06   6.1134005665725065e-06   -6.72570755015934e-05
-6.6218173683930785e-06   6.1134005665725065e-06   -6.72570755015934e-05
-2.44779882397102e-05   5.87294920899469e-06   -3.735251990151804e-05
-2.44779882397102e-05   5.87294920899469e-06   -3.735251990151804e-05
-2.44779882397102e-05   5.87294920899469e-06   -3.735251990151804e-05
-2.44779882397102e-05   5.87294920899469e-06   -3.735251990151804e-05
-1.56835765716541e-05   4.656024004055272e-06   -5.127971755864786e-05
-1.56835765716541e-05   4.656024004055272e-06   -5.127971755864786e-05
-1.56835765716541e-05   4.656024004055272e-06   -5.127971755864786e-05
-1.56835765716541e-05   4.656024004055272e-06   -5.127971755864786e-05
-6.62290891241342e-06   -3.99935286578279e-06   -5.9174814230468584e-05
-6.62290891241342e-06   -3.99935286578279e-06   -5.9174814230468584e-05
-6.62290891241342e-06   -3.99935286578279e-06   -5.9174814230468584e-05
-6.62290891241342e-06   -3.99935286578279e-06   -5.9174814230468584e-05
1.0963625162492218e-05   -1.8465020008044328e-06   -2.8572213586638864e-05
1.0963625162492218e-05   -1.8465020008044328e-06   -2.8572213586638864e-05
1.0963625162492218e-05   -1.8465020008044328e-06   -2.8572213586638864e-05
1.0963625162492218e-05   -1.8465020008044328e-06   -2.8572213586638864e-05
1.110735022417647e-05   -2.2199115290247057e-06   -5.7832375036581446e-05
1.110735022417647e-05   -2.2199115290247057e-06   -5.7832375036581446e-05
1.110735022417647e-05   -2.2199115290247057e-06   -5.7832375036581446e-05
1.110735022417647e-05   -2.2199115290247057e-06   -5.7832375036581446e-05
-6.635217936954704e-06   -1.86180601639439e-07   -2.948166665779403e-05
-6.635217936954704e-06   -1.86180601639439e-07   -2.948166665779403e-05
-6.635217936954704e-06   -1.86180601639439e-07   -2.948166665779403e-05
-6.635217936954704e-06   -1.86180601639439e-07   -2.948166665779403e-05
2.21301406052751e-06   -1.909803437625591e-06   -4.3194546285339346e-05
2.21301406052751e-06   -1.909803437625591e-06   -4.3194546285339346e-05
2.21301406052751e-06   -1.909803437625591e-06   -4.3194546285339346e-05
2.21301406052751e-06   -1.909803437625591e-06   -4.3194546285339346e-05
-6.635217936954704e-06   -2.219911529024814e-06   -5.905261359301275e-05
-6.635217936954704e-06   -2.219911529024814e-06   -5.905261359301275e-05
-6.635217936954704e-06   -2.219911529024814e-06   -5.905261359301275e-05
-6.635217936954704e-06   -2.219911529024814e-06   -5.905261359301275e-05
1.1107350224176497e-05   -1.86180601639439e-07   -2.8261428101362864e-05
1.1107350224176497e-05   -1.86180601639439e-07   -2.8261428101362864e-05
1.1107350224176497e-05   -1.86180601639439e-07   -2.8261428101362864e-05
1.1107350224176497e-05   -1.86180601639439e-07   -2.8261428101362864e-05
1.1445173224727134e-05   -4.708099839492979e-07   -5.90509898423093e-05
1.1445173224727134e-05   -4.708099839492979e-07   -5.90509898423093e-05
1.1445173224727134e-05   -4.708099839492979e-07   -5.90509898423093e-05
1.1445173224727134e-05   -4.708099839492979e-07   -5.90509898423093e-05
-6.611538675397975e-06   1.4116213904093872e-06   -3.00859288333826e-05
-6.611538675397975e-06   1.4116213904093872e-06   -3.00859288333826e-05
-6.611538675397975e-06   1.4116213904093872e-06   -3.00859288333826e-05
-6.611538675397975e-06   1.4116213904093872e-06   -3.00859288333826e-05
2.111473883246537e-06   -5.287194069017453e-07   -4.346007861940354e-05
2.111473883246537e-06   -5.287194069017453e-07   -4.346007861940354e-05
2.111473883246537e-06   -5.287194069017453e-07   -4.346007861940354e-05
2.111473883246537e-06   -5.287194069017453e-07   -4.346007861940354e-05
-6.61153867539797e-06   -4.708099839492979e-07   -6.018044866692437e-05
-6.61153867539797e-06   -4.708099839492979e-07   -6.018044866692437e-05
-6.61153867539797e-06   -4.708099839492979e-07   -6.018044866692437e-05
-6.61153867539797e-06   -4.708099839492979e-07   -6.018044866692437e-05
1.1445173224727188e-05   1.4116213904091703e-06   -2.8956470008767378e-05
1.1445173224727188e-05   1.4116213904091703e-06   -2.8956470008767378e-05
1.1445173224727188e-05   1.4116213904091703e-06   -2.8956470008767378e-05
1.1445173224727188e-05   1.4116213904091703e-06   -2.8956470008767378e-05
1.1610277488293688e-05   1.574886119883154e-06   -6.0792051010068236e-05
1.1610277488293688e-05   1.574886119883154e-06   -6.0792051010068236e-05
1.1610277488293688e-05   1.574886119883154e-06   -6.0792051010068236e-05
1.1610277488293688e-05   1.574886119883154e-06   -6.0792051010068236e-05
-6.621817368393067e-06   3.2435019460652203e-06   -3.140639574463277e-05
-6.621817368393067e-06   3.2435019460652203e-06   -3.140639574463277e-05
-6.621817368393067e-06   3.2435019460652203e-06   -3.140639574463277e-05
-6.621817368393067e-06   3.2435019460652203e-06   -3.140639574463277e-05
2.1729331397319923e-06   9.491368562243585e-07   -4.4687694204269875e-05
2.1729331397319923e-06   9.491368562243585e-07   -4.4687694204269875e-05
2.1729331397319923e-06   9.491368562243585e-07   -4.4687694204269875e-05
2.1729331397319923e-06   9.491368562243585e-07   -4.4687694204269875e-05
1.0963625162492178e-05   -7.2577262854897455e-06   -3.2520390969104334e-05
1.0963625162492178e-05   -7.2577262854897455e-06   -3.2520390969104334e-05
1.0963625162492178e-05   -7.2577262854897455e-06   -3.2520390969104334e-05
1.0963625162492178e-05   -7.2577262854897455e-06   -3.2520390969104334e-05
2.6596544133119843e-05   -3.3962524506594635e-06   -4.14864171716003e-06
2.6596544133119843e-05   -3.3962524506594635e-06   -4.14864171716003e-06
2.6596544133119843e-05   -3.3962524506594635e-06   -4.14864171716003e-06
2.6596544133119843e-05   -3.3962524506594635e-06   -4.14864171716003e-06
2.8448516191583004e-05   -6.23335082749121e-06   -3.415939885236609e-05
2.8448516191583004e-05   -6.23335082749121e-06   -3.415939885236609e-05
2.8448516191583004e-05   -6.23335082749121e-06   -3.415939885236609e-05
2.8448516191583004e-05   -6.23335082749121e-06   -3.415939885236609e-05
1.1107350224176483e-05   -2.272400749569808e-06   -7.634025620108101e-06
1.1107350224176483e-05   -2.272400749569808e-06   -7.634025620108101e-06
1.1107350224176483e-05   -2.272400749569808e-06   -7.634025620108101e-06
1.1107350224176483e-05   -2.272400749569808e-06   -7.634025620108101e-06
1.8456972100209168e-05   -4.6416601902407985e-06   -1.846183974909334e-05
1.8456972100209168e-05   -4.6416601902407985e-06   -1.846183974909334e-05
1.8456972100209168e-05   -4.6416601902407985e-06   -1.846183974909334e-05
1.8456972100209168e-05   -4.6416601902407985e-06   -1.846183974909334e-05
1.1107350224176483e-05   -6.233350827491101e-06   -3.653596889911868e-05
1.1107350224176483e-05   -6.233350827491101e-06   -3.653596889911868e-05
1.1107350224176483e-05   -6.233350827491101e-06   -3.653596889911868e-05
1.1107350224176483e-05   -6.233350827491101e-06   -3.653596889911868e-05
2.8448516191582923e-05   -2.272400749569808e-06   -5.2574555733552386e-06
2.8448516191582923e-05   -2.272400749569808e-06   -5.2574555733552386e-06
2.8448516191582923e-05   -2.272400749569808e-06   -5.2574555733552386e-06
2.8448516191582923e-05   -2.272400749569808e-06   -5.2574555733552386e-06
2.987345137449822e-05   -5.353621707762245e-06   -3.746298567727305e-05
2.987345137449822e-05   -5.353621707762245e-06   -3.746298567727305e-05
2.987345137449822e-05   -5.353621707762245e-06   -3.746298567727305e-05
2.987345137449822e-05   -5.353621707762245e-06   -3.746298567727305e-05
1.1445173224727188e-05   -1.4958877432014444e-06   -9.063829139724372e-06
1.1445173224727188e-05   -1.4958877432014444e-06   -9.063829139724372e-06
1.1445173224727188e-05   -1.4958877432014444e-06   -9.063829139724372e-06
1.1445173224727188e-05   -1.4958877432014444e-06   -9.063829139724372e-06
1.9589984333348715e-05   -4.064843399453812e-06   -2.1097140927008864e-05
1.9589984333348715e-05   -4.064843399453812e-06   -2.1097140927008864e-05
1.9589984333348715e-05   -4.064843399453812e-06   -2.1097140927008864e-05
1.9589984333348715e-05   -4.064843399453812e-06   -2.1097140927008864e-05
1.1445173224727175e-05   -5.353621707762245e-06   -3.977762605600934e-05
1.1445173224727175e-05   -5.353621707762245e-06   -3.977762605600934e-05
1.1445173224727175e-05   -5.353621707762245e-06   -3.977762605600934e-05
1.1445173224727175e-05   -5.353621707762245e-06   -3.977762605600934e-05
2.9873451374498057e-05   -1.4958877432014444e-06   -6.7491887609878645e-06
2.9873451374498057e-05   -1.4958877432014444e-06   -6.7491887609878645e-06
2.9873451374498057e-05   -1.4958877432014444e-06   -6.7491887609878645e-06
2.9873451374498057e-05   -1.4958877432014444e-06   -6.7491887609878645e-06
3.176632448952685e-05   -3.473439726880273e-06   -4.379575603147444e-05
3.176632448952685e-05   -3.473439726880273e-06   -4.379575603147444e-05
3.176632448952685e-05   -3.473439726880273e-06   -4.379575603147444e-05
3.176632448952685e-05   -3.473439726880273e-06   -4.379575603147444e-05
1.1610277488293701e-05   3.1836828094829184e-08   -1.2305510295737522e-05
1.1610277488293701e-05   3.1836828094829184e-08   -1.2305510295737522e-05
1.1610277488293701e-05   3.1836828094829184e-08   -1.2305510295737522e-05
1.1610277488293701e-05   3.1836828094829184e-08   -1.2305510295737522e-05
1.9965242168203848e-05   -3.2050093387555115e-06   -2.4288343728810845e-05
1.9965242168203848e-05   -3.2050093387555115e-06   -2.4288343728810845e-05
1.9965242168203848e-05   -3.2050093387555115e-06   -2.4288343728810845e-05
1.9965242168203848e-05   -3.2050093387555115e-06   -2.4288343728810845e-05
-3.788816545558291e-05   6.099137573547251e-06   -3.548384397914883e-05
-3.788816545558291e-05   6.099137573547251e-06   -3.548384397914883e-05
-3.788816545558291e-05   6.099137573547251e-06   -3.548384397914883e-05
-3.788816545558291e-05   6.099137573547251e-06   -3.548384397914883e-05
-2.795684399993167e-05   2.4881619807837468e-06   -2.109822690872146e-05
-2.795684399993167e-05   2.4881619807837468e-06   -2.109822690872146e-05
-2.795684399993167e-05   2.4881619807837468e-06   -2.109822690872146e-05
-2.795684399993167e-05   2.4881619807837468e-06   -2.109822690872146e-05
-2.7544603354558758e-05   7.761225777418472e-06   -3.1303041307059656e-05
-2.7544603354558758e-05   7.761225777418472e-06   -3.1303041307059656e-05
-2.7544603354558758e-05   7.761225777418472e-06   -3.1303041307059656e-05
-2.7544603354558758e-05   7.761225777418472e-06   -3.1303041307059656e-05
-3.583177349627094e-05   3.871870305118029e-06   -1.5157477787491771e-05
-3.583177349627094e-05   3.871870305118029e-06   -1.5157477787491771e-05
-3.583177349627094e-05   3.871870305118029e-06   -1.5157477787491771e-05
-3.583177349627094e-05   3.871870305118029e-06   -1.5157477787491771e-05
-3.093658309725813e-05   5.470291380520881e-06   -2.427518109775629e-05
-3.093658309725813e-05   5.470291380520881e-06   -2.427518109775629e-05
-3.093658309725813e-05   5.470291380520881e-06   -2.427518109775629e-05
-3.093658309725813e-05   5.470291380520881e-06   -2.427518109775629e-05
-3.583177349627094e-05   7.761225777418472e-06   -2.896942802367911e-05
-3.583177349627094e-05   7.761225777418472e-06   -2.896942802367911e-05
-3.583177349627094e-05   7.761225777418472e-06   -2.896942802367911e-05
-3.583177349627094e-05   7.761225777418472e-06   -2.896942802367911e-05
-2.7544603354558812e-05   3.871870305118029e-06   -1.749109107087248e-05
-2.7544603354558812e-05   3.871870305118029e-06   -1.749109107087248e-05
-2.7544603354558812e-05   3.871870305118029e-06   -1.749109107087248e-05
-2.7544603354558812e-05   3.871870305118029e-06   -1.749109107087248e-05
-2.6956562400061272e-05   8.535112021692973e-06   -2.7952362553916067e-05
-2.6956562400061272e-05   8.535112021692973e-06   -2.7952362553916067e-05
-2.6956562400061272e-05   8.535112021692973e-06   -2.7952362553916067e-05
-2.6956562400061272e-05   8.535112021692973e-06   -2.7952362553916067e-05
-3.419052309338661e-05   4.570411407720789e-06   -1.351694102999046e-05
-3.419052309338661e-05   4.570411407720789e-06   -1.351694102999046e-05
-3.419052309338661e-05   4.570411407720789e-06   -1.351694102999046e-05
-3.419052309338661e-05   4.570411407720789e-06   -1.351694102999046e-05
-3.039371681051972e-05   6.216692519785084e-06   -2.083272016867386e-05
-3.039371681051972e-05   6.216692519785084e-06   -2.083272016867386e-05
-3.039371681051972e-05   6.216692519785084e-06   -2.083272016867386e-05
-3.039371681051972e-05   6.216692519785084e-06   -2.083272016867386e-05
-3.41905230933865e-05   8.535112021692973e-06   -2.5573542185532562e-05
-3.41905230933865e-05   8.535112021692973e-06   -2.5573542185532562e-05
-3.41905230933865e-05   8.535112021692973e-06   -2.5573542185532562e-05
-3.41905230933865e-05   8.535112021692973e-06   -2.5573542185532562e-05
-2.6956562400061326e-05   4.570411407720789e-06   -1.589576139837364e-05
-2.6956562400061326e-05   4.570411407720789e-06   -1.589576139837364e-05
-2.6956562400061326e-05   4.570411407720789e-06   -1.589576139837364e-05
-2.6956562400061326e-05   4.570411407720789e-06   -1.589576139837364e-05
-2.6555093449879066e-05   9.507456175632603e-06   -2.365264364691407e-05
-2.6555093449879066e-05   9.507456175632603e-06   -2.365264364691407e-05
-2.6555093449879066e-05   9.507456175632603e-06   -2.365264364691407e-05
-2.6555093449879066e-05   9.507456175632603e-06   -2.365264364691407e-05
-3.210039682800624e-05   5.676648080340293e-06   -1.2111986492860036e-05
-3.210039682800624e-05   5.676648080340293e-06   -1.2111986492860036e-05
-3.210039682800624e-05   5.676648080340293e-06   -1.2111986492860036e-05
-3.210039682800624e-05   5.676648080340293e-06   -1.2111986492860036e-05
-2.8972848301733078e-05   6.733255186678298e-06   -1.795853163378549e-05
-2.8972848301733078e-05   6.733255186678298e-06   -1.795853163378549e-05
-2.8972848301733078e-05   6.733255186678298e-06   -1.795853163378549e-05
-2.8972848301733078e-05   6.733255186678298e-06   -1.795853163378549e-05
-2.795684399993167e-05   3.1506347950157557e-06   -5.16899596273787e-05
-2.795684399993167e-05   3.1506347950157557e-06   -5.16899596273787e-05
-2.795684399993167e-05   3.1506347950157557e-06   -5.16899596273787e-05
-2.795684399993167e-05   3.1506347950157557e-06   -5.16899596273787e-05
-1.988980457975125e-05   1.4253781903761451e-06   -3.928004788986188e-05
-1.988980457975125e-05   1.4253781903761451e-06   -3.928004788986188e-05
-1.988980457975125e-05   1.4253781903761451e-06   -3.928004788986188e-05
-1.988980457975125e-05   1.4253781903761451e-06   -3.928004788986188e-05
-1.961916612588062e-05   4.904988934137291e-06   -5.152141569102881e-05
-1.961916612588062e-05   4.904988934137291e-06   -5.152141569102881e-05
-1.961916612588062e-05   4.904988934137291e-06   -5.152141569102881e-05
-1.961916612588062e-05   4.904988934137291e-06   -5.152141569102881e-05
-2.7544603354558866e-05   3.011699225469221e-06   -3.717637981803058e-05
-2.7544603354558866e-05   3.011699225469221e-06   -3.717637981803058e-05
-2.7544603354558866e-05   3.011699225469221e-06   -3.717637981803058e-05
-2.7544603354558866e-05   3.011699225469221e-06   -3.717637981803058e-05
-2.3521064834952315e-05   3.4267645116618263e-06   -4.413131652242501e-05
-2.3521064834952315e-05   3.4267645116618263e-06   -4.413131652242501e-05
-2.3521064834952315e-05   3.4267645116618263e-06   -4.413131652242501e-05
-2.3521064834952315e-05   3.4267645116618263e-06   -4.413131652242501e-05
-2.7544603354558704e-05   4.904988934137508e-06   -5.0385441865827686e-05
-2.7544603354558704e-05   4.904988934137508e-06   -5.0385441865827686e-05
-2.7544603354558704e-05   4.904988934137508e-06   -5.0385441865827686e-05
-2.7544603354558704e-05   4.904988934137508e-06   -5.0385441865827686e-05
-1.961916612588062e-05   3.011699225469221e-06   -3.8312353643231596e-05
-1.961916612588062e-05   3.011699225469221e-06   -3.8312353643231596e-05
-1.961916612588062e-05   3.011699225469221e-06   -3.8312353643231596e-05
-1.961916612588062e-05   3.011699225469221e-06   -3.8312353643231596e-05
-1.9320368859873226e-05   6.500810330038525e-06   -5.068854943800216e-05
-1.9320368859873226e-05   6.500810330038525e-06   -5.068854943800216e-05
-1.9320368859873226e-05   6.500810330038525e-06   -5.068854943800216e-05
-1.9320368859873226e-05   6.500810330038525e-06   -5.068854943800216e-05
-2.695656240006138e-05   4.486243127635372e-06   -3.6752819882913165e-05
-2.695656240006138e-05   4.486243127635372e-06   -3.6752819882913165e-05
-2.695656240006138e-05   4.486243127635372e-06   -3.6752819882913165e-05
-2.695656240006138e-05   4.486243127635372e-06   -3.6752819882913165e-05
-2.3165548770732306e-05   4.708817387265914e-06   -4.320472048757279e-05
-2.3165548770732306e-05   4.708817387265914e-06   -4.320472048757279e-05
-2.3165548770732306e-05   4.708817387265914e-06   -4.320472048757279e-05
-2.3165548770732306e-05   4.708817387265914e-06   -4.320472048757279e-05
-2.6956562400061272e-05   6.500810330038525e-06   -4.947980911656005e-05
-2.6956562400061272e-05   6.500810330038525e-06   -4.947980911656005e-05
-2.6956562400061272e-05   6.500810330038525e-06   -4.947980911656005e-05
-2.6956562400061272e-05   6.500810330038525e-06   -4.947980911656005e-05
-1.9320368859873172e-05   4.486243127635372e-06   -3.7961560204354894e-05
-1.9320368859873172e-05   4.486243127635372e-06   -3.7961560204354894e-05
-1.9320368859873172e-05   4.486243127635372e-06   -3.7961560204354894e-05
-1.9320368859873172e-05   4.486243127635372e-06   -3.7961560204354894e-05
-1.905436350472434e-05   8.233679930043543e-06   -5.117995743605876e-05
-1.905436350472434e-05   8.233679930043543e-06   -5.117995743605876e-05
-1.905436350472434e-05   8.233679930043543e-06   -5.117995743605876e-05
-1.905436350472434e-05   8.233679930043543e-06   -5.117995743605876e-05
-2.655509344987912e-05   6.124239651347525e-06   -3.741307669358288e-05
-2.655509344987912e-05   6.124239651347525e-06   -3.741307669358288e-05
-2.655509344987912e-05   6.124239651347525e-06   -3.741307669358288e-05
-2.655509344987912e-05   6.124239651347525e-06   -3.741307669358288e-05
-2.3025763900277836e-05   6.00684638569441e-06   -4.322485665019389e-05
-2.3025763900277836e-05   6.00684638569441e-06   -4.322485665019389e-05
-2.3025763900277836e-05   6.00684638569441e-06   -4.322485665019389e-05
-2.3025763900277836e-05   6.00684638569441e-06   -4.322485665019389e-05
-1.988980457975117e-05   5.407846057341615e-07   -5.84433408716132e-05
-1.988980457975117e-05   5.407846057341615e-07   -5.84433408716132e-05
-1.988980457975117e-05   5.407846057341615e-07   -5.84433408716132e-05
-1.988980457975117e-05   5.407846057341615e-07   -5.84433408716132e-05
-1.2030802005648042e-05   8.148465261280814e-07   -4.518056609587159e-05
-1.2030802005648042e-05   8.148465261280814e-07   -4.518056609587159e-05
-1.2030802005648042e-05   8.148465261280814e-07   -4.518056609587159e-05
-1.2030802005648042e-05   8.148465261280814e-07   -4.518056609587159e-05
-1.1766874258968885e-05   2.304110900171923e-06   -5.7710478641889566e-05
-1.1766874258968885e-05   2.304110900171923e-06   -5.7710478641889566e-05
-1.1766874258968885e-05   2.304110900171923e-06   -5.7710478641889566e-05
-1.1766874258968885e-05   2.304110900171923e-06   -5.7710478641889566e-05
-1.961916612588062e-05   2.4299984896644037e-06   -4.46988580840649e-05
-1.961916612588062e-05   2.4299984896644037e-06   -4.46988580840649e-05
-1.961916612588062e-05   2.4299984896644037e-06   -4.46988580840649e-05
-1.961916612588062e-05   2.4299984896644037e-06   -4.46988580840649e-05
-1.5725309658337854e-05   1.7469724971044993e-06   -5.0778803267768186e-05
-1.5725309658337854e-05   1.7469724971044993e-06   -5.0778803267768186e-05
-1.5725309658337854e-05   1.7469724971044993e-06   -5.0778803267768186e-05
-1.5725309658337854e-05   1.7469724971044993e-06   -5.0778803267768186e-05
-1.9619166125880592e-05   2.304110900171923e-06   -5.778601119558471e-05
-1.9619166125880592e-05   2.304110900171923e-06   -5.778601119558471e-05
-1.9619166125880592e-05   2.304110900171923e-06   -5.778601119558471e-05
-1.9619166125880592e-05   2.304110900171923e-06   -5.778601119558471e-05
-1.1766874258968885e-05   2.4299984896644037e-06   -4.462332553036973e-05
-1.1766874258968885e-05   2.4299984896644037e-06   -4.462332553036973e-05
-1.1766874258968885e-05   2.4299984896644037e-06   -4.462332553036973e-05
-1.1766874258968885e-05   2.4299984896644037e-06   -4.462332553036973e-05
-1.1470237855417247e-05   4.073065691205351e-06   -5.786163426511686e-05
-1.1470237855417247e-05   4.073065691205351e-06   -5.786163426511686e-05
-1.1470237855417247e-05   4.073065691205351e-06   -5.786163426511686e-05
-1.1470237855417247e-05   4.073065691205351e-06   -5.786163426511686e-05
-1.9320368859873172e-05   4.059324879440241e-06   -4.476983810396449e-05
-1.9320368859873172e-05   4.059324879440241e-06   -4.476983810396449e-05
-1.9320368859873172e-05   4.059324879440241e-06   -4.476983810396449e-05
-1.9320368859873172e-05   4.059324879440241e-06   -4.476983810396449e-05
-1.554783810481519e-05   3.13428049931834e-06   -5.050236273432143e-05
-1.554783810481519e-05   3.13428049931834e-06   -5.050236273432143e-05
-1.554783810481519e-05   3.13428049931834e-06   -5.050236273432143e-05
-1.554783810481519e-05   3.13428049931834e-06   -5.050236273432143e-05
-1.9320368859873145e-05   4.073065691205134e-06   -5.785338977805788e-05
-1.9320368859873145e-05   4.073065691205134e-06   -5.785338977805788e-05
-1.9320368859873145e-05   4.073065691205134e-06   -5.785338977805788e-05
-1.9320368859873145e-05   4.073065691205134e-06   -5.785338977805788e-05
-1.1470237855417268e-05   4.059324879440241e-06   -4.477808259102352e-05
-1.1470237855417268e-05   4.059324879440241e-06   -4.477808259102352e-05
-1.1470237855417268e-05   4.059324879440241e-06   -4.477808259102352e-05
-1.1470237855417268e-05   4.059324879440241e-06   -4.477808259102352e-05
-1.1203645585540165e-05   5.87294920899469e-06   -5.883568097695725e-05
-1.1203645585540165e-05   5.87294920899469e-06   -5.883568097695725e-05
-1.1203645585540165e-05   5.87294920899469e-06   -5.883568097695725e-05
-1.1203645585540165e-05   5.87294920899469e-06   -5.883568097695725e-05
-1.905436350472434e-05   5.713211464340468e-06   -4.565530846485725e-05
-1.905436350472434e-05   5.713211464340468e-06   -4.565530846485725e-05
-1.905436350472434e-05   5.713211464340468e-06   -4.565530846485725e-05
-1.905436350472434e-05   5.713211464340468e-06   -4.565530846485725e-05
-1.5400820336806674e-05   4.540023434627862e-06   -5.104063426022645e-05
-1.5400820336806674e-05   4.540023434627862e-06   -5.104063426022645e-05
-1.5400820336806674e-05   4.540023434627862e-06   -5.104063426022645e-05
-1.5400820336806674e-05   4.540023434627862e-06   -5.104063426022645e-05
-1.2030802005648e-05   -1.8465020008044328e-06   -5.123035286602859e-05
-1.2030802005648e-05   -1.8465020008044328e-06   -5.123035286602859e-05
-1.2030802005648e-05   -1.8465020008044328e-06   -5.123035286602859e-05
-1.2030802005648e-05   -1.8465020008044328e-06   -5.123035286602859e-05
-4.405374650842301e-06   3.4459607884946945e-07   -3.720664842689358e-05
-4.405374650842301e-06   3.4459607884946945e-07   -3.720664842689358e-05
-4.405374650842301e-06   3.4459607884946945e-07   -3.720664842689358e-05
-4.405374650842301e-06   3.4459607884946945e-07   -3.720664842689358e-05
-4.011752279902732e-06   -1.86180601639439e-07   -4.958572249873976e-05
-4.011752279902732e-06   -1.86180601639439e-07   -4.958572249873976e-05
-4.011752279902732e-06   -1.86180601639439e-07   -4.958572249873976e-05
-4.011752279902732e-06   -1.86180601639439e-07   -4.958572249873976e-05
-1.1766874258968866e-05   1.90871328838247e-06   -3.791745553430884e-05
-1.1766874258968866e-05   1.90871328838247e-06   -3.791745553430884e-05
-1.1766874258968866e-05   1.90871328838247e-06   -3.791745553430884e-05
-1.1766874258968866e-05   1.90871328838247e-06   -3.791745553430884e-05
-7.972466695016604e-06   2.1859942774373267e-07   -4.322739982451346e-05
-7.972466695016604e-06   2.1859942774373267e-07   -4.322739982451346e-05
-7.972466695016604e-06   2.1859942774373267e-07   -4.322739982451346e-05
-7.972466695016604e-06   2.1859942774373267e-07   -4.322739982451346e-05
-1.1766874258968844e-05   -1.8618060163922215e-07   -5.084265883275273e-05
-1.1766874258968844e-05   -1.8618060163922215e-07   -5.084265883275273e-05
-1.1766874258968844e-05   -1.8618060163922215e-07   -5.084265883275273e-05
-1.1766874258968844e-05   -1.8618060163922215e-07   -5.084265883275273e-05
-4.011752279902732e-06   1.90871328838247e-06   -3.666051920029603e-05
-4.011752279902732e-06   1.90871328838247e-06   -3.666051920029603e-05
-4.011752279902732e-06   1.90871328838247e-06   -3.666051920029603e-05
-4.011752279902732e-06   1.90871328838247e-06   -3.666051920029603e-05
-3.428507050335809e-06   1.4116213904093872e-06   -5.025525922154996e-05
-3.428507050335809e-06   1.4116213904093872e-06   -5.025525922154996e-05
-3.428507050335809e-06   1.4116213904093872e-06   -5.025525922154996e-05
-3.428507050335809e-06   1.4116213904093872e-06   -5.025525922154996e-05
-1.1470237855417247e-05   3.3830788754398485e-06   -3.8035249037432506e-05
-1.1470237855417247e-05   3.3830788754398485e-06   -3.8035249037432506e-05
-1.1470237855417247e-05   3.3830788754398485e-06   -3.8035249037432506e-05
-1.1470237855417247e-05   3.3830788754398485e-06   -3.8035249037432506e-05
-7.734122545795068e-06   1.4811975457837759e-06   -4.3120979089009256e-05
-7.734122545795068e-06   1.4811975457837759e-06   -4.3120979089009256e-05
-7.734122545795068e-06   1.4811975457837759e-06   -4.3120979089009256e-05
-7.734122545795068e-06   1.4811975457837759e-06   -4.3120979089009256e-05
-1.1470237855417217e-05   1.4116213904093872e-06   -5.143813371256804e-05
-1.1470237855417217e-05   1.4116213904093872e-06   -5.143813371256804e-05
-1.1470237855417217e-05   1.4116213904093872e-06   -5.143813371256804e-05
-1.1470237855417217e-05   1.4116213904093872e-06   -5.143813371256804e-05
-3.428507050335836e-06   3.3830788754398485e-06   -3.685237454641426e-05
-3.428507050335836e-06   3.3830788754398485e-06   -3.685237454641426e-05
-3.428507050335836e-06   3.3830788754398485e-06   -3.685237454641426e-05
-3.428507050335836e-06   3.3830788754398485e-06   -3.685237454641426e-05
-3.0210872565559544e-06   3.2435019460652203e-06   -5.166094953154012e-05
-3.0210872565559544e-06   3.2435019460652203e-06   -5.166094953154012e-05
-3.0210872565559544e-06   3.2435019460652203e-06   -5.166094953154012e-05
-3.0210872565559544e-06   3.2435019460652203e-06   -5.166094953154012e-05
-1.1203645585540165e-05   5.0507294027070035e-06   -3.9107688790551414e-05
-1.1203645585540165e-05   5.0507294027070035e-06   -3.9107688790551414e-05
-1.1203645585540165e-05   5.0507294027070035e-06   -3.9107688790551414e-05
-1.1203645585540165e-05   5.0507294027070035e-06   -3.9107688790551414e-05
-7.4844073444216626e-06   2.805061786968809e-06   -4.395901862297251e-05
-7.4844073444216626e-06   2.805061786968809e-06   -4.395901862297251e-05
-7.4844073444216626e-06   2.805061786968809e-06   -4.395901862297251e-05
-7.4844073444216626e-06   2.805061786968809e-06   -4.395901862297251e-05
-4.405374650842247e-06   -3.3962524506594635e-06   -2.7809006449655864e-05
-4.405374650842247e-06   -3.3962524506594635e-06   -2.7809006449655864e-05
-4.405374650842247e-06   -3.3962524506594635e-06   -2.7809006449655864e-05
-4.405374650842247e-06   -3.3962524506594635e-06   -2.7809006449655864e-05
1.2499421414100139e-06   4.7370660129198404e-07   -1.6061503031397943e-05
1.2499421414100139e-06   4.7370660129198404e-07   -1.6061503031397943e-05
1.2499421414100139e-06   4.7370660129198404e-07   -1.6061503031397943e-05
1.2499421414100139e-06   4.7370660129198404e-07   -1.6061503031397943e-05
3.319294193403254e-06   -2.272400749569808e-06   -2.656921713430798e-05
3.319294193403254e-06   -2.272400749569808e-06   -2.656921713430798e-05
3.319294193403254e-06   -2.272400749569808e-06   -2.656921713430798e-05
3.319294193403254e-06   -2.272400749569808e-06   -2.656921713430798e-05
-4.011752279902732e-06   1.7094373890584776e-06   -1.673990922864118e-05
-4.011752279902732e-06   1.7094373890584776e-06   -1.673990922864118e-05
-4.011752279902732e-06   1.7094373890584776e-06   -1.673990922864118e-05
-4.011752279902732e-06   1.7094373890584776e-06   -1.673990922864118e-05
-9.380153071585052e-07   -7.040158416617755e-07   -2.041473224478343e-05
-9.380153071585052e-07   -7.040158416617755e-07   -2.041473224478343e-05
-9.380153071585052e-07   -7.040158416617755e-07   -2.041473224478343e-05
-9.380153071585052e-07   -7.040158416617755e-07   -2.041473224478343e-05
-4.011752279902732e-06   -2.272400749569808e-06   -2.8958320017484778e-05
-4.011752279902732e-06   -2.272400749569808e-06   -2.8958320017484778e-05
-4.011752279902732e-06   -2.272400749569808e-06   -2.8958320017484778e-05
-4.011752279902732e-06   -2.272400749569808e-06   -2.8958320017484778e-05
3.319294193403254e-06   1.7094373890584776e-06   -1.4350806345464354e-05
3.319294193403254e-06   1.7094373890584776e-06   -1.4350806345464354e-05
3.319294193403254e-06   1.7094373890584776e-06   -1.4350806345464354e-05
3.319294193403254e-06   1.7094373890584776e-06   -1.4350806345464354e-05
4.953071742050538e-06   -1.4958877432016612e-06   -2.8022270469515705e-05
4.953071742050538e-06   -1.4958877432016612e-06   -2.8022270469515705e-05
4.953071742050538e-06   -1.4958877432016612e-06   -2.8022270469515705e-05
4.953071742050538e-06   -1.4958877432016612e-06   -2.8022270469515705e-05
-3.428507050335836e-06   2.4046920617838696e-06   -1.6393320365196194e-05
-3.428507050335836e-06   2.4046920617838696e-06   -1.6393320365196194e-05
-3.428507050335836e-06   2.4046920617838696e-06   -1.6393320365196194e-05
-3.428507050335836e-06   2.4046920617838696e-06   -1.6393320365196194e-05
1.1379935626756952e-07   -1.1282413750523038e-07   -2.0786654656628346e-05
1.1379935626756952e-07   -1.1282413750523038e-07   -2.0786654656628346e-05
1.1379935626756952e-07   -1.1282413750523038e-07   -2.0786654656628346e-05
1.1379935626756952e-07   -1.1282413750523038e-07   -2.0786654656628346e-05
-3.428507050335809e-06   -1.4958877432016612e-06   -3.0362618352506926e-05
-3.428507050335809e-06   -1.4958877432016612e-06   -3.0362618352506926e-05
-3.428507050335809e-06   -1.4958877432016612e-06   -3.0362618352506926e-05
-3.428507050335809e-06   -1.4958877432016612e-06   -3.0362618352506926e-05
4.953071742050538e-06   2.4046920617838696e-06   -1.4052972482205082e-05
4.953071742050538e-06   2.4046920617838696e-06   -1.4052972482205082e-05
4.953071742050538e-06   2.4046920617838696e-06   -1.4052972482205082e-05
4.953071742050538e-06   2.4046920617838696e-06   -1.4052972482205082e-05
7.013489632086282e-06   3.1836828095046024e-08   -3.1396962480597116e-05
7.013489632086282e-06   3.1836828095046024e-08   -3.1396962480597116e-05
7.013489632086282e-06   3.1836828095046024e-08   -3.1396962480597116e-05
7.013489632086282e-06   3.1836828095046024e-08   -3.1396962480597116e-05
-3.0210872565559544e-06   3.6389553243567664e-06   -1.683693876395012e-05
-3.0210872565559544e-06   3.6389553243567664e-06   -1.683693876395012e-05
-3.0210872565559544e-06   3.6389553243567664e-06   -1.683693876395012e-05
-3.0210872565559544e-06   3.6389553243567664e-06   -1.683693876395012e-05
1.0158690276830968e-06   5.633051667938271e-07   -2.1719809143144427e-05
1.0158690276830968e-06   5.633051667938271e-07   -2.1719809143144427e-05
1.0158690276830968e-06   5.633051667938271e-07   -2.1719809143144427e-05
1.0158690276830968e-06   5.633051667938271e-07   -2.1719809143144427e-05
-1.3235010356461407e-05   2.4881619807837468e-06   -2.3679142363891483e-05
-1.3235010356461407e-05   2.4881619807837468e-06   -2.3679142363891483e-05
-1.3235010356461407e-05   2.4881619807837468e-06   -2.3679142363891483e-05
-1.3235010356461407e-05   2.4881619807837468e-06   -2.3679142363891483e-05
-1.3378684223412879e-05   -1.1520200140719208e-06   -2.6102708005723942e-05
-1.3378684223412879e-05   -1.1520200140719208e-06   -2.6102708005723942e-05
-1.3378684223412879e-05   -1.1520200140719208e-06   -2.6102708005723942e-05
-1.3378684223412879e-05   -1.1520200140719208e-06   -2.6102708005723942e-05
-1.2706575992587905e-05   3.8718703051178124e-06   -2.2247437749637732e-05
-1.2706575992587905e-05   3.8718703051178124e-06   -2.2247437749637732e-05
-1.2706575992587905e-05   3.8718703051178124e-06   -2.2247437749637732e-05
-1.2706575992587905e-05   3.8718703051178124e-06   -2.2247437749637732e-05
-1.0928923116108836e-05   -3.198137561982034e-08   -2.2867881535326815e-05
-1.0928923116108836e-05   -3.198137561982034e-08   -2.2867881535326815e-05
-1.0928923116108836e-05   -3.198137561982034e-08   -2.2867881535326815e-05
-1.0928923116108836e-05   -3.198137561982034e-08   -2.2867881535326815e-05
-1.2013067523681479e-05   1.712754291374437e-06   -2.2107815589570107e-05
-1.2013067523681479e-05   1.712754291374437e-06   -2.2107815589570107e-05
-1.2013067523681479e-05   1.712754291374437e-06   -2.2107815589570107e-05
-1.2013067523681479e-05   1.712754291374437e-06   -2.2107815589570107e-05
-1.0928923116108782e-05   3.8718703051178124e-06   -1.9905126741195196e-05
-1.0928923116108782e-05   3.8718703051178124e-06   -1.9905126741195196e-05
-1.0928923116108782e-05   3.8718703051178124e-06   -1.9905126741195196e-05
-1.0928923116108782e-05   3.8718703051178124e-06   -1.9905126741195196e-05
-1.2706575992587905e-05   -3.198137562025402e-08   -2.5210192543769893e-05
-1.2706575992587905e-05   -3.198137562025402e-08   -2.5210192543769893e-05
-1.2706575992587905e-05   -3.198137562025402e-08   -2.5210192543769893e-05
-1.2706575992587905e-05   -3.198137562025402e-08   -2.5210192543769893e-05
-1.1859163114817303e-05   4.5704114077205725e-06   -2.064609935529399e-05
-1.1859163114817303e-05   4.5704114077205725e-06   -2.064609935529399e-05
-1.1859163114817303e-05   4.5704114077205725e-06   -2.064609935529399e-05
-1.1859163114817303e-05   4.5704114077205725e-06   -2.064609935529399e-05
-9.020752569113518e-06   6.009429889645979e-07   -2.2995102546880105e-05
-9.020752569113518e-06   6.009429889645979e-07   -2.2995102546880105e-05
-9.020752569113518e-06   6.009429889645979e-07   -2.2995102546880105e-05
-9.020752569113518e-06   6.009429889645979e-07   -2.2995102546880105e-05
-1.0920196702010105e-05   2.2874236406335464e-06   -2.084125071638793e-05
-1.0920196702010105e-05   2.2874236406335464e-06   -2.084125071638793e-05
-1.0920196702010105e-05   2.2874236406335464e-06   -2.084125071638793e-05
-1.0920196702010105e-05   2.2874236406335464e-06   -2.084125071638793e-05
-9.020752569113464e-06   4.5704114077205725e-06   -1.8264418304040535e-05
-9.020752569113464e-06   4.5704114077205725e-06   -1.8264418304040535e-05
-9.020752569113464e-06   4.5704114077205725e-06   -1.8264418304040535e-05
-9.020752569113464e-06   4.5704114077205725e-06   -1.8264418304040535e-05
-1.1859163114817358e-05   6.009429889650315e-07   -2.5376783598133614e-05
-1.1859163114817358e-05   6.009429889650315e-07   -2.5376783598133614e-05
-1.1859163114817358e-05   6.009429889650315e-07   -2.5376783598133614e-05
-1.1859163114817358e-05   6.009429889650315e-07   -2.5376783598133614e-05
-1.1197254063294933e-05   5.67664808034051e-06   -1.9155788160628425e-05
-1.1197254063294933e-05   5.67664808034051e-06   -1.9155788160628425e-05
-1.1197254063294933e-05   5.67664808034051e-06   -1.9155788160628425e-05
-1.1197254063294933e-05   5.67664808034051e-06   -1.9155788160628425e-05
-6.664776350543073e-06   1.8635002491263625e-06   -2.4422028983152864e-05
-6.664776350543073e-06   1.8635002491263625e-06   -2.4422028983152864e-05
-6.664776350543073e-06   1.8635002491263625e-06   -2.4422028983152864e-05
-6.664776350543073e-06   1.8635002491263625e-06   -2.4422028983152864e-05
-9.553372003903493e-06   2.8373012182607293e-06   -2.0191983475699666e-05
-9.553372003903493e-06   2.8373012182607293e-06   -2.0191983475699666e-05
-9.553372003903493e-06   2.8373012182607293e-06   -2.0191983475699666e-05
-9.553372003903493e-06   2.8373012182607293e-06   -2.0191983475699666e-05
-1.337868422341277e-05   1.4253781903759283e-06   -4.3009918579161406e-05
-1.337868422341277e-05   1.4253781903759283e-06   -4.3009918579161406e-05
-1.337868422341277e-05   1.4253781903759283e-06   -4.3009918579161406e-05
-1.337868422341277e-05   1.4253781903759283e-06   -4.3009918579161406e-05
-1.538846472919734e-05   -2.5173324391973215e-07   -4.7365819616046424e-05
-1.538846472919734e-05   -2.5173324391973215e-07   -4.7365819616046424e-05
-1.538846472919734e-05   -2.5173324391973215e-07   -4.7365819616046424e-05
-1.538846472919734e-05   -2.5173324391973215e-07   -4.7365819616046424e-05
-1.4844667752778604e-05   3.011699225469004e-06   -4.304312361994478e-05
-1.4844667752778604e-05   3.011699225469004e-06   -4.304312361994478e-05
-1.4844667752778604e-05   3.011699225469004e-06   -4.304312361994478e-05
-1.4844667752778604e-05   3.011699225469004e-06   -4.304312361994478e-05
-1.2706575992587905e-05   1.161037353555102e-06   -4.5496212763780565e-05
-1.2706575992587905e-05   1.161037353555102e-06   -4.5496212763780565e-05
-1.2706575992587905e-05   1.161037353555102e-06   -4.5496212763780565e-05
-1.2706575992587905e-05   1.161037353555102e-06   -4.5496212763780565e-05
-1.3915536855893038e-05   1.6460369178167896e-06   -4.377227773016344e-05
-1.3915536855893038e-05   1.6460369178167896e-06   -4.377227773016344e-05
-1.3915536855893038e-05   1.6460369178167896e-06   -4.377227773016344e-05
-1.3915536855893038e-05   1.6460369178167896e-06   -4.377227773016344e-05
-1.2706575992587905e-05   3.011699225469221e-06   -4.193272649679594e-05
-1.2706575992587905e-05   3.011699225469221e-06   -4.193272649679594e-05
-1.2706575992587905e-05   3.011699225469221e-06   -4.193272649679594e-05
-1.2706575992587905e-05   3.011699225469221e-06   -4.193272649679594e-05
-1.4844667752778577e-05   1.161037353555102e-06   -4.660660988692919e-05
-1.4844667752778577e-05   1.161037353555102e-06   -4.660660988692919e-05
-1.4844667752778577e-05   1.161037353555102e-06   -4.660660988692919e-05
-1.4844667752778577e-05   1.161037353555102e-06   -4.660660988692919e-05
-1.4279160201996976e-05   4.486243127635372e-06   -4.268243554768499e-05
-1.4279160201996976e-05   4.486243127635372e-06   -4.268243554768499e-05
-1.4279160201996976e-05   4.486243127635372e-06   -4.268243554768499e-05
-1.4279160201996976e-05   4.486243127635372e-06   -4.268243554768499e-05
-1.1859163114817358e-05   2.5207802812165885e-06   -4.553648631846601e-05
-1.1859163114817358e-05   2.5207802812165885e-06   -4.553648631846601e-05
-1.1859163114817358e-05   2.5207802812165885e-06   -4.553648631846601e-05
-1.1859163114817358e-05   2.5207802812165885e-06   -4.553648631846601e-05
-1.3370552605053733e-05   2.7844483779259667e-06   -4.317570469276454e-05
-1.3370552605053733e-05   2.7844483779259667e-06   -4.317570469276454e-05
-1.3370552605053733e-05   2.7844483779259667e-06   -4.317570469276454e-05
-1.3370552605053733e-05   2.7844483779259667e-06   -4.317570469276454e-05
-1.1859163114817303e-05   4.486243127635372e-06   -4.150315783983335e-05
-1.1859163114817303e-05   4.486243127635372e-06   -4.150315783983335e-05
-1.1859163114817303e-05   4.486243127635372e-06   -4.150315783983335e-05
-1.1859163114817303e-05   4.486243127635372e-06   -4.150315783983335e-05
-1.4279160201996922e-05   2.5207802812165885e-06   -4.6715764026317164e-05
-1.4279160201996922e-05   2.5207802812165885e-06   -4.6715764026317164e-05
-1.4279160201996922e-05   2.5207802812165885e-06   -4.6715764026317164e-05
-1.4279160201996922e-05   2.5207802812165885e-06   -4.6715764026317164e-05
-1.3746293371415973e-05   6.124239651347525e-06   -4.338913249403681e-05
-1.3746293371415973e-05   6.124239651347525e-06   -4.338913249403681e-05
-1.3746293371415973e-05   6.124239651347525e-06   -4.338913249403681e-05
-1.3746293371415973e-05   6.124239651347525e-06   -4.338913249403681e-05
-1.1197254063294987e-05   4.073008001579271e-06   -4.640679235104413e-05
-1.1197254063294987e-05   4.073008001579271e-06   -4.640679235104413e-05
-1.1197254063294987e-05   4.073008001579271e-06   -4.640679235104413e-05
-1.1197254063294987e-05   4.073008001579271e-06   -4.640679235104413e-05
-1.2890760988518382e-05   3.978131248215822e-06   -4.352735475698699e-05
-1.2890760988518382e-05   3.978131248215822e-06   -4.352735475698699e-05
-1.2890760988518382e-05   3.978131248215822e-06   -4.352735475698699e-05
-1.2890760988518382e-05   3.978131248215822e-06   -4.352735475698699e-05
-1.5388464729197313e-05   8.148465261282982e-07   -5.008114079798492e-05
-1.5388464729197313e-05   8.148465261282982e-07   -5.008114079798492e-05
-1.5388464729197313e-05   8.148465261282982e-07   -5.008114079798492e-05
-1.5388464729197313e-05   8.148465261282982e-07   -5.008114079798492e-05
-1.7508384339840897e-05   1.1685615000042206e-06   -5.340211116473196e-05
-1.7508384339840897e-05   1.1685615000042206e-06   -5.340211116473196e-05
-1.7508384339840897e-05   1.1685615000042206e-06   -5.340211116473196e-05
-1.7508384339840897e-05   1.1685615000042206e-06   -5.340211116473196e-05
-1.6973785661660595e-05   2.4299984896644037e-06   -4.931070171600312e-05
-1.6973785661660595e-05   2.4299984896644037e-06   -4.931070171600312e-05
-1.6973785661660595e-05   2.4299984896644037e-06   -4.931070171600312e-05
-1.6973785661660595e-05   2.4299984896644037e-06   -4.931070171600312e-05
-1.4844667752778604e-05   2.6282090642894967e-06   -5.297815790891486e-05
-1.4844667752778604e-05   2.6282090642894967e-06   -5.297815790891486e-05
-1.4844667752778604e-05   2.6282090642894967e-06   -5.297815790891486e-05
-1.4844667752778604e-05   2.6282090642894967e-06   -5.297815790891486e-05
-1.6081450788002464e-05   1.987581722251268e-06   -5.0532476444986e-05
-1.6081450788002464e-05   1.987581722251268e-06   -5.0532476444986e-05
-1.6081450788002464e-05   1.987581722251268e-06   -5.0532476444986e-05
-1.6081450788002464e-05   1.987581722251268e-06   -5.0532476444986e-05
-1.484466775277855e-05   2.4299984896644037e-06   -4.942962806077811e-05
-1.484466775277855e-05   2.4299984896644037e-06   -4.942962806077811e-05
-1.484466775277855e-05   2.4299984896644037e-06   -4.942962806077811e-05
-1.484466775277855e-05   2.4299984896644037e-06   -4.942962806077811e-05
-1.6973785661660626e-05   2.6282090642899304e-06   -5.285923156413998e-05
-1.6973785661660626e-05   2.6282090642899304e-06   -5.285923156413998e-05
-1.6973785661660626e-05   2.6282090642899304e-06   -5.285923156413998e-05
-1.6973785661660626e-05   2.6282090642899304e-06   -5.285923156413998e-05
-1.641177143171084e-05   4.0593248794404575e-06   -4.9454287790432535e-05
-1.641177143171084e-05   4.0593248794404575e-06   -4.9454287790432535e-05
-1.641177143171084e-05   4.0593248794404575e-06   -4.9454287790432535e-05
-1.641177143171084e-05   4.0593248794404575e-06   -4.9454287790432535e-05
-1.4279160201996976e-05   4.120034307543603e-06   -5.304506549681738e-05
-1.4279160201996976e-05   4.120034307543603e-06   -5.304506549681738e-05
-1.4279160201996976e-05   4.120034307543603e-06   -5.304506549681738e-05
-1.4279160201996976e-05   4.120034307543603e-06   -5.304506549681738e-05
-1.563243613763889e-05   3.235824535934625e-06   -5.025907974111625e-05
-1.563243613763889e-05   3.235824535934625e-06   -5.025907974111625e-05
-1.563243613763889e-05   3.235824535934625e-06   -5.025907974111625e-05
-1.563243613763889e-05   3.235824535934625e-06   -5.025907974111625e-05
-1.4279160201996922e-05   4.059324879440241e-06   -4.9490713447294314e-05
-1.4279160201996922e-05   4.059324879440241e-06   -4.9490713447294314e-05
-1.4279160201996922e-05   4.059324879440241e-06   -4.9490713447294314e-05
-1.4279160201996922e-05   4.059324879440241e-06   -4.9490713447294314e-05
-1.641177143171084e-05   4.120034307543603e-06   -5.300863983995533e-05
-1.641177143171084e-05   4.120034307543603e-06   -5.300863983995533e-05
-1.641177143171084e-05   4.120034307543603e-06   -5.300863983995533e-05
-1.641177143171084e-05   4.120034307543603e-06   -5.300863983995533e-05
-1.5881647179490238e-05   5.713211464340251e-06   -5.041414975410184e-05
-1.5881647179490238e-05   5.713211464340251e-06   -5.041414975410184e-05
-1.5881647179490238e-05   5.713211464340251e-06   -5.041414975410184e-05
-1.5881647179490238e-05   5.713211464340251e-06   -5.041414975410184e-05
-1.3746293371416e-05   5.632462037660074e-06   -5.3924623111550646e-05
-1.3746293371416e-05   5.632462037660074e-06   -5.3924623111550646e-05
-1.3746293371416e-05   5.632462037660074e-06   -5.3924623111550646e-05
-1.3746293371416e-05   5.632462037660074e-06   -5.3924623111550646e-05
-1.52189233474795e-05   4.501514740483815e-06   -5.0791671439805674e-05
-1.52189233474795e-05   4.501514740483815e-06   -5.0791671439805674e-05
-1.52189233474795e-05   4.501514740483815e-06   -5.0791671439805674e-05
-1.52189233474795e-05   4.501514740483815e-06   -5.0791671439805674e-05
-1.7508384339840833e-05   3.445960788492526e-07   -4.320965299247346e-05
-1.7508384339840833e-05   3.445960788492526e-07   -4.320965299247346e-05
-1.7508384339840833e-05   3.445960788492526e-07   -4.320965299247346e-05
-1.7508384339840833e-05   3.445960788492526e-07   -4.320965299247346e-05
-1.9744375054017607e-05   2.598484264643066e-06   -4.558397127129199e-05
-1.9744375054017607e-05   2.598484264643066e-06   -4.558397127129199e-05
-1.9744375054017607e-05   2.598484264643066e-06   -4.558397127129199e-05
-1.9744375054017607e-05   2.598484264643066e-06   -4.558397127129199e-05
-1.9098033958479555e-05   1.908713288382687e-06   -4.131240415338139e-05
-1.9098033958479555e-05   1.908713288382687e-06   -4.131240415338139e-05
-1.9098033958479555e-05   1.908713288382687e-06   -4.131240415338139e-05
-1.9098033958479555e-05   1.908713288382687e-06   -4.131240415338139e-05
-1.6973785661660595e-05   4.062759232651564e-06   -4.614524554797394e-05
-1.6973785661660595e-05   4.062759232651564e-06   -4.614524554797394e-05
-1.6973785661660595e-05   4.062759232651564e-06   -4.614524554797394e-05
-1.6973785661660595e-05   4.062759232651564e-06   -4.614524554797394e-05
-1.8189551389271262e-05   2.3919793831672555e-06   -4.311650142559966e-05
-1.8189551389271262e-05   2.3919793831672555e-06   -4.311650142559966e-05
-1.8189551389271262e-05   2.3919793831672555e-06   -4.311650142559966e-05
-1.8189551389271262e-05   2.3919793831672555e-06   -4.311650142559966e-05
-1.697378566166057e-05   1.90871328838247e-06   -4.2604831719942607e-05
-1.697378566166057e-05   1.90871328838247e-06   -4.2604831719942607e-05
-1.697378566166057e-05   1.90871328838247e-06   -4.2604831719942607e-05
-1.697378566166057e-05   1.90871328838247e-06   -4.2604831719942607e-05
-1.9098033958479555e-05   4.06275923265113e-06   -4.485281798141303e-05
-1.9098033958479555e-05   4.06275923265113e-06   -4.485281798141303e-05
-1.9098033958479555e-05   4.06275923265113e-06   -4.485281798141303e-05
-1.9098033958479555e-05   4.06275923265113e-06   -4.485281798141303e-05
-1.8263934843966315e-05   3.3830788754398485e-06   -4.149293646335485e-05
-1.8263934843966315e-05   3.3830788754398485e-06   -4.149293646335485e-05
-1.8263934843966315e-05   3.3830788754398485e-06   -4.149293646335485e-05
-1.8263934843966315e-05   3.3830788754398485e-06   -4.149293646335485e-05
-1.641177143171081e-05   5.413941831251129e-06   -4.579839325726709e-05
-1.641177143171081e-05   5.413941831251129e-06   -4.579839325726709e-05
-1.641177143171081e-05   5.413941831251129e-06   -4.579839325726709e-05
-1.641177143171081e-05   5.413941831251129e-06   -4.579839325726709e-05
-1.7611987730948533e-05   3.553385123886664e-06   -4.268169873411937e-05
-1.7611987730948533e-05   3.553385123886664e-06   -4.268169873411937e-05
-1.7611987730948533e-05   3.553385123886664e-06   -4.268169873411937e-05
-1.7611987730948533e-05   3.553385123886664e-06   -4.268169873411937e-05
-1.641177143171077e-05   3.3830788754398485e-06   -4.271145423684125e-05
-1.641177143171077e-05   3.3830788754398485e-06   -4.271145423684125e-05
-1.641177143171077e-05   3.3830788754398485e-06   -4.271145423684125e-05
-1.641177143171077e-05   3.3830788754398485e-06   -4.271145423684125e-05
-1.8263934843966355e-05   5.413941831250695e-06   -4.4579875483780626e-05
-1.8263934843966355e-05   5.413941831250695e-06   -4.4579875483780626e-05
-1.8263934843966355e-05   5.413941831250695e-06   -4.4579875483780626e-05
-1.8263934843966355e-05   5.413941831250695e-06   -4.4579875483780626e-05
-1.760837518088301e-05   5.05072940270722e-06   -4.264385809453822e-05
-1.760837518088301e-05   5.05072940270722e-06   -4.264385809453822e-05
-1.760837518088301e-05   5.05072940270722e-06   -4.264385809453822e-05
-1.760837518088301e-05   5.05072940270722e-06   -4.264385809453822e-05
-1.5881647179490238e-05   6.928778300148951e-06   -4.664856743532433e-05
-1.5881647179490238e-05   6.928778300148951e-06   -4.664856743532433e-05
-1.5881647179490238e-05   6.928778300148951e-06   -4.664856743532433e-05
-1.5881647179490238e-05   6.928778300148951e-06   -4.664856743532433e-05
-1.7178404332780555e-05   4.74082044233607e-06   -4.317453079848583e-05
-1.7178404332780555e-05   4.74082044233607e-06   -4.317453079848583e-05
-1.7178404332780555e-05   4.74082044233607e-06   -4.317453079848583e-05
-1.7178404332780555e-05   4.74082044233607e-06   -4.317453079848583e-05
-1.9744375054017566e-05   4.7370660129198404e-07   -2.3034150116672575e-05
-1.9744375054017566e-05   4.7370660129198404e-07   -2.3034150116672575e-05
-1.9744375054017566e-05   4.7370660129198404e-07   -2.3034150116672575e-05
-1.9744375054017566e-05   4.7370660129198404e-07   -2.3034150116672575e-05
-2.3890645936425702e-05   4.364322075417742e-06   -2.76102323028772e-05
-2.3890645936425702e-05   4.364322075417742e-06   -2.76102323028772e-05
-2.3890645936425702e-05   4.364322075417742e-06   -2.76102323028772e-05
-2.3890645936425702e-05   4.364322075417742e-06   -2.76102323028772e-05
-2.1602535079863353e-05   1.7094373890584776e-06   -1.900266443430039e-05
-2.1602535079863353e-05   1.7094373890584776e-06   -1.900266443430039e-05
-2.1602535079863353e-05   1.7094373890584776e-06   -1.900266443430039e-05
-2.1602535079863353e-05   1.7094373890584776e-06   -1.900266443430039e-05
-1.9098033958479514e-05   5.691320301435491e-06   -2.5565962717366265e-05
-1.9098033958479514e-05   5.691320301435491e-06   -2.5565962717366265e-05
-1.9098033958479514e-05   5.691320301435491e-06   -2.5565962717366265e-05
-1.9098033958479514e-05   5.691320301435491e-06   -2.5565962717366265e-05
-2.0230565304852585e-05   3.2208940580185502e-06   -2.219615472736123e-05
-2.0230565304852585e-05   3.2208940580185502e-06   -2.219615472736123e-05
-2.0230565304852585e-05   3.2208940580185502e-06   -2.219615472736123e-05
-2.0230565304852585e-05   3.2208940580185502e-06   -2.219615472736123e-05
-1.909803395847946e-05   1.7094373890586944e-06   -2.1391794181726403e-05
-1.909803395847946e-05   1.7094373890586944e-06   -2.1391794181726403e-05
-1.909803395847946e-05   1.7094373890586944e-06   -2.1391794181726403e-05
-1.909803395847946e-05   1.7094373890586944e-06   -2.1391794181726403e-05
-2.16025350798633e-05   5.6913203014359245e-06   -2.317683296994017e-05
-2.16025350798633e-05   5.6913203014359245e-06   -2.317683296994017e-05
-2.16025350798633e-05   5.6913203014359245e-06   -2.317683296994017e-05
-2.16025350798633e-05   5.6913203014359245e-06   -2.317683296994017e-05
-1.9741476184968775e-05   2.4046920617838696e-06   -1.869732121739852e-05
-1.9741476184968775e-05   2.4046920617838696e-06   -1.869732121739852e-05
-1.9741476184968775e-05   2.4046920617838696e-06   -1.869732121739852e-05
-1.9741476184968775e-05   2.4046920617838696e-06   -1.869732121739852e-05
-1.8263934843966315e-05   6.2989605030144315e-06   -2.3496451183807458e-05
-1.8263934843966315e-05   6.2989605030144315e-06   -2.3496451183807458e-05
-1.8263934843966315e-05   6.2989605030144315e-06   -2.3496451183807458e-05
-1.8263934843966315e-05   6.2989605030144315e-06   -2.3496451183807458e-05
-1.9251349286990338e-05   3.834665015877304e-06   -2.0372183153152042e-05
-1.9251349286990338e-05   3.834665015877304e-06   -2.0372183153152042e-05
-1.9251349286990338e-05   3.834665015877304e-06   -2.0372183153152042e-05
-1.9251349286990338e-05   3.834665015877304e-06   -2.0372183153152042e-05
-1.8263934843966288e-05   2.4046920617838696e-06   -2.1033882282136727e-05
-1.8263934843966288e-05   2.4046920617838696e-06   -2.1033882282136727e-05
-1.8263934843966288e-05   2.4046920617838696e-06   -2.1033882282136727e-05
-1.8263934843966288e-05   2.4046920617838696e-06   -2.1033882282136727e-05
-1.9741476184968775e-05   6.2989605030144315e-06   -2.1159890119069142e-05
-1.9741476184968775e-05   6.2989605030144315e-06   -2.1159890119069142e-05
-1.9741476184968775e-05   6.2989605030144315e-06   -2.1159890119069142e-05
-1.9741476184968775e-05   6.2989605030144315e-06   -2.1159890119069142e-05
-1.746656479706106e-05   3.6389553243565496e-06   -1.9295667392599095e-05
-1.746656479706106e-05   3.6389553243565496e-06   -1.9295667392599095e-05
-1.746656479706106e-05   3.6389553243565496e-06   -1.9295667392599095e-05
-1.746656479706106e-05   3.6389553243565496e-06   -1.9295667392599095e-05
-1.760837518088297e-05   7.241917239895427e-06   -2.1221093902218743e-05
-1.760837518088297e-05   7.241917239895427e-06   -2.1221093902218743e-05
-1.760837518088297e-05   7.241917239895427e-06   -2.1221093902218743e-05
-1.760837518088297e-05   7.241917239895427e-06   -2.1221093902218743e-05
-1.7815373035577855e-05   4.3317894761964355e-06   -1.9130020819508242e-05
-1.7815373035577855e-05   4.3317894761964355e-06   -1.9130020819508242e-05
-1.7815373035577855e-05   4.3317894761964355e-06   -1.9130020819508242e-05
-1.7815373035577855e-05   4.3317894761964355e-06   -1.9130020819508242e-05
1.1637786695082501e-05   -1.1520200140719208e-06   -1.2021123698255929e-05
1.1637786695082501e-05   -1.1520200140719208e-06   -1.2021123698255929e-05
1.1637786695082501e-05   -1.1520200140719208e-06   -1.2021123698255929e-05
1.1637786695082501e-05   -1.1520200140719208e-06   -1.2021123698255929e-05
1.1877765455344598e-06   -4.86023674868552e-06   -3.1662737321603955e-05
1.1877765455344598e-06   -4.86023674868552e-06   -3.1662737321603955e-05
1.1877765455344598e-06   -4.86023674868552e-06   -3.1662737321603955e-05
1.1877765455344598e-06   -4.86023674868552e-06   -3.1662737321603955e-05
2.1096926833301583e-06   -3.198137561982034e-08   -1.3273318479972707e-05
2.1096926833301583e-06   -3.198137561982034e-08   -1.3273318479972707e-05
2.1096926833301583e-06   -3.198137561982034e-08   -1.3273318479972707e-05
2.1096926833301583e-06   -3.198137561982034e-08   -1.3273318479972707e-05
1.4206736798717747e-05   -3.993225135990024e-06   -3.1058312416063546e-05
1.4206736798717747e-05   -3.993225135990024e-06   -3.1058312416063546e-05
1.4206736798717747e-05   -3.993225135990024e-06   -3.1058312416063546e-05
1.4206736798717747e-05   -3.993225135990024e-06   -3.1058312416063546e-05
7.014475835285681e-06   -2.026430085386166e-06   -2.0251287840705582e-05
7.014475835285681e-06   -2.026430085386166e-06   -2.0251287840705582e-05
7.014475835285681e-06   -2.026430085386166e-06   -2.0251287840705582e-05
7.014475835285681e-06   -2.026430085386166e-06   -2.0251287840705582e-05
1.4206736798717801e-05   -3.198137561982034e-08   -1.0896572223751061e-05
1.4206736798717801e-05   -3.198137561982034e-08   -1.0896572223751061e-05
1.4206736798717801e-05   -3.198137561982034e-08   -1.0896572223751061e-05
1.4206736798717801e-05   -3.198137561982034e-08   -1.0896572223751061e-05
2.1096926833301583e-06   -3.993225135989591e-06   -3.3435058672285625e-05
2.1096926833301583e-06   -3.993225135989591e-06   -3.3435058672285625e-05
2.1096926833301583e-06   -3.993225135989591e-06   -3.3435058672285625e-05
2.1096926833301583e-06   -3.993225135989591e-06   -3.3435058672285625e-05
3.196117294931649e-06   6.009429889645979e-07   -1.3372535922853397e-05
3.196117294931649e-06   6.009429889645979e-07   -1.3372535922853397e-05
3.196117294931649e-06   6.009429889645979e-07   -1.3372535922853397e-05
3.196117294931649e-06   6.009429889645979e-07   -1.3372535922853397e-05
1.6379368947028107e-05   -3.4159896221798783e-06   -3.293446244299414e-05
1.6379368947028107e-05   -3.4159896221798783e-06   -3.293446244299414e-05
1.6379368947028107e-05   -3.4159896221798783e-06   -3.293446244299414e-05
1.6379368947028107e-05   -3.4159896221798783e-06   -3.293446244299414e-05
8.644894625665277e-06   -1.6217877726936933e-06   -2.1120193017082258e-05
8.644894625665277e-06   -1.6217877726936933e-06   -2.1120193017082258e-05
8.644894625665277e-06   -1.6217877726936933e-06   -2.1120193017082258e-05
8.644894625665277e-06   -1.6217877726936933e-06   -2.1120193017082258e-05
1.637936894702816e-05   6.009429889645979e-07   -1.0962376356166929e-05
1.637936894702816e-05   6.009429889645979e-07   -1.0962376356166929e-05
1.637936894702816e-05   6.009429889645979e-07   -1.0962376356166929e-05
1.637936894702816e-05   6.009429889645979e-07   -1.0962376356166929e-05
3.196117294931595e-06   -3.4159896221798783e-06   -3.534462200968126e-05
3.196117294931595e-06   -3.4159896221798783e-06   -3.534462200968126e-05
3.196117294931595e-06   -3.4159896221798783e-06   -3.534462200968126e-05
3.196117294931595e-06   -3.4159896221798783e-06   -3.534462200968126e-05
4.091381277517437e-06   1.8635002491263625e-06   -1.464630269929607e-05
4.091381277517437e-06   1.8635002491263625e-06   -1.464630269929607e-05
4.091381277517437e-06   1.8635002491263625e-06   -1.464630269929607e-05
4.091381277517437e-06   1.8635002491263625e-06   -1.464630269929607e-05
1.898914239067479e-05   -1.960733227005223e-06   -3.7181364468879836e-05
1.898914239067479e-05   -1.960733227005223e-06   -3.7181364468879836e-05
1.898914239067479e-05   -1.960733227005223e-06   -3.7181364468879836e-05
1.898914239067479e-05   -1.960733227005223e-06   -3.7181364468879836e-05
9.943972841049468e-06   -1.028266246832013e-06   -2.266556207427574e-05
9.943972841049468e-06   -1.028266246832013e-06   -2.266556207427574e-05
9.943972841049468e-06   -1.028266246832013e-06   -2.266556207427574e-05
9.943972841049468e-06   -1.028266246832013e-06   -2.266556207427574e-05
1.1877765455344598e-06   -2.5173324391973215e-07   -3.450289848876912e-05
1.1877765455344598e-06   -2.5173324391973215e-07   -3.450289848876912e-05
1.1877765455344598e-06   -2.5173324391973215e-07   -3.450289848876912e-05
1.1877765455344598e-06   -2.5173324391973215e-07   -3.450289848876912e-05
-1.1021962676884879e-05   -1.9256970899806346e-06   -5.585684216710435e-05
-1.1021962676884879e-05   -1.9256970899806346e-06   -5.585684216710435e-05
-1.1021962676884879e-05   -1.9256970899806346e-06   -5.585684216710435e-05
-1.1021962676884879e-05   -1.9256970899806346e-06   -5.585684216710435e-05
-1.0212593607320311e-05   1.1610373535546684e-06   -3.469867714962077e-05
-1.0212593607320311e-05   1.1610373535546684e-06   -3.469867714962077e-05
-1.0212593607320311e-05   1.1610373535546684e-06   -3.469867714962077e-05
-1.0212593607320311e-05   1.1610373535546684e-06   -3.469867714962077e-05
2.1096926833301583e-06   -7.378600625071105e-07   -5.409648251773443e-05
2.1096926833301583e-06   -7.378600625071105e-07   -5.409648251773443e-05
2.1096926833301583e-06   -7.378600625071105e-07   -5.409648251773443e-05
2.1096926833301583e-06   -7.378600625071105e-07   -5.409648251773443e-05
-4.380425025893314e-06   -7.511767644713396e-08   -4.367726510066483e-05
-4.380425025893314e-06   -7.511767644713396e-08   -4.367726510066483e-05
-4.380425025893314e-06   -7.511767644713396e-08   -4.367726510066483e-05
-4.380425025893314e-06   -7.511767644713396e-08   -4.367726510066483e-05
2.1096926833302125e-06   1.161037353555102e-06   -3.355933869998349e-05
2.1096926833302125e-06   1.161037353555102e-06   -3.355933869998349e-05
2.1096926833302125e-06   1.161037353555102e-06   -3.355933869998349e-05
2.1096926833302125e-06   1.161037353555102e-06   -3.355933869998349e-05
-1.0212593607320311e-05   -7.378600625071105e-07   -5.5235820967371716e-05
-1.0212593607320311e-05   -7.378600625071105e-07   -5.5235820967371716e-05
-1.0212593607320311e-05   -7.378600625071105e-07   -5.5235820967371716e-05
-1.0212593607320311e-05   -7.378600625071105e-07   -5.5235820967371716e-05
-9.398637191793667e-06   2.5207802812165885e-06   -3.475063864242806e-05
-9.398637191793667e-06   2.5207802812165885e-06   -3.475063864242806e-05
-9.398637191793667e-06   2.5207802812165885e-06   -3.475063864242806e-05
-9.398637191793667e-06   2.5207802812165885e-06   -3.475063864242806e-05
3.196117294931649e-06   4.901136158126304e-07   -5.452349612106145e-05
3.196117294931649e-06   4.901136158126304e-07   -5.452349612106145e-05
3.196117294931649e-06   4.901136158126304e-07   -5.452349612106145e-05
3.196117294931649e-06   4.901136158126304e-07   -5.452349612106145e-05
-3.663109425487506e-06   8.999287855024525e-07   -4.333734068884352e-05
-3.663109425487506e-06   8.999287855024525e-07   -4.333734068884352e-05
-3.663109425487506e-06   8.999287855024525e-07   -4.333734068884352e-05
-3.663109425487506e-06   8.999287855024525e-07   -4.333734068884352e-05
3.196117294931649e-06   2.5207802812165885e-06   -3.3532238643185905e-05
3.196117294931649e-06   2.5207802812165885e-06   -3.3532238643185905e-05
3.196117294931649e-06   2.5207802812165885e-06   -3.3532238643185905e-05
3.196117294931649e-06   2.5207802812165885e-06   -3.3532238643185905e-05
-9.398637191793667e-06   4.901136158130641e-07   -5.574189612030382e-05
-9.398637191793667e-06   4.901136158130641e-07   -5.574189612030382e-05
-9.398637191793667e-06   4.901136158130641e-07   -5.574189612030382e-05
-9.398637191793667e-06   4.901136158130641e-07   -5.574189612030382e-05
-8.620680935661517e-06   4.073008001579271e-06   -3.5620628878578866e-05
-8.620680935661517e-06   4.073008001579271e-06   -3.5620628878578866e-05
-8.620680935661517e-06   4.073008001579271e-06   -3.5620628878578866e-05
-8.620680935661517e-06   4.073008001579271e-06   -3.5620628878578866e-05
4.091381277517437e-06   1.943922151379472e-06   -5.5529947723757344e-05
4.091381277517437e-06   1.943922151379472e-06   -5.5529947723757344e-05
4.091381277517437e-06   1.943922151379472e-06   -5.5529947723757344e-05
4.091381277517437e-06   1.943922151379472e-06   -5.5529947723757344e-05
-2.8648356762374025e-06   1.9803296559925583e-06   -4.395809730360135e-05
-2.8648356762374025e-06   1.9803296559925583e-06   -4.395809730360135e-05
-2.8648356762374025e-06   1.9803296559925583e-06   -4.395809730360135e-05
-2.8648356762374025e-06   1.9803296559925583e-06   -4.395809730360135e-05
-1.1021962676884906e-05   1.1685615000046543e-06   -4.1755797329416774e-05
-1.1021962676884906e-05   1.1685615000046543e-06   -4.1755797329416774e-05
-1.1021962676884906e-05   1.1685615000046543e-06   -4.1755797329416774e-05
-1.1021962676884906e-05   1.1685615000046543e-06   -4.1755797329416774e-05
-2.3126945383301728e-05   1.4732575205635666e-06   -6.174795089444306e-05
-2.3126945383301728e-05   1.4732575205635666e-06   -6.174795089444306e-05
-2.3126945383301728e-05   1.4732575205635666e-06   -6.174795089444306e-05
-2.3126945383301728e-05   1.4732575205635666e-06   -6.174795089444306e-05
-2.2311673044098248e-05   2.6282090642894967e-06   -4.1009473150500604e-05
-2.2311673044098248e-05   2.6282090642894967e-06   -4.1009473150500604e-05
-2.2311673044098248e-05   2.6282090642894967e-06   -4.1009473150500604e-05
-2.2311673044098248e-05   2.6282090642894967e-06   -4.1009473150500604e-05
-1.0212593607320338e-05   2.729462432799444e-06   -6.123535756623642e-05
-1.0212593607320338e-05   2.729462432799444e-06   -6.123535756623642e-05
-1.0212593607320338e-05   2.729462432799444e-06   -6.123535756623642e-05
-1.0212593607320338e-05   2.729462432799444e-06   -6.123535756623642e-05
-1.6571742602184336e-05   2.2562241581676815e-06   -5.035283294335105e-05
-1.6571742602184336e-05   2.2562241581676815e-06   -5.035283294335105e-05
-1.6571742602184336e-05   2.2562241581676815e-06   -5.035283294335105e-05
-1.6571742602184336e-05   2.2562241581676815e-06   -5.035283294335105e-05
-1.0212593607320338e-05   2.6282090642894967e-06   -4.107022517160644e-05
-1.0212593607320338e-05   2.6282090642894967e-06   -4.107022517160644e-05
-1.0212593607320338e-05   2.6282090642894967e-06   -4.107022517160644e-05
-1.0212593607320338e-05   2.6282090642894967e-06   -4.107022517160644e-05
-2.2311673044098248e-05   2.729462432799444e-06   -6.117460554513053e-05
-2.2311673044098248e-05   2.729462432799444e-06   -6.117460554513053e-05
-2.2311673044098248e-05   2.729462432799444e-06   -6.117460554513053e-05
-2.2311673044098248e-05   2.729462432799444e-06   -6.117460554513053e-05
-2.1483516912354657e-05   4.120034307543603e-06   -4.111614785330458e-05
-2.1483516912354657e-05   4.120034307543603e-06   -4.111614785330458e-05
-2.1483516912354657e-05   4.120034307543603e-06   -4.111614785330458e-05
-2.1483516912354657e-05   4.120034307543603e-06   -4.111614785330458e-05
-9.398637191793694e-06   4.059688073582753e-06   -6.122140631386285e-05
-9.398637191793694e-06   4.059688073582753e-06   -6.122140631386285e-05
-9.398637191793694e-06   4.059688073582753e-06   -6.122140631386285e-05
-9.398637191793694e-06   4.059688073582753e-06   -6.122140631386285e-05
-1.585401846564759e-05   3.3524172450842722e-06   -5.003807502700812e-05
-1.585401846564759e-05   3.3524172450842722e-06   -5.003807502700812e-05
-1.585401846564759e-05   3.3524172450842722e-06   -5.003807502700812e-05
-1.585401846564759e-05   3.3524172450842722e-06   -5.003807502700812e-05
-9.398637191793694e-06   4.120034307543603e-06   -4.1079940112928115e-05
-9.398637191793694e-06   4.120034307543603e-06   -4.1079940112928115e-05
-9.398637191793694e-06   4.120034307543603e-06   -4.1079940112928115e-05
-9.398637191793694e-06   4.120034307543603e-06   -4.1079940112928115e-05
-2.1483516912354623e-05   4.05968807358232e-06   -6.125761405423964e-05
-2.1483516912354623e-05   4.05968807358232e-06   -6.125761405423964e-05
-2.1483516912354623e-05   4.05968807358232e-06   -6.125761405423964e-05
-2.1483516912354623e-05   4.05968807358232e-06   -6.125761405423964e-05
-2.0693779683416235e-05   5.632462037660074e-06   -4.203947112723229e-05
-2.0693779683416235e-05   5.632462037660074e-06   -4.203947112723229e-05
-2.0693779683416235e-05   5.632462037660074e-06   -4.203947112723229e-05
-2.0693779683416235e-05   5.632462037660074e-06   -4.203947112723229e-05
-8.620680935661544e-06   5.4128779076469645e-06   -6.202955189548218e-05
-8.620680935661544e-06   5.4128779076469645e-06   -6.202955189548218e-05
-8.620680935661544e-06   5.4128779076469645e-06   -6.202955189548218e-05
-8.620680935661544e-06   5.4128779076469645e-06   -6.202955189548218e-05
-1.5186099383521044e-05   4.4652249548918915e-06   -5.0518596044064196e-05
-1.5186099383521044e-05   4.4652249548918915e-06   -5.0518596044064196e-05
-1.5186099383521044e-05   4.4652249548918915e-06   -5.0518596044064196e-05
-1.5186099383521044e-05   4.4652249548918915e-06   -5.0518596044064196e-05
-2.3126945383301765e-05   2.5984842646426323e-06   -3.510717273511759e-05
-2.3126945383301765e-05   2.5984842646426323e-06   -3.510717273511759e-05
-2.3126945383301765e-05   2.5984842646426323e-06   -3.510717273511759e-05
-2.3126945383301765e-05   2.5984842646426323e-06   -3.510717273511759e-05
-3.508303928603301e-05   4.770849815304793e-06   -5.3730576575939434e-05
-3.508303928603301e-05   4.770849815304793e-06   -5.3730576575939434e-05
-3.508303928603301e-05   4.770849815304793e-06   -5.3730576575939434e-05
-3.508303928603301e-05   4.770849815304793e-06   -5.3730576575939434e-05
-3.415188654944745e-05   4.062759232651564e-06   -3.3066133112151074e-05
-3.415188654944745e-05   4.062759232651564e-06   -3.3066133112151074e-05
-3.415188654944745e-05   4.062759232651564e-06   -3.3066133112151074e-05
-3.415188654944745e-05   4.062759232651564e-06   -3.3066133112151074e-05
-2.2311673044098248e-05   6.111682602957715e-06   -5.402917630991695e-05
-2.2311673044098248e-05   6.111682602957715e-06   -5.402917630991695e-05
-2.2311673044098248e-05   6.111682602957715e-06   -5.402917630991695e-05
-2.2311673044098248e-05   6.111682602957715e-06   -5.402917630991695e-05
-2.8469886997806728e-05   4.560574299541757e-06   -4.2834821405019906e-05
-2.8469886997806728e-05   4.560574299541757e-06   -4.2834821405019906e-05
-2.8469886997806728e-05   4.560574299541757e-06   -4.2834821405019906e-05
-2.8469886997806728e-05   4.560574299541757e-06   -4.2834821405019906e-05
-2.2311673044098285e-05   4.06275923265113e-06   -3.4295487134334765e-05
-2.2311673044098285e-05   4.06275923265113e-06   -3.4295487134334765e-05
-2.2311673044098285e-05   4.06275923265113e-06   -3.4295487134334765e-05
-2.2311673044098285e-05   4.06275923265113e-06   -3.4295487134334765e-05
-3.415188654944751e-05   6.111682602957715e-06   -5.2799822287733205e-05
-3.415188654944751e-05   6.111682602957715e-06   -5.2799822287733205e-05
-3.415188654944751e-05   6.111682602957715e-06   -5.2799822287733205e-05
-3.415188654944751e-05   6.111682602957715e-06   -5.2799822287733205e-05
-3.3038065614747106e-05   5.413941831250695e-06   -3.2762421839654986e-05
-3.3038065614747106e-05   5.413941831250695e-06   -3.2762421839654986e-05
-3.3038065614747106e-05   5.413941831250695e-06   -3.2762421839654986e-05
-3.3038065614747106e-05   5.413941831250695e-06   -3.2762421839654986e-05
-2.1483516912354657e-05   7.31974088285332e-06   -5.316348244127044e-05
-2.1483516912354657e-05   7.31974088285332e-06   -5.316348244127044e-05
-2.1483516912354657e-05   7.31974088285332e-06   -5.316348244127044e-05
-2.1483516912354657e-05   7.31974088285332e-06   -5.316348244127044e-05
-2.7531954365276068e-05   5.6189189326649736e-06   -4.206226018295574e-05
-2.7531954365276068e-05   5.6189189326649736e-06   -4.206226018295574e-05
-2.7531954365276068e-05   5.6189189326649736e-06   -4.206226018295574e-05
-2.7531954365276068e-05   5.6189189326649736e-06   -4.206226018295574e-05
-2.148351691235464e-05   5.413941831250695e-06   -3.390590127061617e-05
-2.148351691235464e-05   5.413941831250695e-06   -3.390590127061617e-05
-2.148351691235464e-05   5.413941831250695e-06   -3.390590127061617e-05
-2.148351691235464e-05   5.413941831250695e-06   -3.390590127061617e-05
-3.3038065614747106e-05   7.31974088285332e-06   -5.202000301030908e-05
-3.3038065614747106e-05   7.31974088285332e-06   -5.202000301030908e-05
-3.3038065614747106e-05   7.31974088285332e-06   -5.202000301030908e-05
-3.3038065614747106e-05   7.31974088285332e-06   -5.202000301030908e-05
-3.2109840477862695e-05   6.928778300148951e-06   -3.3669023169599546e-05
-3.2109840477862695e-05   6.928778300148951e-06   -3.3669023169599546e-05
-3.2109840477862695e-05   6.928778300148951e-06   -3.3669023169599546e-05
-3.2109840477862695e-05   6.928778300148951e-06   -3.3669023169599546e-05
-2.0693779683416235e-05   8.672016009146199e-06   -5.37417337857421e-05
-2.0693779683416235e-05   8.672016009146199e-06   -5.37417337857421e-05
-2.0693779683416235e-05   8.672016009146199e-06   -5.37417337857421e-05
-2.0693779683416235e-05   8.672016009146199e-06   -5.37417337857421e-05
-2.690229201616091e-05   6.662128819469142e-06   -4.218828091736128e-05
-2.690229201616091e-05   6.662128819469142e-06   -4.218828091736128e-05
-2.690229201616091e-05   6.662128819469142e-06   -4.218828091736128e-05
-2.690229201616091e-05   6.662128819469142e-06   -4.218828091736128e-05
-3.508303928603301e-05   4.364322075417742e-06   -1.8164383720781696e-05
-3.508303928603301e-05   4.364322075417742e-06   -1.8164383720781696e-05
-3.508303928603301e-05   4.364322075417742e-06   -1.8164383720781696e-05
-3.508303928603301e-05   4.364322075417742e-06   -1.8164383720781696e-05
-4.870411228743724e-05   8.201338384235778e-06   -3.85639622711648e-05
-4.870411228743724e-05   8.201338384235778e-06   -3.85639622711648e-05
-4.870411228743724e-05   8.201338384235778e-06   -3.85639622711648e-05
-4.870411228743724e-05   8.201338384235778e-06   -3.85639622711648e-05
-4.615174354247813e-05   5.6913203014359245e-06   -1.1438338779201423e-05
-4.615174354247813e-05   5.6913203014359245e-06   -1.1438338779201423e-05
-4.615174354247813e-05   5.6913203014359245e-06   -1.1438338779201423e-05
-4.615174354247813e-05   5.6913203014359245e-06   -1.1438338779201423e-05
-3.415188654944745e-05   9.592885416274694e-06   -3.3779039503155605e-05
-3.415188654944745e-05   9.592885416274694e-06   -3.3779039503155605e-05
-3.415188654944745e-05   9.592885416274694e-06   -3.3779039503155605e-05
-3.415188654944745e-05   9.592885416274694e-06   -3.3779039503155605e-05
-3.935361677165554e-05   7.122373521410447e-06   -2.3627181995890495e-05
-3.935361677165554e-05   7.122373521410447e-06   -2.3627181995890495e-05
-3.935361677165554e-05   7.122373521410447e-06   -2.3627181995890495e-05
-3.935361677165554e-05   7.122373521410447e-06   -2.3627181995890495e-05
-3.4151886549447494e-05   5.6913203014359245e-06   -1.3779277848104338e-05
-3.4151886549447494e-05   5.6913203014359245e-06   -1.3779277848104338e-05
-3.4151886549447494e-05   5.6913203014359245e-06   -1.3779277848104338e-05
-3.4151886549447494e-05   5.6913203014359245e-06   -1.3779277848104338e-05
-4.615174354247802e-05   9.592885416274694e-06   -3.1438100434252663e-05
-4.615174354247802e-05   9.592885416274694e-06   -3.1438100434252663e-05
-4.615174354247802e-05   9.592885416274694e-06   -3.1438100434252663e-05
-4.615174354247802e-05   9.592885416274694e-06   -3.1438100434252663e-05
-4.404214521648174e-05   6.2989605030144315e-06   -9.40358132138345e-06
-4.404214521648174e-05   6.2989605030144315e-06   -9.40358132138345e-06
-4.404214521648174e-05   6.2989605030144315e-06   -9.40358132138345e-06
-4.404214521648174e-05   6.2989605030144315e-06   -9.40358132138345e-06
-3.3038065614747066e-05   1.0091320866845513e-05   -3.0019130209239656e-05
-3.3038065614747066e-05   1.0091320866845513e-05   -3.0019130209239656e-05
-3.3038065614747066e-05   1.0091320866845513e-05   -3.0019130209239656e-05
-3.3038065614747066e-05   1.0091320866845513e-05   -3.0019130209239656e-05
-3.8415130208040073e-05   7.747427299701487e-06   -1.965101974679825e-05
-3.8415130208040073e-05   7.747427299701487e-06   -1.965101974679825e-05
-3.8415130208040073e-05   7.747427299701487e-06   -1.965101974679825e-05
-3.8415130208040073e-05   7.747427299701487e-06   -1.965101974679825e-05
-3.3038065614747106e-05   6.2989605030144315e-06   -1.1678997539681709e-05
-3.3038065614747106e-05   6.2989605030144315e-06   -1.1678997539681709e-05
-3.3038065614747106e-05   6.2989605030144315e-06   -1.1678997539681709e-05
-3.3038065614747106e-05   6.2989605030144315e-06   -1.1678997539681709e-05
-4.404214521648166e-05   1.0091320866845513e-05   -2.7743713990941452e-05
-4.404214521648166e-05   1.0091320866845513e-05   -2.7743713990941452e-05
-4.404214521648166e-05   1.0091320866845513e-05   -2.7743713990941452e-05
-4.404214521648166e-05   1.0091320866845513e-05   -2.7743713990941452e-05
-4.1548703323617285e-05   7.241917239894993e-06   -7.2785555996761776e-06
-4.1548703323617285e-05   7.241917239894993e-06   -7.2785555996761776e-06
-4.1548703323617285e-05   7.241917239894993e-06   -7.2785555996761776e-06
-4.1548703323617285e-05   7.241917239894993e-06   -7.2785555996761776e-06
-3.2109840477862695e-05   1.0724956198699797e-05   -2.5099817051216613e-05
-3.2109840477862695e-05   1.0724956198699797e-05   -2.5099817051216613e-05
-3.2109840477862695e-05   1.0724956198699797e-05   -2.5099817051216613e-05
-3.2109840477862695e-05   1.0724956198699797e-05   -2.5099817051216613e-05
-3.6433831821834105e-05   8.049827578825337e-06   -1.628808763933984e-05
-3.6433831821834105e-05   8.049827578825337e-06   -1.628808763933984e-05
-3.6433831821834105e-05   8.049827578825337e-06   -1.628808763933984e-05
-3.6433831821834105e-05   8.049827578825337e-06   -1.628808763933984e-05
3.703391687534286e-05   -4.86023674868552e-06   -3.3642259526919446e-07
3.703391687534286e-05   -4.86023674868552e-06   -3.3642259526919446e-07
3.703391687534286e-05   -4.86023674868552e-06   -3.3642259526919446e-07
3.703391687534286e-05   -4.86023674868552e-06   -3.3642259526919446e-07
1.5793118975709008e-05   -8.774785539538386e-06   -3.808648170250395e-05
1.5793118975709008e-05   -8.774785539538386e-06   -3.808648170250395e-05
1.5793118975709008e-05   -8.774785539538386e-06   -3.808648170250395e-05
1.5793118975709008e-05   -8.774785539538386e-06   -3.808648170250395e-05
1.6917926312483506e-05   -3.993225135989591e-06   -4.2371276488583146e-06
1.6917926312483506e-05   -3.993225135989591e-06   -4.2371276488583146e-06
1.6917926312483506e-05   -3.993225135989591e-06   -4.2371276488583146e-06
1.6917926312483506e-05   -3.993225135989591e-06   -4.2371276488583146e-06
3.984510800108637e-05   -8.159718819867115e-06   -3.9949200919537145e-05
3.984510800108637e-05   -8.159718819867115e-06   -3.9949200919537145e-05
3.984510800108637e-05   -8.159718819867115e-06   -3.9949200919537145e-05
3.984510800108637e-05   -8.159718819867115e-06   -3.9949200919537145e-05
2.6293140757072705e-05   -5.780705051327585e-06   -1.878999710730456e-05
2.6293140757072705e-05   -5.780705051327585e-06   -1.878999710730456e-05
2.6293140757072705e-05   -5.780705051327585e-06   -1.878999710730456e-05
2.6293140757072705e-05   -5.780705051327585e-06   -1.878999710730456e-05
3.984510800108642e-05   -3.993225135989591e-06   -1.7372314385321035e-06
3.984510800108642e-05   -3.993225135989591e-06   -1.7372314385321035e-06
3.984510800108642e-05   -3.993225135989591e-06   -1.7372314385321035e-06
3.984510800108642e-05   -3.993225135989591e-06   -1.7372314385321035e-06
1.6917926312483506e-05   -8.159718819866681e-06   -4.244909712986314e-05
1.6917926312483506e-05   -8.159718819866681e-06   -4.244909712986314e-05
1.6917926312483506e-05   -8.159718819866681e-06   -4.244909712986314e-05
1.6917926312483506e-05   -8.159718819866681e-06   -4.244909712986314e-05
1.8163659834399056e-05   -3.4159896221798783e-06   -5.945682578342194e-06
1.8163659834399056e-05   -3.4159896221798783e-06   -5.945682578342194e-06
1.8163659834399056e-05   -3.4159896221798783e-06   -5.945682578342194e-06
1.8163659834399056e-05   -3.4159896221798783e-06   -5.945682578342194e-06
4.220792666241726e-05   -7.632254703669218e-06   -4.348970157614556e-05
4.220792666241726e-05   -7.632254703669218e-06   -4.348970157614556e-05
4.220792666241726e-05   -7.632254703669218e-06   -4.348970157614556e-05
4.220792666241726e-05   -7.632254703669218e-06   -4.348970157614556e-05
2.840474772822883e-05   -5.545993913610298e-06   -2.173615982653369e-05
2.840474772822883e-05   -5.545993913610298e-06   -2.173615982653369e-05
2.840474772822883e-05   -5.545993913610298e-06   -2.173615982653369e-05
2.840474772822883e-05   -5.545993913610298e-06   -2.173615982653369e-05
4.2207926662417316e-05   -3.4159896221798783e-06   -3.41592352944833e-06
4.2207926662417316e-05   -3.4159896221798783e-06   -3.41592352944833e-06
4.2207926662417316e-05   -3.4159896221798783e-06   -3.41592352944833e-06
4.2207926662417316e-05   -3.4159896221798783e-06   -3.41592352944833e-06
1.8163659834399e-05   -7.632254703669218e-06   -4.601946062503942e-05
1.8163659834399e-05   -7.632254703669218e-06   -4.601946062503942e-05
1.8163659834399e-05   -7.632254703669218e-06   -4.601946062503942e-05
1.8163659834399e-05   -7.632254703669218e-06   -4.601946062503942e-05
1.919437876565875e-05   -1.960733227005223e-06   -9.89270223304868e-06
1.919437876565875e-05   -1.960733227005223e-06   -9.89270223304868e-06
1.919437876565875e-05   -1.960733227005223e-06   -9.89270223304868e-06
1.919437876565875e-05   -1.960733227005223e-06   -9.89270223304868e-06
4.495124419693123e-05   -5.962926074014763e-06   -5.0419495576963804e-05
4.495124419693123e-05   -5.962926074014763e-06   -5.0419495576963804e-05
4.495124419693123e-05   -5.962926074014763e-06   -5.0419495576963804e-05
4.495124419693123e-05   -5.962926074014763e-06   -5.0419495576963804e-05
2.955249571228428e-05   -4.894963117167694e-06   -2.5395692543328562e-05
2.955249571228428e-05   -4.894963117167694e-06   -2.5395692543328562e-05
2.955249571228428e-05   -4.894963117167694e-06   -2.5395692543328562e-05
2.955249571228428e-05   -4.894963117167694e-06   -2.5395692543328562e-05
1.5793118975709062e-05   -1.9256970899806346e-06   -2.5874878407644965e-05
1.5793118975709062e-05   -1.9256970899806346e-06   -2.5874878407644965e-05
1.5793118975709062e-05   -1.9256970899806346e-06   -2.5874878407644965e-05
1.5793118975709062e-05   -1.9256970899806346e-06   -2.5874878407644965e-05
-6.701977540584384e-06   -4.115178689988869e-06   -6.468039489480578e-05
-6.701977540584384e-06   -4.115178689988869e-06   -6.468039489480578e-05
-6.701977540584384e-06   -4.115178689988869e-06   -6.468039489480578e-05
-6.701977540584384e-06   -4.115178689988869e-06   -6.468039489480578e-05
-5.654727171071225e-06   -7.378600625071105e-07   -2.6413434673191625e-05
-5.654727171071225e-06   -7.378600625071105e-07   -2.6413434673191625e-05
-5.654727171071225e-06   -7.378600625071105e-07   -2.6413434673191625e-05
-5.654727171071225e-06   -7.378600625071105e-07   -2.6413434673191625e-05
1.6917926312483506e-05   -3.2626653606471906e-06   -6.251964063356549e-05
1.6917926312483506e-05   -3.2626653606471906e-06   -6.251964063356549e-05
1.6917926312483506e-05   -3.2626653606471906e-06   -6.251964063356549e-05
1.6917926312483506e-05   -3.2626653606471906e-06   -6.251964063356549e-05
5.144905873202937e-06   -1.9908809388768586e-06   -4.3661010554492895e-05
5.144905873202937e-06   -1.9908809388768586e-06   -4.3661010554492895e-05
5.144905873202937e-06   -1.9908809388768586e-06   -4.3661010554492895e-05
5.144905873202937e-06   -1.9908809388768586e-06   -4.3661010554492895e-05
1.6917926312483506e-05   -7.378600625071105e-07   -2.4898551494307447e-05
1.6917926312483506e-05   -7.378600625071105e-07   -2.4898551494307447e-05
1.6917926312483506e-05   -7.378600625071105e-07   -2.4898551494307447e-05
1.6917926312483506e-05   -7.378600625071105e-07   -2.4898551494307447e-05
-5.654727171071225e-06   -3.2626653606471906e-06   -6.40345238124495e-05
-5.654727171071225e-06   -3.2626653606471906e-06   -6.40345238124495e-05
-5.654727171071225e-06   -3.2626653606471906e-06   -6.40345238124495e-05
-5.654727171071225e-06   -3.2626653606471906e-06   -6.40345238124495e-05
-4.654793671828142e-06   4.901136158130641e-07   -2.6750875705700743e-05
-4.654793671828142e-06   4.901136158130641e-07   -2.6750875705700743e-05
-4.654793671828142e-06   4.901136158130641e-07   -2.6750875705700743e-05
-4.654793671828142e-06   4.901136158130641e-07   -2.6750875705700743e-05
1.8163659834399e-05   -2.2204180774847843e-06   -6.315531253343431e-05
1.8163659834399e-05   -2.2204180774847843e-06   -6.315531253343431e-05
1.8163659834399e-05   -2.2204180774847843e-06   -6.315531253343431e-05
1.8163659834399e-05   -2.2204180774847843e-06   -6.315531253343431e-05
5.976695051034521e-06   -1.2372787625823146e-06   -4.343358815010051e-05
5.976695051034521e-06   -1.2372787625823146e-06   -4.343358815010051e-05
5.976695051034521e-06   -1.2372787625823146e-06   -4.343358815010051e-05
5.976695051034521e-06   -1.2372787625823146e-06   -4.343358815010051e-05
1.8163659834399056e-05   4.901136158126304e-07   -2.512455668972238e-05
1.8163659834399056e-05   4.901136158126304e-07   -2.512455668972238e-05
1.8163659834399056e-05   4.901136158126304e-07   -2.512455668972238e-05
1.8163659834399056e-05   4.901136158126304e-07   -2.512455668972238e-05
-4.654793671828142e-06   -2.2204180774843506e-06   -6.478163154941311e-05
-4.654793671828142e-06   -2.2204180774843506e-06   -6.478163154941311e-05
-4.654793671828142e-06   -2.2204180774843506e-06   -6.478163154941311e-05
-4.654793671828142e-06   -2.2204180774843506e-06   -6.478163154941311e-05
-3.7152982261851486e-06   1.9439221513790385e-06   -2.7658747933208706e-05
-3.7152982261851486e-06   1.9439221513790385e-06   -2.7658747933208706e-05
-3.7152982261851486e-06   1.9439221513790385e-06   -2.7658747933208706e-05
-3.7152982261851486e-06   1.9439221513790385e-06   -2.7658747933208706e-05
1.9194378765658696e-05   -9.094154002219253e-07   -6.412954038865397e-05
1.9194378765658696e-05   -9.094154002219253e-07   -6.412954038865397e-05
1.9194378765658696e-05   -9.094154002219253e-07   -6.412954038865397e-05
1.9194378765658696e-05   -9.094154002219253e-07   -6.412954038865397e-05
7.012973085007679e-06   -3.0812004403425394e-07   -4.4187974801282556e-05
7.012973085007679e-06   -3.0812004403425394e-07   -4.4187974801282556e-05
7.012973085007679e-06   -3.0812004403425394e-07   -4.4187974801282556e-05
7.012973085007679e-06   -3.0812004403425394e-07   -4.4187974801282556e-05
-6.701977540584384e-06   1.473257520563133e-06   -3.3262493707323986e-05
-6.701977540584384e-06   1.473257520563133e-06   -3.3262493707323986e-05
-6.701977540584384e-06   1.473257520563133e-06   -3.3262493707323986e-05
-6.701977540584384e-06   1.473257520563133e-06   -3.3262493707323986e-05
-2.8800895136677728e-05   7.373993307796013e-07   -7.053553794801604e-05
-2.8800895136677728e-05   7.373993307796013e-07   -7.053553794801604e-05
-2.8800895136677728e-05   7.373993307796013e-07   -7.053553794801604e-05
-2.8800895136677728e-05   7.373993307796013e-07   -7.053553794801604e-05
-2.7673596004401943e-05   2.729462432799444e-06   -3.303395695390633e-05
-2.7673596004401943e-05   2.729462432799444e-06   -3.303395695390633e-05
-2.7673596004401943e-05   2.729462432799444e-06   -3.303395695390633e-05
-2.7673596004401943e-05   2.729462432799444e-06   -3.303395695390633e-05
-5.654727171071225e-06   1.6944862963829375e-06   -6.911108599427437e-05
-5.654727171071225e-06   1.6944862963829375e-06   -6.911108599427437e-05
-5.654727171071225e-06   1.6944862963829375e-06   -6.911108599427437e-05
-5.654727171071225e-06   1.6944862963829375e-06   -6.911108599427437e-05
-1.708975987936645e-05   2.0195103458435157e-06   -5.024771257679207e-05
-1.708975987936645e-05   2.0195103458435157e-06   -5.024771257679207e-05
-1.708975987936645e-05   2.0195103458435157e-06   -5.024771257679207e-05
-1.708975987936645e-05   2.0195103458435157e-06   -5.024771257679207e-05
-5.654727171071225e-06   2.729462432799444e-06   -3.2412971272056165e-05
-5.654727171071225e-06   2.729462432799444e-06   -3.2412971272056165e-05
-5.654727171071225e-06   2.729462432799444e-06   -3.2412971272056165e-05
-5.654727171071225e-06   2.729462432799444e-06   -3.2412971272056165e-05
-2.7673596004401943e-05   1.6944862963829375e-06   -6.97320716761241e-05
-2.7673596004401943e-05   1.6944862963829375e-06   -6.97320716761241e-05
-2.7673596004401943e-05   1.6944862963829375e-06   -6.97320716761241e-05
-2.7673596004401943e-05   1.6944862963829375e-06   -6.97320716761241e-05
-2.6586446193806653e-05   4.05968807358232e-06   -3.298414797948458e-05
-2.6586446193806653e-05   4.05968807358232e-06   -3.298414797948458e-05
-2.6586446193806653e-05   4.05968807358232e-06   -3.298414797948458e-05
-2.6586446193806653e-05   4.05968807358232e-06   -3.298414797948458e-05
-4.654793671828142e-06   2.8034179398749894e-06   -6.878314010255802e-05
-4.654793671828142e-06   2.8034179398749894e-06   -6.878314010255802e-05
-4.654793671828142e-06   2.8034179398749894e-06   -6.878314010255802e-05
-4.654793671828142e-06   2.8034179398749894e-06   -6.878314010255802e-05
-1.6119450030140543e-05   2.9154372961719653e-06   -4.9742591119148393e-05
-1.6119450030140543e-05   2.9154372961719653e-06   -4.9742591119148393e-05
-1.6119450030140543e-05   2.9154372961719653e-06   -4.9742591119148393e-05
-1.6119450030140543e-05   2.9154372961719653e-06   -4.9742591119148393e-05
-4.654793671828142e-06   4.059688073582753e-06   -3.223038589926031e-05
-4.654793671828142e-06   4.059688073582753e-06   -3.223038589926031e-05
-4.654793671828142e-06   4.059688073582753e-06   -3.223038589926031e-05
-4.654793671828142e-06   4.059688073582753e-06   -3.223038589926031e-05
-2.6586446193806653e-05   2.8034179398749894e-06   -6.953690218278229e-05
-2.6586446193806653e-05   2.8034179398749894e-06   -6.953690218278229e-05
-2.6586446193806653e-05   2.8034179398749894e-06   -6.953690218278229e-05
-2.6586446193806653e-05   2.8034179398749894e-06   -6.953690218278229e-05
-2.5581835421201928e-05   5.412877907647398e-06   -3.3758881295044806e-05
-2.5581835421201928e-05   5.412877907647398e-06   -3.3758881295044806e-05
-2.5581835421201928e-05   5.412877907647398e-06   -3.3758881295044806e-05
-2.5581835421201928e-05   5.412877907647398e-06   -3.3758881295044806e-05
-3.7152982261851486e-06   3.949576740595005e-06   -6.932512925317502e-05
-3.7152982261851486e-06   3.949576740595005e-06   -6.932512925317502e-05
-3.7152982261851486e-06   3.949576740595005e-06   -6.932512925317502e-05
-3.7152982261851486e-06   3.949576740595005e-06   -6.932512925317502e-05
-1.5252315006027965e-05   3.8347603261070645e-06   -5.0027878104744964e-05
-1.5252315006027965e-05   3.8347603261070645e-06   -5.0027878104744964e-05
-1.5252315006027965e-05   3.8347603261070645e-06   -5.0027878104744964e-05
-1.5252315006027965e-05   3.8347603261070645e-06   -5.0027878104744964e-05
-2.8800895136677775e-05   4.770849815304793e-06   -2.699005363308751e-05
-2.8800895136677775e-05   4.770849815304793e-06   -2.699005363308751e-05
-2.8800895136677775e-05   4.770849815304793e-06   -2.699005363308751e-05
-2.8800895136677775e-05   4.770849815304793e-06   -2.699005363308751e-05
-5.048385368287176e-05   5.763378011413179e-06   -6.253280095907892e-05
-5.048385368287176e-05   5.763378011413179e-06   -6.253280095907892e-05
-5.048385368287176e-05   5.763378011413179e-06   -6.253280095907892e-05
-5.048385368287176e-05   5.763378011413179e-06   -6.253280095907892e-05
-4.912552095058099e-05   6.111682602957715e-06   -2.536781857411831e-05
-4.912552095058099e-05   6.111682602957715e-06   -2.536781857411831e-05
-4.912552095058099e-05   6.111682602957715e-06   -2.536781857411831e-05
-4.912552095058099e-05   6.111682602957715e-06   -2.536781857411831e-05
-2.767359600440199e-05   6.979531177247859e-06   -6.16417359623244e-05
-2.767359600440199e-05   6.979531177247859e-06   -6.16417359623244e-05
-2.767359600440199e-05   6.979531177247859e-06   -6.16417359623244e-05
-2.767359600440199e-05   6.979531177247859e-06   -6.16417359623244e-05
-3.8735738876370557e-05   6.161269960330753e-06   -4.2713874445559686e-05
-3.8735738876370557e-05   6.161269960330753e-06   -4.2713874445559686e-05
-3.8735738876370557e-05   6.161269960330753e-06   -4.2713874445559686e-05
-3.8735738876370557e-05   6.161269960330753e-06   -4.2713874445559686e-05
-2.767359600440199e-05   6.111682602957715e-06   -2.58885277186927e-05
-2.767359600440199e-05   6.111682602957715e-06   -2.58885277186927e-05
-2.767359600440199e-05   6.111682602957715e-06   -2.58885277186927e-05
-2.767359600440199e-05   6.111682602957715e-06   -2.58885277186927e-05
-4.9125520950581076e-05   6.979531177247859e-06   -6.112102681775041e-05
-4.9125520950581076e-05   6.979531177247859e-06   -6.112102681775041e-05
-4.9125520950581076e-05   6.979531177247859e-06   -6.112102681775041e-05
-4.9125520950581076e-05   6.979531177247859e-06   -6.112102681775041e-05
-4.762337854662801e-05   7.31974088285332e-06   -2.4465663197994342e-05
-4.762337854662801e-05   7.31974088285332e-06   -2.4465663197994342e-05
-4.762337854662801e-05   7.31974088285332e-06   -2.4465663197994342e-05
-4.762337854662801e-05   7.31974088285332e-06   -2.4465663197994342e-05
-2.6586446193806708e-05   8.026996163722645e-06   -5.9951570287884525e-05
-2.6586446193806708e-05   8.026996163722645e-06   -5.9951570287884525e-05
-2.6586446193806708e-05   8.026996163722645e-06   -5.9951570287884525e-05
-2.6586446193806708e-05   8.026996163722645e-06   -5.9951570287884525e-05
-3.736273990988999e-05   7.107689494528866e-06   -4.143949675956306e-05
-3.736273990988999e-05   7.107689494528866e-06   -4.143949675956306e-05
-3.736273990988999e-05   7.107689494528866e-06   -4.143949675956306e-05
-3.736273990988999e-05   7.107689494528866e-06   -4.143949675956306e-05
-2.658644619380668e-05   7.31974088285332e-06   -2.4890016366515416e-05
-2.658644619380668e-05   7.31974088285332e-06   -2.4890016366515416e-05
-2.658644619380668e-05   7.31974088285332e-06   -2.4890016366515416e-05
-2.658644619380668e-05   7.31974088285332e-06   -2.4890016366515416e-05
-4.762337854662801e-05   8.026996163722645e-06   -5.952721711936326e-05
-4.762337854662801e-05   8.026996163722645e-06   -5.952721711936326e-05
-4.762337854662801e-05   8.026996163722645e-06   -5.952721711936326e-05
-4.762337854662801e-05   8.026996163722645e-06   -5.952721711936326e-05
-4.635383003645572e-05   8.672016009146199e-06   -2.5030690423419495e-05
-4.635383003645572e-05   8.672016009146199e-06   -2.5030690423419495e-05
-4.635383003645572e-05   8.672016009146199e-06   -2.5030690423419495e-05
-4.635383003645572e-05   8.672016009146199e-06   -2.5030690423419495e-05
-2.5581835421201968e-05   9.18638648227544e-06   -5.995930373271964e-05
-2.5581835421201968e-05   9.18638648227544e-06   -5.995930373271964e-05
-2.5581835421201968e-05   9.18638648227544e-06   -5.995930373271964e-05
-2.5581835421201968e-05   9.18638648227544e-06   -5.995930373271964e-05
-3.6506507482210476e-05   7.97967608491025e-06   -4.102749072595316e-05
-3.6506507482210476e-05   7.97967608491025e-06   -4.102749072595316e-05
-3.6506507482210476e-05   7.97967608491025e-06   -4.102749072595316e-05
-3.6506507482210476e-05   7.97967608491025e-06   -4.102749072595316e-05
-5.048385368287176e-05   8.201338384235344e-06   -1.353013219593832e-05
-5.048385368287176e-05   8.201338384235344e-06   -1.353013219593832e-05
-5.048385368287176e-05   8.201338384235344e-06   -1.353013219593832e-05
-5.048385368287176e-05   8.201338384235344e-06   -1.353013219593832e-05
-7.331386510975657e-05   1.1336558710985274e-05   -4.969901904469686e-05
-7.331386510975657e-05   1.1336558710985274e-05   -4.969901904469686e-05
-7.331386510975657e-05   1.1336558710985274e-05   -4.969901904469686e-05
-7.331386510975657e-05   1.1336558710985274e-05   -4.969901904469686e-05
-7.02003194667345e-05   9.592885416274694e-06   -4.331373862131137e-06
-7.02003194667345e-05   9.592885416274694e-06   -4.331373862131137e-06
-7.02003194667345e-05   9.592885416274694e-06   -4.331373862131137e-06
-7.02003194667345e-05   9.592885416274694e-06   -4.331373862131137e-06
-4.912552095058099e-05   1.2952321961957631e-05   -4.1471699983130375e-05
-4.912552095058099e-05   1.2952321961957631e-05   -4.1471699983130375e-05
-4.912552095058099e-05   1.2952321961957631e-05   -4.1471699983130375e-05
-4.912552095058099e-05   1.2952321961957631e-05   -4.1471699983130375e-05
-5.826770392801618e-05   1.0800569826242227e-05   -2.494367707264202e-05
-5.826770392801618e-05   1.0800569826242227e-05   -2.494367707264202e-05
-5.826770392801618e-05   1.0800569826242227e-05   -2.494367707264202e-05
-5.826770392801618e-05   1.0800569826242227e-05   -2.494367707264202e-05
-4.912552095058103e-05   9.592885416274694e-06   -6.347035789540899e-06
-4.912552095058103e-05   9.592885416274694e-06   -6.347035789540899e-06
-4.912552095058103e-05   9.592885416274694e-06   -6.347035789540899e-06
-4.912552095058103e-05   9.592885416274694e-06   -6.347035789540899e-06
-7.02003194667344e-05   1.2952321961957631e-05   -3.945603805572025e-05
-7.02003194667344e-05   1.2952321961957631e-05   -3.945603805572025e-05
-7.02003194667344e-05   1.2952321961957631e-05   -3.945603805572025e-05
-7.02003194667344e-05   1.2952321961957631e-05   -3.945603805572025e-05
-6.763808185185853e-05   1.009132086684508e-05   -4.933965642168591e-07
-6.763808185185853e-05   1.009132086684508e-05   -4.933965642168591e-07
-6.763808185185853e-05   1.009132086684508e-05   -4.933965642168591e-07
-6.763808185185853e-05   1.009132086684508e-05   -4.933965642168591e-07
-4.762337854662801e-05   1.337697725469194e-05   -3.582262923897585e-05
-4.762337854662801e-05   1.337697725469194e-05   -3.582262923897585e-05
-4.762337854662801e-05   1.337697725469194e-05   -3.582262923897585e-05
-4.762337854662801e-05   1.337697725469194e-05   -3.582262923897585e-05
-5.7202027030647264e-05   1.1442984799961593e-05   -1.869781962610508e-05
-5.7202027030647264e-05   1.1442984799961593e-05   -1.869781962610508e-05
-5.7202027030647264e-05   1.1442984799961593e-05   -1.869781962610508e-05
-5.7202027030647264e-05   1.1442984799961593e-05   -1.869781962610508e-05
-4.762337854662801e-05   1.009132086684508e-05   -2.4647903969249752e-06
-4.762337854662801e-05   1.009132086684508e-05   -2.4647903969249752e-06
-4.762337854662801e-05   1.009132086684508e-05   -2.4647903969249752e-06
-4.762337854662801e-05   1.009132086684508e-05   -2.4647903969249752e-06
-6.763808185185826e-05   1.3376977254691506e-05   -3.385123540626772e-05
-6.763808185185826e-05   1.3376977254691506e-05   -3.385123540626772e-05
-6.763808185185826e-05   1.3376977254691506e-05   -3.385123540626772e-05
-6.763808185185826e-05   1.3376977254691506e-05   -3.385123540626772e-05
-6.48754569176728e-05   1.0724956198699797e-05   4.377075518924734e-06
-6.48754569176728e-05   1.0724956198699797e-05   4.377075518924734e-06
-6.48754569176728e-05   1.0724956198699797e-05   4.377075518924734e-06
-6.48754569176728e-05   1.0724956198699797e-05   4.377075518924734e-06
-4.635383003645572e-05   1.374460925406126e-05   -2.8304094449654138e-05
-4.635383003645572e-05   1.374460925406126e-05   -2.8304094449654138e-05
-4.635383003645572e-05   1.374460925406126e-05   -2.8304094449654138e-05
-4.635383003645572e-05   1.374460925406126e-05   -2.8304094449654138e-05
-5.46072567068122e-05   1.1548135058928998e-05   -1.3230498815314283e-05
-5.46072567068122e-05   1.1548135058928998e-05   -1.3230498815314283e-05
-5.46072567068122e-05   1.1548135058928998e-05   -1.3230498815314283e-05
-5.46072567068122e-05   1.1548135058928998e-05   -1.3230498815314283e-05
6.290354600696117e-05   -8.774785539538386e-06   1.2412609976844482e-05
6.290354600696117e-05   -8.774785539538386e-06   1.2412609976844482e-05
6.290354600696117e-05   -8.774785539538386e-06   1.2412609976844482e-05
6.290354600696117e-05   -8.774785539538386e-06   1.2412609976844482e-05
3.03272474978692e-05   -1.300174045648422e-05   -4.4417393821809736e-05
3.03272474978692e-05   -1.300174045648422e-05   -4.4417393821809736e-05
3.03272474978692e-05   -1.300174045648422e-05   -4.4417393821809736e-05
3.03272474978692e-05   -1.300174045648422e-05   -4.4417393821809736e-05
3.15741846460303e-05   -8.159718819866681e-06   5.955111618386605e-06
3.15741846460303e-05   -8.159718819866681e-06   5.955111618386605e-06
3.15741846460303e-05   -8.159718819866681e-06   5.955111618386605e-06
3.15741846460303e-05   -8.159718819866681e-06   5.955111618386605e-06
6.579317157744103e-05   -1.269705841996276e-05   -4.835412950724024e-05
6.579317157744103e-05   -1.269705841996276e-05   -4.835412950724024e-05
6.579317157744103e-05   -1.269705841996276e-05   -4.835412950724024e-05
6.579317157744103e-05   -1.269705841996276e-05   -4.835412950724024e-05
4.571289259517067e-05   -9.609687669181414e-06   -1.6739420320591907e-05
4.571289259517067e-05   -9.609687669181414e-06   -1.6739420320591907e-05
4.571289259517067e-05   -9.609687669181414e-06   -1.6739420320591907e-05
4.571289259517067e-05   -9.609687669181414e-06   -1.6739420320591907e-05
6.579317157744114e-05   -8.159718819866681e-06   8.677515378444252e-06
6.579317157744114e-05   -8.159718819866681e-06   8.677515378444252e-06
6.579317157744114e-05   -8.159718819866681e-06   8.677515378444252e-06
6.579317157744114e-05   -8.159718819866681e-06   8.677515378444252e-06
3.157418464603024e-05   -1.269705841996276e-05   -5.1076533267297884e-05
3.157418464603024e-05   -1.269705841996276e-05   -5.1076533267297884e-05
3.157418464603024e-05   -1.269705841996276e-05   -5.1076533267297884e-05
3.157418464603024e-05   -1.269705841996276e-05   -5.1076533267297884e-05
3.281447496592335e-05   -7.632254703669218e-06   2.798291881727158e-06
3.281447496592335e-05   -7.632254703669218e-06   2.798291881727158e-06
3.281447496592335e-05   -7.632254703669218e-06   2.798291881727158e-06
3.281447496592335e-05   -7.632254703669218e-06   2.798291881727158e-06
6.801198220753561e-05   -1.2256604550641304e-05   -5.308961027944339e-05
6.801198220753561e-05   -1.2256604550641304e-05   -5.308961027944339e-05
6.801198220753561e-05   -1.2256604550641304e-05   -5.308961027944339e-05
6.801198220753561e-05   -1.2256604550641304e-05   -5.308961027944339e-05
4.814564451246069e-05   -9.578176455639267e-06   -2.1586104311319652e-05
4.814564451246069e-05   -9.578176455639267e-06   -2.1586104311319652e-05
4.814564451246069e-05   -9.578176455639267e-06   -2.1586104311319652e-05
4.814564451246069e-05   -9.578176455639267e-06   -2.1586104311319652e-05
6.801198220753561e-05   -7.632254703669218e-06   5.572901789910453e-06
6.801198220753561e-05   -7.632254703669218e-06   5.572901789910453e-06
6.801198220753561e-05   -7.632254703669218e-06   5.572901789910453e-06
6.801198220753561e-05   -7.632254703669218e-06   5.572901789910453e-06
3.281447496592335e-05   -1.2256604550641304e-05   -5.586422018762668e-05
3.281447496592335e-05   -1.2256604550641304e-05   -5.586422018762668e-05
3.281447496592335e-05   -1.2256604550641304e-05   -5.586422018762668e-05
3.281447496592335e-05   -1.2256604550641304e-05   -5.586422018762668e-05
3.365778437839929e-05   -5.962926074014763e-06   -3.5643865453375764e-06
3.365778437839929e-05   -5.962926074014763e-06   -3.5643865453375764e-06
3.365778437839929e-05   -5.962926074014763e-06   -3.5643865453375764e-06
3.365778437839929e-05   -5.962926074014763e-06   -3.5643865453375764e-06
7.035793323255954e-05   -1.0537350013120617e-05   -6.198664693880807e-05
7.035793323255954e-05   -1.0537350013120617e-05   -6.198664693880807e-05
7.035793323255954e-05   -1.0537350013120617e-05   -6.198664693880807e-05
7.035793323255954e-05   -1.0537350013120617e-05   -6.198664693880807e-05
4.882992698958666e-05   -8.84267426993655e-06   -2.712344197976441e-05
4.882992698958666e-05   -8.84267426993655e-06   -2.712344197976441e-05
4.882992698958666e-05   -8.84267426993655e-06   -2.712344197976441e-05
4.882992698958666e-05   -8.84267426993655e-06   -2.712344197976441e-05
3.0327247497869255e-05   -4.115178689989302e-06   -1.540378720561969e-05
3.0327247497869255e-05   -4.115178689989302e-06   -1.540378720561969e-05
3.0327247497869255e-05   -4.115178689989302e-06   -1.540378720561969e-05
3.0327247497869255e-05   -4.115178689989302e-06   -1.540378720561969e-05
-1.8112200426890124e-06   -8.44054765773792e-06   -7.15631211538662e-05
-1.8112200426890124e-06   -8.44054765773792e-06   -7.15631211538662e-05
-1.8112200426890124e-06   -8.44054765773792e-06   -7.15631211538662e-05
-1.8112200426890124e-06   -8.44054765773792e-06   -7.15631211538662e-05
-5.30716117293689e-07   -3.2626653606471906e-06   -1.6980956125273346e-05
-5.30716117293689e-07   -3.2626653606471906e-06   -1.6980956125273346e-05
-5.30716117293689e-07   -3.2626653606471906e-06   -1.6980956125273346e-05
-5.30716117293689e-07   -3.2626653606471906e-06   -1.6980956125273346e-05
3.15741846460303e-05   -8.03853909391028e-06   -6.762359982418874e-05
3.15741846460303e-05   -8.03853909391028e-06   -6.762359982418874e-05
3.15741846460303e-05   -8.03853909391028e-06   -6.762359982418874e-05
3.15741846460303e-05   -8.03853909391028e-06   -6.762359982418874e-05
1.493519717754116e-05   -5.1058169229555375e-06   -4.165158734594637e-05
1.493519717754116e-05   -5.1058169229555375e-06   -4.165158734594637e-05
1.493519717754116e-05   -5.1058169229555375e-06   -4.165158734594637e-05
1.493519717754116e-05   -5.1058169229555375e-06   -4.165158734594637e-05
3.15741846460303e-05   -3.2626653606471906e-06   -1.4115431885315362e-05
3.15741846460303e-05   -3.2626653606471906e-06   -1.4115431885315362e-05
3.15741846460303e-05   -3.2626653606471906e-06   -1.4115431885315362e-05
3.15741846460303e-05   -3.2626653606471906e-06   -1.4115431885315362e-05
-5.30716117293689e-07   -8.03853909391028e-06   -7.048912406414651e-05
-5.30716117293689e-07   -8.03853909391028e-06   -7.048912406414651e-05
-5.30716117293689e-07   -8.03853909391028e-06   -7.048912406414651e-05
-5.30716117293689e-07   -8.03853909391028e-06   -7.048912406414651e-05
5.976358260633709e-07   -2.2204180774843506e-06   -1.7378447571958413e-05
5.976358260633709e-07   -2.2204180774843506e-06   -1.7378447571958413e-05
5.976358260633709e-07   -2.2204180774843506e-06   -1.7378447571958413e-05
5.976358260633709e-07   -2.2204180774843506e-06   -1.7378447571958413e-05
3.281447496592335e-05   -7.28856398630193e-06   -6.803229192643467e-05
3.281447496592335e-05   -7.28856398630193e-06   -6.803229192643467e-05
3.281447496592335e-05   -7.28856398630193e-06   -6.803229192643467e-05
3.281447496592335e-05   -7.28856398630193e-06   -6.803229192643467e-05
1.5808138955417453e-05   -4.689134567297838e-06   -4.124805622699303e-05
1.5808138955417453e-05   -4.689134567297838e-06   -4.124805622699303e-05
1.5808138955417453e-05   -4.689134567297838e-06   -4.124805622699303e-05
1.5808138955417453e-05   -4.689134567297838e-06   -4.124805622699303e-05
3.281447496592335e-05   -2.2204180774847843e-06   -1.4337560026667952e-05
3.281447496592335e-05   -2.2204180774847843e-06   -1.4337560026667952e-05
3.281447496592335e-05   -2.2204180774847843e-06   -1.4337560026667952e-05
3.281447496592335e-05   -2.2204180774847843e-06   -1.4337560026667952e-05
5.976358260633709e-07   -7.28856398630193e-06   -7.107317947172508e-05
5.976358260633709e-07   -7.28856398630193e-06   -7.107317947172508e-05
5.976358260633709e-07   -7.28856398630193e-06   -7.107317947172508e-05
5.976358260633709e-07   -7.28856398630193e-06   -7.107317947172508e-05
1.4014932503003544e-06   -9.094154002219253e-07   -1.806044891947264e-05
1.4014932503003544e-06   -9.094154002219253e-07   -1.806044891947264e-05
1.4014932503003544e-06   -9.094154002219253e-07   -1.806044891947264e-05
1.4014932503003544e-06   -9.094154002219253e-07   -1.806044891947264e-05
3.36577843783994e-05   -6.221637517972705e-06   -6.863360086232069e-05
3.36577843783994e-05   -6.221637517972705e-06   -6.863360086232069e-05
3.36577843783994e-05   -6.221637517972705e-06   -6.863360086232069e-05
3.36577843783994e-05   -6.221637517972705e-06   -6.863360086232069e-05
1.6851164646204214e-05   -3.9539367553370446e-06   -4.198318843291076e-05
1.6851164646204214e-05   -3.9539367553370446e-06   -4.198318843291076e-05
1.6851164646204214e-05   -3.9539367553370446e-06   -4.198318843291076e-05
1.6851164646204214e-05   -3.9539367553370446e-06   -4.198318843291076e-05
-1.8112200426890124e-06   7.37399330780035e-07   -2.341263672560952e-05
-1.8112200426890124e-06   7.37399330780035e-07   -2.341263672560952e-05
-1.8112200426890124e-06   7.37399330780035e-07   -2.341263672560952e-05
-1.8112200426890124e-06   7.37399330780035e-07   -2.341263672560952e-05
-3.3474856447767156e-05   -4.455346890960398e-06   -7.930101180045053e-05
-3.3474856447767156e-05   -4.455346890960398e-06   -7.930101180045053e-05
-3.3474856447767156e-05   -4.455346890960398e-06   -7.930101180045053e-05
-3.3474856447767156e-05   -4.455346890960398e-06   -7.930101180045053e-05
-3.1938691493900665e-05   1.6944862963829375e-06   -2.5463608957445975e-05
-3.1938691493900665e-05   1.6944862963829375e-06   -2.5463608957445975e-05
-3.1938691493900665e-05   1.6944862963829375e-06   -2.5463608957445975e-05
-3.1938691493900665e-05   1.6944862963829375e-06   -2.5463608957445975e-05
-5.30716117293689e-07   -3.982331454196585e-06   -7.440414393477607e-05
-5.30716117293689e-07   -3.982331454196585e-06   -7.440414393477607e-05
-5.30716117293689e-07   -3.982331454196585e-06   -7.440414393477607e-05
-5.30716117293689e-07   -3.982331454196585e-06   -7.440414393477607e-05
-1.6736904493786784e-05   -8.766764754706072e-07   -4.925722296118969e-05
-1.6736904493786784e-05   -8.766764754706072e-07   -4.925722296118969e-05
-1.6736904493786784e-05   -8.766764754706072e-07   -4.925722296118969e-05
-1.6736904493786784e-05   -8.766764754706072e-07   -4.925722296118969e-05
-5.30716117293689e-07   1.6944862963829375e-06   -2.2057518307098e-05
-5.30716117293689e-07   1.6944862963829375e-06   -2.2057518307098e-05
-5.30716117293689e-07   1.6944862963829375e-06   -2.2057518307098e-05
-5.30716117293689e-07   1.6944862963829375e-06   -2.2057518307098e-05
-3.1938691493900665e-05   -3.982331454196585e-06   -7.78102345851241e-05
-3.1938691493900665e-05   -3.982331454196585e-06   -7.78102345851241e-05
-3.1938691493900665e-05   -3.982331454196585e-06   -7.78102345851241e-05
-3.1938691493900665e-05   -3.982331454196585e-06   -7.78102345851241e-05
-3.0529314500167044e-05   2.803417939875423e-06   -2.500826560962715e-05
-3.0529314500167044e-05   2.803417939875423e-06   -2.500826560962715e-05
-3.0529314500167044e-05   2.803417939875423e-06   -2.500826560962715e-05
-3.0529314500167044e-05   2.803417939875423e-06   -2.500826560962715e-05
5.976358260633709e-07   -3.2437645343312387e-06   -7.32582066688206e-05
5.976358260633709e-07   -3.2437645343312387e-06   -7.32582066688206e-05
5.976358260633709e-07   -3.2437645343312387e-06   -7.32582066688206e-05
5.976358260633709e-07   -3.2437645343312387e-06   -7.32582066688206e-05
-1.5485270500755867e-05   -3.3429510057445683e-07   -4.819904445104285e-05
-1.5485270500755867e-05   -3.3429510057445683e-07   -4.819904445104285e-05
-1.5485270500755867e-05   -3.3429510057445683e-07   -4.819904445104285e-05
-1.5485270500755867e-05   -3.3429510057445683e-07   -4.819904445104285e-05
5.976358260633709e-07   2.803417939875423e-06   -2.1379956125103326e-05
5.976358260633709e-07   2.803417939875423e-06   -2.1379956125103326e-05
5.976358260633709e-07   2.803417939875423e-06   -2.1379956125103326e-05
5.976358260633709e-07   2.803417939875423e-06   -2.1379956125103326e-05
-3.05293145001671e-05   -3.2437645343312387e-06   -7.688651615334464e-05
-3.05293145001671e-05   -3.2437645343312387e-06   -7.688651615334464e-05
-3.05293145001671e-05   -3.2437645343312387e-06   -7.688651615334464e-05
-3.05293145001671e-05   -3.2437645343312387e-06   -7.688651615334464e-05
-2.9578849511811503e-05   3.949576740595005e-06   -2.544000015708295e-05
-2.9578849511811503e-05   3.949576740595005e-06   -2.544000015708295e-05
-2.9578849511811503e-05   3.949576740595005e-06   -2.544000015708295e-05
-2.9578849511811503e-05   3.949576740595005e-06   -2.544000015708295e-05
1.4014932503003815e-06   -2.5436980994890564e-06   -7.317793985655229e-05
1.4014932503003815e-06   -2.5436980994890564e-06   -7.317793985655229e-05
1.4014932503003815e-06   -2.5436980994890564e-06   -7.317793985655229e-05
1.4014932503003815e-06   -2.5436980994890564e-06   -7.317793985655229e-05
-1.4592049638906143e-05   2.7491285811784977e-07   -4.821320161577298e-05
-1.4592049638906143e-05   2.7491285811784977e-07   -4.821320161577298e-05
-1.4592049638906143e-05   2.7491285811784977e-07   -4.821320161577298e-05
-1.4592049638906143e-05   2.7491285811784977e-07   -4.821320161577298e-05
-3.347485644776709e-05   5.763378011413179e-06   -1.9121064387381476e-05
-3.347485644776709e-05   5.763378011413179e-06   -1.9121064387381476e-05
-3.347485644776709e-05   5.763378011413179e-06   -1.9121064387381476e-05
-3.347485644776709e-05   5.763378011413179e-06   -1.9121064387381476e-05
-6.55769055580167e-05   1.080996617170392e-06   -7.54339084076763e-05
-6.55769055580167e-05   1.080996617170392e-06   -7.54339084076763e-05
-6.55769055580167e-05   1.080996617170392e-06   -7.54339084076763e-05
-6.55769055580167e-05   1.080996617170392e-06   -7.54339084076763e-05
-6.339024825864883e-05   6.979531177247859e-06   -2.0385732049174685e-05
-6.339024825864883e-05   6.979531177247859e-06   -2.0385732049174685e-05
-6.339024825864883e-05   6.979531177247859e-06   -2.0385732049174685e-05
-6.339024825864883e-05   6.979531177247859e-06   -2.0385732049174685e-05
-3.193869149390061e-05   1.9587665013665392e-06   -6.979253451822634e-05
-3.193869149390061e-05   1.9587665013665392e-06   -6.979253451822634e-05
-3.193869149390061e-05   1.9587665013665392e-06   -6.979253451822634e-05
-3.193869149390061e-05   1.9587665013665392e-06   -6.979253451822634e-05
-4.8089566385941646e-05   4.364826078207765e-06   -4.4318045444262616e-05
-4.8089566385941646e-05   4.364826078207765e-06   -4.4318045444262616e-05
-4.8089566385941646e-05   4.364826078207765e-06   -4.4318045444262616e-05
-4.8089566385941646e-05   4.364826078207765e-06   -4.4318045444262616e-05
-3.193869149390061e-05   6.979531177247859e-06   -1.7373273243646023e-05
-3.193869149390061e-05   6.979531177247859e-06   -1.7373273243646023e-05
-3.193869149390061e-05   6.979531177247859e-06   -1.7373273243646023e-05
-3.193869149390061e-05   6.979531177247859e-06   -1.7373273243646023e-05
-6.339024825864894e-05   1.9587665013665392e-06   -7.280499332375538e-05
-6.339024825864894e-05   1.9587665013665392e-06   -7.280499332375538e-05
-6.339024825864894e-05   1.9587665013665392e-06   -7.280499332375538e-05
-6.339024825864894e-05   1.9587665013665392e-06   -7.280499332375538e-05
-6.127745828201054e-05   8.026996163722645e-06   -1.8578849914314705e-05
-6.127745828201054e-05   8.026996163722645e-06   -1.8578849914314705e-05
-6.127745828201054e-05   8.026996163722645e-06   -1.8578849914314705e-05
-6.127745828201054e-05   8.026996163722645e-06   -1.8578849914314705e-05
-3.05293145001671e-05   2.767135831080198e-06   -6.666984001780203e-05
-3.05293145001671e-05   2.767135831080198e-06   -6.666984001780203e-05
-3.05293145001671e-05   2.767135831080198e-06   -6.666984001780203e-05
-3.05293145001671e-05   2.767135831080198e-06   -6.666984001780203e-05
-4.611483122565168e-05   5.128495160750153e-06   -4.211079440646296e-05
-4.611483122565168e-05   5.128495160750153e-06   -4.211079440646296e-05
-4.611483122565168e-05   5.128495160750153e-06   -4.211079440646296e-05
-4.611483122565168e-05   5.128495160750153e-06   -4.211079440646296e-05
-3.052931450016702e-05   8.026996163722645e-06   -1.5422933714729194e-05
-3.052931450016702e-05   8.026996163722645e-06   -1.5422933714729194e-05
-3.052931450016702e-05   8.026996163722645e-06   -1.5422933714729194e-05
-3.052931450016702e-05   8.026996163722645e-06   -1.5422933714729194e-05
-6.127745828201066e-05   2.7671358310797645e-06   -6.982575621738768e-05
-6.127745828201066e-05   2.7671358310797645e-06   -6.982575621738768e-05
-6.127745828201066e-05   2.7671358310797645e-06   -6.982575621738768e-05
-6.127745828201066e-05   2.7671358310797645e-06   -6.982575621738768e-05
-5.967324896328894e-05   9.18638648227544e-06   -1.8637047108556373e-05
-5.967324896328894e-05   9.18638648227544e-06   -1.8637047108556373e-05
-5.967324896328894e-05   9.18638648227544e-06   -1.8637047108556373e-05
-5.967324896328894e-05   9.18638648227544e-06   -1.8637047108556373e-05
-2.9578849511811557e-05   3.451631195341455e-06   -6.535352635552545e-05
-2.9578849511811557e-05   3.451631195341455e-06   -6.535352635552545e-05
-2.9578849511811557e-05   3.451631195341455e-06   -6.535352635552545e-05
-2.9578849511811557e-05   3.451631195341455e-06   -6.535352635552545e-05
-4.500518223002345e-05   5.661320434518016e-06   -4.096878536867792e-05
-4.500518223002345e-05   5.661320434518016e-06   -4.096878536867792e-05
-4.500518223002345e-05   5.661320434518016e-06   -4.096878536867792e-05
-4.500518223002345e-05   5.661320434518016e-06   -4.096878536867792e-05
-6.55769055580167e-05   1.1336558710985274e-05   -1.0977843505595138e-05
-6.55769055580167e-05   1.1336558710985274e-05   -1.0977843505595138e-05
-6.55769055580167e-05   1.1336558710985274e-05   -1.0977843505595138e-05
-6.55769055580167e-05   1.1336558710985274e-05   -1.0977843505595138e-05
-9.910778533241631e-05   1.06929431758899e-05   -6.724881245065211e-05
-9.910778533241631e-05   1.06929431758899e-05   -6.724881245065211e-05
-9.910778533241631e-05   1.06929431758899e-05   -6.724881245065211e-05
-9.910778533241631e-05   1.06929431758899e-05   -6.724881245065211e-05
-9.480232744819766e-05   1.2952321961958065e-05   -3.780512760455726e-07
-9.480232744819766e-05   1.2952321961958065e-05   -3.780512760455726e-07
-9.480232744819766e-05   1.2952321961958065e-05   -3.780512760455726e-07
-9.480232744819766e-05   1.2952321961958065e-05   -3.780512760455726e-07
-6.339024825864872e-05   1.3549578526140475e-05   -5.30898705304699e-05
-6.339024825864872e-05   1.3549578526140475e-05   -5.30898705304699e-05
-6.339024825864872e-05   1.3549578526140475e-05   -5.30898705304699e-05
-6.339024825864872e-05   1.3549578526140475e-05   -5.30898705304699e-05
-7.723762740095456e-05   1.2777630799561297e-05   -2.954773665734612e-05
-7.723762740095456e-05   1.2777630799561297e-05   -2.954773665734612e-05
-7.723762740095456e-05   1.2777630799561297e-05   -2.954773665734612e-05
-7.723762740095456e-05   1.2777630799561297e-05   -2.954773665734612e-05
-6.339024825864888e-05   1.2952321961957631e-05   -7.364052145549319e-07
-6.339024825864888e-05   1.2952321961957631e-05   -7.364052145549319e-07
-6.339024825864888e-05   1.2952321961957631e-05   -7.364052145549319e-07
-6.339024825864888e-05   1.2952321961957631e-05   -7.364052145549319e-07
-9.480232744819766e-05   1.3549578526140475e-05   -5.2731516591960704e-05
-9.480232744819766e-05   1.3549578526140475e-05   -5.2731516591960704e-05
-9.480232744819766e-05   1.3549578526140475e-05   -5.2731516591960704e-05
-9.480232744819766e-05   1.3549578526140475e-05   -5.2731516591960704e-05
-9.123016019998634e-05   1.3376977254691506e-05   5.614142917010614e-06
-9.123016019998634e-05   1.3376977254691506e-05   5.614142917010614e-06
-9.123016019998634e-05   1.3376977254691506e-05   5.614142917010614e-06
-9.123016019998634e-05   1.3376977254691506e-05   5.614142917010614e-06
-6.127745828201054e-05   1.4190985506255457e-05   -4.479543189722055e-05
-6.127745828201054e-05   1.4190985506255457e-05   -4.479543189722055e-05
-6.127745828201054e-05   1.4190985506255457e-05   -4.479543189722055e-05
-6.127745828201054e-05   1.4190985506255457e-05   -4.479543189722055e-05
-7.560038225328348e-05   1.3707267562312105e-05   -2.0633661178732468e-05
-7.560038225328348e-05   1.3707267562312105e-05   -2.0633661178732468e-05
-7.560038225328348e-05   1.3707267562312105e-05   -2.0633661178732468e-05
-7.560038225328348e-05   1.3707267562312105e-05   -2.0633661178732468e-05
-6.127745828201066e-05   1.3376977254691506e-05   5.125737966072503e-06
-6.127745828201066e-05   1.3376977254691506e-05   5.125737966072503e-06
-6.127745828201066e-05   1.3376977254691506e-05   5.125737966072503e-06
-6.127745828201066e-05   1.3376977254691506e-05   5.125737966072503e-06
-9.123016019998618e-05   1.4190985506255024e-05   -4.4307026946282385e-05
-9.123016019998618e-05   1.4190985506255024e-05   -4.4307026946282385e-05
-9.123016019998618e-05   1.4190985506255024e-05   -4.4307026946282385e-05
-9.123016019998618e-05   1.4190985506255024e-05   -4.4307026946282385e-05
-8.749551033780816e-05   1.374460925406126e-05   1.364065957016919e-05
-8.749551033780816e-05   1.374460925406126e-05   1.364065957016919e-05
-8.749551033780816e-05   1.374460925406126e-05   1.364065957016919e-05
-8.749551033780816e-05   1.374460925406126e-05   1.364065957016919e-05
-5.967324896328894e-05   1.5296475386623876e-05   -3.366089573356713e-05
-5.967324896328894e-05   1.5296475386623876e-05   -3.366089573356713e-05
-5.967324896328894e-05   1.5296475386623876e-05   -3.366089573356713e-05
-5.967324896328894e-05   1.5296475386623876e-05   -3.366089573356713e-05
-7.199778507256462e-05   1.4021285598498322e-05   -1.2354888345232997e-05
-7.199778507256462e-05   1.4021285598498322e-05   -1.2354888345232997e-05
-7.199778507256462e-05   1.4021285598498322e-05   -1.2354888345232997e-05
-7.199778507256462e-05   1.4021285598498322e-05   -1.2354888345232997e-05
8.652106461291394e-05   -1.3001740456484653e-05   2.947032256244873e-05
8.652106461291394e-05   -1.3001740456484653e-05   2.947032256244873e-05
8.652106461291394e-05   -1.3001740456484653e-05   2.947032256244873e-05
8.652106461291394e-05   -1.3001740456484653e-05   2.947032256244873e-05
4.350491095346645e-05   -1.644974632758131e-05   -4.429207039262188e-05
4.350491095346645e-05   -1.644974632758131e-05   -4.429207039262188e-05
4.350491095346645e-05   -1.644974632758131e-05   -4.429207039262188e-05
4.350491095346645e-05   -1.644974632758131e-05   -4.429207039262188e-05
4.457260699958039e-05   -1.269705841996276e-05   2.1127776764247232e-05
4.457260699958039e-05   -1.269705841996276e-05   2.1127776764247232e-05
4.457260699958039e-05   -1.269705841996276e-05   2.1127776764247232e-05
4.457260699958039e-05   -1.269705841996276e-05   2.1127776764247232e-05
8.868321648696002e-05   -1.6861205976487128e-05   -4.989141718080448e-05
8.868321648696002e-05   -1.6861205976487128e-05   -4.989141718080448e-05
8.868321648696002e-05   -1.6861205976487128e-05   -4.989141718080448e-05
8.868321648696002e-05   -1.6861205976487128e-05   -4.989141718080448e-05
6.319951886376272e-05   -1.3281196096491012e-05   -9.566593736806922e-06
6.319951886376272e-05   -1.3281196096491012e-05   -9.566593736806922e-06
6.319951886376272e-05   -1.3281196096491012e-05   -9.566593736806922e-06
6.319951886376272e-05   -1.3281196096491012e-05   -9.566593736806922e-06
8.868321648696002e-05   -1.269705841996276e-05   2.362626529816181e-05
8.868321648696002e-05   -1.269705841996276e-05   2.362626529816181e-05
8.868321648696002e-05   -1.269705841996276e-05   2.362626529816181e-05
8.868321648696002e-05   -1.269705841996276e-05   2.362626529816181e-05
4.457260699958039e-05   -1.6861205976487128e-05   -5.2389905714718844e-05
4.457260699958039e-05   -1.6861205976487128e-05   -5.2389905714718844e-05
4.457260699958039e-05   -1.6861205976487128e-05   -5.2389905714718844e-05
4.457260699958039e-05   -1.6861205976487128e-05   -5.2389905714718844e-05
4.547518483872647e-05   -1.2256604550641304e-05   1.6664803899354205e-05
4.547518483872647e-05   -1.2256604550641304e-05   1.6664803899354205e-05
4.547518483872647e-05   -1.2256604550641304e-05   1.6664803899354205e-05
4.547518483872647e-05   -1.2256604550641304e-05   1.6664803899354205e-05
9.003117408550496e-05   -1.6709378733576787e-05   -5.4923513668848575e-05
9.003117408550496e-05   -1.6709378733576787e-05   -5.4923513668848575e-05
9.003117408550496e-05   -1.6709378733576787e-05   -5.4923513668848575e-05
9.003117408550496e-05   -1.6709378733576787e-05   -5.4923513668848575e-05
6.543176174852098e-05   -1.3701830111191235e-05   -1.572902228064003e-05
6.543176174852098e-05   -1.3701830111191235e-05   -1.572902228064003e-05
6.543176174852098e-05   -1.3701830111191235e-05   -1.572902228064003e-05
6.543176174852098e-05   -1.3701830111191235e-05   -1.572902228064003e-05
9.003117408550496e-05   -1.2256604550641304e-05   1.9336468409115537e-05
9.003117408550496e-05   -1.2256604550641304e-05   1.9336468409115537e-05
9.003117408550496e-05   -1.2256604550641304e-05   1.9336468409115537e-05
9.003117408550496e-05   -1.2256604550641304e-05   1.9336468409115537e-05
4.547518483872647e-05   -1.6709378733576787e-05   -5.7595178178610016e-05
4.547518483872647e-05   -1.6709378733576787e-05   -5.7595178178610016e-05
4.547518483872647e-05   -1.6709378733576787e-05   -5.7595178178610016e-05
4.547518483872647e-05   -1.6709378733576787e-05   -5.7595178178610016e-05
4.64188681859445e-05   -1.0537350013120617e-05   7.999636776455637e-06
4.64188681859445e-05   -1.0537350013120617e-05   7.999636776455637e-06
4.64188681859445e-05   -1.0537350013120617e-05   7.999636776455637e-06
4.64188681859445e-05   -1.0537350013120617e-05   7.999636776455637e-06
9.135839153475044e-05   -1.5782510683540803e-05   -6.37524724026349e-05
9.135839153475044e-05   -1.5782510683540803e-05   -6.37524724026349e-05
9.135839153475044e-05   -1.5782510683540803e-05   -6.37524724026349e-05
9.135839153475044e-05   -1.5782510683540803e-05   -6.37524724026349e-05
6.546874402606982e-05   -1.3188011671166986e-05   -2.2159759295592007e-05
6.546874402606982e-05   -1.3188011671166986e-05   -2.2159759295592007e-05
6.546874402606982e-05   -1.3188011671166986e-05   -2.2159759295592007e-05
6.546874402606982e-05   -1.3188011671166986e-05   -2.2159759295592007e-05
4.350491095346645e-05   -8.44054765773792e-06   2.8510130883835708e-06
4.350491095346645e-05   -8.44054765773792e-06   2.8510130883835708e-06
4.350491095346645e-05   -8.44054765773792e-06   2.8510130883835708e-06
4.350491095346645e-05   -8.44054765773792e-06   2.8510130883835708e-06
5.20038963198525e-06   -1.653944231044509e-05   -6.584919257237622e-05
5.20038963198525e-06   -1.653944231044509e-05   -6.584919257237622e-05
5.20038963198525e-06   -1.653944231044509e-05   -6.584919257237622e-05
5.20038963198525e-06   -1.653944231044509e-05   -6.584919257237622e-05
6.445240934700762e-06   -8.03853909391028e-06   -4.6992175953622373e-07
6.445240934700762e-06   -8.03853909391028e-06   -4.6992175953622373e-07
6.445240934700762e-06   -8.03853909391028e-06   -4.6992175953622373e-07
6.445240934700762e-06   -8.03853909391028e-06   -4.6992175953622373e-07
4.4572606999580475e-05   -1.6456259038730766e-05   -5.896489990077624e-05
4.4572606999580475e-05   -1.6456259038730766e-05   -5.896489990077624e-05
4.4572606999580475e-05   -1.6456259038730766e-05   -5.896489990077624e-05
4.4572606999580475e-05   -1.6456259038730766e-05   -5.896489990077624e-05
2.5028790819954123e-05   -1.1156197070952886e-05   -2.9571910115399323e-05
2.5028790819954123e-05   -1.1156197070952886e-05   -2.9571910115399323e-05
2.5028790819954123e-05   -1.1156197070952886e-05   -2.9571910115399323e-05
2.5028790819954123e-05   -1.1156197070952886e-05   -2.9571910115399323e-05
4.457260699958034e-05   -8.03853909391028e-06   4.5807102073565885e-06
4.457260699958034e-05   -8.03853909391028e-06   4.5807102073565885e-06
4.457260699958034e-05   -8.03853909391028e-06   4.5807102073565885e-06
4.457260699958034e-05   -8.03853909391028e-06   4.5807102073565885e-06
6.445240934700762e-06   -1.64562590387312e-05   -6.401553186766878e-05
6.445240934700762e-06   -1.64562590387312e-05   -6.401553186766878e-05
6.445240934700762e-06   -1.64562590387312e-05   -6.401553186766878e-05
6.445240934700762e-06   -1.64562590387312e-05   -6.401553186766878e-05
7.568981783610064e-06   -7.28856398630193e-06   -8.726937670055016e-07
7.568981783610064e-06   -7.28856398630193e-06   -8.726937670055016e-07
7.568981783610064e-06   -7.28856398630193e-06   -8.726937670055016e-07
7.568981783610064e-06   -7.28856398630193e-06   -8.726937670055016e-07
4.547518483872647e-05   -1.6237607198888067e-05   -5.868027293131473e-05
4.547518483872647e-05   -1.6237607198888067e-05   -5.868027293131473e-05
4.547518483872647e-05   -1.6237607198888067e-05   -5.868027293131473e-05
4.547518483872647e-05   -1.6237607198888067e-05   -5.868027293131473e-05
2.573705392269789e-05   -1.1280997994025758e-05   -2.875735359418336e-05
2.573705392269789e-05   -1.1280997994025758e-05   -2.875735359418336e-05
2.573705392269789e-05   -1.1280997994025758e-05   -2.875735359418336e-05
2.573705392269789e-05   -1.1280997994025758e-05   -2.875735359418336e-05
4.547518483872647e-05   -7.28856398630193e-06   4.49673216054605e-06
4.547518483872647e-05   -7.28856398630193e-06   4.49673216054605e-06
4.547518483872647e-05   -7.28856398630193e-06   4.49673216054605e-06
4.547518483872647e-05   -7.28856398630193e-06   4.49673216054605e-06
7.568981783610037e-06   -1.6237607198888067e-05   -6.404969885886623e-05
7.568981783610037e-06   -1.6237607198888067e-05   -6.404969885886623e-05
7.568981783610037e-06   -1.6237607198888067e-05   -6.404969885886623e-05
7.568981783610037e-06   -1.6237607198888067e-05   -6.404969885886623e-05
9.245751573217056e-06   -6.221637517972705e-06   -1.6492732571168553e-06
9.245751573217056e-06   -6.221637517972705e-06   -1.6492732571168553e-06
9.245751573217056e-06   -6.221637517972705e-06   -1.6492732571168553e-06
9.245751573217056e-06   -6.221637517972705e-06   -1.6492732571168553e-06
4.641886818594444e-05   -1.5799321640512336e-05   -5.785785713813892e-05
4.641886818594444e-05   -1.5799321640512336e-05   -5.785785713813892e-05
4.641886818594444e-05   -1.5799321640512336e-05   -5.785785713813892e-05
4.641886818594444e-05   -1.5799321640512336e-05   -5.785785713813892e-05
2.7083922749944676e-05   -1.11085901112252e-05   -2.8447386995710997e-05
2.7083922749944676e-05   -1.11085901112252e-05   -2.8447386995710997e-05
2.7083922749944676e-05   -1.11085901112252e-05   -2.8447386995710997e-05
2.7083922749944676e-05   -1.11085901112252e-05   -2.8447386995710997e-05
5.20038963198525e-06   -4.455346890960398e-06   -6.6305666167807125e-06
5.20038963198525e-06   -4.455346890960398e-06   -6.6305666167807125e-06
5.20038963198525e-06   -4.455346890960398e-06   -6.6305666167807125e-06
5.20038963198525e-06   -4.455346890960398e-06   -6.6305666167807125e-06
-3.270967397906714e-05   -1.9991358127841204e-05   -7.913561271066338e-05
-3.270967397906714e-05   -1.9991358127841204e-05   -7.913561271066338e-05
-3.270967397906714e-05   -1.9991358127841204e-05   -7.913561271066338e-05
-3.270967397906714e-05   -1.9991358127841204e-05   -7.913561271066338e-05
-3.0770997493324314e-05   -3.982331454196585e-06   -1.4257217168678598e-05
-3.0770997493324314e-05   -3.982331454196585e-06   -1.4257217168678598e-05
-3.0770997493324314e-05   -3.982331454196585e-06   -1.4257217168678598e-05
-3.0770997493324314e-05   -3.982331454196585e-06   -1.4257217168678598e-05
6.445240934700762e-06   -2.043612401838495e-05   -6.64120056768743e-05
6.445240934700762e-06   -2.043612401838495e-05   -6.64120056768743e-05
6.445240934700762e-06   -2.043612401838495e-05   -6.64120056768743e-05
6.445240934700762e-06   -2.043612401838495e-05   -6.64120056768743e-05
-1.2519422141925928e-05   -1.1312941823447657e-05   -4.027814319945873e-05
-1.2519422141925928e-05   -1.1312941823447657e-05   -4.027814319945873e-05
-1.2519422141925928e-05   -1.1312941823447657e-05   -4.027814319945873e-05
-1.2519422141925928e-05   -1.1312941823447657e-05   -4.027814319945873e-05
6.445240934700762e-06   -3.982331454196585e-06   -4.384941630165623e-06
6.445240934700762e-06   -3.982331454196585e-06   -4.384941630165623e-06
6.445240934700762e-06   -3.982331454196585e-06   -4.384941630165623e-06
6.445240934700762e-06   -3.982331454196585e-06   -4.384941630165623e-06
-3.077099749332437e-05   -2.043612401838495e-05   -7.628428121538738e-05
-3.077099749332437e-05   -2.043612401838495e-05   -7.628428121538738e-05
-3.077099749332437e-05   -2.043612401838495e-05   -7.628428121538738e-05
-3.077099749332437e-05   -2.043612401838495e-05   -7.628428121538738e-05
-2.910087546603116e-05   -3.2437645343312387e-06   -1.331769317449924e-05
-2.910087546603116e-05   -3.2437645343312387e-06   -1.331769317449924e-05
-2.910087546603116e-05   -3.2437645343312387e-06   -1.331769317449924e-05
-2.910087546603116e-05   -3.2437645343312387e-06   -1.331769317449924e-05
7.568981783610037e-06   -2.034371821832805e-05   -6.417414971350343e-05
7.568981783610037e-06   -2.034371821832805e-05   -6.417414971350343e-05
7.568981783610037e-06   -2.034371821832805e-05   -6.417414971350343e-05
7.568981783610037e-06   -2.034371821832805e-05   -6.417414971350343e-05
-1.114255993250248e-05   -1.1571611317771728e-05   -3.8251510993649626e-05
-1.114255993250248e-05   -1.1571611317771728e-05   -3.8251510993649626e-05
-1.114255993250248e-05   -1.1571611317771728e-05   -3.8251510993649626e-05
-1.114255993250248e-05   -1.1571611317771728e-05   -3.8251510993649626e-05
7.568981783610037e-06   -3.2437645343312387e-06   -3.0577209641014565e-06
7.568981783610037e-06   -3.2437645343312387e-06   -3.0577209641014565e-06
7.568981783610037e-06   -3.2437645343312387e-06   -3.0577209641014565e-06
7.568981783610037e-06   -3.2437645343312387e-06   -3.0577209641014565e-06
-2.9100875466031256e-05   -2.0343718218328484e-05   -7.44341219239017e-05
-2.9100875466031256e-05   -2.0343718218328484e-05   -7.44341219239017e-05
-2.9100875466031256e-05   -2.0343718218328484e-05   -7.44341219239017e-05
-2.9100875466031256e-05   -2.0343718218328484e-05   -7.44341219239017e-05
-2.6219601946064812e-05   -2.5436980994890564e-06   -1.3260523611737917e-05
-2.6219601946064812e-05   -2.5436980994890564e-06   -1.3260523611737917e-05
-2.6219601946064812e-05   -2.5436980994890564e-06   -1.3260523611737917e-05
-2.6219601946064812e-05   -2.5436980994890564e-06   -1.3260523611737917e-05
9.245751573217056e-06   -1.9634105817888884e-05   -6.21152015128347e-05
9.245751573217056e-06   -1.9634105817888884e-05   -6.21152015128347e-05
9.245751573217056e-06   -1.9634105817888884e-05   -6.21152015128347e-05
9.245751573217056e-06   -1.9634105817888884e-05   -6.21152015128347e-05
-9.353449095200206e-06   -1.1317902928905093e-05   -3.610625546552964e-05
-9.353449095200206e-06   -1.1317902928905093e-05   -3.610625546552964e-05
-9.353449095200206e-06   -1.1317902928905093e-05   -3.610625546552964e-05
-9.353449095200206e-06   -1.1317902928905093e-05   -3.610625546552964e-05
-3.270967397906707e-05   1.080996617170392e-06   -9.275641129589517e-06
-3.270967397906707e-05   1.080996617170392e-06   -9.275641129589517e-06
-3.270967397906707e-05   1.080996617170392e-06   -9.275641129589517e-06
-3.270967397906707e-05   1.080996617170392e-06   -9.275641129589517e-06
-7.502068415371458e-05   -2.496427874459613e-05   -9.542115663772866e-05
-7.502068415371458e-05   -2.496427874459613e-05   -9.542115663772866e-05
-7.502068415371458e-05   -2.496427874459613e-05   -9.542115663772866e-05
-7.502068415371458e-05   -2.496427874459613e-05   -9.542115663772866e-05
-7.270839581260206e-05   1.9587665013665392e-06   -2.4130521301118403e-05
-7.270839581260206e-05   1.9587665013665392e-06   -2.4130521301118403e-05
-7.270839581260206e-05   1.9587665013665392e-06   -2.4130521301118403e-05
-7.270839581260206e-05   1.9587665013665392e-06   -2.4130521301118403e-05
-3.0770997493324314e-05   -2.785957383086247e-05   -7.613518096724376e-05
-3.0770997493324314e-05   -2.785957383086247e-05   -7.613518096724376e-05
-3.0770997493324314e-05   -2.785957383086247e-05   -7.613518096724376e-05
-3.0770997493324314e-05   -2.785957383086247e-05   -7.613518096724376e-05
-5.204080275581755e-05   -1.2715385639275236e-05   -4.9772018444707686e-05
-5.204080275581755e-05   -1.2715385639275236e-05   -4.9772018444707686e-05
-5.204080275581755e-05   -1.2715385639275236e-05   -4.9772018444707686e-05
-5.204080275581755e-05   -1.2715385639275236e-05   -4.9772018444707686e-05
-3.0770997493324314e-05   1.9587665013665392e-06   -6.239517101781214e-06
-3.0770997493324314e-05   1.9587665013665392e-06   -6.239517101781214e-06
-3.0770997493324314e-05   1.9587665013665392e-06   -6.239517101781214e-06
-3.0770997493324314e-05   1.9587665013665392e-06   -6.239517101781214e-06
-7.270839581260206e-05   -2.785957383086247e-05   -9.40261851665816e-05
-7.270839581260206e-05   -2.785957383086247e-05   -9.40261851665816e-05
-7.270839581260206e-05   -2.785957383086247e-05   -9.40261851665816e-05
-7.270839581260206e-05   -2.785957383086247e-05   -9.40261851665816e-05
-7.04915241557301e-05   2.7671358310797645e-06   -2.157225164531448e-05
-7.04915241557301e-05   2.7671358310797645e-06   -2.157225164531448e-05
-7.04915241557301e-05   2.7671358310797645e-06   -2.157225164531448e-05
-7.04915241557301e-05   2.7671358310797645e-06   -2.157225164531448e-05
-2.910087546603123e-05   -2.8018255179516286e-05   -7.208543152178824e-05
-2.910087546603123e-05   -2.8018255179516286e-05   -7.208543152178824e-05
-2.910087546603123e-05   -2.8018255179516286e-05   -7.208543152178824e-05
-2.910087546603123e-05   -2.8018255179516286e-05   -7.208543152178824e-05
-4.978631067077095e-05   -1.2761411380488724e-05   -4.676381245997182e-05
-4.978631067077095e-05   -1.2761411380488724e-05   -4.676381245997182e-05
-4.978631067077095e-05   -1.2761411380488724e-05   -4.676381245997182e-05
-4.978631067077095e-05   -1.2761411380488724e-05   -4.676381245997182e-05
-2.9100875466031188e-05   2.7671358310797645e-06   -3.1010170389567625e-06
-2.9100875466031188e-05   2.7671358310797645e-06   -3.1010170389567625e-06
-2.9100875466031188e-05   2.7671358310797645e-06   -3.1010170389567625e-06
-2.9100875466031188e-05   2.7671358310797645e-06   -3.1010170389567625e-06
-7.049152415573023e-05   -2.8018255179515852e-05   -9.055666612814602e-05
-7.049152415573023e-05   -2.8018255179515852e-05   -9.055666612814602e-05
-7.049152415573023e-05   -2.8018255179515852e-05   -9.055666612814602e-05
-7.049152415573023e-05   -2.8018255179515852e-05   -9.055666612814602e-05
-6.686014849965351e-05   3.451631195341455e-06   -1.896457853319206e-05
-6.686014849965351e-05   3.451631195341455e-06   -1.896457853319206e-05
-6.686014849965351e-05   3.451631195341455e-06   -1.896457853319206e-05
-6.686014849965351e-05   3.451631195341455e-06   -1.896457853319206e-05
-2.6219601946064893e-05   -2.55890910155431e-05   -6.927438946264229e-05
-2.6219601946064893e-05   -2.55890910155431e-05   -6.927438946264229e-05
-2.6219601946064893e-05   -2.55890910155431e-05   -6.927438946264229e-05
-2.6219601946064893e-05   -2.55890910155431e-05   -6.927438946264229e-05
-4.755754031595477e-05   -1.1285172362228424e-05   -4.229351003814702e-05
-4.755754031595477e-05   -1.1285172362228424e-05   -4.229351003814702e-05
-4.755754031595477e-05   -1.1285172362228424e-05   -4.229351003814702e-05
-4.755754031595477e-05   -1.1285172362228424e-05   -4.229351003814702e-05
-7.502068415371458e-05   1.06929431758899e-05   -1.6331541068568276e-05
-7.502068415371458e-05   1.06929431758899e-05   -1.6331541068568276e-05
-7.502068415371458e-05   1.06929431758899e-05   -1.6331541068568276e-05
-7.502068415371458e-05   1.06929431758899e-05   -1.6331541068568276e-05
-0.00012924587631122367   0.0   -0.00011312262723661747
-0.00012924587631122367   0.0   -0.00011312262723661747
-0.00012924587631122367   0.0   -0.00011312262723661747
-0.00012924587631122367   0.0   -0.00011312262723661747
-0.00012585995245103555   1.3549578526140041e-05   -1.2545145623517459e-05
-0.00012585995245103555   1.3549578526140041e-05   -1.2545145623517459e-05
-0.00012585995245103555   1.3549578526140041e-05   -1.2545145623517459e-05
-0.00012585995245103555   1.3549578526140041e-05   -1.2545145623517459e-05
-7.270839581260193e-05   0.0   -9.300132623855632e-05
-7.270839581260193e-05   0.0   -9.300132623855632e-05
-7.270839581260193e-05   0.0   -9.300132623855632e-05
-7.270839581260193e-05   0.0   -9.300132623855632e-05
-9.642892890779689e-05   4.133842070284943e-06   -5.594740965540203e-05
-9.642892890779689e-05   4.133842070284943e-06   -5.594740965540203e-05
-9.642892890779689e-05   4.133842070284943e-06   -5.594740965540203e-05
-9.642892890779689e-05   4.133842070284943e-06   -5.594740965540203e-05
-7.2708395812602e-05   1.3549578526140041e-05   -4.415398507833304e-06
-7.2708395812602e-05   1.3549578526140041e-05   -4.415398507833304e-06
-7.2708395812602e-05   1.3549578526140041e-05   -4.415398507833304e-06
-7.2708395812602e-05   1.3549578526140041e-05   -4.415398507833304e-06
-0.00012585995245103533   0.0   -0.00010113107335423996
-0.00012585995245103533   0.0   -0.00010113107335423996
-0.00012585995245103533   0.0   -0.00010113107335423996
-0.00012585995245103533   0.0   -0.00010113107335423996
-0.00012299728677121318   1.4190985506255457e-05   -5.0565186289007035e-06
-0.00012299728677121318   1.4190985506255457e-05   -5.0565186289007035e-06
-0.00012299728677121318   1.4190985506255457e-05   -5.0565186289007035e-06
-0.00012299728677121318   1.4190985506255457e-05   -5.0565186289007035e-06
-7.049152415573023e-05   0.0   -8.405153168428612e-05
-7.049152415573023e-05   0.0   -8.405153168428612e-05
-7.049152415573023e-05   0.0   -8.405153168428612e-05
-7.049152415573023e-05   0.0   -8.405153168428612e-05
-9.541333068008678e-05   6.5595968824728665e-06   -4.6450945606507665e-05
-9.541333068008678e-05   6.5595968824728665e-06   -4.6450945606507665e-05
-9.541333068008678e-05   6.5595968824728665e-06   -4.6450945606507665e-05
-9.541333068008678e-05   6.5595968824728665e-06   -4.6450945606507665e-05
-7.049152415573023e-05   1.4190985506255457e-05   3.4580726748522674e-06
-7.049152415573023e-05   1.4190985506255457e-05   3.4580726748522674e-06
-7.049152415573023e-05   1.4190985506255457e-05   3.4580726748522674e-06
-7.049152415573023e-05   1.4190985506255457e-05   3.4580726748522674e-06
-0.00012299728677121297   0.0   -9.256612298803911e-05
-0.00012299728677121297   0.0   -9.256612298803911e-05
-0.00012299728677121297   0.0   -9.256612298803911e-05
-0.00012299728677121297   0.0   -9.256612298803911e-05
-0.00011728737762779815   1.5296475386623876e-05   6.9910200289522665e-06
-0.00011728737762779815   1.5296475386623876e-05   6.9910200289522665e-06
-0.00011728737762779815   1.5296475386623876e-05   6.9910200289522665e-06
-0.00011728737762779815   1.5296475386623876e-05   6.9910200289522665e-06
-6.686014849965365e-05   0.0   -6.787647661931473e-05
-6.686014849965365e-05   0.0   -6.787647661931473e-05
-6.686014849965365e-05   0.0   -6.787647661931473e-05
-6.686014849965365e-05   0.0   -6.787647661931473e-05
-9.043553138269112e-05   8.093632382986937e-06   -3.3440351244043865e-05
-9.043553138269112e-05   8.093632382986937e-06   -3.3440351244043865e-05
-9.043553138269112e-05   8.093632382986937e-06   -3.3440351244043865e-05
-9.043553138269112e-05   8.093632382986937e-06   -3.3440351244043865e-05
9.572282351626222e-05   -1.644974632758131e-05   5.716246872069608e-05
9.572282351626222e-05   -1.644974632758131e-05   5.716246872069608e-05
9.572282351626222e-05   -1.644974632758131e-05   5.716246872069608e-05
9.572282351626222e-05   -1.644974632758131e-05   5.716246872069608e-05
4.968010949648623e-05   -1.2663705813477106e-05   -1.7303763670468205e-05
4.968010949648623e-05   -1.2663705813477106e-05   -1.7303763670468205e-05
4.968010949648623e-05   -1.2663705813477106e-05   -1.7303763670468205e-05
4.968010949648623e-05   -1.2663705813477106e-05   -1.7303763670468205e-05
4.8427047287360634e-05   -1.6861205976487128e-05   5.049920684670455e-05
4.8427047287360634e-05   -1.6861205976487128e-05   5.049920684670455e-05
4.8427047287360634e-05   -1.6861205976487128e-05   5.049920684670455e-05
4.8427047287360634e-05   -1.6861205976487128e-05   5.049920684670455e-05
9.469455947090766e-05   -1.3925545888241863e-05   -2.837470951215428e-05
9.469455947090766e-05   -1.3925545888241863e-05   -2.837470951215428e-05
9.469455947090766e-05   -1.3925545888241863e-05   -2.837470951215428e-05
9.469455947090766e-05   -1.3925545888241863e-05   -2.837470951215428e-05
6.918039054536091e-05   -1.416779200133153e-05   1.4294253031610295e-05
6.918039054536091e-05   -1.416779200133153e-05   1.4294253031610295e-05
6.918039054536091e-05   -1.416779200133153e-05   1.4294253031610295e-05
6.918039054536091e-05   -1.416779200133153e-05   1.4294253031610295e-05
9.469455947090766e-05   -1.6861205976487128e-05   4.8737810793757306e-05
9.469455947090766e-05   -1.6861205976487128e-05   4.8737810793757306e-05
9.469455947090766e-05   -1.6861205976487128e-05   4.8737810793757306e-05
9.469455947090766e-05   -1.6861205976487128e-05   4.8737810793757306e-05
4.8427047287360634e-05   -1.3925545888241863e-05   -2.6613313459207142e-05
4.8427047287360634e-05   -1.3925545888241863e-05   -2.6613313459207142e-05
4.8427047287360634e-05   -1.3925545888241863e-05   -2.6613313459207142e-05
4.8427047287360634e-05   -1.3925545888241863e-05   -2.6613313459207142e-05
4.729379711215326e-05   -1.6709378733576787e-05   4.5346915353231074e-05
4.729379711215326e-05   -1.6709378733576787e-05   4.5346915353231074e-05
4.729379711215326e-05   -1.6709378733576787e-05   4.5346915353231074e-05
4.729379711215326e-05   -1.6709378733576787e-05   4.5346915353231074e-05
9.35064960624282e-05   -1.4042546712494854e-05   -3.327434877654312e-05
9.35064960624282e-05   -1.4042546712494854e-05   -3.327434877654312e-05
9.35064960624282e-05   -1.4042546712494854e-05   -3.327434877654312e-05
9.35064960624282e-05   -1.4042546712494854e-05   -3.327434877654312e-05
6.912404949750876e-05   -1.4416236349854353e-05   7.587275947405314e-06
6.912404949750876e-05   -1.4416236349854353e-05   7.587275947405314e-06
6.912404949750876e-05   -1.4416236349854353e-05   7.587275947405314e-06
6.912404949750876e-05   -1.4416236349854353e-05   7.587275947405314e-06
9.350649606242837e-05   -1.6709378733576787e-05   4.374681614058209e-05
9.350649606242837e-05   -1.6709378733576787e-05   4.374681614058209e-05
9.350649606242837e-05   -1.6709378733576787e-05   4.374681614058209e-05
9.350649606242837e-05   -1.6709378733576787e-05   4.374681614058209e-05
4.729379711215326e-05   -1.4042546712494854e-05   -3.167424956389384e-05
4.729379711215326e-05   -1.4042546712494854e-05   -3.167424956389384e-05
4.729379711215326e-05   -1.4042546712494854e-05   -3.167424956389384e-05
4.729379711215326e-05   -1.4042546712494854e-05   -3.167424956389384e-05
4.591136349394427e-05   -1.5782510683540803e-05   3.6964634095677015e-05
4.591136349394427e-05   -1.5782510683540803e-05   3.6964634095677015e-05
4.591136349394427e-05   -1.5782510683540803e-05   3.6964634095677015e-05
4.591136349394427e-05   -1.5782510683540803e-05   3.6964634095677015e-05
9.164511643814636e-05   -1.3752565289046163e-05   -4.0476254714690024e-05
9.164511643814636e-05   -1.3752565289046163e-05   -4.0476254714690024e-05
9.164511643814636e-05   -1.3752565289046163e-05   -4.0476254714690024e-05
9.164511643814636e-05   -1.3752565289046163e-05   -4.0476254714690024e-05
6.676088561751765e-05   -1.3708751521900563e-05   9.71175059403498e-07
6.676088561751765e-05   -1.3708751521900563e-05   9.71175059403498e-07
6.676088561751765e-05   -1.3708751521900563e-05   9.71175059403498e-07
6.676088561751765e-05   -1.3708751521900563e-05   9.71175059403498e-07
4.968010949648623e-05   -1.653944231044509e-05   4.2736307641028136e-05
4.968010949648623e-05   -1.653944231044509e-05   4.2736307641028136e-05
4.968010949648623e-05   -1.653944231044509e-05   4.2736307641028136e-05
4.968010949648623e-05   -1.653944231044509e-05   4.2736307641028136e-05
1.0626754732396171e-05   -7.84413529455498e-06   -1.7135432756254163e-05
1.0626754732396171e-05   -7.84413529455498e-06   -1.7135432756254163e-05
1.0626754732396171e-05   -7.84413529455498e-06   -1.7135432756254163e-05
1.0626754732396171e-05   -7.84413529455498e-06   -1.7135432756254163e-05
8.643541800805221e-06   -1.64562590387312e-05   4.880550452876324e-05
8.643541800805221e-06   -1.64562590387312e-05   4.880550452876324e-05
8.643541800805221e-06   -1.64562590387312e-05   4.880550452876324e-05
8.643541800805221e-06   -1.64562590387312e-05   4.880550452876324e-05
4.8427047287360634e-05   -8.320772591870716e-06   -2.2381629816945126e-05
4.8427047287360634e-05   -8.320772591870716e-06   -2.2381629816945126e-05
4.8427047287360634e-05   -8.320772591870716e-06   -2.2381629816945126e-05
4.8427047287360634e-05   -8.320772591870716e-06   -2.2381629816945126e-05
2.9304118152817028e-05   -1.18354435575071e-05   1.1598721320009182e-05
2.9304118152817028e-05   -1.18354435575071e-05   1.1598721320009182e-05
2.9304118152817028e-05   -1.18354435575071e-05   1.1598721320009182e-05
2.9304118152817028e-05   -1.18354435575071e-05   1.1598721320009182e-05
4.842704728736066e-05   -1.6456259038730766e-05   4.392421266064721e-05
4.842704728736066e-05   -1.6456259038730766e-05   4.392421266064721e-05
4.842704728736066e-05   -1.6456259038730766e-05   4.392421266064721e-05
4.842704728736066e-05   -1.6456259038730766e-05   4.392421266064721e-05
8.643541800805221e-06   -8.320772591870716e-06   -1.7500337948829015e-05
8.643541800805221e-06   -8.320772591870716e-06   -1.7500337948829015e-05
8.643541800805221e-06   -8.320772591870716e-06   -1.7500337948829015e-05
8.643541800805221e-06   -8.320772591870716e-06   -1.7500337948829015e-05
7.22977972647865e-06   -1.6237607198888067e-05   4.888405616666801e-05
7.22977972647865e-06   -1.6237607198888067e-05   4.888405616666801e-05
7.22977972647865e-06   -1.6237607198888067e-05   4.888405616666801e-05
7.22977972647865e-06   -1.6237607198888067e-05   4.888405616666801e-05
4.729379711215326e-05   -8.533881255318957e-06   -2.2511541708931064e-05
4.729379711215326e-05   -8.533881255318957e-06   -2.2511541708931064e-05
4.729379711215326e-05   -8.533881255318957e-06   -2.2511541708931064e-05
4.729379711215326e-05   -8.533881255318957e-06   -2.2511541708931064e-05
2.7605254542903862e-05   -1.1593844185970106e-05   1.2138673664876458e-05
2.7605254542903862e-05   -1.1593844185970106e-05   1.2138673664876458e-05
2.7605254542903862e-05   -1.1593844185970106e-05   1.2138673664876458e-05
2.7605254542903862e-05   -1.1593844185970106e-05   1.2138673664876458e-05
4.729379711215334e-05   -1.6237607198887633e-05   4.426182060052685e-05
4.729379711215334e-05   -1.6237607198887633e-05   4.426182060052685e-05
4.729379711215334e-05   -1.6237607198887633e-05   4.426182060052685e-05
4.729379711215334e-05   -1.6237607198887633e-05   4.426182060052685e-05
7.22977972647865e-06   -8.533881255318957e-06   -1.7889306142789604e-05
7.22977972647865e-06   -8.533881255318957e-06   -1.7889306142789604e-05
7.22977972647865e-06   -8.533881255318957e-06   -1.7889306142789604e-05
7.22977972647865e-06   -8.533881255318957e-06   -1.7889306142789604e-05
5.656904245272235e-06   -1.5799321640512336e-05   5.047982325568582e-05
5.656904245272235e-06   -1.5799321640512336e-05   5.047982325568582e-05
5.656904245272235e-06   -1.5799321640512336e-05   5.047982325568582e-05
5.656904245272235e-06   -1.5799321640512336e-05   5.047982325568582e-05
4.5911363493944215e-05   -8.343525818411881e-06   -2.1084419652027663e-05
4.5911363493944215e-05   -8.343525818411881e-06   -2.1084419652027663e-05
4.5911363493944215e-05   -8.343525818411881e-06   -2.1084419652027663e-05
4.5911363493944215e-05   -8.343525818411881e-06   -2.1084419652027663e-05
2.6565348443880168e-05   -1.1086789332532057e-05   1.2804896873218211e-05
2.6565348443880168e-05   -1.1086789332532057e-05   1.2804896873218211e-05
2.6565348443880168e-05   -1.1086789332532057e-05   1.2804896873218211e-05
2.6565348443880168e-05   -1.1086789332532057e-05   1.2804896873218211e-05
1.0626754732396198e-05   -1.9991358127841204e-05   4.3988678454404215e-05
1.0626754732396198e-05   -1.9991358127841204e-05   4.3988678454404215e-05
1.0626754732396198e-05   -1.9991358127841204e-05   4.3988678454404215e-05
1.0626754732396198e-05   -1.9991358127841204e-05   4.3988678454404215e-05
-2.688572330529455e-05   -3.3198985320980097e-06   -8.529242517634622e-06
-2.688572330529455e-05   -3.3198985320980097e-06   -8.529242517634622e-06
-2.688572330529455e-05   -3.3198985320980097e-06   -8.529242517634622e-06
-2.688572330529455e-05   -3.3198985320980097e-06   -8.529242517634622e-06
-2.997120930189114e-05   -2.043612401838495e-05   5.6566917751387554e-05
-2.997120930189114e-05   -2.043612401838495e-05   5.6566917751387554e-05
-2.997120930189114e-05   -2.043612401838495e-05   5.6566917751387554e-05
-2.997120930189114e-05   -2.043612401838495e-05   5.6566917751387554e-05
8.643541800805248e-06   -3.506312298669472e-06   -1.7948887784936275e-05
8.643541800805248e-06   -3.506312298669472e-06   -1.7948887784936275e-05
8.643541800805248e-06   -3.506312298669472e-06   -1.7948887784936275e-05
8.643541800805248e-06   -3.506312298669472e-06   -1.7948887784936275e-05
-9.059432904490232e-06   -1.1434081604119132e-05   1.6312731640493188e-05
-9.059432904490232e-06   -1.1434081604119132e-05   1.6312731640493188e-05
-9.059432904490232e-06   -1.1434081604119132e-05   1.6312731640493188e-05
-9.059432904490232e-06   -1.1434081604119132e-05   1.6312731640493188e-05
8.643541800805221e-06   -2.043612401838495e-05   4.6409030719557834e-05
8.643541800805221e-06   -2.043612401838495e-05   4.6409030719557834e-05
8.643541800805221e-06   -2.043612401838495e-05   4.6409030719557834e-05
8.643541800805221e-06   -2.043612401838495e-05   4.6409030719557834e-05
-2.9971209301891087e-05   -3.5063122986690384e-06   -7.791000753106393e-06
-2.9971209301891087e-05   -3.5063122986690384e-06   -7.791000753106393e-06
-2.9971209301891087e-05   -3.5063122986690384e-06   -7.791000753106393e-06
-2.9971209301891087e-05   -3.5063122986690384e-06   -7.791000753106393e-06
-3.1856273394019013e-05   -2.0343718218328484e-05   5.8725243966311486e-05
-3.1856273394019013e-05   -2.0343718218328484e-05   5.8725243966311486e-05
-3.1856273394019013e-05   -2.0343718218328484e-05   5.8725243966311486e-05
-3.1856273394019013e-05   -2.0343718218328484e-05   5.8725243966311486e-05
7.22977972647865e-06   -3.7343204611936347e-06   -1.638381655546503e-05
7.22977972647865e-06   -3.7343204611936347e-06   -1.638381655546503e-05
7.22977972647865e-06   -3.7343204611936347e-06   -1.638381655546503e-05
7.22977972647865e-06   -3.7343204611936347e-06   -1.638381655546503e-05
-1.114791787425221e-05   -1.1399876530380007e-05   1.884501308726486e-05
-1.114791787425221e-05   -1.1399876530380007e-05   1.884501308726486e-05
-1.114791787425221e-05   -1.1399876530380007e-05   1.884501308726486e-05
-1.114791787425221e-05   -1.1399876530380007e-05   1.884501308726486e-05
7.229779726478623e-06   -2.034371821832805e-05   4.8759605312030966e-05
7.229779726478623e-06   -2.034371821832805e-05   4.8759605312030966e-05
7.229779726478623e-06   -2.034371821832805e-05   4.8759605312030966e-05
7.229779726478623e-06   -2.034371821832805e-05   4.8759605312030966e-05
-3.185627339401896e-05   -3.7343204611936347e-06   -6.418177901184241e-06
-3.185627339401896e-05   -3.7343204611936347e-06   -6.418177901184241e-06
-3.185627339401896e-05   -3.7343204611936347e-06   -6.418177901184241e-06
-3.185627339401896e-05   -3.7343204611936347e-06   -6.418177901184241e-06
-3.407432880337939e-05   -1.9634105817888884e-05   6.152116931682156e-05
-3.407432880337939e-05   -1.9634105817888884e-05   6.152116931682156e-05
-3.407432880337939e-05   -1.9634105817888884e-05   6.152116931682156e-05
-3.407432880337939e-05   -1.9634105817888884e-05   6.152116931682156e-05
5.656904245272235e-06   -3.713972547375339e-06   -1.4249632393238773e-05
5.656904245272235e-06   -3.713972547375339e-06   -1.4249632393238773e-05
5.656904245272235e-06   -3.713972547375339e-06   -1.4249632393238773e-05
5.656904245272235e-06   -3.713972547375339e-06   -1.4249632393238773e-05
-1.2848161687243465e-05   -1.0949033267468756e-05   2.0933180593009945e-05
-1.2848161687243465e-05   -1.0949033267468756e-05   2.0933180593009945e-05
-1.2848161687243465e-05   -1.0949033267468756e-05   2.0933180593009945e-05
-1.2848161687243465e-05   -1.0949033267468756e-05   2.0933180593009945e-05
-2.6885723305294576e-05   -2.496427874459613e-05   5.3333175501844854e-05
-2.6885723305294576e-05   -2.496427874459613e-05   5.3333175501844854e-05
-2.6885723305294576e-05   -2.496427874459613e-05   5.3333175501844854e-05
-2.6885723305294576e-05   -2.496427874459613e-05   5.3333175501844854e-05
-6.962632696296049e-05   3.508914851072225e-06   -8.172477701971163e-07
-6.962632696296049e-05   3.508914851072225e-06   -8.172477701971163e-07
-6.962632696296049e-05   3.508914851072225e-06   -8.172477701971163e-07
-6.962632696296049e-05   3.508914851072225e-06   -8.172477701971163e-07
-7.333112910524727e-05   -2.785957383086247e-05   7.540807394457649e-05
-7.333112910524727e-05   -2.785957383086247e-05   7.540807394457649e-05
-7.333112910524727e-05   -2.785957383086247e-05   7.540807394457649e-05
-7.333112910524727e-05   -2.785957383086247e-05   7.540807394457649e-05
-2.9971209301891087e-05   3.293852744213916e-06   -1.5550515006062507e-05
-2.9971209301891087e-05   3.293852744213916e-06   -1.5550515006062507e-05
-2.9971209301891087e-05   3.293852744213916e-06   -1.5550515006062507e-05
-2.9971209301891087e-05   3.293852744213916e-06   -1.5550515006062507e-05
-4.925338813756909e-05   -1.0391283329069193e-05   2.4797531364036877e-05
-4.925338813756909e-05   -1.0391283329069193e-05   2.4797531364036877e-05
-4.925338813756909e-05   -1.0391283329069193e-05   2.4797531364036877e-05
-4.925338813756909e-05   -1.0391283329069193e-05   2.4797531364036877e-05
-2.997120930189114e-05   -2.785957383086247e-05   5.6716017999530743e-05
-2.997120930189114e-05   -2.785957383086247e-05   5.6716017999530743e-05
-2.997120930189114e-05   -2.785957383086247e-05   5.6716017999530743e-05
-2.997120930189114e-05   -2.785957383086247e-05   5.6716017999530743e-05
-7.333112910524727e-05   3.293852744213916e-06   3.1415409389831846e-06
-7.333112910524727e-05   3.293852744213916e-06   3.1415409389831846e-06
-7.333112910524727e-05   3.293852744213916e-06   3.1415409389831846e-06
-7.333112910524727e-05   3.293852744213916e-06   3.1415409389831846e-06
-7.558983981557651e-05   -2.8018255179515852e-05   7.96256544185834e-05
-7.558983981557651e-05   -2.8018255179515852e-05   7.96256544185834e-05
-7.558983981557651e-05   -2.8018255179515852e-05   7.96256544185834e-05
-7.558983981557651e-05   -2.8018255179515852e-05   7.96256544185834e-05
-3.185627339401896e-05   2.901278237414477e-06   -1.1815343000837674e-05
-3.185627339401896e-05   2.901278237414477e-06   -1.1815343000837674e-05
-3.185627339401896e-05   2.901278237414477e-06   -1.1815343000837674e-05
-3.185627339401896e-05   2.901278237414477e-06   -1.1815343000837674e-05
-5.1662199590188094e-05   -1.195400906860546e-05   3.010770637638981e-05
-5.1662199590188094e-05   -1.195400906860546e-05   3.010770637638981e-05
-5.1662199590188094e-05   -1.195400906860546e-05   3.010770637638981e-05
-5.1662199590188094e-05   -1.195400906860546e-05   3.010770637638981e-05
-3.185627339401893e-05   -2.8018255179516286e-05   6.107393436842468e-05
-3.185627339401893e-05   -2.8018255179516286e-05   6.107393436842468e-05
-3.185627339401893e-05   -2.8018255179516286e-05   6.107393436842468e-05
-3.185627339401893e-05   -2.8018255179516286e-05   6.107393436842468e-05
-7.558983981557637e-05   2.901278237414477e-06   6.736377049321044e-06
-7.558983981557637e-05   2.901278237414477e-06   6.736377049321044e-06
-7.558983981557637e-05   2.901278237414477e-06   6.736377049321044e-06
-7.558983981557637e-05   2.901278237414477e-06   6.736377049321044e-06
-7.802281406014856e-05   -2.55890910155431e-05   8.144405958519915e-05
-7.802281406014856e-05   -2.55890910155431e-05   8.144405958519915e-05
-7.802281406014856e-05   -2.55890910155431e-05   8.144405958519915e-05
-7.802281406014856e-05   -2.55890910155431e-05   8.144405958519915e-05
-3.4074328803379285e-05   2.4572982963645858e-06   -8.631249429893995e-06
-3.4074328803379285e-05   2.4572982963645858e-06   -8.631249429893995e-06
-3.4074328803379285e-05   2.4572982963645858e-06   -8.631249429893995e-06
-3.4074328803379285e-05   2.4572982963645858e-06   -8.631249429893995e-06
-5.414152099214095e-05   -1.2045298569503347e-05   3.3515629004230016e-05
-5.414152099214095e-05   -1.2045298569503347e-05   3.3515629004230016e-05
-5.414152099214095e-05   -1.2045298569503347e-05   3.3515629004230016e-05
-5.414152099214095e-05   -1.2045298569503347e-05   3.3515629004230016e-05
-6.962632696296027e-05   0.0   5.9131386965890565e-05
-6.962632696296027e-05   0.0   5.9131386965890565e-05
-6.962632696296027e-05   0.0   5.9131386965890565e-05
-6.962632696296027e-05   0.0   5.9131386965890565e-05
-0.00012269829284448848   1.6080030360110607e-05   -1.967387128725697e-05
-0.00012269829284448848   1.6080030360110607e-05   -1.967387128725697e-05
-0.00012269829284448848   1.6080030360110607e-05   -1.967387128725697e-05
-0.00012269829284448848   1.6080030360110607e-05   -1.967387128725697e-05
-0.00012781324146948417   0.0   8.574081358664809e-05
-0.00012781324146948417   0.0   8.574081358664809e-05
-0.00012781324146948417   0.0   8.574081358664809e-05
-0.00012781324146948417   0.0   8.574081358664809e-05
-7.333112910524713e-05   1.5513134523410625e-05   -1.4370587734460261e-05
-7.333112910524713e-05   1.5513134523410625e-05   -1.4370587734460261e-05
-7.333112910524713e-05   1.5513134523410625e-05   -1.4370587734460261e-05
-7.333112910524713e-05   1.5513134523410625e-05   -1.4370587734460261e-05
-9.417157706210637e-05   9.540613422531243e-06   2.394700485416608e-05
-9.417157706210637e-05   9.540613422531243e-06   2.394700485416608e-05
-9.417157706210637e-05   9.540613422531243e-06   2.394700485416608e-05
-9.417157706210637e-05   9.540613422531243e-06   2.394700485416608e-05
-7.333112910524708e-05   0.0   7.643293287260162e-05
-7.333112910524708e-05   0.0   7.643293287260162e-05
-7.333112910524708e-05   0.0   7.643293287260162e-05
-7.333112910524708e-05   0.0   7.643293287260162e-05
-0.00012781324146948439   1.5513134523410625e-05   -5.062707020413908e-06
-0.00012781324146948439   1.5513134523410625e-05   -5.062707020413908e-06
-0.00012781324146948439   1.5513134523410625e-05   -5.062707020413908e-06
-0.00012781324146948439   1.5513134523410625e-05   -5.062707020413908e-06
-0.00013038998629265618   0.0   9.519848439151811e-05
-0.00013038998629265618   0.0   9.519848439151811e-05
-0.00013038998629265618   0.0   9.519848439151811e-05
-0.00013038998629265618   0.0   9.519848439151811e-05
-7.558983981557637e-05   1.511282588179206e-05   -5.202788599356655e-06
-7.558983981557637e-05   1.511282588179206e-05   -5.202788599356655e-06
-7.558983981557637e-05   1.511282588179206e-05   -5.202788599356655e-06
-7.558983981557637e-05   1.511282588179206e-05   -5.202788599356655e-06
-9.909815007565564e-05   7.964605089941755e-06   3.8266660975886345e-05
-9.909815007565564e-05   7.964605089941755e-06   3.8266660975886345e-05
-9.909815007565564e-05   7.964605089941755e-06   3.8266660975886345e-05
-9.909815007565564e-05   7.964605089941755e-06   3.8266660975886345e-05
-7.558983981557637e-05   0.0   8.613078886244305e-05
-7.558983981557637e-05   0.0   8.613078886244305e-05
-7.558983981557637e-05   0.0   8.613078886244305e-05
-7.558983981557637e-05   0.0   8.613078886244305e-05
-0.0001303899862926566   1.511282588179206e-05   3.864906929718515e-06
-0.0001303899862926566   1.511282588179206e-05   3.864906929718515e-06
-0.0001303899862926566   1.511282588179206e-05   3.864906929718515e-06
-0.0001303899862926566   1.511282588179206e-05   3.864906929718515e-06
-0.00013326200579436012   0.0   0.00010781151397948113
-0.00013326200579436012   0.0   0.00010781151397948113
-0.00013326200579436012   0.0   0.00010781151397948113
-0.00013326200579436012   0.0   0.00010781151397948113
-7.802281406014856e-05   1.2575180374039836e-05   8.201086198037638e-06
-7.802281406014856e-05   1.2575180374039836e-05   8.201086198037638e-06
-7.802281406014856e-05   1.2575180374039836e-05   8.201086198037638e-06
-7.802281406014856e-05   1.2575180374039836e-05   8.201086198037638e-06
-9.993273655222614e-05   5.586198006581316e-06   4.891101310530884e-05
-9.993273655222614e-05   5.586198006581316e-06   4.891101310530884e-05
-9.993273655222614e-05   5.586198006581316e-06   4.891101310530884e-05
-9.993273655222614e-05   5.586198006581316e-06   4.891101310530884e-05
8.414042011758432e-05   -1.266370581347754e-05   5.9782494976237926e-05
8.414042011758432e-05   -1.266370581347754e-05   5.9782494976237926e-05
8.414042011758432e-05   -1.266370581347754e-05   5.9782494976237926e-05
8.414042011758432e-05   -1.266370581347754e-05   5.9782494976237926e-05
4.256580403046696e-05   -9.541044749458109e-06   -7.634935197212709e-06
4.256580403046696e-05   -9.541044749458109e-06   -7.634935197212709e-06
4.256580403046696e-05   -9.541044749458109e-06   -7.634935197212709e-06
4.256580403046696e-05   -9.541044749458109e-06   -7.634935197212709e-06
4.1439411132797804e-05   -1.3925545888241863e-05   5.219278593256334e-05
4.1439411132797804e-05   -1.3925545888241863e-05   5.219278593256334e-05
4.1439411132797804e-05   -1.3925545888241863e-05   5.219278593256334e-05
4.1439411132797804e-05   -1.3925545888241863e-05   5.219278593256334e-05
8.212805047267572e-05   -1.0816335868656969e-05   -1.7487138978983653e-05
8.212805047267572e-05   -1.0816335868656969e-05   -1.7487138978983653e-05
8.212805047267572e-05   -1.0816335868656969e-05   -1.7487138978983653e-05
8.212805047267572e-05   -1.0816335868656969e-05   -1.7487138978983653e-05
5.978297168685507e-05   -1.126676133632147e-05   2.002491427798253e-05
5.978297168685507e-05   -1.126676133632147e-05   2.002491427798253e-05
5.978297168685507e-05   -1.126676133632147e-05   2.002491427798253e-05
5.978297168685507e-05   -1.126676133632147e-05   2.002491427798253e-05
8.212805047267557e-05   -1.3925545888241863e-05   5.032725992081249e-05
8.212805047267557e-05   -1.3925545888241863e-05   5.032725992081249e-05
8.212805047267557e-05   -1.3925545888241863e-05   5.032725992081249e-05
8.212805047267557e-05   -1.3925545888241863e-05   5.032725992081249e-05
4.143941113279787e-05   -1.0816335868656969e-05   -1.5621612967232912e-05
4.143941113279787e-05   -1.0816335868656969e-05   -1.5621612967232912e-05
4.143941113279787e-05   -1.0816335868656969e-05   -1.5621612967232912e-05
4.143941113279787e-05   -1.0816335868656969e-05   -1.5621612967232912e-05
3.998792525684916e-05   -1.4042546712494854e-05   4.685447231861676e-05
3.998792525684916e-05   -1.4042546712494854e-05   4.685447231861676e-05
3.998792525684916e-05   -1.4042546712494854e-05   4.685447231861676e-05
3.998792525684916e-05   -1.4042546712494854e-05   4.685447231861676e-05
8.009343881299604e-05   -1.10065483609487e-05   -2.1809649285889276e-05
8.009343881299604e-05   -1.10065483609487e-05   -2.1809649285889276e-05
8.009343881299604e-05   -1.10065483609487e-05   -2.1809649285889276e-05
8.009343881299604e-05   -1.10065483609487e-05   -2.1809649285889276e-05
5.921526568737669e-05   -1.175936325390533e-05   1.3438994859249834e-05
5.921526568737669e-05   -1.175936325390533e-05   1.3438994859249834e-05
5.921526568737669e-05   -1.175936325390533e-05   1.3438994859249834e-05
5.921526568737669e-05   -1.175936325390533e-05   1.3438994859249834e-05
8.009343881299604e-05   -1.4042546712494854e-05   4.503287330768872e-05
8.009343881299604e-05   -1.4042546712494854e-05   4.503287330768872e-05
8.009343881299604e-05   -1.4042546712494854e-05   4.503287330768872e-05
8.009343881299604e-05   -1.4042546712494854e-05   4.503287330768872e-05
3.998792525684916e-05   -1.10065483609487e-05   -1.9988050274961575e-05
3.998792525684916e-05   -1.10065483609487e-05   -1.9988050274961575e-05
3.998792525684916e-05   -1.10065483609487e-05   -1.9988050274961575e-05
3.998792525684916e-05   -1.10065483609487e-05   -1.9988050274961575e-05
3.846529303658583e-05   -1.3752565289046163e-05   3.893836753977864e-05
3.846529303658583e-05   -1.3752565289046163e-05   3.893836753977864e-05
3.846529303658583e-05   -1.3752565289046163e-05   3.893836753977864e-05
3.846529303658583e-05   -1.3752565289046163e-05   3.893836753977864e-05
7.754673477037153e-05   -1.093983120540416e-05   -2.7885009133382752e-05
7.754673477037153e-05   -1.093983120540416e-05   -2.7885009133382752e-05
7.754673477037153e-05   -1.093983120540416e-05   -2.7885009133382752e-05
7.754673477037153e-05   -1.093983120540416e-05   -2.7885009133382752e-05
5.657079476715888e-05   -1.145250203616081e-05   7.382493370426549e-06
5.657079476715888e-05   -1.145250203616081e-05   7.382493370426549e-06
5.657079476715888e-05   -1.145250203616081e-05   7.382493370426549e-06
5.657079476715888e-05   -1.145250203616081e-05   7.382493370426549e-06
4.256580403046704e-05   -7.84413529455498e-06   5.66072383193293e-05
4.256580403046704e-05   -7.84413529455498e-06   5.66072383193293e-05
4.256580403046704e-05   -7.84413529455498e-06   5.66072383193293e-05
4.256580403046704e-05   -7.84413529455498e-06   5.66072383193293e-05
4.6934345801278015e-06   -3.3699562004287607e-06   -3.828869974760408e-06
4.6934345801278015e-06   -3.3699562004287607e-06   -3.828869974760408e-06
4.6934345801278015e-06   -3.3699562004287607e-06   -3.828869974760408e-06
4.6934345801278015e-06   -3.3699562004287607e-06   -3.828869974760408e-06
3.5748055786735146e-06   -8.320772591870716e-06   5.8983403295282885e-05
3.5748055786735146e-06   -8.320772591870716e-06   5.8983403295282885e-05
3.5748055786735146e-06   -8.320772591870716e-06   5.8983403295282885e-05
3.5748055786735146e-06   -8.320772591870716e-06   5.8983403295282885e-05
4.143941113279787e-05   -4.055883057775111e-06   -6.6832063487150554e-06
4.143941113279787e-05   -4.055883057775111e-06   -6.6832063487150554e-06
4.143941113279787e-05   -4.055883057775111e-06   -6.6832063487150554e-06
4.143941113279787e-05   -4.055883057775111e-06   -6.6832063487150554e-06
2.2847521947508827e-05   -5.483475193636313e-06   2.5159830908283226e-05
2.2847521947508827e-05   -5.483475193636313e-06   2.5159830908283226e-05
2.2847521947508827e-05   -5.483475193636313e-06   2.5159830908283226e-05
2.2847521947508827e-05   -5.483475193636313e-06   2.5159830908283226e-05
4.143941113279782e-05   -8.320772591870716e-06   5.6424469574825435e-05
4.143941113279782e-05   -8.320772591870716e-06   5.6424469574825435e-05
4.143941113279782e-05   -8.320772591870716e-06   5.6424469574825435e-05
4.143941113279782e-05   -8.320772591870716e-06   5.6424469574825435e-05
3.5748055786735146e-06   -4.055883057775111e-06   -4.124272628257958e-06
3.5748055786735146e-06   -4.055883057775111e-06   -4.124272628257958e-06
3.5748055786735146e-06   -4.055883057775111e-06   -4.124272628257958e-06
3.5748055786735146e-06   -4.055883057775111e-06   -4.124272628257958e-06
2.1465034369767203e-06   -8.533881255318523e-06   5.84335949687393e-05
2.1465034369767203e-06   -8.533881255318523e-06   5.84335949687393e-05
2.1465034369767203e-06   -8.533881255318523e-06   5.84335949687393e-05
2.1465034369767203e-06   -8.533881255318523e-06   5.84335949687393e-05
3.998792525684916e-05   -4.50652326338492e-06   -7.051856192874978e-06
3.998792525684916e-05   -4.50652326338492e-06   -7.051856192874978e-06
3.998792525684916e-05   -4.50652326338492e-06   -7.051856192874978e-06
3.998792525684916e-05   -4.50652326338492e-06   -7.051856192874978e-06
2.142954237131192e-05   -5.743569890956802e-06   2.462100992623123e-05
2.142954237131192e-05   -5.743569890956802e-06   2.462100992623123e-05
2.142954237131192e-05   -5.743569890956802e-06   2.462100992623123e-05
2.142954237131192e-05   -5.743569890956802e-06   2.462100992623123e-05
3.998792525684909e-05   -8.533881255318957e-06   5.601718017357897e-05
3.998792525684909e-05   -8.533881255318957e-06   5.601718017357897e-05
3.998792525684909e-05   -8.533881255318957e-06   5.601718017357897e-05
3.998792525684909e-05   -8.533881255318957e-06   5.601718017357897e-05
2.1465034369767203e-06   -4.50652326338492e-06   -4.635441397714832e-06
2.1465034369767203e-06   -4.50652326338492e-06   -4.635441397714832e-06
2.1465034369767203e-06   -4.50652326338492e-06   -4.635441397714832e-06
2.1465034369767203e-06   -4.50652326338492e-06   -4.635441397714832e-06
5.686385189234702e-07   -8.343525818411447e-06   5.92978585327239e-05
5.686385189234702e-07   -8.343525818411447e-06   5.92978585327239e-05
5.686385189234702e-07   -8.343525818411447e-06   5.92978585327239e-05
5.686385189234702e-07   -8.343525818411447e-06   5.92978585327239e-05
3.846529303658579e-05   -4.7008205401113945e-06   -6.048855497026769e-06
3.846529303658579e-05   -4.7008205401113945e-06   -6.048855497026769e-06
3.846529303658579e-05   -4.7008205401113945e-06   -6.048855497026769e-06
3.846529303658579e-05   -4.7008205401113945e-06   -6.048855497026769e-06
2.027305872155499e-05   -5.690296108878338e-06   2.4865220369285753e-05
2.027305872155499e-05   -5.690296108878338e-06   2.4865220369285753e-05
2.027305872155499e-05   -5.690296108878338e-06   2.4865220369285753e-05
2.027305872155499e-05   -5.690296108878338e-06   2.4865220369285753e-05
4.6934345801278015e-06   -3.3198985320980097e-06   5.7895060256978525e-05
4.6934345801278015e-06   -3.3198985320980097e-06   5.7895060256978525e-05
4.6934345801278015e-06   -3.3198985320980097e-06   5.7895060256978525e-05
4.6934345801278015e-06   -3.3198985320980097e-06   5.7895060256978525e-05
-3.199403474311196e-05   2.9875778474759e-06   5.337638793233377e-07
-3.199403474311196e-05   2.9875778474759e-06   5.337638793233377e-07
-3.199403474311196e-05   2.9875778474759e-06   5.337638793233377e-07
-3.199403474311196e-05   2.9875778474759e-06   5.337638793233377e-07
-3.3254286627048326e-05   -3.506312298669472e-06   6.211555865954415e-05
-3.3254286627048326e-05   -3.506312298669472e-06   6.211555865954415e-05
-3.3254286627048326e-05   -3.506312298669472e-06   6.211555865954415e-05
-3.3254286627048326e-05   -3.506312298669472e-06   6.211555865954415e-05
3.5748055786735146e-06   2.4615297019446765e-06   -2.8469668836938024e-06
3.5748055786735146e-06   2.4615297019446765e-06   -2.8469668836938024e-06
3.5748055786735146e-06   2.4615297019446765e-06   -2.8469668836938024e-06
3.5748055786735146e-06   2.4615297019446765e-06   -2.8469668836938024e-06
-1.4218768175705803e-05   -6.729521256302468e-08   2.8326284322309687e-05
-1.4218768175705803e-05   -6.729521256302468e-08   2.8326284322309687e-05
-1.4218768175705803e-05   -6.729521256302468e-08   2.8326284322309687e-05
-1.4218768175705803e-05   -6.729521256302468e-08   2.8326284322309687e-05
3.5748055786735146e-06   -3.506312298669472e-06   5.8534853459176004e-05
3.5748055786735146e-06   -3.506312298669472e-06   5.8534853459176004e-05
3.5748055786735146e-06   -3.506312298669472e-06   5.8534853459176004e-05
3.5748055786735146e-06   -3.506312298669472e-06   5.8534853459176004e-05
-3.3254286627048326e-05   2.4615297019446765e-06   7.337383166744482e-07
-3.3254286627048326e-05   2.4615297019446765e-06   7.337383166744482e-07
-3.3254286627048326e-05   2.4615297019446765e-06   7.337383166744482e-07
-3.3254286627048326e-05   2.4615297019446765e-06   7.337383166744482e-07
-3.494458609265631e-05   -3.7343204611936347e-06   6.336277514837124e-05
-3.494458609265631e-05   -3.7343204611936347e-06   6.336277514837124e-05
-3.494458609265631e-05   -3.7343204611936347e-06   6.336277514837124e-05
-3.494458609265631e-05   -3.7343204611936347e-06   6.336277514837124e-05
2.1465034369767203e-06   1.971830525984708e-06   -1.8793979933243187e-06
2.1465034369767203e-06   1.971830525984708e-06   -1.8793979933243187e-06
2.1465034369767203e-06   1.971830525984708e-06   -1.8793979933243187e-06
2.1465034369767203e-06   1.971830525984708e-06   -1.8793979933243187e-06
-1.5462093343537363e-05   -2.1592862075236682e-07   2.878091879557473e-05
-1.5462093343537363e-05   -2.1592862075236682e-07   2.878091879557473e-05
-1.5462093343537363e-05   -2.1592862075236682e-07   2.878091879557473e-05
-1.5462093343537363e-05   -2.1592862075236682e-07   2.878091879557473e-05
2.1465034369767203e-06   -3.7343204611936347e-06   5.9939084556064146e-05
2.1465034369767203e-06   -3.7343204611936347e-06   5.9939084556064146e-05
2.1465034369767203e-06   -3.7343204611936347e-06   5.9939084556064146e-05
2.1465034369767203e-06   -3.7343204611936347e-06   5.9939084556064146e-05
-3.4944586092656256e-05   1.971830525984708e-06   1.544292598982611e-06
-3.4944586092656256e-05   1.971830525984708e-06   1.544292598982611e-06
-3.4944586092656256e-05   1.971830525984708e-06   1.544292598982611e-06
-3.4944586092656256e-05   1.971830525984708e-06   1.544292598982611e-06
-3.674549705274185e-05   -3.7139725473757726e-06   6.485885714097332e-05
-3.674549705274185e-05   -3.7139725473757726e-06   6.485885714097332e-05
-3.674549705274185e-05   -3.7139725473757726e-06   6.485885714097332e-05
-3.674549705274185e-05   -3.7139725473757726e-06   6.485885714097332e-05
5.686385189234702e-07   1.6188421904923637e-06   -5.310576545230409e-07
5.686385189234702e-07   1.6188421904923637e-06   -5.310576545230409e-07
5.686385189234702e-07   1.6188421904923637e-06   -5.310576545230409e-07
5.686385189234702e-07   1.6188421904923637e-06   -5.310576545230409e-07
-1.7047973920752626e-05   -3.230107033305729e-07   2.9995074814565567e-05
-1.7047973920752626e-05   -3.230107033305729e-07   2.9995074814565567e-05
-1.7047973920752626e-05   -3.230107033305729e-07   2.9995074814565567e-05
-1.7047973920752626e-05   -3.230107033305729e-07   2.9995074814565567e-05
-3.199403474311185e-05   3.5089148510726587e-06   5.230762467475867e-05
-3.199403474311185e-05   3.5089148510726587e-06   5.230762467475867e-05
-3.199403474311185e-05   3.5089148510726587e-06   5.230762467475867e-05
-3.199403474311185e-05   3.5089148510726587e-06   5.230762467475867e-05
-6.792716957107315e-05   9.742269564304122e-06   -3.840920543904088e-06
-6.792716957107315e-05   9.742269564304122e-06   -3.840920543904088e-06
-6.792716957107315e-05   9.742269564304122e-06   -3.840920543904088e-06
-6.792716957107315e-05   9.742269564304122e-06   -3.840920543904088e-06
-6.97641982892216e-05   3.293852744213916e-06   5.790832096321972e-05
-6.97641982892216e-05   3.293852744213916e-06   5.790832096321972e-05
-6.97641982892216e-05   3.293852744213916e-06   5.790832096321972e-05
-6.97641982892216e-05   3.293852744213916e-06   5.790832096321972e-05
-3.325428662704822e-05   9.214313671933056e-06   -6.493808363700895e-06
-3.325428662704822e-05   9.214313671933056e-06   -6.493808363700895e-06
-3.325428662704822e-05   9.214313671933056e-06   -6.493808363700895e-06
-3.325428662704822e-05   9.214313671933056e-06   -6.493808363700895e-06
-5.033373652130997e-05   6.553686274535751e-06   2.3568317898507176e-05
-5.033373652130997e-05   6.553686274535751e-06   2.3568317898507176e-05
-5.033373652130997e-05   6.553686274535751e-06   2.3568317898507176e-05
-5.033373652130997e-05   6.553686274535751e-06   2.3568317898507176e-05
-3.325428662704827e-05   3.2938527442134824e-06   5.435604440658798e-05
-3.325428662704827e-05   3.2938527442134824e-06   5.435604440658798e-05
-3.325428662704827e-05   3.2938527442134824e-06   5.435604440658798e-05
-3.325428662704827e-05   3.2938527442134824e-06   5.435604440658798e-05
-6.976419828922149e-05   9.21431367193349e-06   -2.9415318070688794e-06
-6.976419828922149e-05   9.21431367193349e-06   -2.9415318070688794e-06
-6.976419828922149e-05   9.21431367193349e-06   -2.9415318070688794e-06
-6.976419828922149e-05   9.21431367193349e-06   -2.9415318070688794e-06
-7.201495104134666e-05   2.901278237414477e-06   6.146078661733653e-05
-7.201495104134666e-05   2.901278237414477e-06   6.146078661733653e-05
-7.201495104134666e-05   2.901278237414477e-06   6.146078661733653e-05
-7.201495104134666e-05   2.901278237414477e-06   6.146078661733653e-05
-3.4944586092656256e-05   8.726572518445545e-06   -3.818331532432688e-06
-3.4944586092656256e-05   8.726572518445545e-06   -3.818331532432688e-06
-3.4944586092656256e-05   8.726572518445545e-06   -3.818331532432688e-06
-3.4944586092656256e-05   8.726572518445545e-06   -3.818331532432688e-06
-5.1703117174752556e-05   6.43067939020206e-06   2.5490089481340823e-05
-5.1703117174752556e-05   6.43067939020206e-06   2.5490089481340823e-05
-5.1703117174752556e-05   6.43067939020206e-06   2.5490089481340823e-05
-5.1703117174752556e-05   6.43067939020206e-06   2.5490089481340823e-05
-3.494458609265623e-05   2.901278237414477e-06   5.7965610048717805e-05
-3.494458609265623e-05   2.901278237414477e-06   5.7965610048717805e-05
-3.494458609265623e-05   2.901278237414477e-06   5.7965610048717805e-05
-3.494458609265623e-05   2.901278237414477e-06   5.7965610048717805e-05
-7.201495104134666e-05   8.726572518445545e-06   -3.2315496381390627e-07
-7.201495104134666e-05   8.726572518445545e-06   -3.2315496381390627e-07
-7.201495104134666e-05   8.726572518445545e-06   -3.2315496381390627e-07
-7.201495104134666e-05   8.726572518445545e-06   -3.2315496381390627e-07
-7.439703649375593e-05   2.4572982963650195e-06   6.429368839438098e-05
-7.439703649375593e-05   2.4572982963650195e-06   6.429368839438098e-05
-7.439703649375593e-05   2.4572982963650195e-06   6.429368839438098e-05
-7.439703649375593e-05   2.4572982963650195e-06   6.429368839438098e-05
-3.6745497052741714e-05   8.071512050315897e-06   -1.8274055930131493e-06
-3.6745497052741714e-05   8.071512050315897e-06   -1.8274055930131493e-06
-3.6745497052741714e-05   8.071512050315897e-06   -1.8274055930131493e-06
-3.6745497052741714e-05   8.071512050315897e-06   -1.8274055930131493e-06
-5.3980247975869176e-05   6.034455451229496e-06   2.811941323831895e-05
-5.3980247975869176e-05   6.034455451229496e-06   2.811941323831895e-05
-5.3980247975869176e-05   6.034455451229496e-06   2.811941323831895e-05
-5.3980247975869176e-05   6.034455451229496e-06   2.811941323831895e-05
-6.792716957107315e-05   1.6080030360110173e-05   2.7542995769572025e-05
-6.792716957107315e-05   1.6080030360110173e-05   2.7542995769572025e-05
-6.792716957107315e-05   1.6080030360110173e-05   2.7542995769572025e-05
-6.792716957107315e-05   1.6080030360110173e-05   2.7542995769572025e-05
-0.00010233009586671092   1.5844063361476757e-05   -2.993679492233818e-05
-0.00010233009586671092   1.5844063361476757e-05   -2.993679492233818e-05
-0.00010233009586671092   1.5844063361476757e-05   -2.993679492233818e-05
-0.00010233009586671092   1.5844063361476757e-05   -2.993679492233818e-05
-0.00010562687626970897   1.551313452341106e-05   4.077548186297124e-05
-0.00010562687626970897   1.551313452341106e-05   4.077548186297124e-05
-0.00010562687626970897   1.551313452341106e-05   4.077548186297124e-05
-0.00010562687626970897   1.551313452341106e-05   4.077548186297124e-05
-6.976419828922149e-05   1.614528381206886e-05   -1.937493767770296e-05
-6.976419828922149e-05   1.614528381206886e-05   -1.937493767770296e-05
-6.976419828922149e-05   1.614528381206886e-05   -1.937493767770296e-05
-6.976419828922149e-05   1.614528381206886e-05   -1.937493767770296e-05
-8.293388900762965e-05   1.61482822063669e-05   2.572747816398488e-06
-8.293388900762965e-05   1.61482822063669e-05   2.572747816398488e-06
-8.293388900762965e-05   1.61482822063669e-05   2.572747816398488e-06
-8.293388900762965e-05   1.61482822063669e-05   2.572747816398488e-06
-6.976419828922143e-05   1.551313452341106e-05   4.0396192289776384e-05
-6.976419828922143e-05   1.551313452341106e-05   4.0396192289776384e-05
-6.976419828922143e-05   1.551313452341106e-05   4.0396192289776384e-05
-6.976419828922143e-05   1.551313452341106e-05   4.0396192289776384e-05
-0.00010562687626970897   1.614528381206886e-05   -1.899564810450816e-05
-0.00010562687626970897   1.614528381206886e-05   -1.899564810450816e-05
-0.00010562687626970897   1.614528381206886e-05   -1.899564810450816e-05
-0.00010562687626970897   1.614528381206886e-05   -1.899564810450816e-05
-0.00010885992732830735   1.511282588179206e-05   5.007077115192155e-05
-0.00010885992732830735   1.511282588179206e-05   5.007077115192155e-05
-0.00010885992732830735   1.511282588179206e-05   5.007077115192155e-05
-0.00010885992732830735   1.511282588179206e-05   5.007077115192155e-05
-7.201495104134655e-05   1.6028076187230098e-05   -1.1886672842943106e-05
-7.201495104134655e-05   1.6028076187230098e-05   -1.1886672842943106e-05
-7.201495104134655e-05   1.6028076187230098e-05   -1.1886672842943106e-05
-7.201495104134655e-05   1.6028076187230098e-05   -1.1886672842943106e-05
-8.670867224188974e-05   1.6143488790848655e-05   1.253361492912575e-05
-8.670867224188974e-05   1.6143488790848655e-05   1.253361492912575e-05
-8.670867224188974e-05   1.6143488790848655e-05   1.253361492912575e-05
-8.670867224188974e-05   1.6143488790848655e-05   1.253361492912575e-05
-7.201495104134655e-05   1.511282588179206e-05   4.9521620968658725e-05
-7.201495104134655e-05   1.511282588179206e-05   4.9521620968658725e-05
-7.201495104134655e-05   1.511282588179206e-05   4.9521620968658725e-05
-7.201495104134655e-05   1.511282588179206e-05   4.9521620968658725e-05
-0.00010885992732830735   1.6028076187229665e-05   -1.1337522659680011e-05
-0.00010885992732830735   1.6028076187229665e-05   -1.1337522659680011e-05
-0.00010885992732830735   1.6028076187229665e-05   -1.1337522659680011e-05
-0.00010885992732830735   1.6028076187229665e-05   -1.1337522659680011e-05
-0.00011267237781987906   1.257518037404027e-05   6.560441370627185e-05
-0.00011267237781987906   1.257518037404027e-05   6.560441370627185e-05
-0.00011267237781987906   1.257518037404027e-05   6.560441370627185e-05
-0.00011267237781987906   1.257518037404027e-05   6.560441370627185e-05
-7.439703649375566e-05   1.4752219159213167e-05   5.059548916290751e-07
-7.439703649375566e-05   1.4752219159213167e-05   5.059548916290751e-07
-7.439703649375566e-05   1.4752219159213167e-05   5.059548916290751e-07
-7.439703649375566e-05   1.4752219159213167e-05   5.059548916290751e-07
-8.807000080643663e-05   1.537504256432726e-05   2.29205347030292e-05
-8.807000080643663e-05   1.537504256432726e-05   2.29205347030292e-05
-8.807000080643663e-05   1.537504256432726e-05   2.29205347030292e-05
-8.807000080643663e-05   1.537504256432726e-05   2.29205347030292e-05
6.818134915891663e-05   -9.541044749458109e-06   5.2660452977251575e-05
6.818134915891663e-05   -9.541044749458109e-06   5.2660452977251575e-05
6.818134915891663e-05   -9.541044749458109e-06   5.2660452977251575e-05
6.818134915891663e-05   -9.541044749458109e-06   5.2660452977251575e-05
3.376520264124173e-05   -6.987455165020223e-06   -3.167637468210697e-06
3.376520264124173e-05   -6.987455165020223e-06   -3.167637468210697e-06
3.376520264124173e-05   -6.987455165020223e-06   -3.167637468210697e-06
3.376520264124173e-05   -6.987455165020223e-06   -3.167637468210697e-06
3.2467860832766465e-05   -1.0816335868657403e-05   4.58005987703325e-05
3.2467860832766465e-05   -1.0816335868657403e-05   4.58005987703325e-05
3.2467860832766465e-05   -1.0816335868657403e-05   4.58005987703325e-05
3.2467860832766465e-05   -1.0816335868657403e-05   4.58005987703325e-05
6.579495651005981e-05   -8.109821974571808e-06   -1.1368469028273841e-05
6.579495651005981e-05   -8.109821974571808e-06   -1.1368469028273841e-05
6.579495651005981e-05   -8.109821974571808e-06   -1.1368469028273841e-05
6.579495651005981e-05   -8.109821974571808e-06   -1.1368469028273841e-05
4.776064943112525e-05   -8.773136690611201e-06   1.90866982662407e-05
4.776064943112525e-05   -8.773136690611201e-06   1.90866982662407e-05
4.776064943112525e-05   -8.773136690611201e-06   1.90866982662407e-05
4.776064943112525e-05   -8.773136690611201e-06   1.90866982662407e-05
6.57949565100597e-05   -1.0816335868656969e-05   4.4176690433881446e-05
6.57949565100597e-05   -1.0816335868656969e-05   4.4176690433881446e-05
6.57949565100597e-05   -1.0816335868656969e-05   4.4176690433881446e-05
6.57949565100597e-05   -1.0816335868656969e-05   4.4176690433881446e-05
3.246786083276659e-05   -8.109821974571808e-06   -9.74456069182273e-06
3.246786083276659e-05   -8.109821974571808e-06   -9.74456069182273e-06
3.246786083276659e-05   -8.109821974571808e-06   -9.74456069182273e-06
3.246786083276659e-05   -8.109821974571808e-06   -9.74456069182273e-06
3.102653703595569e-05   -1.10065483609487e-05   4.105041457913724e-05
3.102653703595569e-05   -1.10065483609487e-05   4.105041457913724e-05
3.102653703595569e-05   -1.10065483609487e-05   4.105041457913724e-05
3.102653703595569e-05   -1.10065483609487e-05   4.105041457913724e-05
6.363456747310447e-05   -8.335757976675722e-06   -1.4898777046674149e-05
6.363456747310447e-05   -8.335757976675722e-06   -1.4898777046674149e-05
6.363456747310447e-05   -8.335757976675722e-06   -1.4898777046674149e-05
6.363456747310447e-05   -8.335757976675722e-06   -1.4898777046674149e-05
4.6859587487487524e-05   -9.207896200644737e-06   1.3582805863735056e-05
4.6859587487487524e-05   -9.207896200644737e-06   1.3582805863735056e-05
4.6859587487487524e-05   -9.207896200644737e-06   1.3582805863735056e-05
4.6859587487487524e-05   -9.207896200644737e-06   1.3582805863735056e-05
6.363456747310425e-05   -1.10065483609487e-05   3.944794034857371e-05
6.363456747310425e-05   -1.10065483609487e-05   3.944794034857371e-05
6.363456747310425e-05   -1.10065483609487e-05   3.944794034857371e-05
6.363456747310425e-05   -1.10065483609487e-05   3.944794034857371e-05
3.102653703595574e-05   -8.335757976675722e-06   -1.3296302816110392e-05
3.102653703595574e-05   -8.335757976675722e-06   -1.3296302816110392e-05
3.102653703595574e-05   -8.335757976675722e-06   -1.3296302816110392e-05
3.102653703595574e-05   -8.335757976675722e-06   -1.3296302816110392e-05
2.9640524263887274e-05   -1.093983120540416e-05   3.443010052718858e-05
2.9640524263887274e-05   -1.093983120540416e-05   3.443010052718858e-05
2.9640524263887274e-05   -1.093983120540416e-05   3.443010052718858e-05
2.9640524263887274e-05   -1.093983120540416e-05   3.443010052718858e-05
6.118827959606066e-05   -8.429415933469426e-06   -1.965574085626095e-05
6.118827959606066e-05   -8.429415933469426e-06   -1.965574085626095e-05
6.118827959606066e-05   -8.429415933469426e-06   -1.965574085626095e-05
6.118827959606066e-05   -8.429415933469426e-06   -1.965574085626095e-05
4.444101062204431e-05   -9.053236171963682e-06   8.63066624353032e-06
4.444101062204431e-05   -9.053236171963682e-06   8.63066624353032e-06
4.444101062204431e-05   -9.053236171963682e-06   8.63066624353032e-06
4.444101062204431e-05   -9.053236171963682e-06   8.63066624353032e-06
3.376520264124173e-05   -3.3699562004287607e-06   5.531416449389083e-05
3.376520264124173e-05   -3.3699562004287607e-06   5.531416449389083e-05
3.376520264124173e-05   -3.3699562004287607e-06   5.531416449389083e-05
3.376520264124173e-05   -3.3699562004287607e-06   5.531416449389083e-05
1.4609000819866753e-06   -1.3355629506894146e-06   2.6942961783094424e-06
1.4609000819866753e-06   -1.3355629506894146e-06   2.6942961783094424e-06
1.4609000819866753e-06   -1.3355629506894146e-06   2.6942961783094424e-06
1.4609000819866753e-06   -1.3355629506894146e-06   2.6942961783094424e-06
2.1577539748075824e-07   -4.055883057775111e-06   5.589333200053037e-05
2.1577539748075824e-07   -4.055883057775111e-06   5.589333200053037e-05
2.1577539748075824e-07   -4.055883057775111e-06   5.589333200053037e-05
2.1577539748075824e-07   -4.055883057775111e-06   5.589333200053037e-05
3.246786083276659e-05   -2.1320053716421088e-06   9.855296633739158e-07
3.246786083276659e-05   -2.1320053716421088e-06   9.855296633739158e-07
3.246786083276659e-05   -2.1320053716421088e-06   9.855296633739158e-07
3.246786083276659e-05   -2.1320053716421088e-06   9.855296633739158e-07
1.6771588110407236e-05   -2.6222219598084733e-06   2.744011415353894e-05
1.6771588110407236e-05   -2.6222219598084733e-06   2.744011415353894e-05
1.6771588110407236e-05   -2.6222219598084733e-06   2.744011415353894e-05
1.6771588110407236e-05   -2.6222219598084733e-06   2.744011415353894e-05
3.2467860832766546e-05   -4.055883057775111e-06   5.4739005388850437e-05
3.2467860832766546e-05   -4.055883057775111e-06   5.4739005388850437e-05
3.2467860832766546e-05   -4.055883057775111e-06   5.4739005388850437e-05
3.2467860832766546e-05   -4.055883057775111e-06   5.4739005388850437e-05
2.1577539748075824e-07   -2.1320053716421088e-06   2.1398562750538606e-06
2.1577539748075824e-07   -2.1320053716421088e-06   2.1398562750538606e-06
2.1577539748075824e-07   -2.1320053716421088e-06   2.1398562750538606e-06
2.1577539748075824e-07   -2.1320053716421088e-06   2.1398562750538606e-06
-1.078431305369192e-06   -4.50652326338492e-06   5.505589693591837e-05
-1.078431305369192e-06   -4.50652326338492e-06   5.505589693591837e-05
-1.078431305369192e-06   -4.50652326338492e-06   5.505589693591837e-05
-1.078431305369192e-06   -4.50652326338492e-06   5.505589693591837e-05
3.102653703595574e-05   -2.7243761388942925e-06   4.783280923492054e-07
3.102653703595574e-05   -2.7243761388942925e-06   4.783280923492054e-07
3.102653703595574e-05   -2.7243761388942925e-06   4.783280923492054e-07
3.102653703595574e-05   -2.7243761388942925e-06   4.783280923492054e-07
1.5342891717249245e-05   -3.0398406312194017e-06   2.6807015652256078e-05
1.5342891717249245e-05   -3.0398406312194017e-06   2.6807015652256078e-05
1.5342891717249245e-05   -3.0398406312194017e-06   2.6807015652256078e-05
1.5342891717249245e-05   -3.0398406312194017e-06   2.6807015652256078e-05
3.102653703595569e-05   -4.50652326338492e-06   5.398660866122451e-05
3.102653703595569e-05   -4.50652326338492e-06   5.398660866122451e-05
3.102653703595569e-05   -4.50652326338492e-06   5.398660866122451e-05
3.102653703595569e-05   -4.50652326338492e-06   5.398660866122451e-05
-1.078431305369192e-06   -2.7243761388942925e-06   1.5476163670435222e-06
-1.078431305369192e-06   -2.7243761388942925e-06   1.5476163670435222e-06
-1.078431305369192e-06   -2.7243761388942925e-06   1.5476163670435222e-06
-1.078431305369192e-06   -2.7243761388942925e-06   1.5476163670435222e-06
-2.4257830650569617e-06   -4.7008205401113945e-06   5.5483574172740004e-05
-2.4257830650569617e-06   -4.7008205401113945e-06   5.5483574172740004e-05
-2.4257830650569617e-06   -4.7008205401113945e-06   5.5483574172740004e-05
-2.4257830650569617e-06   -4.7008205401113945e-06   5.5483574172740004e-05
2.9640524263887342e-05   -3.1925531078103725e-06   1.1347681651186517e-06
2.9640524263887342e-05   -3.1925531078103725e-06   1.1347681651186517e-06
2.9640524263887342e-05   -3.1925531078103725e-06   1.1347681651186517e-06
2.9640524263887342e-05   -3.1925531078103725e-06   1.1347681651186517e-06
1.4267537470223036e-05   -3.2649797665216043e-06   2.6799868816453553e-05
1.4267537470223036e-05   -3.2649797665216043e-06   2.6799868816453553e-05
1.4267537470223036e-05   -3.2649797665216043e-06   2.6799868816453553e-05
1.4267537470223036e-05   -3.2649797665216043e-06   2.6799868816453553e-05
1.4609000819866753e-06   2.9875778474759e-06   5.711294847007375e-05
1.4609000819866753e-06   2.9875778474759e-06   5.711294847007375e-05
1.4609000819866753e-06   2.9875778474759e-06   5.711294847007375e-05
1.4609000819866753e-06   2.9875778474759e-06   5.711294847007375e-05
-2.9897873554715843e-05   4.342447513124709e-06   5.661247541625773e-06
-2.9897873554715843e-05   4.342447513124709e-06   5.661247541625773e-06
-2.9897873554715843e-05   4.342447513124709e-06   5.661247541625773e-06
-2.9897873554715843e-05   4.342447513124709e-06   5.661247541625773e-06
-3.119866873969637e-05   2.4615297019446765e-06   5.790103726099243e-05
-3.119866873969637e-05   2.4615297019446765e-06   5.790103726099243e-05
-3.119866873969637e-05   2.4615297019446765e-06   5.790103726099243e-05
-3.119866873969637e-05   2.4615297019446765e-06   5.790103726099243e-05
2.1577539748075824e-07   3.678862228441871e-06   4.8132308497988e-06
2.1577539748075824e-07   3.678862228441871e-06   4.8132308497988e-06
2.1577539748075824e-07   3.678862228441871e-06   4.8132308497988e-06
2.1577539748075824e-07   3.678862228441871e-06   4.8132308497988e-06
-1.4878037922341457e-05   3.406721082382675e-06   3.0132871070471384e-05
-1.4878037922341457e-05   3.406721082382675e-06   3.0132871070471384e-05
-1.4878037922341457e-05   3.406721082382675e-06   3.0132871070471384e-05
-1.4878037922341457e-05   3.406721082382675e-06   3.0132871070471384e-05
2.1577539748075824e-07   2.4615297019446765e-06   5.71706377450942e-05
2.1577539748075824e-07   2.4615297019446765e-06   5.71706377450942e-05
2.1577539748075824e-07   2.4615297019446765e-06   5.71706377450942e-05
2.1577539748075824e-07   2.4615297019446765e-06   5.71706377450942e-05
-3.119866873969637e-05   3.678862228441871e-06   5.543630365697138e-06
-3.119866873969637e-05   3.678862228441871e-06   5.543630365697138e-06
-3.119866873969637e-05   3.678862228441871e-06   5.543630365697138e-06
-3.119866873969637e-05   3.678862228441871e-06   5.543630365697138e-06
-3.257249598496211e-05   1.971830525984708e-06   5.844953194924238e-05
-3.257249598496211e-05   1.971830525984708e-06   5.844953194924238e-05
-3.257249598496211e-05   1.971830525984708e-06   5.844953194924238e-05
-3.257249598496211e-05   1.971830525984708e-06   5.844953194924238e-05
-1.0784313053692192e-06   3.0344832075406697e-06   5.321832540987131e-06
-1.0784313053692192e-06   3.0344832075406697e-06   5.321832540987131e-06
-1.0784313053692192e-06   3.0344832075406697e-06   5.321832540987131e-06
-1.0784313053692192e-06   3.0344832075406697e-06   5.321832540987131e-06
-1.6086562042242264e-05   3.0274301410370026e-06   3.0339615609011245e-05
-1.6086562042242264e-05   3.0274301410370026e-06   3.0339615609011245e-05
-1.6086562042242264e-05   3.0274301410370026e-06   3.0339615609011245e-05
-1.6086562042242264e-05   3.0274301410370026e-06   3.0339615609011245e-05
-1.078431305369192e-06   1.971830525984708e-06   5.7811940340308935e-05
-1.078431305369192e-06   1.971830525984708e-06   5.7811940340308935e-05
-1.078431305369192e-06   1.971830525984708e-06   5.7811940340308935e-05
-1.078431305369192e-06   1.971830525984708e-06   5.7811940340308935e-05
-3.257249598496219e-05   3.0344832075406697e-06   5.95942414992074e-06
-3.257249598496219e-05   3.0344832075406697e-06   5.95942414992074e-06
-3.257249598496219e-05   3.0344832075406697e-06   5.95942414992074e-06
-3.257249598496219e-05   3.0344832075406697e-06   5.95942414992074e-06
-3.399029644783131e-05   1.6188421904923637e-06   5.932095699247991e-05
-3.399029644783131e-05   1.6188421904923637e-06   5.932095699247991e-05
-3.399029644783131e-05   1.6188421904923637e-06   5.932095699247991e-05
-3.399029644783131e-05   1.6188421904923637e-06   5.932095699247991e-05
-2.425783065056989e-06   2.4608557641862122e-06   6.208226543639973e-06
-2.425783065056989e-06   2.4608557641862122e-06   6.208226543639973e-06
-2.425783065056989e-06   2.4608557641862122e-06   6.208226543639973e-06
-2.425783065056989e-06   2.4608557641862122e-06   6.208226543639973e-06
-1.7394364010486497e-05   2.663961718067133e-06   3.1033997880361864e-05
-1.7394364010486497e-05   2.663961718067133e-06   3.1033997880361864e-05
-1.7394364010486497e-05   2.663961718067133e-06   3.1033997880361864e-05
-1.7394364010486497e-05   2.663961718067133e-06   3.1033997880361864e-05
-2.989787355471595e-05   9.742269564304556e-06   4.9811173018296604e-05
-2.989787355471595e-05   9.742269564304556e-06   4.9811173018296604e-05
-2.989787355471595e-05   9.742269564304556e-06   4.9811173018296604e-05
-2.989787355471595e-05   9.742269564304556e-06   4.9811173018296604e-05
-6.026033538058097e-05   9.865372813233804e-06   -7.190680754538478e-07
-6.026033538058097e-05   9.865372813233804e-06   -7.190680754538478e-07
-6.026033538058097e-05   9.865372813233804e-06   -7.190680754538478e-07
-6.026033538058097e-05   9.865372813233804e-06   -7.190680754538478e-07
-6.17705812612138e-05   9.21431367193349e-06   5.068346315795875e-05
-6.17705812612138e-05   9.21431367193349e-06   5.068346315795875e-05
-6.17705812612138e-05   9.21431367193349e-06   5.068346315795875e-05
-6.17705812612138e-05   9.21431367193349e-06   5.068346315795875e-05
-3.1198668739696454e-05   9.230934634169366e-06   -2.796969552449832e-07
-3.1198668739696454e-05   9.230934634169366e-06   -2.796969552449832e-07
-3.1198668739696454e-05   9.230934634169366e-06   -2.796969552449832e-07
-3.1198668739696454e-05   9.230934634169366e-06   -2.796969552449832e-07
-4.5577235830214e-05   9.491334574084943e-06   2.3528341565001634e-05
-4.5577235830214e-05   9.491334574084943e-06   2.3528341565001634e-05
-4.5577235830214e-05   9.491334574084943e-06   2.3528341565001634e-05
-4.5577235830214e-05   9.491334574084943e-06   2.3528341565001634e-05
-3.1198668739696454e-05   9.21431367193349e-06   5.0673490580617356e-05
-3.1198668739696454e-05   9.21431367193349e-06   5.0673490580617356e-05
-3.1198668739696454e-05   9.21431367193349e-06   5.0673490580617356e-05
-3.1198668739696454e-05   9.21431367193349e-06   5.0673490580617356e-05
-6.17705812612137e-05   9.230934634169366e-06   -2.697243779031539e-07
-6.17705812612137e-05   9.230934634169366e-06   -2.697243779031539e-07
-6.17705812612137e-05   9.230934634169366e-06   -2.697243779031539e-07
-6.17705812612137e-05   9.230934634169366e-06   -2.697243779031539e-07
-6.344482625078129e-05   8.726572518445545e-06   5.3038991266754053e-05
-6.344482625078129e-05   8.726572518445545e-06   5.3038991266754053e-05
-6.344482625078129e-05   8.726572518445545e-06   5.3038991266754053e-05
-6.344482625078129e-05   8.726572518445545e-06   5.3038991266754053e-05
-3.257249598496219e-05   8.646711599990479e-06   1.633024041461709e-06
-3.257249598496219e-05   8.646711599990479e-06   1.633024041461709e-06
-3.257249598496219e-05   8.646711599990479e-06   1.633024041461709e-06
-3.257249598496219e-05   8.646711599990479e-06   1.633024041461709e-06
-4.667047247905248e-05   9.132596399785697e-06   2.4838120651735247e-05
-4.667047247905248e-05   9.132596399785697e-06   2.4838120651735247e-05
-4.667047247905248e-05   9.132596399785697e-06   2.4838120651735247e-05
-4.667047247905248e-05   9.132596399785697e-06   2.4838120651735247e-05
-3.2572495984962166e-05   8.726572518445979e-06   5.308690781782692e-05
-3.2572495984962166e-05   8.726572518445979e-06   5.308690781782692e-05
-3.2572495984962166e-05   8.726572518445979e-06   5.308690781782692e-05
-3.2572495984962166e-05   8.726572518445979e-06   5.308690781782692e-05
-6.344482625078118e-05   8.646711599990479e-06   1.5851074903888967e-06
-6.344482625078118e-05   8.646711599990479e-06   1.5851074903888967e-06
-6.344482625078118e-05   8.646711599990479e-06   1.5851074903888967e-06
-6.344482625078118e-05   8.646711599990479e-06   1.5851074903888967e-06
-6.504070271990921e-05   8.071512050315897e-06   5.4742314724465224e-05
-6.504070271990921e-05   8.071512050315897e-06   5.4742314724465224e-05
-6.504070271990921e-05   8.071512050315897e-06   5.4742314724465224e-05
-6.504070271990921e-05   8.071512050315897e-06   5.4742314724465224e-05
-3.3990296447831416e-05   7.933836238975967e-06   3.0742430911395485e-06
-3.3990296447831416e-05   7.933836238975967e-06   3.0742430911395485e-06
-3.3990296447831416e-05   7.933836238975967e-06   3.0742430911395485e-06
-3.3990296447831416e-05   7.933836238975967e-06   3.0742430911395485e-06
-4.84066232812606e-05   8.667503397760939e-06   2.666125418491908e-05
-4.84066232812606e-05   8.667503397760939e-06   2.666125418491908e-05
-4.84066232812606e-05   8.667503397760939e-06   2.666125418491908e-05
-4.84066232812606e-05   8.667503397760939e-06   2.666125418491908e-05
-6.026033538058086e-05   1.5844063361476757e-05   2.3930740788400805e-05
-6.026033538058086e-05   1.5844063361476757e-05   2.3930740788400805e-05
-6.026033538058086e-05   1.5844063361476757e-05   2.3930740788400805e-05
-6.026033538058086e-05   1.5844063361476757e-05   2.3930740788400805e-05
-8.909544045653184e-05   1.4196112495415067e-05   -2.511653819115456e-05
-8.909544045653184e-05   1.4196112495415067e-05   -2.511653819115456e-05
-8.909544045653184e-05   1.4196112495415067e-05   -2.511653819115456e-05
-8.909544045653184e-05   1.4196112495415067e-05   -2.511653819115456e-05
-9.147355330080378e-05   1.614528381206886e-05   3.31694049281123e-05
-9.147355330080378e-05   1.614528381206886e-05   3.31694049281123e-05
-9.147355330080378e-05   1.614528381206886e-05   3.31694049281123e-05
-9.147355330080378e-05   1.614528381206886e-05   3.31694049281123e-05
-6.17705812612138e-05   1.4344196546715003e-05   -1.5254896111992471e-05
-6.17705812612138e-05   1.4344196546715003e-05   -1.5254896111992471e-05
-6.17705812612138e-05   1.4344196546715003e-05   -1.5254896111992471e-05
-6.17705812612138e-05   1.4344196546715003e-05   -1.5254896111992471e-05
-7.275368627035578e-05   1.504562128559761e-05   2.6294240599148734e-06
-7.275368627035578e-05   1.504562128559761e-05   2.6294240599148734e-06
-7.275368627035578e-05   1.504562128559761e-05   2.6294240599148734e-06
-7.275368627035578e-05   1.504562128559761e-05   2.6294240599148734e-06
-6.177058126121364e-05   1.614528381206886e-05   3.4250057287324616e-05
-6.177058126121364e-05   1.614528381206886e-05   3.4250057287324616e-05
-6.177058126121364e-05   1.614528381206886e-05   3.4250057287324616e-05
-6.177058126121364e-05   1.614528381206886e-05   3.4250057287324616e-05
-9.147355330080411e-05   1.4344196546715003e-05   -1.6335548471204785e-05
-9.147355330080411e-05   1.4344196546715003e-05   -1.6335548471204785e-05
-9.147355330080411e-05   1.4344196546715003e-05   -1.6335548471204785e-05
-9.147355330080411e-05   1.4344196546715003e-05   -1.6335548471204785e-05
-9.379627553802669e-05   1.6028076187229665e-05   4.0370001893782516e-05
-9.379627553802669e-05   1.6028076187229665e-05   4.0370001893782516e-05
-9.379627553802669e-05   1.6028076187229665e-05   4.0370001893782516e-05
-9.379627553802669e-05   1.6028076187229665e-05   4.0370001893782516e-05
-6.344482625078129e-05   1.4185623697491982e-05   -9.110275424451149e-06
-6.344482625078129e-05   1.4185623697491982e-05   -9.110275424451149e-06
-6.344482625078129e-05   1.4185623697491982e-05   -9.110275424451149e-06
-6.344482625078129e-05   1.4185623697491982e-05   -9.110275424451149e-06
-7.567118698598212e-05   1.531929657825823e-05   1.0586788739091655e-05
-7.567118698598212e-05   1.531929657825823e-05   1.0586788739091655e-05
-7.567118698598212e-05   1.531929657825823e-05   1.0586788739091655e-05
-7.567118698598212e-05   1.531929657825823e-05   1.0586788739091655e-05
-6.344482625078129e-05   1.6028076187229665e-05   4.1475473387625125e-05
-6.344482625078129e-05   1.6028076187229665e-05   4.1475473387625125e-05
-6.344482625078129e-05   1.6028076187229665e-05   4.1475473387625125e-05
-6.344482625078129e-05   1.6028076187229665e-05   4.1475473387625125e-05
-9.379627553802701e-05   1.4185623697491982e-05   -1.0215746918293975e-05
-9.379627553802701e-05   1.4185623697491982e-05   -1.0215746918293975e-05
-9.379627553802701e-05   1.4185623697491982e-05   -1.0215746918293975e-05
-9.379627553802701e-05   1.4185623697491982e-05   -1.0215746918293975e-05
-9.650955680966678e-05   1.4752219159213167e-05   5.270983098245186e-05
-9.650955680966678e-05   1.4752219159213167e-05   5.270983098245186e-05
-9.650955680966678e-05   1.4752219159213167e-05   5.270983098245186e-05
-9.650955680966678e-05   1.4752219159213167e-05   5.270983098245186e-05
-6.504070271990921e-05   1.3090025868739766e-05   1.259056807140029e-06
-6.504070271990921e-05   1.3090025868739766e-05   1.259056807140029e-06
-6.504070271990921e-05   1.3090025868739766e-05   1.259056807140029e-06
-6.504070271990921e-05   1.3090025868739766e-05   1.259056807140029e-06
-7.641871042562902e-05   1.48674426005929e-05   1.9155952944228927e-05
-7.641871042562902e-05   1.48674426005929e-05   1.9155952944228927e-05
-7.641871042562902e-05   1.48674426005929e-05   1.9155952944228927e-05
-7.641871042562902e-05   1.48674426005929e-05   1.9155952944228927e-05
5.170040802257512e-05   -6.987455165020223e-06   4.392502062490022e-05
5.170040802257512e-05   -6.987455165020223e-06   4.392502062490022e-05
5.170040802257512e-05   -6.987455165020223e-06   4.392502062490022e-05
5.170040802257512e-05   -6.987455165020223e-06   4.392502062490022e-05
2.4344592712868202e-05   -4.610560420567535e-06   -2.4186804460624677e-07
2.4344592712868202e-05   -4.610560420567535e-06   -2.4186804460624677e-07
2.4344592712868202e-05   -4.610560420567535e-06   -2.4186804460624677e-07
2.4344592712868202e-05   -4.610560420567535e-06   -2.4186804460624677e-07
2.318640138665541e-05   -8.109821974571808e-06   3.860152809710216e-05
2.318640138665541e-05   -8.109821974571808e-06   3.860152809710216e-05
2.318640138665541e-05   -8.109821974571808e-06   3.860152809710216e-05
2.318640138665541e-05   -8.109821974571808e-06   3.860152809710216e-05
4.9459978478751937e-05   -5.598690310740749e-06   -6.6944460546901195e-06
4.9459978478751937e-05   -5.598690310740749e-06   -6.6944460546901195e-06
4.9459978478751937e-05   -5.598690310740749e-06   -6.6944460546901195e-06
4.9459978478751937e-05   -5.598690310740749e-06   -6.6944460546901195e-06
3.5423974560089844e-05   -6.375354163723826e-06   1.7164892121536218e-05
3.5423974560089844e-05   -6.375354163723826e-06   1.7164892121536218e-05
3.5423974560089844e-05   -6.375354163723826e-06   1.7164892121536218e-05
3.5423974560089844e-05   -6.375354163723826e-06   1.7164892121536218e-05
4.9459978478751937e-05   -8.109821974571808e-06   3.7094849098804174e-05
4.9459978478751937e-05   -8.109821974571808e-06   3.7094849098804174e-05
4.9459978478751937e-05   -8.109821974571808e-06   3.7094849098804174e-05
4.9459978478751937e-05   -8.109821974571808e-06   3.7094849098804174e-05
2.318640138665545e-05   -5.598690310740749e-06   -5.187767056391741e-06
2.318640138665545e-05   -5.598690310740749e-06   -5.187767056391741e-06
2.318640138665545e-05   -5.598690310740749e-06   -5.187767056391741e-06
2.318640138665545e-05   -5.598690310740749e-06   -5.187767056391741e-06
2.1908471710905065e-05   -8.335757976676156e-06   3.485886702509931e-05
2.1908471710905065e-05   -8.335757976676156e-06   3.485886702509931e-05
2.1908471710905065e-05   -8.335757976676156e-06   3.485886702509931e-05
2.1908471710905065e-05   -8.335757976676156e-06   3.485886702509931e-05
4.7497026335716156e-05   -5.863076117240164e-06   -9.272333131913834e-06
4.7497026335716156e-05   -5.863076117240164e-06   -9.272333131913834e-06
4.7497026335716156e-05   -5.863076117240164e-06   -9.272333131913834e-06
4.7497026335716156e-05   -5.863076117240164e-06   -9.272333131913834e-06
3.4492598429380534e-05   -6.776034299688094e-06   1.294948828811475e-05
3.4492598429380534e-05   -6.776034299688094e-06   1.294948828811475e-05
3.4492598429380534e-05   -6.776034299688094e-06   1.294948828811475e-05
3.4492598429380534e-05   -6.776034299688094e-06   1.294948828811475e-05
4.749702633571607e-05   -8.335757976676156e-06   3.337525790943815e-05
4.749702633571607e-05   -8.335757976676156e-06   3.337525790943815e-05
4.749702633571607e-05   -8.335757976676156e-06   3.337525790943815e-05
4.749702633571607e-05   -8.335757976676156e-06   3.337525790943815e-05
2.19084717109051e-05   -5.863076117240164e-06   -7.788724016252442e-06
2.19084717109051e-05   -5.863076117240164e-06   -7.788724016252442e-06
2.19084717109051e-05   -5.863076117240164e-06   -7.788724016252442e-06
2.19084717109051e-05   -5.863076117240164e-06   -7.788724016252442e-06
2.0728718877922917e-05   -8.429415933468992e-06   2.9793832530254334e-05
2.0728718877922917e-05   -8.429415933468992e-06   2.9793832530254334e-05
2.0728718877922917e-05   -8.429415933468992e-06   2.9793832530254334e-05
2.0728718877922917e-05   -8.429415933468992e-06   2.9793832530254334e-05
4.5304629483924274e-05   -6.112052422507699e-06   -1.2556436586324716e-05
4.5304629483924274e-05   -6.112052422507699e-06   -1.2556436586324716e-05
4.5304629483924274e-05   -6.112052422507699e-06   -1.2556436586324716e-05
4.5304629483924274e-05   -6.112052422507699e-06   -1.2556436586324716e-05
3.2446474912855685e-05   -6.738225621158098e-06   9.249524951313883e-06
3.2446474912855685e-05   -6.738225621158098e-06   9.249524951313883e-06
3.2446474912855685e-05   -6.738225621158098e-06   9.249524951313883e-06
3.2446474912855685e-05   -6.738225621158098e-06   9.249524951313883e-06
2.434459271286812e-05   -1.3355629506894146e-06   4.9992455168248367e-05
2.434459271286812e-05   -1.3355629506894146e-06   4.9992455168248367e-05
2.434459271286812e-05   -1.3355629506894146e-06   4.9992455168248367e-05
2.434459271286812e-05   -1.3355629506894146e-06   4.9992455168248367e-05
-1.5512229978899826e-06   -1.9768232855776197e-08   7.622239147685042e-06
-1.5512229978899826e-06   -1.9768232855776197e-08   7.622239147685042e-06
-1.5512229978899826e-06   -1.9768232855776197e-08   7.622239147685042e-06
-1.5512229978899826e-06   -1.9768232855776197e-08   7.622239147685042e-06
-2.6398430507312213e-06   -2.1320053716421088e-06   5.0082826822484515e-05
-2.6398430507312213e-06   -2.1320053716421088e-06   5.0082826822484515e-05
-2.6398430507312213e-06   -2.1320053716421088e-06   5.0082826822484515e-05
-2.6398430507312213e-06   -2.1320053716421088e-06   5.0082826822484515e-05
2.318640138665545e-05   -8.799914213331213e-07   6.2878777233214085e-06
2.318640138665545e-05   -8.799914213331213e-07   6.2878777233214085e-06
2.318640138665545e-05   -8.799914213331213e-07   6.2878777233214085e-06
2.318640138665545e-05   -8.799914213331213e-07   6.2878777233214085e-06
1.0659582484099112e-05   -1.122940152165422e-06   2.731167846608119e-05
1.0659582484099112e-05   -1.122940152165422e-06   2.731167846608119e-05
1.0659582484099112e-05   -1.122940152165422e-06   2.731167846608119e-05
1.0659582484099112e-05   -1.122940152165422e-06   2.731167846608119e-05
2.318640138665539e-05   -2.1320053716421088e-06   4.933161845229925e-05
2.318640138665539e-05   -2.1320053716421088e-06   4.933161845229925e-05
2.318640138665539e-05   -2.1320053716421088e-06   4.933161845229925e-05
2.318640138665539e-05   -2.1320053716421088e-06   4.933161845229925e-05
-2.6398430507312213e-06   -8.799914213331213e-07   7.039086093507023e-06
-2.6398430507312213e-06   -8.799914213331213e-07   7.039086093507023e-06
-2.6398430507312213e-06   -8.799914213331213e-07   7.039086093507023e-06
-2.6398430507312213e-06   -8.799914213331213e-07   7.039086093507023e-06
-3.751525955824925e-06   -2.7243761388942925e-06   4.933286107976936e-05
-3.751525955824925e-06   -2.7243761388942925e-06   4.933286107976936e-05
-3.751525955824925e-06   -2.7243761388942925e-06   4.933286107976936e-05
-3.751525955824925e-06   -2.7243761388942925e-06   4.933286107976936e-05
2.19084717109051e-05   -1.558770895210542e-06   5.8668351556757096e-06
2.19084717109051e-05   -1.558770895210542e-06   5.8668351556757096e-06
2.19084717109051e-05   -1.558770895210542e-06   5.8668351556757096e-06
2.19084717109051e-05   -1.558770895210542e-06   5.8668351556757096e-06
9.439173215946265e-06   -1.6541982894050997e-06   2.6706255750459044e-05
9.439173215946265e-06   -1.6541982894050997e-06   2.6706255750459044e-05
9.439173215946265e-06   -1.6541982894050997e-06   2.6706255750459044e-05
9.439173215946265e-06   -1.6541982894050997e-06   2.6706255750459044e-05
2.1908471710905065e-05   -2.7243761388942925e-06   4.863349793355915e-05
2.1908471710905065e-05   -2.7243761388942925e-06   4.863349793355915e-05
2.1908471710905065e-05   -2.7243761388942925e-06   4.863349793355915e-05
2.1908471710905065e-05   -2.7243761388942925e-06   4.863349793355915e-05
-3.751525955824925e-06   -1.558770895210542e-06   6.566198301885713e-06
-3.751525955824925e-06   -1.558770895210542e-06   6.566198301885713e-06
-3.751525955824925e-06   -1.558770895210542e-06   6.566198301885713e-06
-3.751525955824925e-06   -1.558770895210542e-06   6.566198301885713e-06
-4.86917942758665e-06   -3.1925531078103725e-06   4.968064587828995e-05
-4.86917942758665e-06   -3.1925531078103725e-06   4.968064587828995e-05
-4.86917942758665e-06   -3.1925531078103725e-06   4.968064587828995e-05
-4.86917942758665e-06   -3.1925531078103725e-06   4.968064587828995e-05
2.0728718877922937e-05   -2.1882972914494606e-06   6.414928545957514e-06
2.0728718877922937e-05   -2.1882972914494606e-06   6.414928545957514e-06
2.0728718877922937e-05   -2.1882972914494606e-06   6.414928545957514e-06
2.0728718877922937e-05   -2.1882972914494606e-06   6.414928545957514e-06
8.506137132623185e-06   -2.048316310975396e-06   2.6701909533173454e-05
8.506137132623185e-06   -2.048316310975396e-06   2.6701909533173454e-05
8.506137132623185e-06   -2.048316310975396e-06   2.6701909533173454e-05
8.506137132623185e-06   -2.048316310975396e-06   2.6701909533173454e-05
-1.5512229978899826e-06   4.342447513124709e-06   5.2935961562875595e-05
-1.5512229978899826e-06   4.342447513124709e-06   5.2935961562875595e-05
-1.5512229978899826e-06   4.342447513124709e-06   5.2935961562875595e-05
-1.5512229978899826e-06   4.342447513124709e-06   5.2935961562875595e-05
-2.6903832482580805e-05   4.468091050778989e-06   1.0756998544316464e-05
-2.6903832482580805e-05   4.468091050778989e-06   1.0756998544316464e-05
-2.6903832482580805e-05   4.468091050778989e-06   1.0756998544316464e-05
-2.6903832482580805e-05   4.468091050778989e-06   1.0756998544316464e-05
-2.799807145492924e-05   3.678862228441871e-06   5.277574227754967e-05
-2.799807145492924e-05   3.678862228441871e-06   5.277574227754967e-05
-2.799807145492924e-05   3.678862228441871e-06   5.277574227754967e-05
-2.799807145492924e-05   3.678862228441871e-06   5.277574227754967e-05
-2.6398430507312484e-06   3.711430362308716e-06   1.0492487390233011e-05
-2.6398430507312484e-06   3.711430362308716e-06   1.0492487390233011e-05
-2.6398430507312484e-06   3.711430362308716e-06   1.0492487390233011e-05
-2.6398430507312484e-06   3.711430362308716e-06   1.0492487390233011e-05
-1.4811636070133499e-05   3.979885587800883e-06   3.0617735953941596e-05
-1.4811636070133499e-05   3.979885587800883e-06   3.0617735953941596e-05
-1.4811636070133499e-05   3.979885587800883e-06   3.0617735953941596e-05
-1.4811636070133499e-05   3.979885587800883e-06   3.0617735953941596e-05
-2.6398430507312484e-06   3.678862228441871e-06   5.2756201397229996e-05
-2.6398430507312484e-06   3.678862228441871e-06   5.2756201397229996e-05
-2.6398430507312484e-06   3.678862228441871e-06   5.2756201397229996e-05
-2.6398430507312484e-06   3.678862228441871e-06   5.2756201397229996e-05
-2.799807145492924e-05   3.711430362308716e-06   1.0512028270552847e-05
-2.799807145492924e-05   3.711430362308716e-06   1.0512028270552847e-05
-2.799807145492924e-05   3.711430362308716e-06   1.0512028270552847e-05
-2.799807145492924e-05   3.711430362308716e-06   1.0512028270552847e-05
-2.9119766911784678e-05   3.0344832075406697e-06   5.3066432270346955e-05
-2.9119766911784678e-05   3.0344832075406697e-06   5.3066432270346955e-05
-2.9119766911784678e-05   3.0344832075406697e-06   5.3066432270346955e-05
-2.9119766911784678e-05   3.0344832075406697e-06   5.3066432270346955e-05
-3.751525955824925e-06   2.966741568597841e-06   1.0826675660446721e-05
-3.751525955824925e-06   2.966741568597841e-06   1.0826675660446721e-05
-3.751525955824925e-06   2.966741568597841e-06   1.0826675660446721e-05
-3.751525955824925e-06   2.966741568597841e-06   1.0826675660446721e-05
-1.582781700096743e-05   3.4707873892282463e-06   3.0651399909973655e-05
-1.582781700096743e-05   3.4707873892282463e-06   3.0651399909973655e-05
-1.582781700096743e-05   3.4707873892282463e-06   3.0651399909973655e-05
-1.582781700096743e-05   3.4707873892282463e-06   3.0651399909973655e-05
-3.751525955824925e-06   3.0344832075406697e-06   5.310707725371291e-05
-3.751525955824925e-06   3.0344832075406697e-06   5.310707725371291e-05
-3.751525955824925e-06   3.0344832075406697e-06   5.310707725371291e-05
-3.751525955824925e-06   3.0344832075406697e-06   5.310707725371291e-05
-2.9119766911784678e-05   2.966741568597841e-06   1.0786030677080926e-05
-2.9119766911784678e-05   2.966741568597841e-06   1.0786030677080926e-05
-2.9119766911784678e-05   2.966741568597841e-06   1.0786030677080926e-05
-2.9119766911784678e-05   2.966741568597841e-06   1.0786030677080926e-05
-3.0241135947200407e-05   2.460855764186646e-06   5.372864983905698e-05
-3.0241135947200407e-05   2.460855764186646e-06   5.372864983905698e-05
-3.0241135947200407e-05   2.460855764186646e-06   5.372864983905698e-05
-3.0241135947200407e-05   2.460855764186646e-06   5.372864983905698e-05
-4.86917942758665e-06   2.260032500230394e-06   1.1562549598074416e-05
-4.86917942758665e-06   2.260032500230394e-06   1.1562549598074416e-05
-4.86917942758665e-06   2.260032500230394e-06   1.1562549598074416e-05
-4.86917942758665e-06   2.260032500230394e-06   1.1562549598074416e-05
-1.6891555436989667e-05   2.97460354442081e-06   3.117110032056607e-05
-1.6891555436989667e-05   2.97460354442081e-06   3.117110032056607e-05
-1.6891555436989667e-05   2.97460354442081e-06   3.117110032056607e-05
-1.6891555436989667e-05   2.97460354442081e-06   3.117110032056607e-05
-2.6903832482580778e-05   9.86537281323337e-06   4.655717011903043e-05
-2.6903832482580778e-05   9.86537281323337e-06   4.655717011903043e-05
-2.6903832482580778e-05   9.86537281323337e-06   4.655717011903043e-05
-2.6903832482580778e-05   9.86537281323337e-06   4.655717011903043e-05
-5.168962236239946e-05   8.785759847664693e-06   4.599752539991356e-06
-5.168962236239946e-05   8.785759847664693e-06   4.599752539991356e-06
-5.168962236239946e-05   8.785759847664693e-06   4.599752539991356e-06
-5.168962236239946e-05   8.785759847664693e-06   4.599752539991356e-06
-5.2866841297109877e-05   9.230934634169366e-06   4.625009847348009e-05
-5.2866841297109877e-05   9.230934634169366e-06   4.625009847348009e-05
-5.2866841297109877e-05   9.230934634169366e-06   4.625009847348009e-05
-5.2866841297109877e-05   9.230934634169366e-06   4.625009847348009e-05
-2.799807145492924e-05   8.060407162290267e-06   5.504465219639701e-06
-2.799807145492924e-05   8.060407162290267e-06   5.504465219639701e-06
-2.799807145492924e-05   8.060407162290267e-06   5.504465219639701e-06
-2.799807145492924e-05   8.060407162290267e-06   5.504465219639701e-06
-3.973307065992066e-05   8.869298935951838e-06   2.4577462163761924e-05
-3.973307065992066e-05   8.869298935951838e-06   2.4577462163761924e-05
-3.973307065992066e-05   8.869298935951838e-06   2.4577462163761924e-05
-3.973307065992066e-05   8.869298935951838e-06   2.4577462163761924e-05
-2.799807145492924e-05   9.230934634169366e-06   4.695241495660755e-05
-2.799807145492924e-05   9.230934634169366e-06   4.695241495660755e-05
-2.799807145492924e-05   9.230934634169366e-06   4.695241495660755e-05
-2.799807145492924e-05   9.230934634169366e-06   4.695241495660755e-05
-5.2866841297109877e-05   8.060407162290267e-06   4.802148736512404e-06
-5.2866841297109877e-05   8.060407162290267e-06   4.802148736512404e-06
-5.2866841297109877e-05   8.060407162290267e-06   4.802148736512404e-06
-5.2866841297109877e-05   8.060407162290267e-06   4.802148736512404e-06
-5.416311271069926e-05   8.646711599990479e-06   4.7983136764703435e-05
-5.416311271069926e-05   8.646711599990479e-06   4.7983136764703435e-05
-5.416311271069926e-05   8.646711599990479e-06   4.7983136764703435e-05
-5.416311271069926e-05   8.646711599990479e-06   4.7983136764703435e-05
-2.911976691178476e-05   7.3852192713488515e-06   7.00112249703088e-06
-2.911976691178476e-05   7.3852192713488515e-06   7.00112249703088e-06
-2.911976691178476e-05   7.3852192713488515e-06   7.00112249703088e-06
-2.911976691178476e-05   7.3852192713488515e-06   7.00112249703088e-06
-4.057952593877866e-05   8.405907557062445e-06   2.5488307903927233e-05
-4.057952593877866e-05   8.405907557062445e-06   2.5488307903927233e-05
-4.057952593877866e-05   8.405907557062445e-06   2.5488307903927233e-05
-4.057952593877866e-05   8.405907557062445e-06   2.5488307903927233e-05
-2.9119766911784678e-05   8.646711599990479e-06   4.874003216188841e-05
-2.9119766911784678e-05   8.646711599990479e-06   4.874003216188841e-05
-2.9119766911784678e-05   8.646711599990479e-06   4.874003216188841e-05
-2.9119766911784678e-05   8.646711599990479e-06   4.874003216188841e-05
-5.416311271069926e-05   7.3852192713488515e-06   6.244227099845958e-06
-5.416311271069926e-05   7.3852192713488515e-06   6.244227099845958e-06
-5.416311271069926e-05   7.3852192713488515e-06   6.244227099845958e-06
-5.416311271069926e-05   7.3852192713488515e-06   6.244227099845958e-06
-5.534876515855147e-05   7.933836238975967e-06   4.9288895666660826e-05
-5.534876515855147e-05   7.933836238975967e-06   4.9288895666660826e-05
-5.534876515855147e-05   7.933836238975967e-06   4.9288895666660826e-05
-5.534876515855147e-05   7.933836238975967e-06   4.9288895666660826e-05
-3.024113594720049e-05   6.5995652795101944e-06   8.243409556755326e-06
-3.024113594720049e-05   6.5995652795101944e-06   8.243409556755326e-06
-3.024113594720049e-05   6.5995652795101944e-06   8.243409556755326e-06
-3.024113594720049e-05   6.5995652795101944e-06   8.243409556755326e-06
-4.1923327967122235e-05   7.88394331777912e-06   2.694310276699877e-05
-4.1923327967122235e-05   7.88394331777912e-06   2.694310276699877e-05
-4.1923327967122235e-05   7.88394331777912e-06   2.694310276699877e-05
-4.1923327967122235e-05   7.88394331777912e-06   2.694310276699877e-05
-5.168962236239946e-05   1.4196112495415067e-05   2.250070274362561e-05
-5.168962236239946e-05   1.4196112495415067e-05   2.250070274362561e-05
-5.168962236239946e-05   1.4196112495415067e-05   2.250070274362561e-05
-5.168962236239946e-05   1.4196112495415067e-05   2.250070274362561e-05
-7.521031969334491e-05   1.2099408545049577e-05   -1.795848184483616e-05
-7.521031969334491e-05   1.2099408545049577e-05   -1.795848184483616e-05
-7.521031969334491e-05   1.2099408545049577e-05   -1.795848184483616e-05
-7.521031969334491e-05   1.2099408545049577e-05   -1.795848184483616e-05
-7.732519457540114e-05   1.434419654671457e-05   2.988019552281748e-05
-7.732519457540114e-05   1.434419654671457e-05   2.988019552281748e-05
-7.732519457540114e-05   1.434419654671457e-05   2.988019552281748e-05
-7.732519457540114e-05   1.434419654671457e-05   2.988019552281748e-05
-5.2866841297109877e-05   1.203631118575901e-05   -9.498995391094998e-06
-5.2866841297109877e-05   1.203631118575901e-05   -9.498995391094998e-06
-5.2866841297109877e-05   1.203631118575901e-05   -9.498995391094998e-06
-5.2866841297109877e-05   1.203631118575901e-05   -9.498995391094998e-06
-6.18280838803834e-05   1.297716353562163e-05   4.871897504443311e-06
-6.18280838803834e-05   1.297716353562163e-05   4.871897504443311e-06
-6.18280838803834e-05   1.297716353562163e-05   4.871897504443311e-06
-6.18280838803834e-05   1.297716353562163e-05   4.871897504443311e-06
-5.286684129710982e-05   1.4344196546715003e-05   3.126492673939099e-05
-5.286684129710982e-05   1.4344196546715003e-05   3.126492673939099e-05
-5.286684129710982e-05   1.4344196546715003e-05   3.126492673939099e-05
-5.286684129710982e-05   1.4344196546715003e-05   3.126492673939099e-05
-7.73251945754013e-05   1.203631118575901e-05   -1.0883726607668399e-05
-7.73251945754013e-05   1.203631118575901e-05   -1.0883726607668399e-05
-7.73251945754013e-05   1.203631118575901e-05   -1.0883726607668399e-05
-7.73251945754013e-05   1.203631118575901e-05   -1.0883726607668399e-05
-7.921949992447037e-05   1.4185623697491982e-05   3.585048164486248e-05
-7.921949992447037e-05   1.4185623697491982e-05   3.585048164486248e-05
-7.921949992447037e-05   1.4185623697491982e-05   3.585048164486248e-05
-7.921949992447037e-05   1.4185623697491982e-05   3.585048164486248e-05
-5.416311271069926e-05   1.1790170022490682e-05   -4.472891506422118e-06
-5.416311271069926e-05   1.1790170022490682e-05   -4.472891506422118e-06
-5.416311271069926e-05   1.1790170022490682e-05   -4.472891506422118e-06
-5.416311271069926e-05   1.1790170022490682e-05   -4.472891506422118e-06
-6.425516782097965e-05   1.3119531460524698e-05   1.1549583481227006e-05
-6.425516782097965e-05   1.3119531460524698e-05   1.1549583481227006e-05
-6.425516782097965e-05   1.3119531460524698e-05   1.1549583481227006e-05
-6.425516782097965e-05   1.3119531460524698e-05   1.1549583481227006e-05
-5.416311271069926e-05   1.4185623697491982e-05   3.728775384986382e-05
-5.416311271069926e-05   1.4185623697491982e-05   3.728775384986382e-05
-5.416311271069926e-05   1.4185623697491982e-05   3.728775384986382e-05
-5.416311271069926e-05   1.4185623697491982e-05   3.728775384986382e-05
-7.921949992447047e-05   1.1790170022490682e-05   -5.9101637114230285e-06
-7.921949992447047e-05   1.1790170022490682e-05   -5.9101637114230285e-06
-7.921949992447047e-05   1.1790170022490682e-05   -5.9101637114230285e-06
-7.921949992447047e-05   1.1790170022490682e-05   -5.9101637114230285e-06
-8.139686760255817e-05   1.3090025868739332e-05   4.612618301814064e-05
-8.139686760255817e-05   1.3090025868739332e-05   4.612618301814064e-05
-8.139686760255817e-05   1.3090025868739332e-05   4.612618301814064e-05
-8.139686760255817e-05   1.3090025868739332e-05   4.612618301814064e-05
-5.534876515855147e-05   1.0706472783199392e-05   4.14281079611997e-06
-5.534876515855147e-05   1.0706472783199392e-05   4.14281079611997e-06
-5.534876515855147e-05   1.0706472783199392e-05   4.14281079611997e-06
-5.534876515855147e-05   1.0706472783199392e-05   4.14281079611997e-06
-6.478021145328976e-05   1.2670463802961964e-05   1.8683493342160876e-05
-6.478021145328976e-05   1.2670463802961964e-05   1.8683493342160876e-05
-6.478021145328976e-05   1.2670463802961964e-05   1.8683493342160876e-05
-6.478021145328976e-05   1.2670463802961964e-05   1.8683493342160876e-05
3.5563624213566956e-05   -4.610560420567535e-06   3.571966366923743e-05
3.5563624213566956e-05   -4.610560420567535e-06   3.571966366923743e-05
3.5563624213566956e-05   -4.610560420567535e-06   3.571966366923743e-05
3.5563624213566956e-05   -4.610560420567535e-06   3.571966366923743e-05
1.4753191303129316e-05   -2.2583069519501765e-06   2.4469608996785346e-06
1.4753191303129316e-05   -2.2583069519501765e-06   2.4469608996785346e-06
1.4753191303129316e-05   -2.2583069519501765e-06   2.4469608996785346e-06
1.4753191303129316e-05   -2.2583069519501765e-06   2.4469608996785346e-06
1.3822407446441492e-05   -5.598690310740749e-06   3.212171511711632e-05
1.3822407446441492e-05   -5.598690310740749e-06   3.212171511711632e-05
1.3822407446441492e-05   -5.598690310740749e-06   3.212171511711632e-05
1.3822407446441492e-05   -5.598690310740749e-06   3.212171511711632e-05
3.358330204364656e-05   -3.1411881674004057e-06   -2.2876104975632153e-06
3.358330204364656e-05   -3.1411881674004057e-06   -2.2876104975632153e-06
3.358330204364656e-05   -3.1411881674004057e-06   -2.2876104975632153e-06
3.358330204364656e-05   -3.1411881674004057e-06   -2.2876104975632153e-06
2.321470479428403e-05   -3.996496282086641e-06   1.5506569786853533e-05
2.321470479428403e-05   -3.996496282086641e-06   1.5506569786853533e-05
2.321470479428403e-05   -3.996496282086641e-06   1.5506569786853533e-05
2.321470479428403e-05   -3.996496282086641e-06   1.5506569786853533e-05
3.3583302043646625e-05   -5.598690310741183e-06   3.064721383111207e-05
3.3583302043646625e-05   -5.598690310741183e-06   3.064721383111207e-05
3.3583302043646625e-05   -5.598690310741183e-06   3.064721383111207e-05
3.3583302043646625e-05   -5.598690310741183e-06   3.064721383111207e-05
1.3822407446441445e-05   -3.1411881674004057e-06   -8.131092115589659e-07
1.3822407446441445e-05   -3.1411881674004057e-06   -8.131092115589659e-07
1.3822407446441445e-05   -3.1411881674004057e-06   -8.131092115589659e-07
1.3822407446441445e-05   -3.1411881674004057e-06   -8.131092115589659e-07
1.2777494595773716e-05   -5.863076117240164e-06   2.9448938197597797e-05
1.2777494595773716e-05   -5.863076117240164e-06   2.9448938197597797e-05
1.2777494595773716e-05   -5.863076117240164e-06   2.9448938197597797e-05
1.2777494595773716e-05   -5.863076117240164e-06   2.9448938197597797e-05
3.1883836602343194e-05   -3.445653831881789e-06   -3.8454185178998215e-06
3.1883836602343194e-05   -3.445653831881789e-06   -3.8454185178998215e-06
3.1883836602343194e-05   -3.445653831881789e-06   -3.8454185178998215e-06
3.1883836602343194e-05   -3.445653831881789e-06   -3.8454185178998215e-06
2.2331282887904965e-05   -4.3707922646810116e-06   1.263058739917782e-05
2.2331282887904965e-05   -4.3707922646810116e-06   1.263058739917782e-05
2.2331282887904965e-05   -4.3707922646810116e-06   1.263058739917782e-05
2.2331282887904965e-05   -4.3707922646810116e-06   1.263058739917782e-05
3.188383660234326e-05   -5.863076117240164e-06   2.7998484826382815e-05
3.188383660234326e-05   -5.863076117240164e-06   2.7998484826382815e-05
3.188383660234326e-05   -5.863076117240164e-06   2.7998484826382815e-05
3.188383660234326e-05   -5.863076117240164e-06   2.7998484826382815e-05
1.2777494595773696e-05   -3.445653831881789e-06   -2.3949651466847587e-06
1.2777494595773696e-05   -3.445653831881789e-06   -2.3949651466847587e-06
1.2777494595773696e-05   -3.445653831881789e-06   -2.3949651466847587e-06
1.2777494595773696e-05   -3.445653831881789e-06   -2.3949651466847587e-06
1.1841046944850585e-05   -6.112052422507699e-06   2.5982260636553053e-05
1.1841046944850585e-05   -6.112052422507699e-06   2.5982260636553053e-05
1.1841046944850585e-05   -6.112052422507699e-06   2.5982260636553053e-05
1.1841046944850585e-05   -6.112052422507699e-06   2.5982260636553053e-05
2.995714373391901e-05   -3.849851882509192e-06   -5.568554335893335e-06
2.995714373391901e-05   -3.849851882509192e-06   -5.568554335893335e-06
2.995714373391901e-05   -3.849851882509192e-06   -5.568554335893335e-06
2.995714373391901e-05   -3.849851882509192e-06   -5.568554335893335e-06
2.070236608903797e-05   -4.445318637623721e-06   1.021335512531047e-05
2.070236608903797e-05   -4.445318637623721e-06   1.021335512531047e-05
2.070236608903797e-05   -4.445318637623721e-06   1.021335512531047e-05
2.070236608903797e-05   -4.445318637623721e-06   1.021335512531047e-05
1.475319130312937e-05   -1.9768232855776197e-08   4.420564611199926e-05
1.475319130312937e-05   -1.9768232855776197e-08   4.420564611199926e-05
1.475319130312937e-05   -1.9768232855776197e-08   4.420564611199926e-05
1.475319130312937e-05   -1.9768232855776197e-08   4.420564611199926e-05
-4.779644160890674e-06   1.1729517384916413e-06   1.2366552321440736e-05
-4.779644160890674e-06   1.1729517384916413e-06   1.2366552321440736e-05
-4.779644160890674e-06   1.1729517384916413e-06   1.2366552321440736e-05
-4.779644160890674e-06   1.1729517384916413e-06   1.2366552321440736e-05
-5.634689327537997e-06   -8.799914213331213e-07   4.429228112928091e-05
-5.634689327537997e-06   -8.799914213331213e-07   4.429228112928091e-05
-5.634689327537997e-06   -8.799914213331213e-07   4.429228112928091e-05
-5.634689327537997e-06   -8.799914213331213e-07   4.429228112928091e-05
1.3822407446441445e-05   2.7821063275325006e-07   1.1168865273530288e-05
1.3822407446441445e-05   2.7821063275325006e-07   1.1168865273530288e-05
1.3822407446441445e-05   2.7821063275325006e-07   1.1168865273530288e-05
1.3822407446441445e-05   2.7821063275325006e-07   1.1168865273530288e-05
4.401244277512071e-06   6.122354920777562e-08   2.700099613854091e-05
4.401244277512071e-06   6.122354920777562e-08   2.700099613854091e-05
4.401244277512071e-06   6.122354920777562e-08   2.700099613854091e-05
4.401244277512071e-06   6.122354920777562e-08   2.700099613854091e-05
1.3822407446441479e-05   -8.799914213331213e-07   4.359735989682917e-05
1.3822407446441479e-05   -8.799914213331213e-07   4.359735989682917e-05
1.3822407446441479e-05   -8.799914213331213e-07   4.359735989682917e-05
1.3822407446441479e-05   -8.799914213331213e-07   4.359735989682917e-05
-5.634689327537997e-06   2.7821063275325006e-07   1.1863786505982065e-05
-5.634689327537997e-06   2.7821063275325006e-07   1.1863786505982065e-05
-5.634689327537997e-06   2.7821063275325006e-07   1.1863786505982065e-05
-5.634689327537997e-06   2.7821063275325006e-07   1.1863786505982065e-05
-6.50879850031715e-06   -1.558770895210542e-06   4.376698599262868e-05
-6.50879850031715e-06   -1.558770895210542e-06   4.376698599262868e-05
-6.50879850031715e-06   -1.558770895210542e-06   4.376698599262868e-05
-6.50879850031715e-06   -1.558770895210542e-06   4.376698599262868e-05
1.2777494595773696e-05   -4.546231900390621e-07   1.0960675542707951e-05
1.2777494595773696e-05   -4.546231900390621e-07   1.0960675542707951e-05
1.2777494595773696e-05   -4.546231900390621e-07   1.0960675542707951e-05
1.2777494595773696e-05   -4.546231900390621e-07   1.0960675542707951e-05
3.4616633589215038e-06   -5.359674280468185e-07   2.653586748026769e-05
3.4616633589215038e-06   -5.359674280468185e-07   2.653586748026769e-05
3.4616633589215038e-06   -5.359674280468185e-07   2.653586748026769e-05
3.4616633589215038e-06   -5.359674280468185e-07   2.653586748026769e-05
1.2777494595773737e-05   -1.558770895210542e-06   4.310449736952596e-05
1.2777494595773737e-05   -1.558770895210542e-06   4.310449736952596e-05
1.2777494595773737e-05   -1.558770895210542e-06   4.310449736952596e-05
1.2777494595773737e-05   -1.558770895210542e-06   4.310449736952596e-05
-6.508798500317177e-06   -4.546231900390621e-07   1.1623164165811039e-05
-6.508798500317177e-06   -4.546231900390621e-07   1.1623164165811039e-05
-6.508798500317177e-06   -4.546231900390621e-07   1.1623164165811039e-05
-6.508798500317177e-06   -4.546231900390621e-07   1.1623164165811039e-05
-7.37547828697394e-06   -2.1882972914494606e-06   4.41695773272801e-05
-7.37547828697394e-06   -2.1882972914494606e-06   4.41695773272801e-05
-7.37547828697394e-06   -2.1882972914494606e-06   4.41695773272801e-05
-7.37547828697394e-06   -2.1882972914494606e-06   4.41695773272801e-05
1.1841046944850538e-05   -1.17768118307977e-06   1.1535665609217378e-05
1.1841046944850538e-05   -1.17768118307977e-06   1.1535665609217378e-05
1.1841046944850538e-05   -1.17768118307977e-06   1.1535665609217378e-05
1.1841046944850538e-05   -1.17768118307977e-06   1.1535665609217378e-05
2.718548825974054e-06   -1.0346915495745672e-06   2.6654035360575016e-05
2.718548825974054e-06   -1.0346915495745672e-06   2.6654035360575016e-05
2.718548825974054e-06   -1.0346915495745672e-06   2.6654035360575016e-05
2.718548825974054e-06   -1.0346915495745672e-06   2.6654035360575016e-05
-4.779644160890674e-06   4.468091050778989e-06   4.798065136884643e-05
-4.779644160890674e-06   4.468091050778989e-06   4.798065136884643e-05
-4.779644160890674e-06   4.468091050778989e-06   4.798065136884643e-05
-4.779644160890674e-06   4.468091050778989e-06   4.798065136884643e-05
-2.399246044684913e-05   4.394613407612911e-06   1.591520430634921e-05
-2.399246044684913e-05   4.394613407612911e-06   1.591520430634921e-05
-2.399246044684913e-05   4.394613407612911e-06   1.591520430634921e-05
-2.399246044684913e-05   4.394613407612911e-06   1.591520430634921e-05
-2.4835786279641726e-05   3.711430362308716e-06   4.7667298212643316e-05
-2.4835786279641726e-05   3.711430362308716e-06   4.7667298212643316e-05
-2.4835786279641726e-05   3.711430362308716e-06   4.7667298212643316e-05
-2.4835786279641726e-05   3.711430362308716e-06   4.7667298212643316e-05
-5.634689327537997e-06   3.5807900067019727e-06   1.5743854172501042e-05
-5.634689327537997e-06   3.5807900067019727e-06   1.5743854172501042e-05
-5.634689327537997e-06   3.5807900067019727e-06   1.5743854172501042e-05
-5.634689327537997e-06   3.5807900067019727e-06   1.5743854172501042e-05
-1.4847513523743645e-05   3.9391839193689965e-06   3.088352481857802e-05
-1.4847513523743645e-05   3.9391839193689965e-06   3.088352481857802e-05
-1.4847513523743645e-05   3.9391839193689965e-06   3.088352481857802e-05
-1.4847513523743645e-05   3.9391839193689965e-06   3.088352481857802e-05
-5.634689327537997e-06   3.711430362308716e-06   4.774568242600706e-05
-5.634689327537997e-06   3.711430362308716e-06   4.774568242600706e-05
-5.634689327537997e-06   3.711430362308716e-06   4.774568242600706e-05
-5.634689327537997e-06   3.711430362308716e-06   4.774568242600706e-05
-2.4835786279641726e-05   3.5807900067019727e-06   1.5665469959137354e-05
-2.4835786279641726e-05   3.5807900067019727e-06   1.5665469959137354e-05
-2.4835786279641726e-05   3.5807900067019727e-06   1.5665469959137354e-05
-2.4835786279641726e-05   3.5807900067019727e-06   1.5665469959137354e-05
-2.5699496882694182e-05   2.966741568597841e-06   4.791318483125134e-05
-2.5699496882694182e-05   2.966741568597841e-06   4.791318483125134e-05
-2.5699496882694182e-05   2.966741568597841e-06   4.791318483125134e-05
-2.5699496882694182e-05   2.966741568597841e-06   4.791318483125134e-05
-6.508798500317123e-06   2.776277368700831e-06   1.604296604722802e-05
-6.508798500317123e-06   2.776277368700831e-06   1.604296604722802e-05
-6.508798500317123e-06   2.776277368700831e-06   1.604296604722802e-05
-6.508798500317123e-06   2.776277368700831e-06   1.604296604722802e-05
-1.562011140070644e-05   3.348166568686601e-06   3.0885354027886136e-05
-1.562011140070644e-05   3.348166568686601e-06   3.0885354027886136e-05
-1.562011140070644e-05   3.348166568686601e-06   3.0885354027886136e-05
-1.562011140070644e-05   3.348166568686601e-06   3.0885354027886136e-05
-6.50879850031715e-06   2.966741568597841e-06   4.802746335118963e-05
-6.50879850031715e-06   2.966741568597841e-06   4.802746335118963e-05
-6.50879850031715e-06   2.966741568597841e-06   4.802746335118963e-05
-6.50879850031715e-06   2.966741568597841e-06   4.802746335118963e-05
-2.5699496882694182e-05   2.776277368700831e-06   1.592868752728978e-05
-2.5699496882694182e-05   2.776277368700831e-06   1.592868752728978e-05
-2.5699496882694182e-05   2.776277368700831e-06   1.592868752728978e-05
-2.5699496882694182e-05   2.776277368700831e-06   1.592868752728978e-05
-2.65532546601214e-05   2.260032500230394e-06   4.855960661991087e-05
-2.65532546601214e-05   2.260032500230394e-06   4.855960661991087e-05
-2.65532546601214e-05   2.260032500230394e-06   4.855960661991087e-05
-2.65532546601214e-05   2.260032500230394e-06   4.855960661991087e-05
-7.375478286973913e-06   2.0016353841148526e-06   1.6751684267668097e-05
-7.375478286973913e-06   2.0016353841148526e-06   1.6751684267668097e-05
-7.375478286973913e-06   2.0016353841148526e-06   1.6751684267668097e-05
-7.375478286973913e-06   2.0016353841148526e-06   1.6751684267668097e-05
-1.642810884752324e-05   2.7709571675262577e-06   3.137780879853647e-05
-1.642810884752324e-05   2.7709571675262577e-06   3.137780879853647e-05
-1.642810884752324e-05   2.7709571675262577e-06   3.137780879853647e-05
-1.642810884752324e-05   2.7709571675262577e-06   3.137780879853647e-05
-2.399246044684913e-05   8.785759847665126e-06   4.2427086557962884e-05
-2.399246044684913e-05   8.785759847665126e-06   4.2427086557962884e-05
-2.399246044684913e-05   8.785759847665126e-06   4.2427086557962884e-05
-2.399246044684913e-05   8.785759847665126e-06   4.2427086557962884e-05
-4.2877045572447105e-05   7.5281645209698995e-06   1.0198220819282889e-05
-4.2877045572447105e-05   7.5281645209698995e-06   1.0198220819282889e-05
-4.2877045572447105e-05   7.5281645209698995e-06   1.0198220819282889e-05
-4.2877045572447105e-05   7.5281645209698995e-06   1.0198220819282889e-05
-4.378136085321591e-05   8.060407162290267e-06   4.186304271814592e-05
-4.378136085321591e-05   8.060407162290267e-06   4.186304271814592e-05
-4.378136085321591e-05   8.060407162290267e-06   4.186304271814592e-05
-4.378136085321591e-05   8.060407162290267e-06   4.186304271814592e-05
-2.4835786279641617e-05   6.732586422983702e-06   1.1083777539106399e-05
-2.4835786279641617e-05   6.732586422983702e-06   1.1083777539106399e-05
-2.4835786279641617e-05   6.732586422983702e-06   1.1083777539106399e-05
-2.4835786279641617e-05   6.732586422983702e-06   1.1083777539106399e-05
-3.37761344012888e-05   7.645335169731947e-06   2.5436708493803547e-05
-3.37761344012888e-05   7.645335169731947e-06   2.5436708493803547e-05
-3.37761344012888e-05   7.645335169731947e-06   2.5436708493803547e-05
-3.37761344012888e-05   7.645335169731947e-06   2.5436708493803547e-05
-2.4835786279641726e-05   8.060407162290267e-06   4.265973516173033e-05
-2.4835786279641726e-05   8.060407162290267e-06   4.265973516173033e-05
-2.4835786279641726e-05   8.060407162290267e-06   4.265973516173033e-05
-2.4835786279641726e-05   8.060407162290267e-06   4.265973516173033e-05
-4.378136085321586e-05   6.732586422983702e-06   1.0287085095522525e-05
-4.378136085321586e-05   6.732586422983702e-06   1.0287085095522525e-05
-4.378136085321586e-05   6.732586422983702e-06   1.0287085095522525e-05
-4.378136085321586e-05   6.732586422983702e-06   1.0287085095522525e-05
-4.479938348526843e-05   7.3852192713488515e-06   4.3295372440599464e-05
-4.479938348526843e-05   7.3852192713488515e-06   4.3295372440599464e-05
-4.479938348526843e-05   7.3852192713488515e-06   4.3295372440599464e-05
-4.479938348526843e-05   7.3852192713488515e-06   4.3295372440599464e-05
-2.5699496882694128e-05   5.9970455870126706e-06   1.2295132313577904e-05
-2.5699496882694128e-05   5.9970455870126706e-06   1.2295132313577904e-05
-2.5699496882694128e-05   5.9970455870126706e-06   1.2295132313577904e-05
-2.5699496882694128e-05   5.9970455870126706e-06   1.2295132313577904e-05
-3.4403806716786406e-05   7.10312715568838e-06   2.6138666429193717e-05
-3.4403806716786406e-05   7.10312715568838e-06   2.6138666429193717e-05
-3.4403806716786406e-05   7.10312715568838e-06   2.6138666429193717e-05
-3.4403806716786406e-05   7.10312715568838e-06   2.6138666429193717e-05
-2.5699496882694236e-05   7.3852192713488515e-06   4.412827665120113e-05
-2.5699496882694236e-05   7.3852192713488515e-06   4.412827665120113e-05
-2.5699496882694236e-05   7.3852192713488515e-06   4.412827665120113e-05
-2.5699496882694236e-05   7.3852192713488515e-06   4.412827665120113e-05
-4.479938348526832e-05   5.9970455870126706e-06   1.1462228102975805e-05
-4.479938348526832e-05   5.9970455870126706e-06   1.1462228102975805e-05
-4.479938348526832e-05   5.9970455870126706e-06   1.1462228102975805e-05
-4.479938348526832e-05   5.9970455870126706e-06   1.1462228102975805e-05
-4.570494686951745e-05   6.5995652795101944e-06   4.4506463310685536e-05
-4.570494686951745e-05   6.5995652795101944e-06   4.4506463310685536e-05
-4.570494686951745e-05   6.5995652795101944e-06   4.4506463310685536e-05
-4.570494686951745e-05   6.5995652795101944e-06   4.4506463310685536e-05
-2.6553254660121347e-05   5.1754032357100715e-06   1.3441473521305387e-05
-2.6553254660121347e-05   5.1754032357100715e-06   1.3441473521305387e-05
-2.6553254660121347e-05   5.1754032357100715e-06   1.3441473521305387e-05
-2.6553254660121347e-05   5.1754032357100715e-06   1.3441473521305387e-05
-3.542342551427822e-05   6.533113486590324e-06   2.741046546103946e-05
-3.542342551427822e-05   6.533113486590324e-06   2.741046546103946e-05
-3.542342551427822e-05   6.533113486590324e-06   2.741046546103946e-05
-3.542342551427822e-05   6.533113486590324e-06   2.741046546103946e-05
-4.2877045572447105e-05   1.2099408545049144e-05   2.0372317347337916e-05
-4.2877045572447105e-05   1.2099408545049144e-05   2.0372317347337916e-05
-4.2877045572447105e-05   1.2099408545049144e-05   2.0372317347337916e-05
-4.2877045572447105e-05   1.2099408545049144e-05   2.0372317347337916e-05
-6.0567861861824616e-05   9.865779215789943e-06   -1.0452554065846684e-05
-6.0567861861824616e-05   9.865779215789943e-06   -1.0452554065846684e-05
-6.0567861861824616e-05   9.865779215789943e-06   -1.0452554065846684e-05
-6.0567861861824616e-05   9.865779215789943e-06   -1.0452554065846684e-05
-6.245746865764777e-05   1.203631118575901e-05   2.6105495409646257e-05
-6.245746865764777e-05   1.203631118575901e-05   2.6105495409646257e-05
-6.245746865764777e-05   1.203631118575901e-05   2.6105495409646257e-05
-6.245746865764777e-05   1.203631118575901e-05   2.6105495409646257e-05
-4.3781360853215805e-05   9.60897255093858e-06   -3.564947750181349e-06
-4.3781360853215805e-05   9.60897255093858e-06   -3.564947750181349e-06
-4.3781360853215805e-05   9.60897255093858e-06   -3.564947750181349e-06
-4.3781360853215805e-05   9.60897255093858e-06   -3.564947750181349e-06
-5.045676050020355e-05   1.070523987609616e-05   6.902957933038159e-06
-5.045676050020355e-05   1.070523987609616e-05   6.902957933038159e-06
-5.045676050020355e-05   1.070523987609616e-05   6.902957933038159e-06
-5.045676050020355e-05   1.070523987609616e-05   6.902957933038159e-06
-4.378136085321591e-05   1.203631118575901e-05   2.7561898590538732e-05
-4.378136085321591e-05   1.203631118575901e-05   2.7561898590538732e-05
-4.378136085321591e-05   1.203631118575901e-05   2.7561898590538732e-05
-4.378136085321591e-05   1.203631118575901e-05   2.7561898590538732e-05
-6.245746865764787e-05   9.60897255093858e-06   -5.021350931073499e-06
-6.245746865764787e-05   9.60897255093858e-06   -5.021350931073499e-06
-6.245746865764787e-05   9.60897255093858e-06   -5.021350931073499e-06
-6.245746865764787e-05   9.60897255093858e-06   -5.021350931073499e-06
-6.410691082747456e-05   1.1790170022490248e-05   3.108252486995781e-05
-6.410691082747456e-05   1.1790170022490248e-05   3.108252486995781e-05
-6.410691082747456e-05   1.1790170022490248e-05   3.108252486995781e-05
-6.410691082747456e-05   1.1790170022490248e-05   3.108252486995781e-05
-4.479938348526827e-05   9.297288415201135e-06   3.990415973206341e-07
-4.479938348526827e-05   9.297288415201135e-06   3.990415973206341e-07
-4.479938348526827e-05   9.297288415201135e-06   3.990415973206341e-07
-4.479938348526827e-05   9.297288415201135e-06   3.990415973206341e-07
-5.245515001827471e-05   1.0711024109001741e-05   1.2310411069386506e-05
-5.245515001827471e-05   1.0711024109001741e-05   1.2310411069386506e-05
-5.245515001827471e-05   1.0711024109001741e-05   1.2310411069386506e-05
-5.245515001827471e-05   1.0711024109001741e-05   1.2310411069386506e-05
-4.479938348526843e-05   1.1790170022490682e-05   3.257825383433106e-05
-4.479938348526843e-05   1.1790170022490682e-05   3.257825383433106e-05
-4.479938348526843e-05   1.1790170022490682e-05   3.257825383433106e-05
-4.479938348526843e-05   1.1790170022490682e-05   3.257825383433106e-05
-6.410691082747456e-05   9.297288415201135e-06   -1.0966873670528341e-06
-6.410691082747456e-05   9.297288415201135e-06   -1.0966873670528341e-06
-6.410691082747456e-05   9.297288415201135e-06   -1.0966873670528341e-06
-6.410691082747456e-05   9.297288415201135e-06   -1.0966873670528341e-06
-6.602095240015225e-05   1.0706472783199392e-05   3.973439284964478e-05
-6.602095240015225e-05   1.0706472783199392e-05   3.973439284964478e-05
-6.602095240015225e-05   1.0706472783199392e-05   3.973439284964478e-05
-6.602095240015225e-05   1.0706472783199392e-05   3.973439284964478e-05
-4.5704946869517345e-05   8.253082323058259e-06   7.346417908004948e-06
-4.5704946869517345e-05   8.253082323058259e-06   7.346417908004948e-06
-4.5704946869517345e-05   8.253082323058259e-06   7.346417908004948e-06
-4.5704946869517345e-05   8.253082323058259e-06   7.346417908004948e-06
-5.290624685448921e-05   1.0256434226103145e-05   1.8146573407797615e-05
-5.290624685448921e-05   1.0256434226103145e-05   1.8146573407797615e-05
-5.290624685448921e-05   1.0256434226103145e-05   1.8146573407797615e-05
-5.290624685448921e-05   1.0256434226103145e-05   1.8146573407797615e-05
1.9686253474123202e-05   -2.2583069519501765e-06   2.8068699082715778e-05
1.9686253474123202e-05   -2.2583069519501765e-06   2.8068699082715778e-05
1.9686253474123202e-05   -2.2583069519501765e-06   2.8068699082715778e-05
1.9686253474123202e-05   -2.2583069519501765e-06   2.8068699082715778e-05
5.1227862379088e-06   6.685239476150046e-08   5.191349297052096e-06
5.1227862379088e-06   6.685239476150046e-08   5.191349297052096e-06
5.1227862379088e-06   6.685239476150046e-08   5.191349297052096e-06
5.1227862379088e-06   6.685239476150046e-08   5.191349297052096e-06
4.427603681928018e-06   -3.1411881674008393e-06   2.6178733985510573e-05
4.427603681928018e-06   -3.1411881674008393e-06   2.6178733985510573e-05
4.427603681928018e-06   -3.1411881674008393e-06   2.6178733985510573e-05
4.427603681928018e-06   -3.1411881674008393e-06   2.6178733985510573e-05
1.796863411824427e-05   -7.236541889651515e-07   2.1598295379225154e-06
1.796863411824427e-05   -7.236541889651515e-07   2.1598295379225154e-06
1.796863411824427e-05   -7.236541889651515e-07   2.1598295379225154e-06
1.796863411824427e-05   -7.236541889651515e-07   2.1598295379225154e-06
1.1103386698921669e-05   -1.6259910320557888e-06   1.4143310675982109e-05
1.1103386698921669e-05   -1.6259910320557888e-06   1.4143310675982109e-05
1.1103386698921669e-05   -1.6259910320557888e-06   1.4143310675982109e-05
1.1103386698921669e-05   -1.6259910320557888e-06   1.4143310675982109e-05
1.7968634118244298e-05   -3.1411881674004057e-06   2.4728213598449377e-05
1.7968634118244298e-05   -3.1411881674004057e-06   2.4728213598449377e-05
1.7968634118244298e-05   -3.1411881674004057e-06   2.4728213598449377e-05
1.7968634118244298e-05   -3.1411881674004057e-06   2.4728213598449377e-05
4.427603681928011e-06   -7.236541889651515e-07   3.6103499249839823e-06
4.427603681928011e-06   -7.236541889651515e-07   3.6103499249839823e-06
4.427603681928011e-06   -7.236541889651515e-07   3.6103499249839823e-06
4.427603681928011e-06   -7.236541889651515e-07   3.6103499249839823e-06
3.6179355729475465e-06   -3.445653831881789e-06   2.4575686011251048e-05
3.6179355729475465e-06   -3.445653831881789e-06   2.4575686011251048e-05
3.6179355729475465e-06   -3.445653831881789e-06   2.4575686011251048e-05
3.6179355729475465e-06   -3.445653831881789e-06   2.4575686011251048e-05
1.651493705291028e-05   -1.0652628061442147e-06   1.652448929204104e-06
1.651493705291028e-05   -1.0652628061442147e-06   1.652448929204104e-06
1.651493705291028e-05   -1.0652628061442147e-06   1.652448929204104e-06
1.651493705291028e-05   -1.0652628061442147e-06   1.652448929204104e-06
1.0271445709108514e-05   -1.970974165397231e-06   1.260169465109207e-05
1.0271445709108514e-05   -1.970974165397231e-06   1.260169465109207e-05
1.0271445709108514e-05   -1.970974165397231e-06   1.260169465109207e-05
1.0271445709108514e-05   -1.970974165397231e-06   1.260169465109207e-05
1.6514937052910307e-05   -3.4456538318813554e-06   2.3147451395808373e-05
1.6514937052910307e-05   -3.4456538318813554e-06   2.3147451395808373e-05
1.6514937052910307e-05   -3.4456538318813554e-06   2.3147451395808373e-05
1.6514937052910307e-05   -3.4456538318813554e-06   2.3147451395808373e-05
3.617935572947533e-06   -1.0652628061442147e-06   3.080683544646589e-06
3.617935572947533e-06   -1.0652628061442147e-06   3.080683544646589e-06
3.617935572947533e-06   -1.0652628061442147e-06   3.080683544646589e-06
3.617935572947533e-06   -1.0652628061442147e-06   3.080683544646589e-06
2.9166940086414663e-06   -3.849851882509192e-06   2.272781387175531e-05
2.9166940086414663e-06   -3.849851882509192e-06   2.272781387175531e-05
2.9166940086414663e-06   -3.849851882509192e-06   2.272781387175531e-05
2.9166940086414663e-06   -3.849851882509192e-06   2.272781387175531e-05
1.4813508488331284e-05   -1.6357513886787554e-06   1.5713294426408808e-06
1.4813508488331284e-05   -1.6357513886787554e-06   1.5713294426408808e-06
1.4813508488331284e-05   -1.6357513886787554e-06   1.5713294426408808e-06
1.4813508488331284e-05   -1.6357513886787554e-06   1.5713294426408808e-06
9.050862454967465e-06   -2.1503589166600896e-06   1.1484504015036277e-05
9.050862454967465e-06   -2.1503589166600896e-06   1.1484504015036277e-05
9.050862454967465e-06   -2.1503589166600896e-06   1.1484504015036277e-05
9.050862454967465e-06   -2.1503589166600896e-06   1.1484504015036277e-05
5.1227862379088065e-06   1.1729517384916413e-06   3.8667754129696665e-05
5.1227862379088065e-06   1.1729517384916413e-06   3.8667754129696665e-05
5.1227862379088065e-06   1.1729517384916413e-06   3.8667754129696665e-05
5.1227862379088065e-06   1.1729517384916413e-06   3.8667754129696665e-05
-8.149357883950766e-06   2.2241973027109507e-06   1.717826126512896e-05
-8.149357883950766e-06   2.2241973027109507e-06   1.717826126512896e-05
-8.149357883950766e-06   2.2241973027109507e-06   1.717826126512896e-05
-8.149357883950766e-06   2.2241973027109507e-06   1.717826126512896e-05
-8.75977429775428e-06   2.7821063275325006e-07   3.879171621455884e-05
-8.75977429775428e-06   2.7821063275325006e-07   3.879171621455884e-05
-8.75977429775428e-06   2.7821063275325006e-07   3.879171621455884e-05
-8.75977429775428e-06   2.7821063275325006e-07   3.879171621455884e-05
4.427603681928011e-06   1.329890206017842e-06   1.6181745171129926e-05
4.427603681928011e-06   1.329890206017842e-06   1.6181745171129926e-05
4.427603681928011e-06   1.329890206017842e-06   1.6181745171129926e-05
4.427603681928011e-06   1.329890206017842e-06   1.6181745171129926e-05
-1.9386313951860644e-06   1.1625978265186222e-06   2.6892512394020482e-05
-1.9386313951860644e-06   1.1625978265186222e-06   2.6892512394020482e-05
-1.9386313951860644e-06   1.1625978265186222e-06   2.6892512394020482e-05
-1.9386313951860644e-06   1.1625978265186222e-06   2.6892512394020482e-05
4.427603681928018e-06   2.7821063275325006e-07   3.816070847059987e-05
4.427603681928018e-06   2.7821063275325006e-07   3.816070847059987e-05
4.427603681928018e-06   2.7821063275325006e-07   3.816070847059987e-05
4.427603681928018e-06   2.7821063275325006e-07   3.816070847059987e-05
-8.75977429775428e-06   1.329890206017842e-06   1.681275291508873e-05
-8.75977429775428e-06   1.329890206017842e-06   1.681275291508873e-05
-8.75977429775428e-06   1.329890206017842e-06   1.681275291508873e-05
-8.75977429775428e-06   1.329890206017842e-06   1.681275291508873e-05
-9.38789603782114e-06   -4.546231900394958e-07   3.8546825358988165e-05
-9.38789603782114e-06   -4.546231900394958e-07   3.8546825358988165e-05
-9.38789603782114e-06   -4.546231900394958e-07   3.8546825358988165e-05
-9.38789603782114e-06   -4.546231900394958e-07   3.8546825358988165e-05
3.617935572947533e-06   5.712079072018629e-07   1.6254940682695845e-05
3.617935572947533e-06   5.712079072018629e-07   1.6254940682695845e-05
3.617935572947533e-06   5.712079072018629e-07   1.6254940682695845e-05
3.617935572947533e-06   5.712079072018629e-07   1.6254940682695845e-05
-2.589885453142904e-06   5.38389115004121e-07   2.662100033483264e-05
-2.589885453142904e-06   5.38389115004121e-07   2.662100033483264e-05
-2.589885453142904e-06   5.38389115004121e-07   2.662100033483264e-05
-2.589885453142904e-06   5.38389115004121e-07   2.662100033483264e-05
3.6179355729475465e-06   -4.546231900390621e-07   3.79313267006437e-05
3.6179355729475465e-06   -4.546231900390621e-07   3.79313267006437e-05
3.6179355729475465e-06   -4.546231900390621e-07   3.79313267006437e-05
3.6179355729475465e-06   -4.546231900390621e-07   3.79313267006437e-05
-9.387896037821167e-06   5.712079072018629e-07   1.6870439341040537e-05
-9.387896037821167e-06   5.712079072018629e-07   1.6870439341040537e-05
-9.387896037821167e-06   5.712079072018629e-07   1.6870439341040537e-05
-9.387896037821167e-06   5.712079072018629e-07   1.6870439341040537e-05
-1.0006510151855668e-05   -1.17768118307977e-06   3.9058301543369936e-05
-1.0006510151855668e-05   -1.17768118307977e-06   3.9058301543369936e-05
-1.0006510151855668e-05   -1.17768118307977e-06   3.9058301543369936e-05
-1.0006510151855668e-05   -1.17768118307977e-06   3.9058301543369936e-05
2.9166940086414596e-06   -2.0503443224142992e-07   1.693603989203867e-05
2.9166940086414596e-06   -2.0503443224142992e-07   1.693603989203867e-05
2.9166940086414596e-06   -2.0503443224142992e-07   1.693603989203867e-05
2.9166940086414596e-06   -2.0503443224142992e-07   1.693603989203867e-05
-3.1418626857467345e-06   -2.2630383473415394e-08   2.692419195342538e-05
-3.1418626857467345e-06   -2.2630383473415394e-08   2.692419195342538e-05
-3.1418626857467345e-06   -2.2630383473415394e-08   2.692419195342538e-05
-3.1418626857467345e-06   -2.2630383473415394e-08   2.692419195342538e-05
-8.149357883950766e-06   4.394613407612911e-06   4.2891240039036804e-05
-8.149357883950766e-06   4.394613407612911e-06   4.2891240039036804e-05
-8.149357883950766e-06   4.394613407612911e-06   4.2891240039036804e-05
-8.149357883950766e-06   4.394613407612911e-06   4.2891240039036804e-05
-2.1199599770632747e-05   4.140265782250508e-06   2.0988228319349317e-05
-2.1199599770632747e-05   4.140265782250508e-06   2.0988228319349317e-05
-2.1199599770632747e-05   4.140265782250508e-06   2.0988228319349317e-05
-2.1199599770632747e-05   4.140265782250508e-06   2.0988228319349317e-05
-2.1785031848632478e-05   3.5807900067019727e-06   4.2512311351582295e-05
-2.1785031848632478e-05   3.5807900067019727e-06   4.2512311351582295e-05
-2.1785031848632478e-05   3.5807900067019727e-06   4.2512311351582295e-05
-2.1785031848632478e-05   3.5807900067019727e-06   4.2512311351582295e-05
-8.759774297754252e-06   3.3150024575426783e-06   2.0963021296281127e-05
-8.759774297754252e-06   3.3150024575426783e-06   2.0963021296281127e-05
-8.759774297754252e-06   3.3150024575426783e-06   2.0963021296281127e-05
-8.759774297754252e-06   3.3150024575426783e-06   2.0963021296281127e-05
-1.5001133502841703e-05   3.766201791364533e-06   3.109456703780187e-05
-1.5001133502841703e-05   3.766201791364533e-06   3.109456703780187e-05
-1.5001133502841703e-05   3.766201791364533e-06   3.109456703780187e-05
-1.5001133502841703e-05   3.766201791364533e-06   3.109456703780187e-05
-8.75977429775428e-06   3.5807900067019727e-06   4.267178388107787e-05
-8.75977429775428e-06   3.5807900067019727e-06   4.267178388107787e-05
-8.75977429775428e-06   3.5807900067019727e-06   4.267178388107787e-05
-8.75977429775428e-06   3.5807900067019727e-06   4.267178388107787e-05
-2.1785031848632478e-05   3.3150024575426783e-06   2.0803548766785604e-05
-2.1785031848632478e-05   3.3150024575426783e-06   2.0803548766785604e-05
-2.1785031848632478e-05   3.3150024575426783e-06   2.0803548766785604e-05
-2.1785031848632478e-05   3.3150024575426783e-06   2.0803548766785604e-05
-2.2389757821016164e-05   2.776277368700831e-06   4.2797225954688354e-05
-2.2389757821016164e-05   2.776277368700831e-06   4.2797225954688354e-05
-2.2389757821016164e-05   2.776277368700831e-06   4.2797225954688354e-05
-2.2389757821016164e-05   2.776277368700831e-06   4.2797225954688354e-05
-9.38789603782114e-06   2.4939418925061605e-06   2.1296857601747017e-05
-9.38789603782114e-06   2.4939418925061605e-06   2.1296857601747017e-05
-9.38789603782114e-06   2.4939418925061605e-06   2.1296857601747017e-05
-9.38789603782114e-06   2.4939418925061605e-06   2.1296857601747017e-05
-1.552258507011225e-05   3.1381215566186893e-06   3.1134831523764765e-05
-1.552258507011225e-05   3.1381215566186893e-06   3.1134831523764765e-05
-1.552258507011225e-05   3.1381215566186893e-06   3.1134831523764765e-05
-1.552258507011225e-05   3.1381215566186893e-06   3.1134831523764765e-05
-9.387896037821167e-06   2.776277368700831e-06   4.296662724040498e-05
-9.387896037821167e-06   2.776277368700831e-06   4.296662724040498e-05
-9.387896037821167e-06   2.776277368700831e-06   4.296662724040498e-05
-9.387896037821167e-06   2.776277368700831e-06   4.296662724040498e-05
-2.238975782101611e-05   2.4939418925061605e-06   2.1127456316030334e-05
-2.238975782101611e-05   2.4939418925061605e-06   2.1127456316030334e-05
-2.238975782101611e-05   2.4939418925061605e-06   2.1127456316030334e-05
-2.238975782101611e-05   2.4939418925061605e-06   2.1127456316030334e-05
-2.2985106638486667e-05   2.0016353841148526e-06   4.349149806569079e-05
-2.2985106638486667e-05   2.0016353841148526e-06   4.349149806569079e-05
-2.2985106638486667e-05   2.0016353841148526e-06   4.349149806569079e-05
-2.2985106638486667e-05   2.0016353841148526e-06   4.349149806569079e-05
-1.0006510151855695e-05   1.7075479322684484e-06   2.203695639241385e-05
-1.0006510151855695e-05   1.7075479322684484e-06   2.203695639241385e-05
-1.0006510151855695e-05   1.7075479322684484e-06   2.203695639241385e-05
-1.0006510151855695e-05   1.7075479322684484e-06   2.203695639241385e-05
-1.6077122600843054e-05   2.5225189049502862e-06   3.166566122378444e-05
-1.6077122600843054e-05   2.5225189049502862e-06   3.166566122378444e-05
-1.6077122600843054e-05   2.5225189049502862e-06   3.166566122378444e-05
-1.6077122600843054e-05   2.5225189049502862e-06   3.166566122378444e-05
-2.1199599770632747e-05   7.5281645209698995e-06   3.777620517276983e-05
-2.1199599770632747e-05   7.5281645209698995e-06   3.777620517276983e-05
-2.1199599770632747e-05   7.5281645209698995e-06   3.777620517276983e-05
-2.1199599770632747e-05   7.5281645209698995e-06   3.777620517276983e-05
-3.400814609003664e-05   6.144607668128951e-06   1.559849386205815e-05
-3.400814609003664e-05   6.144607668128951e-06   1.559849386205815e-05
-3.400814609003664e-05   6.144607668128951e-06   1.559849386205815e-05
-3.400814609003664e-05   6.144607668128951e-06   1.559849386205815e-05
-3.464596647723069e-05   6.732586422983702e-06   3.707825143579868e-05
-3.464596647723069e-05   6.732586422983702e-06   3.707825143579868e-05
-3.464596647723069e-05   6.732586422983702e-06   3.707825143579868e-05
-3.464596647723069e-05   6.732586422983702e-06   3.707825143579868e-05
-2.1785031848632424e-05   5.311973930062497e-06   1.6495727883888305e-05
-2.1785031848632424e-05   5.311973930062497e-06   1.6495727883888305e-05
-2.1785031848632424e-05   5.311973930062497e-06   1.6495727883888305e-05
-2.1785031848632424e-05   5.311973930062497e-06   1.6495727883888305e-05
-2.784250159917613e-05   6.325743122404491e-06   2.5983249286057547e-05
-2.784250159917613e-05   6.325743122404491e-06   2.5983249286057547e-05
-2.784250159917613e-05   6.325743122404491e-06   2.5983249286057547e-05
-2.784250159917613e-05   6.325743122404491e-06   2.5983249286057547e-05
-2.1785031848632478e-05   6.732586422983702e-06   3.7930618931551665e-05
-2.1785031848632478e-05   6.732586422983702e-06   3.7930618931551665e-05
-2.1785031848632478e-05   6.732586422983702e-06   3.7930618931551665e-05
-2.1785031848632478e-05   6.732586422983702e-06   3.7930618931551665e-05
-3.4645966477230635e-05   5.311973930062497e-06   1.564336038813554e-05
-3.4645966477230635e-05   5.311973930062497e-06   1.564336038813554e-05
-3.4645966477230635e-05   5.311973930062497e-06   1.564336038813554e-05
-3.4645966477230635e-05   5.311973930062497e-06   1.564336038813554e-05
-3.540167271781961e-05   5.9970455870126706e-06   3.8298756170378244e-05
-3.540167271781961e-05   5.9970455870126706e-06   3.8298756170378244e-05
-3.540167271781961e-05   5.9970455870126706e-06   3.8298756170378244e-05
-3.540167271781961e-05   5.9970455870126706e-06   3.8298756170378244e-05
-2.2389757821016055e-05   4.555521302682282e-06   1.747714591297095e-05
-2.2389757821016055e-05   4.555521302682282e-06   1.747714591297095e-05
-2.2389757821016055e-05   4.555521302682282e-06   1.747714591297095e-05
-2.2389757821016055e-05   4.555521302682282e-06   1.747714591297095e-05
-2.8256730132057402e-05   5.736535506329927e-06   2.654682457585108e-05
-2.8256730132057402e-05   5.736535506329927e-06   2.654682457585108e-05
-2.8256730132057402e-05   5.736535506329927e-06   2.654682457585108e-05
-2.8256730132057402e-05   5.736535506329927e-06   2.654682457585108e-05
-2.238975782101611e-05   5.9970455870126706e-06   3.916367074097648e-05
-2.238975782101611e-05   5.9970455870126706e-06   3.916367074097648e-05
-2.238975782101611e-05   5.9970455870126706e-06   3.916367074097648e-05
-2.238975782101611e-05   5.9970455870126706e-06   3.916367074097648e-05
-3.54016727178195e-05   4.555521302682282e-06   1.6612231342372718e-05
-3.54016727178195e-05   4.555521302682282e-06   1.6612231342372718e-05
-3.54016727178195e-05   4.555521302682282e-06   1.6612231342372718e-05
-3.54016727178195e-05   4.555521302682282e-06   1.6612231342372718e-05
-3.6050600529657776e-05   5.175403235709638e-06   3.947971092458811e-05
-3.6050600529657776e-05   5.175403235709638e-06   3.947971092458811e-05
-3.6050600529657776e-05   5.175403235709638e-06   3.947971092458811e-05
-3.6050600529657776e-05   5.175403235709638e-06   3.947971092458811e-05
-2.298510663848656e-05   3.747712128360746e-06   1.856050243704611e-05
-2.298510663848656e-05   3.747712128360746e-06   1.856050243704611e-05
-2.298510663848656e-05   3.747712128360746e-06   1.856050243704611e-05
-2.298510663848656e-05   3.747712128360746e-06   1.856050243704611e-05
-2.8967285616920247e-05   5.147109124325946e-06   2.7691162536857606e-05
-2.8967285616920247e-05   5.147109124325946e-06   2.7691162536857606e-05
-2.8967285616920247e-05   5.147109124325946e-06   2.7691162536857606e-05
-2.8967285616920247e-05   5.147109124325946e-06   2.7691162536857606e-05
-3.400814609003669e-05   9.865779215789943e-06   1.763547377349071e-05
-3.400814609003669e-05   9.865779215789943e-06   1.763547377349071e-05
-3.400814609003669e-05   9.865779215789943e-06   1.763547377349071e-05
-3.400814609003669e-05   9.865779215789943e-06   1.763547377349071e-05
-4.554175935187041e-05   7.550680853634587e-06   -2.976274013525215e-06
-4.554175935187041e-05   7.550680853634587e-06   -2.976274013525215e-06
-4.554175935187041e-05   7.550680853634587e-06   -2.976274013525215e-06
-4.554175935187041e-05   7.550680853634587e-06   -2.976274013525215e-06
-4.717609366493129e-05   9.60897255093858e-06   2.173459006058094e-05
-4.717609366493129e-05   9.60897255093858e-06   2.173459006058094e-05
-4.717609366493129e-05   9.60897255093858e-06   2.173459006058094e-05
-4.717609366493129e-05   9.60897255093858e-06   2.173459006058094e-05
-3.4645966477230526e-05   7.1229250017486225e-06   2.3426732772609954e-06
-3.4645966477230526e-05   7.1229250017486225e-06   2.3426732772609954e-06
-3.4645966477230526e-05   7.1229250017486225e-06   2.3426732772609954e-06
-3.4645966477230526e-05   7.1229250017486225e-06   2.3426732772609954e-06
-3.88742690201673e-05   8.381498185617772e-06   8.634700271835838e-06
-3.88742690201673e-05   8.381498185617772e-06   8.634700271835838e-06
-3.88742690201673e-05   8.381498185617772e-06   8.634700271835838e-06
-3.88742690201673e-05   8.381498185617772e-06   8.634700271835838e-06
-3.464596647723058e-05   9.60897255093858e-06   2.3226218590094916e-05
-3.464596647723058e-05   9.60897255093858e-06   2.3226218590094916e-05
-3.464596647723058e-05   9.60897255093858e-06   2.3226218590094916e-05
-3.464596647723058e-05   9.60897255093858e-06   2.3226218590094916e-05
-4.717609366493129e-05   7.1229250017486225e-06   8.510447477469668e-07
-4.717609366493129e-05   7.1229250017486225e-06   8.510447477469668e-07
-4.717609366493129e-05   7.1229250017486225e-06   8.510447477469668e-07
-4.717609366493129e-05   7.1229250017486225e-06   8.510447477469668e-07
-4.8584010630648984e-05   9.297288415201135e-06   2.5717197432329787e-05
-4.8584010630648984e-05   9.297288415201135e-06   2.5717197432329787e-05
-4.8584010630648984e-05   9.297288415201135e-06   2.5717197432329787e-05
-4.8584010630648984e-05   9.297288415201135e-06   2.5717197432329787e-05
-3.54016727178195e-05   6.766668027878521e-06   5.265006476674406e-06
-3.54016727178195e-05   6.766668027878521e-06   5.265006476674406e-06
-3.54016727178195e-05   6.766668027878521e-06   5.265006476674406e-06
-3.54016727178195e-05   6.766668027878521e-06   5.265006476674406e-06
-4.044171250075642e-05   8.269846037200785e-06   1.276316597597629e-05
-4.044171250075642e-05   8.269846037200785e-06   1.276316597597629e-05
-4.044171250075642e-05   8.269846037200785e-06   1.276316597597629e-05
-4.044171250075642e-05   8.269846037200785e-06   1.276316597597629e-05
-3.5401672717819555e-05   9.297288415201135e-06   2.7235569664723182e-05
-3.5401672717819555e-05   9.297288415201135e-06   2.7235569664723182e-05
-3.5401672717819555e-05   9.297288415201135e-06   2.7235569664723182e-05
-3.5401672717819555e-05   9.297288415201135e-06   2.7235569664723182e-05
-4.8584010630648984e-05   6.766668027878521e-06   3.7466342442806855e-06
-4.8584010630648984e-05   6.766668027878521e-06   3.7466342442806855e-06
-4.8584010630648984e-05   6.766668027878521e-06   3.7466342442806855e-06
-4.8584010630648984e-05   6.766668027878521e-06   3.7466342442806855e-06
-5.0269925872051474e-05   8.253082323058259e-06   3.2767030612139945e-05
-5.0269925872051474e-05   8.253082323058259e-06   3.2767030612139945e-05
-5.0269925872051474e-05   8.253082323058259e-06   3.2767030612139945e-05
-5.0269925872051474e-05   8.253082323058259e-06   3.2767030612139945e-05
-3.605060052965761e-05   5.799545780678806e-06   1.0540276966911392e-05
-3.605060052965761e-05   5.799545780678806e-06   1.0540276966911392e-05
-3.605060052965761e-05   5.799545780678806e-06   1.0540276966911392e-05
-3.605060052965761e-05   5.799545780678806e-06   1.0540276966911392e-05
-4.083611730092872e-05   7.830063953070173e-06   1.729782734892916e-05
-4.083611730092872e-05   7.830063953070173e-06   1.729782734892916e-05
-4.083611730092872e-05   7.830063953070173e-06   1.729782734892916e-05
-4.083611730092872e-05   7.830063953070173e-06   1.729782734892916e-05
3.836350683250473e-06   6.685239476128362e-08   2.0908993072685754e-05
3.836350683250473e-06   6.685239476128362e-08   2.0908993072685754e-05
3.836350683250473e-06   6.685239476128362e-08   2.0908993072685754e-05
3.836350683250473e-06   6.685239476128362e-08   2.0908993072685754e-05
-4.4646421519431954e-06   2.296513280979507e-06   8.41180154576059e-06
-4.4646421519431954e-06   2.296513280979507e-06   8.41180154576059e-06
-4.4646421519431954e-06   2.296513280979507e-06   8.41180154576059e-06
-4.4646421519431954e-06   2.296513280979507e-06   8.41180154576059e-06
-4.955325619279047e-06   -7.236541889651515e-07   2.0637345973508088e-05
-4.955325619279047e-06   -7.236541889651515e-07   2.0637345973508088e-05
-4.955325619279047e-06   -7.236541889651515e-07   2.0637345973508088e-05
-4.955325619279047e-06   -7.236541889651515e-07   2.0637345973508088e-05
2.341640325244525e-06   1.5591845686268105e-06   7.106032811413847e-06
2.341640325244525e-06   1.5591845686268105e-06   7.106032811413847e-06
2.341640325244525e-06   1.5591845686268105e-06   7.106032811413847e-06
2.341640325244525e-06   1.5591845686268105e-06   7.106032811413847e-06
-1.0018109471691706e-06   6.739028512356936e-07   1.320962062920447e-05
-1.0018109471691706e-06   6.739028512356936e-07   1.320962062920447e-05
-1.0018109471691706e-06   6.739028512356936e-07   1.320962062920447e-05
-1.0018109471691706e-06   6.739028512356936e-07   1.320962062920447e-05
2.341640325244525e-06   -7.236541889651515e-07   1.9267642718953258e-05
2.341640325244525e-06   -7.236541889651515e-07   1.9267642718953258e-05
2.341640325244525e-06   -7.236541889651515e-07   1.9267642718953258e-05
2.341640325244525e-06   -7.236541889651515e-07   1.9267642718953258e-05
-4.955325619279047e-06   1.5591845686268105e-06   8.475736065968785e-06
-4.955325619279047e-06   1.5591845686268105e-06   8.475736065968785e-06
-4.955325619279047e-06   1.5591845686268105e-06   8.475736065968785e-06
-4.955325619279047e-06   1.5591845686268105e-06   8.475736065968785e-06
-5.5611969804029055e-06   -1.0652628061442147e-06   2.010647886086436e-05
-5.5611969804029055e-06   -1.0652628061442147e-06   2.010647886086436e-05
-5.5611969804029055e-06   -1.0652628061442147e-06   2.010647886086436e-05
-5.5611969804029055e-06   -1.0652628061442147e-06   2.010647886086436e-05
1.0453442069480878e-06   1.152200393296065e-06   7.765098962281774e-06
1.0453442069480878e-06   1.152200393296065e-06   7.765098962281774e-06
1.0453442069480878e-06   1.152200393296065e-06   7.765098962281774e-06
1.0453442069480878e-06   1.152200393296065e-06   7.765098962281774e-06
-1.8096029858898358e-06   3.5964011601196874e-07   1.2998880450048819e-05
-1.8096029858898358e-06   3.5964011601196874e-07   1.2998880450048819e-05
-1.8096029858898358e-06   3.5964011601196874e-07   1.2998880450048819e-05
-1.8096029858898358e-06   3.5964011601196874e-07   1.2998880450048819e-05
1.0453442069480878e-06   -1.0652628061442147e-06   1.8776000941200105e-05
1.0453442069480878e-06   -1.0652628061442147e-06   1.8776000941200105e-05
1.0453442069480878e-06   -1.0652628061442147e-06   1.8776000941200105e-05
1.0453442069480878e-06   -1.0652628061442147e-06   1.8776000941200105e-05
-5.561196980402899e-06   1.152200393296065e-06   9.095576881946055e-06
-5.561196980402899e-06   1.152200393296065e-06   9.095576881946055e-06
-5.561196980402899e-06   1.152200393296065e-06   9.095576881946055e-06
-5.561196980402899e-06   1.152200393296065e-06   9.095576881946055e-06
-6.067087145247298e-06   -1.6357513886785385e-06   1.9931006753004564e-05
-6.067087145247298e-06   -1.6357513886785385e-06   1.9931006753004564e-05
-6.067087145247298e-06   -1.6357513886785385e-06   1.9931006753004564e-05
-6.067087145247298e-06   -1.6357513886785385e-06   1.9931006753004564e-05
-5.803678344672831e-07   2.879277657937343e-07   9.632267075687851e-06
-5.803678344672831e-07   2.879277657937343e-07   9.632267075687851e-06
-5.803678344672831e-07   2.879277657937343e-07   9.632267075687851e-06
-5.803678344672831e-07   2.879277657937343e-07   9.632267075687851e-06
-2.675731044821562e-06   6.994101151469763e-08   1.325533114551259e-05
-2.675731044821562e-06   6.994101151469763e-08   1.325533114551259e-05
-2.675731044821562e-06   6.994101151469763e-08   1.325533114551259e-05
-2.675731044821562e-06   6.994101151469763e-08   1.325533114551259e-05
-4.4646421519431954e-06   2.2241973027109507e-06   3.3602954233961793e-05
-4.4646421519431954e-06   2.2241973027109507e-06   3.3602954233961793e-05
-4.4646421519431954e-06   2.2241973027109507e-06   3.3602954233961793e-05
-4.4646421519431954e-06   2.2241973027109507e-06   3.3602954233961793e-05
-1.141487905099425e-05   2.661985200079226e-06   2.2281898807297875e-05
-1.141487905099425e-05   2.661985200079226e-06   2.2281898807297875e-05
-1.141487905099425e-05   2.661985200079226e-06   2.2281898807297875e-05
-1.141487905099425e-05   2.661985200079226e-06   2.2281898807297875e-05
-1.178434262176853e-05   1.329890206017842e-06   3.351359400161785e-05
-1.178434262176853e-05   1.329890206017842e-06   3.351359400161785e-05
-1.178434262176853e-05   1.329890206017842e-06   3.351359400161785e-05
-1.178434262176853e-05   1.329890206017842e-06   3.351359400161785e-05
-4.955325619279047e-06   1.8379781759570932e-06   2.182704621550492e-05
-4.955325619279047e-06   1.8379781759570932e-06   2.182704621550492e-05
-4.955325619279047e-06   1.8379781759570932e-06   2.182704621550492e-05
-4.955325619279047e-06   1.8379781759570932e-06   2.182704621550492e-05
-8.20224668103054e-06   1.9185610445624293e-06   2.7190231597260753e-05
-8.20224668103054e-06   1.9185610445624293e-06   2.7190231597260753e-05
-8.20224668103054e-06   1.9185610445624293e-06   2.7190231597260753e-05
-8.20224668103054e-06   1.9185610445624293e-06   2.7190231597260753e-05
-4.955325619279054e-06   1.329890206017842e-06   3.3208741219653646e-05
-4.955325619279054e-06   1.329890206017842e-06   3.3208741219653646e-05
-4.955325619279054e-06   1.329890206017842e-06   3.3208741219653646e-05
-4.955325619279054e-06   1.329890206017842e-06   3.3208741219653646e-05
-1.1784342621768502e-05   1.8379781759570932e-06   2.2131898997468477e-05
-1.1784342621768502e-05   1.8379781759570932e-06   2.2131898997468477e-05
-1.1784342621768502e-05   1.8379781759570932e-06   2.2131898997468477e-05
-1.1784342621768502e-05   1.8379781759570932e-06   2.2131898997468477e-05
-1.2165339060523733e-05   5.712079072018629e-07   3.35838058622296e-05
-1.2165339060523733e-05   5.712079072018629e-07   3.35838058622296e-05
-1.2165339060523733e-05   5.712079072018629e-07   3.35838058622296e-05
-1.2165339060523733e-05   5.712079072018629e-07   3.35838058622296e-05
-5.561196980402899e-06   1.0763243460615388e-06   2.2273832532045658e-05
-5.561196980402899e-06   1.0763243460615388e-06   2.2273832532045658e-05
-5.561196980402899e-06   1.0763243460615388e-06   2.2273832532045658e-05
-5.561196980402899e-06   1.0763243460615388e-06   2.2273832532045658e-05
-8.57929843064092e-06   1.3157865108106865e-06   2.7160324316926807e-05
-8.57929843064092e-06   1.3157865108106865e-06   2.7160324316926807e-05
-8.57929843064092e-06   1.3157865108106865e-06   2.7160324316926807e-05
-8.57929843064092e-06   1.3157865108106865e-06   2.7160324316926807e-05
-5.5611969804029055e-06   5.712079072016461e-07   3.328073599891362e-05
-5.5611969804029055e-06   5.712079072016461e-07   3.328073599891362e-05
-5.5611969804029055e-06   5.712079072016461e-07   3.328073599891362e-05
-5.5611969804029055e-06   5.712079072016461e-07   3.328073599891362e-05
-1.2165339060523733e-05   1.0763243460615388e-06   2.2576902395361515e-05
-1.2165339060523733e-05   1.0763243460615388e-06   2.2576902395361515e-05
-1.2165339060523733e-05   1.0763243460615388e-06   2.2576902395361515e-05
-1.2165339060523733e-05   1.0763243460615388e-06   2.2576902395361515e-05
-1.2538853160055469e-05   -2.0503443224142992e-07   3.424032523496878e-05
-1.2538853160055469e-05   -2.0503443224142992e-07   3.424032523496878e-05
-1.2538853160055469e-05   -2.0503443224142992e-07   3.424032523496878e-05
-1.2538853160055469e-05   -2.0503443224142992e-07   3.424032523496878e-05
-6.0670871452472914e-06   2.5007944919963956e-07   2.3180980214757498e-05
-6.0670871452472914e-06   2.5007944919963956e-07   2.3180980214757498e-05
-6.0670871452472914e-06   2.5007944919963956e-07   2.3180980214757498e-05
-6.0670871452472914e-06   2.5007944919963956e-07   2.3180980214757498e-05
-8.956286741386105e-06   7.223601874064688e-07   2.7712944432064558e-05
-8.956286741386105e-06   7.223601874064688e-07   2.7712944432064558e-05
-8.956286741386105e-06   7.223601874064688e-07   2.7712944432064558e-05
-8.956286741386105e-06   7.223601874064688e-07   2.7712944432064558e-05
-1.1414879050994223e-05   4.140265782250508e-06   3.782820260182047e-05
-1.1414879050994223e-05   4.140265782250508e-06   3.782820260182047e-05
-1.1414879050994223e-05   4.140265782250508e-06   3.782820260182047e-05
-1.1414879050994223e-05   4.140265782250508e-06   3.782820260182047e-05
-1.8346988643619367e-05   3.185512664853011e-06   2.5701834743673425e-05
-1.8346988643619367e-05   3.185512664853011e-06   2.5701834743673425e-05
-1.8346988643619367e-05   3.185512664853011e-06   2.5701834743673425e-05
-1.8346988643619367e-05   3.185512664853011e-06   2.5701834743673425e-05
-1.8659294658824113e-05   3.3150024575426783e-06   3.7127520754860104e-05
-1.8659294658824113e-05   3.3150024575426783e-06   3.7127520754860104e-05
-1.8659294658824113e-05   3.3150024575426783e-06   3.7127520754860104e-05
-1.8659294658824113e-05   3.3150024575426783e-06   3.7127520754860104e-05
-1.1784342621768502e-05   2.4210997442925333e-06   2.620560898771758e-05
-1.1784342621768502e-05   2.4210997442925333e-06   2.620560898771758e-05
-1.1784342621768502e-05   2.4210997442925333e-06   2.620560898771758e-05
-1.1784342621768502e-05   2.4210997442925333e-06   2.620560898771758e-05
-1.5058533323557372e-05   3.2033061047858497e-06   3.119326967440303e-05
-1.5058533323557372e-05   3.2033061047858497e-06   3.119326967440303e-05
-1.5058533323557372e-05   3.2033061047858497e-06   3.119326967440303e-05
-1.5058533323557372e-05   3.2033061047858497e-06   3.119326967440303e-05
-1.1784342621768502e-05   3.3150024575426783e-06   3.766386238281019e-05
-1.1784342621768502e-05   3.3150024575426783e-06   3.766386238281019e-05
-1.1784342621768502e-05   3.3150024575426783e-06   3.766386238281019e-05
-1.1784342621768502e-05   3.3150024575426783e-06   3.766386238281019e-05
-1.8659294658824113e-05   2.4210997442925333e-06   2.566926735976733e-05
-1.8659294658824113e-05   2.4210997442925333e-06   2.566926735976733e-05
-1.8659294658824113e-05   2.4210997442925333e-06   2.566926735976733e-05
-1.8659294658824113e-05   2.4210997442925333e-06   2.566926735976733e-05
-1.899410189700639e-05   2.4939418925063774e-06   3.750032280544903e-05
-1.899410189700639e-05   2.4939418925063774e-06   3.750032280544903e-05
-1.899410189700639e-05   2.4939418925063774e-06   3.750032280544903e-05
-1.899410189700639e-05   2.4939418925063774e-06   3.750032280544903e-05
-1.2165339060523733e-05   1.6441063633609084e-06   2.6628952728798363e-05
-1.2165339060523733e-05   1.6441063633609084e-06   2.6628952728798363e-05
-1.2165339060523733e-05   1.6441063633609084e-06   2.6628952728798363e-05
-1.2165339060523733e-05   1.6441063633609084e-06   2.6628952728798363e-05
-1.5325343386272887e-05   2.5907478796828934e-06   3.132764169525373e-05
-1.5325343386272887e-05   2.5907478796828934e-06   3.132764169525373e-05
-1.5325343386272887e-05   2.5907478796828934e-06   3.132764169525373e-05
-1.5325343386272887e-05   2.5907478796828934e-06   3.132764169525373e-05
-1.2165339060523733e-05   2.4939418925063774e-06   3.801022412293592e-05
-1.2165339060523733e-05   2.4939418925063774e-06   3.801022412293592e-05
-1.2165339060523733e-05   2.4939418925063774e-06   3.801022412293592e-05
-1.2165339060523733e-05   2.4939418925063774e-06   3.801022412293592e-05
-1.8994101897006337e-05   1.6441063633609084e-06   2.61190514113112e-05
-1.8994101897006337e-05   1.6441063633609084e-06   2.61190514113112e-05
-1.8994101897006337e-05   1.6441063633609084e-06   2.61190514113112e-05
-1.8994101897006337e-05   1.6441063633609084e-06   2.61190514113112e-05
-1.9321986755513874e-05   1.7075479322684484e-06   3.8277393373823505e-05
-1.9321986755513874e-05   1.7075479322684484e-06   3.8277393373823505e-05
-1.9321986755513874e-05   1.7075479322684484e-06   3.8277393373823505e-05
-1.9321986755513874e-05   1.7075479322684484e-06   3.8277393373823505e-05
-1.2538853160055469e-05   9.071140805721068e-07   2.745243102574398e-05
-1.2538853160055469e-05   9.071140805721068e-07   2.745243102574398e-05
-1.2538853160055469e-05   9.071140805721068e-07   2.745243102574398e-05
-1.2538853160055469e-05   9.071140805721068e-07   2.745243102574398e-05
-1.562265152242593e-05   1.9872432170356565e-06   3.1944017481149996e-05
-1.562265152242593e-05   1.9872432170356565e-06   3.1944017481149996e-05
-1.562265152242593e-05   1.9872432170356565e-06   3.1944017481149996e-05
-1.562265152242593e-05   1.9872432170356565e-06   3.1944017481149996e-05
-1.8346988643619475e-05   6.1446076681287345e-06   3.269575038579594e-05
-1.8346988643619475e-05   6.1446076681287345e-06   3.269575038579594e-05
-1.8346988643619475e-05   6.1446076681287345e-06   3.269575038579594e-05
-1.8346988643619475e-05   6.1446076681287345e-06   3.269575038579594e-05
-2.516228836836414e-05   4.3021372433697455e-06   2.0231435256365892e-05
-2.516228836836414e-05   4.3021372433697455e-06   2.0231435256365892e-05
-2.516228836836414e-05   4.3021372433697455e-06   2.0231435256365892e-05
-2.516228836836414e-05   4.3021372433697455e-06   2.0231435256365892e-05
-2.550531053974631e-05   5.311973930062497e-06   3.173120276248032e-05
-2.550531053974631e-05   5.311973930062497e-06   3.173120276248032e-05
-2.550531053974631e-05   5.311973930062497e-06   3.173120276248032e-05
-2.550531053974631e-05   5.311973930062497e-06   3.173120276248032e-05
-1.8659294658824113e-05   3.4978120809249502e-06   2.1409673403759307e-05
-1.8659294658824113e-05   3.4978120809249502e-06   2.1409673403759307e-05
-1.8659294658824113e-05   3.4978120809249502e-06   2.1409673403759307e-05
-1.8659294658824113e-05   3.4978120809249502e-06   2.1409673403759307e-05
-2.1872062221524384e-05   4.774258418114956e-06   2.5998418205945843e-05
-2.1872062221524384e-05   4.774258418114956e-06   2.5998418205945843e-05
-2.1872062221524384e-05   4.774258418114956e-06   2.5998418205945843e-05
-2.1872062221524384e-05   4.774258418114956e-06   2.5998418205945843e-05
-1.8659294658824113e-05   5.311973930062497e-06   3.2819699871962805e-05
-1.8659294658824113e-05   5.311973930062497e-06   3.2819699871962805e-05
-1.8659294658824113e-05   5.311973930062497e-06   3.2819699871962805e-05
-1.8659294658824113e-05   5.311973930062497e-06   3.2819699871962805e-05
-2.55053105397462e-05   3.4978120809249502e-06   2.0321176294276606e-05
-2.55053105397462e-05   3.4978120809249502e-06   2.0321176294276606e-05
-2.55053105397462e-05   3.4978120809249502e-06   2.0321176294276606e-05
-2.55053105397462e-05   3.4978120809249502e-06   2.0321176294276606e-05
-2.598013496648221e-05   4.555521302682282e-06   3.2786309302728755e-05
-2.598013496648221e-05   4.555521302682282e-06   3.2786309302728755e-05
-2.598013496648221e-05   4.555521302682282e-06   3.2786309302728755e-05
-2.598013496648221e-05   4.555521302682282e-06   3.2786309302728755e-05
-1.899410189700639e-05   2.782682803247538e-06   2.2206623953263172e-05
-1.899410189700639e-05   2.782682803247538e-06   2.2206623953263172e-05
-1.899410189700639e-05   2.782682803247538e-06   2.2206623953263172e-05
-1.899410189700639e-05   2.782682803247538e-06   2.2206623953263172e-05
-2.2058582795587246e-05   4.180555427938781e-06   2.64753685427499e-05
-2.2058582795587246e-05   4.180555427938781e-06   2.64753685427499e-05
-2.2058582795587246e-05   4.180555427938781e-06   2.64753685427499e-05
-2.2058582795587246e-05   4.180555427938781e-06   2.64753685427499e-05
-1.8994101897006337e-05   4.555521302682282e-06   3.385001240238921e-05
-1.8994101897006337e-05   4.555521302682282e-06   3.385001240238921e-05
-1.8994101897006337e-05   4.555521302682282e-06   3.385001240238921e-05
-1.8994101897006337e-05   4.555521302682282e-06   3.385001240238921e-05
-2.59801349664821e-05   2.782682803247538e-06   2.1142920853602283e-05
-2.59801349664821e-05   2.782682803247538e-06   2.1142920853602283e-05
-2.59801349664821e-05   2.782682803247538e-06   2.1142920853602283e-05
-2.59801349664821e-05   2.782682803247538e-06   2.1142920853602283e-05
-2.636097065125795e-05   3.747712128360746e-06   3.3961543679949255e-05
-2.636097065125795e-05   3.747712128360746e-06   3.3961543679949255e-05
-2.636097065125795e-05   3.747712128360746e-06   3.3961543679949255e-05
-2.636097065125795e-05   3.747712128360746e-06   3.3961543679949255e-05
-1.932198675551382e-05   2.054631779003927e-06   2.3245752063323372e-05
-1.932198675551382e-05   2.054631779003927e-06   2.3245752063323372e-05
-1.932198675551382e-05   2.054631779003927e-06   2.3245752063323372e-05
-1.932198675551382e-05   2.054631779003927e-06   2.3245752063323372e-05
-2.2451432212899306e-05   3.616492610063974e-06   2.7524377993663838e-05
-2.2451432212899306e-05   3.616492610063974e-06   2.7524377993663838e-05
-2.2451432212899306e-05   3.616492610063974e-06   2.7524377993663838e-05
-2.2451432212899306e-05   3.616492610063974e-06   2.7524377993663838e-05
-2.516228836836414e-05   7.550680853634804e-06   1.4404559272650089e-05
-2.516228836836414e-05   7.550680853634804e-06   1.4404559272650089e-05
-2.516228836836414e-05   7.550680853634804e-06   1.4404559272650089e-05
-2.516228836836414e-05   7.550680853634804e-06   1.4404559272650089e-05
-3.0491927382190467e-05   5.075270102506118e-06   4.036581132262591e-06
-3.0491927382190467e-05   5.075270102506118e-06   4.036581132262591e-06
-3.0491927382190467e-05   5.075270102506118e-06   4.036581132262591e-06
-3.0491927382190467e-05   5.075270102506118e-06   4.036581132262591e-06
-3.1796204178290545e-05   7.1229250017486225e-06   1.688072167037335e-05
-3.1796204178290545e-05   7.1229250017486225e-06   1.688072167037335e-05
-3.1796204178290545e-05   7.1229250017486225e-06   1.688072167037335e-05
-3.1796204178290545e-05   7.1229250017486225e-06   1.688072167037335e-05
-2.5505310539746255e-05   4.539935033028453e-06   7.945692920698338e-06
-2.5505310539746255e-05   4.539935033028453e-06   7.945692920698338e-06
-2.5505310539746255e-05   4.539935033028453e-06   7.945692920698338e-06
-2.5505310539746255e-05   4.539935033028453e-06   7.945692920698338e-06
-2.7259652378944178e-05   6.012510774730355e-06   9.986050541007166e-06
-2.7259652378944178e-05   6.012510774730355e-06   9.986050541007166e-06
-2.7259652378944178e-05   6.012510774730355e-06   9.986050541007166e-06
-2.7259652378944178e-05   6.012510774730355e-06   9.986050541007166e-06
-2.55053105397462e-05   7.122925001748839e-06   1.843051565160545e-05
-2.55053105397462e-05   7.122925001748839e-06   1.843051565160545e-05
-2.55053105397462e-05   7.122925001748839e-06   1.843051565160545e-05
-2.55053105397462e-05   7.122925001748839e-06   1.843051565160545e-05
-3.1796204178290654e-05   4.539935033028453e-06   6.39589893946624e-06
-3.1796204178290654e-05   4.539935033028453e-06   6.39589893946624e-06
-3.1796204178290654e-05   4.539935033028453e-06   6.39589893946624e-06
-3.1796204178290654e-05   4.539935033028453e-06   6.39589893946624e-06
-3.291657421025619e-05   6.7666680278787375e-06   1.9882712455692245e-05
-3.291657421025619e-05   6.7666680278787375e-06   1.9882712455692245e-05
-3.291657421025619e-05   6.7666680278787375e-06   1.9882712455692245e-05
-3.291657421025619e-05   6.7666680278787375e-06   1.9882712455692245e-05
-2.598013496648221e-05   4.172714725648877e-06   9.878352364073306e-06
-2.598013496648221e-05   4.172714725648877e-06   9.878352364073306e-06
-2.598013496648221e-05   4.172714725648877e-06   9.878352364073306e-06
-2.598013496648221e-05   4.172714725648877e-06   9.878352364073306e-06
-2.836377168438222e-05   5.801708599833914e-06   1.2873683902729855e-05
-2.836377168438222e-05   5.801708599833914e-06   1.2873683902729855e-05
-2.836377168438222e-05   5.801708599833914e-06   1.2873683902729855e-05
-2.836377168438222e-05   5.801708599833914e-06   1.2873683902729855e-05
-2.598013496648221e-05   6.766668027878521e-06   2.14390844370299e-05
-2.598013496648221e-05   6.766668027878521e-06   2.14390844370299e-05
-2.598013496648221e-05   6.766668027878521e-06   2.14390844370299e-05
-2.598013496648221e-05   6.766668027878521e-06   2.14390844370299e-05
-3.2916574210256296e-05   4.172714725648877e-06   8.32198038273551e-06
-3.2916574210256296e-05   4.172714725648877e-06   8.32198038273551e-06
-3.2916574210256296e-05   4.172714725648877e-06   8.32198038273551e-06
-3.2916574210256296e-05   4.172714725648877e-06   8.32198038273551e-06
-3.434449094175422e-05   5.799545780678806e-06   2.5317168349218424e-05
-3.434449094175422e-05   5.799545780678806e-06   2.5317168349218424e-05
-3.434449094175422e-05   5.799545780678806e-06   2.5317168349218424e-05
-3.434449094175422e-05   5.799545780678806e-06   2.5317168349218424e-05
-2.6360970651257895e-05   3.331604905669255e-06   1.3492065723396817e-05
-2.6360970651257895e-05   3.331604905669255e-06   1.3492065723396817e-05
-2.6360970651257895e-05   3.331604905669255e-06   1.3492065723396817e-05
-2.6360970651257895e-05   3.331604905669255e-06   1.3492065723396817e-05
-2.868112467489361e-05   5.400431611034045e-06   1.611769307290436e-05
-2.868112467489361e-05   5.400431611034045e-06   1.611769307290436e-05
-2.868112467489361e-05   5.400431611034045e-06   1.611769307290436e-05
-2.868112467489361e-05   5.400431611034045e-06   1.611769307290436e-05
-1.2681481884950735e-05   2.296513280979507e-06   1.4881041418574091e-05
-1.2681481884950735e-05   2.296513280979507e-06   1.4881041418574091e-05
-1.2681481884950735e-05   2.296513280979507e-06   1.4881041418574091e-05
-1.2681481884950735e-05   2.296513280979507e-06   1.4881041418574091e-05
-1.3781593263345299e-05   4.32181438274142e-06   1.4262703115640275e-05
-1.3781593263345299e-05   4.32181438274142e-06   1.4262703115640275e-05
-1.3781593263345299e-05   4.32181438274142e-06   1.4262703115640275e-05
-1.3781593263345299e-05   4.32181438274142e-06   1.4262703115640275e-05
-1.4131668501431997e-05   1.5591845686268105e-06   1.6009267901023836e-05
-1.4131668501431997e-05   1.5591845686268105e-06   1.6009267901023836e-05
-1.4131668501431997e-05   1.5591845686268105e-06   1.6009267901023836e-05
-1.4131668501431997e-05   1.5591845686268105e-06   1.6009267901023836e-05
-1.4163323693459779e-05   3.379640762096671e-06   1.496975283832148e-05
-1.4163323693459779e-05   3.379640762096671e-06   1.496975283832148e-05
-1.4163323693459779e-05   3.379640762096671e-06   1.496975283832148e-05
-1.4163323693459779e-05   3.379640762096671e-06   1.496975283832148e-05
-1.3346885227011201e-05   2.70223219856619e-06   1.4015467199025378e-05
-1.3346885227011201e-05   2.70223219856619e-06   1.4015467199025378e-05
-1.3346885227011201e-05   2.70223219856619e-06   1.4015467199025378e-05
-1.3346885227011201e-05   2.70223219856619e-06   1.4015467199025378e-05
-1.4163323693459806e-05   1.5591845686265936e-06   1.4916994184941638e-05
-1.4163323693459806e-05   1.5591845686265936e-06   1.4916994184941638e-05
-1.4163323693459806e-05   1.5591845686265936e-06   1.4916994184941638e-05
-1.4163323693459806e-05   1.5591845686265936e-06   1.4916994184941638e-05
-1.4131668501431997e-05   3.379640762096671e-06   1.606202655440349e-05
-1.4131668501431997e-05   3.379640762096671e-06   1.606202655440349e-05
-1.4131668501431997e-05   3.379640762096671e-06   1.606202655440349e-05
-1.4131668501431997e-05   3.379640762096671e-06   1.606202655440349e-05
-1.458619903522956e-05   1.152200393295848e-06   1.6529365638786654e-05
-1.458619903522956e-05   1.152200393295848e-06   1.6529365638786654e-05
-1.458619903522956e-05   1.152200393295848e-06   1.6529365638786654e-05
-1.458619903522956e-05   1.152200393295848e-06   1.6529365638786654e-05
-1.5603544990699182e-05   2.7270772210882506e-06   1.7280016134560563e-05
-1.5603544990699182e-05   2.7270772210882506e-06   1.7280016134560563e-05
-1.5603544990699182e-05   2.7270772210882506e-06   1.7280016134560563e-05
-1.5603544990699182e-05   2.7270772210882506e-06   1.7280016134560563e-05
-1.4229373644069053e-05   2.295480580620686e-06   1.5248688541123518e-05
-1.4229373644069053e-05   2.295480580620686e-06   1.5248688541123518e-05
-1.4229373644069053e-05   2.295480580620686e-06   1.5248688541123518e-05
-1.4229373644069053e-05   2.295480580620686e-06   1.5248688541123518e-05
-1.560354499069921e-05   1.152200393296065e-06   1.5584439542110952e-05
-1.560354499069921e-05   1.152200393296065e-06   1.5584439542110952e-05
-1.560354499069921e-05   1.152200393296065e-06   1.5584439542110952e-05
-1.560354499069921e-05   1.152200393296065e-06   1.5584439542110952e-05
-1.458619903522956e-05   2.7270772210882506e-06   1.8224942231235804e-05
-1.458619903522956e-05   2.7270772210882506e-06   1.8224942231235804e-05
-1.458619903522956e-05   2.7270772210882506e-06   1.8224942231235804e-05
-1.458619903522956e-05   2.7270772210882506e-06   1.8224942231235804e-05
-1.4873909196529206e-05   2.879277657937343e-07   1.8190862473286868e-05
-1.4873909196529206e-05   2.879277657937343e-07   1.8190862473286868e-05
-1.4873909196529206e-05   2.879277657937343e-07   1.8190862473286868e-05
-1.4873909196529206e-05   2.879277657937343e-07   1.8190862473286868e-05
-1.7136347669757953e-05   1.1213511860924457e-06   2.146153920982191e-05
-1.7136347669757953e-05   1.1213511860924457e-06   2.146153920982191e-05
-1.7136347669757953e-05   1.1213511860924457e-06   2.146153920982191e-05
-1.7136347669757953e-05   1.1213511860924457e-06   2.146153920982191e-05
-1.4843675731000665e-05   1.7947182927081397e-06   1.7236399047923187e-05
-1.4843675731000665e-05   1.7947182927081397e-06   1.7236399047923187e-05
-1.4843675731000665e-05   1.7947182927081397e-06   1.7236399047923187e-05
-1.4843675731000665e-05   1.7947182927081397e-06   1.7236399047923187e-05
-1.3781593263345279e-05   2.661985200079226e-06   2.970364660274732e-05
-1.3781593263345279e-05   2.661985200079226e-06   2.970364660274732e-05
-1.3781593263345279e-05   2.661985200079226e-06   2.970364660274732e-05
-1.3781593263345279e-05   2.661985200079226e-06   2.970364660274732e-05
-1.3916466354411733e-05   1.1178549587780593e-06   2.8552379972855908e-05
-1.3916466354411733e-05   1.1178549587780593e-06   2.8552379972855908e-05
-1.3916466354411733e-05   1.1178549587780593e-06   2.8552379972855908e-05
-1.3916466354411733e-05   1.1178549587780593e-06   2.8552379972855908e-05
-1.4022335828881152e-05   1.83797817595731e-06   2.8580667488733828e-05
-1.4022335828881152e-05   1.83797817595731e-06   2.8580667488733828e-05
-1.4022335828881152e-05   1.83797817595731e-06   2.8580667488733828e-05
-1.4022335828881152e-05   1.83797817595731e-06   2.8580667488733828e-05
-1.4131668501431997e-05   5.381272395803228e-07   2.9542799171478014e-05
-1.4131668501431997e-05   5.381272395803228e-07   2.9542799171478014e-05
-1.4131668501431997e-05   5.381272395803228e-07   2.9542799171478014e-05
-1.4131668501431997e-05   5.381272395803228e-07   2.9542799171478014e-05
-1.391910889200713e-05   1.3617889427120118e-06   2.869433613389091e-05
-1.391910889200713e-05   1.3617889427120118e-06   2.869433613389091e-05
-1.391910889200713e-05   1.3617889427120118e-06   2.869433613389091e-05
-1.391910889200713e-05   1.3617889427120118e-06   2.869433613389091e-05
-1.4131668501431983e-05   1.83797817595731e-06   2.9360578050559435e-05
-1.4131668501431983e-05   1.83797817595731e-06   2.9360578050559435e-05
-1.4131668501431983e-05   1.83797817595731e-06   2.9360578050559435e-05
-1.4131668501431983e-05   1.83797817595731e-06   2.9360578050559435e-05
-1.4022335828881125e-05   5.381272395803228e-07   2.8762888609651838e-05
-1.4022335828881125e-05   5.381272395803228e-07   2.8762888609651838e-05
-1.4022335828881125e-05   5.381272395803228e-07   2.8762888609651838e-05
-1.4022335828881125e-05   5.381272395803228e-07   2.8762888609651838e-05
-1.4153969695424284e-05   1.0763243460617557e-06   2.8980192692066253e-05
-1.4153969695424284e-05   1.0763243460617557e-06   2.8980192692066253e-05
-1.4153969695424284e-05   1.0763243460617557e-06   2.8980192692066253e-05
-1.4153969695424284e-05   1.0763243460617557e-06   2.8980192692066253e-05
-1.458619903522956e-05   -1.3605664863866086e-07   3.042800352189484e-05
-1.458619903522956e-05   -1.3605664863866086e-07   3.042800352189484e-05
-1.458619903522956e-05   -1.3605664863866086e-07   3.042800352189484e-05
-1.458619903522956e-05   -1.3605664863866086e-07   3.042800352189484e-05
-1.4049347727983347e-05   8.805207665836968e-07   2.8923304894017403e-05
-1.4049347727983347e-05   8.805207665836968e-07   2.8923304894017403e-05
-1.4049347727983347e-05   8.805207665836968e-07   2.8923304894017403e-05
-1.4049347727983347e-05   8.805207665836968e-07   2.8923304894017403e-05
-1.458619903522956e-05   1.0763243460615388e-06   2.9707621288885917e-05
-1.458619903522956e-05   1.0763243460615388e-06   2.9707621288885917e-05
-1.458619903522956e-05   1.0763243460615388e-06   2.9707621288885917e-05
-1.458619903522956e-05   1.0763243460615388e-06   2.9707621288885917e-05
-1.4153969695424257e-05   -1.3605664863866086e-07   2.9700574925074633e-05
-1.4153969695424257e-05   -1.3605664863866086e-07   2.9700574925074633e-05
-1.4153969695424257e-05   -1.3605664863866086e-07   2.9700574925074633e-05
-1.4153969695424257e-05   -1.3605664863866086e-07   2.9700574925074633e-05
-1.4248399013615947e-05   2.500794491994227e-07   2.982140664216674e-05
-1.4248399013615947e-05   2.500794491994227e-07   2.982140664216674e-05
-1.4248399013615947e-05   2.500794491994227e-07   2.982140664216674e-05
-1.4248399013615947e-05   2.500794491994227e-07   2.982140664216674e-05
-1.4873909196529192e-05   -1.0231896799774067e-06   3.1627885091194686e-05
-1.4873909196529192e-05   -1.0231896799774067e-06   3.1627885091194686e-05
-1.4873909196529192e-05   -1.0231896799774067e-06   3.1627885091194686e-05
-1.4873909196529192e-05   -1.0231896799774067e-06   3.1627885091194686e-05
-1.4257372662923333e-05   3.137831323092675e-07   2.979814051447881e-05
-1.4257372662923333e-05   3.137831323092675e-07   2.979814051447881e-05
-1.4257372662923333e-05   3.137831323092675e-07   2.979814051447881e-05
-1.4257372662923333e-05   3.137831323092675e-07   2.979814051447881e-05
-1.391646635441176e-05   3.185512664852794e-06   3.2769956264780886e-05
-1.391646635441176e-05   3.185512664852794e-06   3.2769956264780886e-05
-1.391646635441176e-05   3.185512664852794e-06   3.2769956264780886e-05
-1.391646635441176e-05   3.185512664852794e-06   3.2769956264780886e-05
-1.4944063805174819e-05   3.0986951860597495e-07   2.9331907959094283e-05
-1.4944063805174819e-05   3.0986951860597495e-07   2.9331907959094283e-05
-1.4944063805174819e-05   3.0986951860597495e-07   2.9331907959094283e-05
-1.4944063805174819e-05   3.0986951860597495e-07   2.9331907959094283e-05
-1.4977233485950466e-05   2.4210997442925333e-06   3.109309587200548e-05
-1.4977233485950466e-05   2.4210997442925333e-06   3.109309587200548e-05
-1.4977233485950466e-05   2.4210997442925333e-06   3.109309587200548e-05
-1.4977233485950466e-05   2.4210997442925333e-06   3.109309587200548e-05
-1.4022335828881125e-05   -1.8103626733638727e-07   3.106288138386709e-05
-1.4022335828881125e-05   -1.8103626733638727e-07   3.106288138386709e-05
-1.4022335828881125e-05   -1.8103626733638727e-07   3.106288138386709e-05
-1.4022335828881125e-05   -1.8103626733638727e-07   3.106288138386709e-05
-1.4439717611044523e-05   1.3861105741027474e-06   3.0818229582609436e-05
-1.4439717611044523e-05   1.3861105741027474e-06   3.0818229582609436e-05
-1.4439717611044523e-05   1.3861105741027474e-06   3.0818229582609436e-05
-1.4439717611044523e-05   1.3861105741027474e-06   3.0818229582609436e-05
-1.4022335828881152e-05   2.4210997442923165e-06   3.265437747898266e-05
-1.4022335828881152e-05   2.4210997442923165e-06   3.265437747898266e-05
-1.4022335828881152e-05   2.4210997442923165e-06   3.265437747898266e-05
-1.4022335828881152e-05   2.4210997442923165e-06   3.265437747898266e-05
-1.4977233485950411e-05   -1.8103626733638727e-07   2.9501599776889884e-05
-1.4977233485950411e-05   -1.8103626733638727e-07   2.9501599776889884e-05
-1.4977233485950411e-05   -1.8103626733638727e-07   2.9501599776889884e-05
-1.4977233485950411e-05   -1.8103626733638727e-07   2.9501599776889884e-05
-1.5040299140325918e-05   1.6441063633609084e-06   3.1584396162799046e-05
-1.5040299140325918e-05   1.6441063633609084e-06   3.1584396162799046e-05
-1.5040299140325918e-05   1.6441063633609084e-06   3.1584396162799046e-05
-1.5040299140325918e-05   1.6441063633609084e-06   3.1584396162799046e-05
-1.4153969695424284e-05   -7.689717411458324e-07   3.155502728400015e-05
-1.4153969695424284e-05   -7.689717411458324e-07   3.155502728400015e-05
-1.4153969695424284e-05   -7.689717411458324e-07   3.155502728400015e-05
-1.4153969695424284e-05   -7.689717411458324e-07   3.155502728400015e-05
-1.4444344011202458e-05   8.993589753361706e-07   3.103798604707351e-05
-1.4444344011202458e-05   8.993589753361706e-07   3.103798604707351e-05
-1.4444344011202458e-05   8.993589753361706e-07   3.103798604707351e-05
-1.4444344011202458e-05   8.993589753361706e-07   3.103798604707351e-05
-1.4153969695424284e-05   1.6441063633609084e-06   3.303224302550261e-05
-1.4153969695424284e-05   1.6441063633609084e-06   3.303224302550261e-05
-1.4153969695424284e-05   1.6441063633609084e-06   3.303224302550261e-05
-1.4153969695424284e-05   1.6441063633609084e-06   3.303224302550261e-05
-1.5040299140325864e-05   -7.689717411458324e-07   3.0107180421296015e-05
-1.5040299140325864e-05   -7.689717411458324e-07   3.0107180421296015e-05
-1.5040299140325864e-05   -7.689717411458324e-07   3.0107180421296015e-05
-1.5040299140325864e-05   -7.689717411458324e-07   3.0107180421296015e-05
-1.5079270093367684e-05   9.071140805721068e-07   3.245945648460498e-05
-1.5079270093367684e-05   9.071140805721068e-07   3.245945648460498e-05
-1.5079270093367684e-05   9.071140805721068e-07   3.245945648460498e-05
-1.5079270093367684e-05   9.071140805721068e-07   3.245945648460498e-05
-1.4248399013615947e-05   -1.36010698556727e-06   3.243500399136885e-05
-1.4248399013615947e-05   -1.36010698556727e-06   3.243500399136885e-05
-1.4248399013615947e-05   -1.36010698556727e-06   3.243500399136885e-05
-1.4248399013615947e-05   -1.36010698556727e-06   3.243500399136885e-05
-1.4472793888290983e-05   3.987714209258142e-07   3.1753668405263896e-05
-1.4472793888290983e-05   3.987714209258142e-07   3.1753668405263896e-05
-1.4472793888290983e-05   3.987714209258142e-07   3.1753668405263896e-05
-1.4472793888290983e-05   3.987714209258142e-07   3.1753668405263896e-05
-1.4944063805174819e-05   4.3021372433697455e-06   2.6679653144580568e-05
-1.4944063805174819e-05   4.3021372433697455e-06   2.6679653144580568e-05
-1.4944063805174819e-05   4.3021372433697455e-06   2.6679653144580568e-05
-1.4944063805174819e-05   4.3021372433697455e-06   2.6679653144580568e-05
-1.6447563118445266e-05   1.4106618344365135e-06   2.243893571043667e-05
-1.6447563118445266e-05   1.4106618344365135e-06   2.243893571043667e-05
-1.6447563118445266e-05   1.4106618344365135e-06   2.243893571043667e-05
-1.6447563118445266e-05   1.4106618344365135e-06   2.243893571043667e-05
-1.6470983977024626e-05   3.4978120809249502e-06   2.519340524147185e-05
-1.6470983977024626e-05   3.4978120809249502e-06   2.519340524147185e-05
-1.6470983977024626e-05   3.4978120809249502e-06   2.519340524147185e-05
-1.6470983977024626e-05   3.4978120809249502e-06   2.519340524147185e-05
-1.4977233485950466e-05   7.64317623382668e-07   2.43439177642071e-05
-1.4977233485950466e-05   7.64317623382668e-07   2.43439177642071e-05
-1.4977233485950466e-05   7.64317623382668e-07   2.43439177642071e-05
-1.4977233485950466e-05   7.64317623382668e-07   2.43439177642071e-05
-1.5668794599029952e-05   2.5538533760297542e-06   2.4422798167751366e-05
-1.5668794599029952e-05   2.5538533760297542e-06   2.4422798167751366e-05
-1.5668794599029952e-05   2.5538533760297542e-06   2.4422798167751366e-05
-1.5668794599029952e-05   2.5538533760297542e-06   2.4422798167751366e-05
-1.4977233485950466e-05   3.4978120809249502e-06   2.6833501915997024e-05
-1.4977233485950466e-05   3.4978120809249502e-06   2.6833501915997024e-05
-1.4977233485950466e-05   3.4978120809249502e-06   2.6833501915997024e-05
-1.4977233485950466e-05   3.4978120809249502e-06   2.6833501915997024e-05
-1.6470983977024626e-05   7.64317623382668e-07   2.2703821089681716e-05
-1.6470983977024626e-05   7.64317623382668e-07   2.2703821089681716e-05
-1.6470983977024626e-05   7.64317623382668e-07   2.2703821089681716e-05
-1.6470983977024626e-05   7.64317623382668e-07   2.2703821089681716e-05
-1.6646671938215128e-05   2.782682803247321e-06   2.6129021636043387e-05
-1.6646671938215128e-05   2.782682803247321e-06   2.6129021636043387e-05
-1.6646671938215128e-05   2.782682803247321e-06   2.6129021636043387e-05
-1.6646671938215128e-05   2.782682803247321e-06   2.6129021636043387e-05
-1.5040299140325864e-05   2.1110435540134306e-07   2.4994680708268695e-05
-1.5040299140325864e-05   2.1110435540134306e-07   2.4994680708268695e-05
-1.5040299140325864e-05   2.1110435540134306e-07   2.4994680708268695e-05
-1.5040299140325864e-05   2.1110435540134306e-07   2.4994680708268695e-05
-1.5620829289293638e-05   2.0222821454870567e-06   2.487552428249583e-05
-1.5620829289293638e-05   2.0222821454870567e-06   2.487552428249583e-05
-1.5620829289293638e-05   2.0222821454870567e-06   2.487552428249583e-05
-1.5620829289293638e-05   2.0222821454870567e-06   2.487552428249583e-05
-1.5040299140325918e-05   2.782682803247538e-06   2.7671968704750258e-05
-1.5040299140325918e-05   2.782682803247538e-06   2.7671968704750258e-05
-1.5040299140325918e-05   2.782682803247538e-06   2.7671968704750258e-05
-1.5040299140325918e-05   2.782682803247538e-06   2.7671968704750258e-05
-1.6646671938215128e-05   2.1110435540134306e-07   2.345173363956105e-05
-1.6646671938215128e-05   2.1110435540134306e-07   2.345173363956105e-05
-1.6646671938215128e-05   2.1110435540134306e-07   2.345173363956105e-05
-1.6646671938215128e-05   2.1110435540134306e-07   2.345173363956105e-05
-1.6750427720984662e-05   2.0546317790041436e-06   2.729241067795491e-05
-1.6750427720984662e-05   2.0546317790041436e-06   2.729241067795491e-05
-1.6750427720984662e-05   2.0546317790041436e-06   2.729241067795491e-05
-1.6750427720984662e-05   2.0546317790041436e-06   2.729241067795491e-05
-1.5079270093367684e-05   -3.464134797416833e-07   2.5947775120506965e-05
-1.5079270093367684e-05   -3.464134797416833e-07   2.5947775120506965e-05
-1.5079270093367684e-05   -3.464134797416833e-07   2.5947775120506965e-05
-1.5079270093367684e-05   -3.464134797416833e-07   2.5947775120506965e-05
-1.5695734782556555e-05   1.54783491296555e-06   2.5838667233530287e-05
-1.5695734782556555e-05   1.54783491296555e-06   2.5838667233530287e-05
-1.5695734782556555e-05   1.54783491296555e-06   2.5838667233530287e-05
-1.5695734782556555e-05   1.54783491296555e-06   2.5838667233530287e-05
-1.644756311844521e-05   5.075270102505901e-06   1.0235160225794478e-05
-1.644756311844521e-05   5.075270102505901e-06   1.0235160225794478e-05
-1.644756311844521e-05   5.075270102505901e-06   1.0235160225794478e-05
-1.644756311844521e-05   5.075270102505901e-06   1.0235160225794478e-05
-1.6193667207195918e-05   2.3190958698551074e-06   9.004615538286151e-06
-1.6193667207195918e-05   2.3190958698551074e-06   9.004615538286151e-06
-1.6193667207195918e-05   2.3190958698551074e-06   9.004615538286151e-06
-1.6193667207195918e-05   2.3190958698551074e-06   9.004615538286151e-06
-1.7026130611652742e-05   4.539935033028453e-06   1.1211419044365517e-05
-1.7026130611652742e-05   4.539935033028453e-06   1.1211419044365517e-05
-1.7026130611652742e-05   4.539935033028453e-06   1.1211419044365517e-05
-1.7026130611652742e-05   4.539935033028453e-06   1.1211419044365517e-05
-1.6470983977024572e-05   1.8624303271480916e-06   1.1892677476846758e-05
-1.6470983977024572e-05   1.8624303271480916e-06   1.1892677476846758e-05
-1.6470983977024572e-05   1.8624303271480916e-06   1.1892677476846758e-05
-1.6470983977024572e-05   1.8624303271480916e-06   1.1892677476846758e-05
-1.5997880283024848e-05   3.5684666331759103e-06   1.0080549536563808e-05
-1.5997880283024848e-05   3.5684666331759103e-06   1.0080549536563808e-05
-1.5997880283024848e-05   3.5684666331759103e-06   1.0080549536563808e-05
-1.5997880283024848e-05   3.5684666331759103e-06   1.0080549536563808e-05
-1.6470983977024518e-05   4.539935033028453e-06   1.2817921867893148e-05
-1.6470983977024518e-05   4.539935033028453e-06   1.2817921867893148e-05
-1.6470983977024518e-05   4.539935033028453e-06   1.2817921867893148e-05
-1.6470983977024518e-05   4.539935033028453e-06   1.2817921867893148e-05
-1.7026130611652742e-05   1.8624303271480916e-06   1.0286174653318422e-05
-1.7026130611652742e-05   1.8624303271480916e-06   1.0286174653318422e-05
-1.7026130611652742e-05   1.8624303271480916e-06   1.0286174653318422e-05
-1.7026130611652742e-05   1.8624303271480916e-06   1.0286174653318422e-05
-1.775748985821722e-05   4.172714725648877e-06   1.3299007541879484e-05
-1.775748985821722e-05   4.172714725648877e-06   1.3299007541879484e-05
-1.775748985821722e-05   4.172714725648877e-06   1.3299007541879484e-05
-1.775748985821722e-05   4.172714725648877e-06   1.3299007541879484e-05
-1.6646671938215073e-05   1.5636387179243606e-06   1.3013089946510505e-05
-1.6646671938215073e-05   1.5636387179243606e-06   1.3013089946510505e-05
-1.6646671938215073e-05   1.5636387179243606e-06   1.3013089946510505e-05
-1.6646671938215073e-05   1.5636387179243606e-06   1.3013089946510505e-05
-1.6589839029616685e-05   3.3005688076482523e-06   1.187621037834481e-05
-1.6589839029616685e-05   3.3005688076482523e-06   1.187621037834481e-05
-1.6589839029616685e-05   3.3005688076482523e-06   1.187621037834481e-05
-1.6589839029616685e-05   3.3005688076482523e-06   1.187621037834481e-05
-1.6646671938215073e-05   4.17271472564866e-06   1.486445314651376e-05
-1.6646671938215073e-05   4.17271472564866e-06   1.486445314651376e-05
-1.6646671938215073e-05   4.17271472564866e-06   1.486445314651376e-05
-1.6646671938215073e-05   4.17271472564866e-06   1.486445314651376e-05
-1.775748985821733e-05   1.5636387179243606e-06   1.1447644341875903e-05
-1.775748985821733e-05   1.5636387179243606e-06   1.1447644341875903e-05
-1.775748985821733e-05   1.5636387179243606e-06   1.1447644341875903e-05
-1.775748985821733e-05   1.5636387179243606e-06   1.1447644341875903e-05
-1.8847971721845137e-05   3.331604905669255e-06   1.713453516185605e-05
-1.8847971721845137e-05   3.331604905669255e-06   1.713453516185605e-05
-1.8847971721845137e-05   3.331604905669255e-06   1.713453516185605e-05
-1.8847971721845137e-05   3.331604905669255e-06   1.713453516185605e-05
-1.6750427720984608e-05   9.648759293588846e-07   1.5058665879541587e-05
-1.6750427720984608e-05   9.648759293588846e-07   1.5058665879541587e-05
-1.6750427720984608e-05   9.648759293588846e-07   1.5058665879541587e-05
-1.6750427720984608e-05   9.648759293588846e-07   1.5058665879541587e-05
-1.6789674074166593e-05   2.983762173266796e-06   1.3912744721831876e-05
-1.6789674074166593e-05   2.983762173266796e-06   1.3912744721831876e-05
-1.6789674074166593e-05   2.983762173266796e-06   1.3912744721831876e-05
-1.6789674074166593e-05   2.983762173266796e-06   1.3912744721831876e-05
-3.26462511534543e-05   4.32181438274142e-06   1.2415059827767085e-05
-3.26462511534543e-05   4.32181438274142e-06   1.2415059827767085e-05
-3.26462511534543e-05   4.32181438274142e-06   1.2415059827767085e-05
-3.26462511534543e-05   4.32181438274142e-06   1.2415059827767085e-05
-2.1995590451018186e-05   5.989796916999052e-06   3.116695051904857e-05
-2.1995590451018186e-05   5.989796916999052e-06   3.116695051904857e-05
-2.1995590451018186e-05   5.989796916999052e-06   3.116695051904857e-05
-2.1995590451018186e-05   5.989796916999052e-06   3.116695051904857e-05
-2.1981948228989772e-05   3.379640762096671e-06   1.4145137542178243e-05
-2.1981948228989772e-05   3.379640762096671e-06   1.4145137542178243e-05
-2.1981948228989772e-05   3.379640762096671e-06   1.4145137542178243e-05
-2.1981948228989772e-05   3.379640762096671e-06   1.4145137542178243e-05
-3.5934876867327757e-05   2.449313509516541e-06   3.795821495762336e-05
-3.5934876867327757e-05   2.449313509516541e-06   3.795821495762336e-05
-3.5934876867327757e-05   2.449313509516541e-06   3.795821495762336e-05
-3.5934876867327757e-05   2.449313509516541e-06   3.795821495762336e-05
-2.6688526439830743e-05   3.554755525008455e-06   2.1884365702499868e-05
-2.6688526439830743e-05   3.554755525008455e-06   2.1884365702499868e-05
-2.6688526439830743e-05   3.554755525008455e-06   2.1884365702499868e-05
-2.6688526439830743e-05   3.554755525008455e-06   2.1884365702499868e-05
-3.5934876867327824e-05   3.3796407620967795e-06   1.4703333893726495e-05
-3.5934876867327824e-05   3.3796407620967795e-06   1.4703333893726495e-05
-3.5934876867327824e-05   3.3796407620967795e-06   1.4703333893726495e-05
-3.5934876867327824e-05   3.3796407620967795e-06   1.4703333893726495e-05
-2.1981948228989772e-05   2.449313509516541e-06   3.740001860607522e-05
-2.1981948228989772e-05   2.449313509516541e-06   3.740001860607522e-05
-2.1981948228989772e-05   2.449313509516541e-06   3.740001860607522e-05
-2.1981948228989772e-05   2.449313509516541e-06   3.740001860607522e-05
-2.2273866585213624e-05   2.7270772210882506e-06   1.58417909570427e-05
-2.2273866585213624e-05   2.7270772210882506e-06   1.58417909570427e-05
-2.2273866585213624e-05   2.7270772210882506e-06   1.58417909570427e-05
-2.2273866585213624e-05   2.7270772210882506e-06   1.58417909570427e-05
-3.605414537357936e-05   1.7656735328050303e-06   3.938576448395538e-05
-3.605414537357936e-05   1.7656735328050303e-06   3.938576448395538e-05
-3.605414537357936e-05   1.7656735328050303e-06   3.938576448395538e-05
-3.605414537357936e-05   1.7656735328050303e-06   3.938576448395538e-05
-2.846613862427416e-05   2.2292034832536523e-06   2.646096859817721e-05
-2.846613862427416e-05   2.2292034832536523e-06   2.646096859817721e-05
-2.846613862427416e-05   2.2292034832536523e-06   2.646096859817721e-05
-2.846613862427416e-05   2.2292034832536523e-06   2.646096859817721e-05
-3.6054145373579417e-05   2.7270772210882506e-06   1.6418633170012654e-05
-3.6054145373579417e-05   2.7270772210882506e-06   1.6418633170012654e-05
-3.6054145373579417e-05   2.7270772210882506e-06   1.6418633170012654e-05
-3.6054145373579417e-05   2.7270772210882506e-06   1.6418633170012654e-05
-2.2273866585213583e-05   1.7656735328050303e-06   3.880892227098548e-05
-2.2273866585213583e-05   1.7656735328050303e-06   3.880892227098548e-05
-2.2273866585213583e-05   1.7656735328050303e-06   3.880892227098548e-05
-2.2273866585213583e-05   1.7656735328050303e-06   3.880892227098548e-05
-2.202827213458713e-05   1.1213511860924457e-06   1.8810941533185257e-05
-2.202827213458713e-05   1.1213511860924457e-06   1.8810941533185257e-05
-2.202827213458713e-05   1.1213511860924457e-06   1.8810941533185257e-05
-2.202827213458713e-05   1.1213511860924457e-06   1.8810941533185257e-05
-3.64319232868345e-05   -1.136806034171046e-06   4.4171921119088876e-05
-3.64319232868345e-05   -1.136806034171046e-06   4.4171921119088876e-05
-3.64319232868345e-05   -1.136806034171046e-06   4.4171921119088876e-05
-3.64319232868345e-05   -1.136806034171046e-06   4.4171921119088876e-05
-2.802361113259018e-05   1.0911444465311728e-06   2.88212972402604e-05
-2.802361113259018e-05   1.0911444465311728e-06   2.88212972402604e-05
-2.802361113259018e-05   1.0911444465311728e-06   2.88212972402604e-05
-2.802361113259018e-05   1.0911444465311728e-06   2.88212972402604e-05
-2.1995590451018227e-05   1.1178549587779509e-06   2.863200435031818e-05
-2.1995590451018227e-05   1.1178549587779509e-06   2.863200435031818e-05
-2.1995590451018227e-05   1.1178549587779509e-06   2.863200435031818e-05
-2.1995590451018227e-05   1.1178549587779509e-06   2.863200435031818e-05
-1.347494570766062e-05   -6.690439499401179e-06   3.81481022476733e-05
-1.347494570766062e-05   -6.690439499401179e-06   3.81481022476733e-05
-1.347494570766062e-05   -6.690439499401179e-06   3.81481022476733e-05
-1.347494570766062e-05   -6.690439499401179e-06   3.81481022476733e-05
-1.3497242287683172e-05   5.381272395802144e-07   2.401964904155424e-05
-1.3497242287683172e-05   5.381272395802144e-07   2.401964904155424e-05
-1.3497242287683172e-05   5.381272395802144e-07   2.401964904155424e-05
-1.3497242287683172e-05   5.381272395802144e-07   2.401964904155424e-05
-2.1981948228989772e-05   -5.472307956584405e-06   4.176708672809748e-05
-2.1981948228989772e-05   -5.472307956584405e-06   4.176708672809748e-05
-2.1981948228989772e-05   -5.472307956584405e-06   4.176708672809748e-05
-2.1981948228989772e-05   -5.472307956584405e-06   4.176708672809748e-05
-1.7641457833435923e-05   -3.3071898134426608e-06   3.323386518295623e-05
-1.7641457833435923e-05   -3.3071898134426608e-06   3.323386518295623e-05
-1.7641457833435923e-05   -3.3071898134426608e-06   3.323386518295623e-05
-1.7641457833435923e-05   -3.3071898134426608e-06   3.323386518295623e-05
-2.198194822898978e-05   5.381272395802144e-07   2.762591015925274e-05
-2.198194822898978e-05   5.381272395802144e-07   2.762591015925274e-05
-2.198194822898978e-05   5.381272395802144e-07   2.762591015925274e-05
-2.198194822898978e-05   5.381272395802144e-07   2.762591015925274e-05
-1.3497242287683145e-05   -5.472307956584405e-06   3.816082561039873e-05
-1.3497242287683145e-05   -5.472307956584405e-06   3.816082561039873e-05
-1.3497242287683145e-05   -5.472307956584405e-06   3.816082561039873e-05
-1.3497242287683145e-05   -5.472307956584405e-06   3.816082561039873e-05
-1.3543161079363988e-05   -1.3605664863866086e-07   2.4767436674652467e-05
-1.3543161079363988e-05   -1.3605664863866086e-07   2.4767436674652467e-05
-1.3543161079363988e-05   -1.3605664863866086e-07   2.4767436674652467e-05
-1.3543161079363988e-05   -1.3605664863866086e-07   2.4767436674652467e-05
-2.2273866585213583e-05   -5.598415937054001e-06   4.2596028090784226e-05
-2.2273866585213583e-05   -5.598415937054001e-06   4.2596028090784226e-05
-2.2273866585213583e-05   -5.598415937054001e-06   4.2596028090784226e-05
-2.2273866585213583e-05   -5.598415937054001e-06   4.2596028090784226e-05
-1.75076349501049e-05   -2.8891362307855014e-06   3.302674087517514e-05
-1.75076349501049e-05   -2.8891362307855014e-06   3.302674087517514e-05
-1.75076349501049e-05   -2.8891362307855014e-06   3.302674087517514e-05
-1.75076349501049e-05   -2.8891362307855014e-06   3.302674087517514e-05
-2.2273866585213624e-05   -1.3605664863866086e-07   2.8044852247701736e-05
-2.2273866585213624e-05   -1.3605664863866086e-07   2.8044852247701736e-05
-2.2273866585213624e-05   -1.3605664863866086e-07   2.8044852247701736e-05
-2.2273866585213624e-05   -1.3605664863866086e-07   2.8044852247701736e-05
-1.3543161079363961e-05   -5.598415937054001e-06   3.931861251773504e-05
-1.3543161079363961e-05   -5.598415937054001e-06   3.931861251773504e-05
-1.3543161079363961e-05   -5.598415937054001e-06   3.931861251773504e-05
-1.3543161079363961e-05   -5.598415937054001e-06   3.931861251773504e-05
-1.3402447674808226e-05   -1.0231896799774067e-06   2.5698232824278083e-05
-1.3402447674808226e-05   -1.0231896799774067e-06   2.5698232824278083e-05
-1.3402447674808226e-05   -1.0231896799774067e-06   2.5698232824278083e-05
-1.3402447674808226e-05   -1.0231896799774067e-06   2.5698232824278083e-05
-2.2028272134587068e-05   -5.65485724347847e-06   4.285360746200995e-05
-2.2028272134587068e-05   -5.65485724347847e-06   4.285360746200995e-05
-2.2028272134587068e-05   -5.65485724347847e-06   4.285360746200995e-05
-2.2028272134587068e-05   -5.65485724347847e-06   4.285360746200995e-05
-1.7581590346957493e-05   -3.2478248589761036e-06   3.3998251718592675e-05
-1.7581590346957493e-05   -3.2478248589761036e-06   3.3998251718592675e-05
-1.7581590346957493e-05   -3.2478248589761036e-06   3.3998251718592675e-05
-1.7581590346957493e-05   -3.2478248589761036e-06   3.3998251718592675e-05
-1.347494570766062e-05   3.0986951860597495e-07   2.6451941549397078e-05
-1.347494570766062e-05   3.0986951860597495e-07   2.6451941549397078e-05
-1.347494570766062e-05   3.0986951860597495e-07   2.6451941549397078e-05
-1.347494570766062e-05   3.0986951860597495e-07   2.6451941549397078e-05
-9.891684684523532e-06   -5.22588239279748e-06   2.9102592107783648e-05
-9.891684684523532e-06   -5.22588239279748e-06   2.9102592107783648e-05
-9.891684684523532e-06   -5.22588239279748e-06   2.9102592107783648e-05
-9.891684684523532e-06   -5.22588239279748e-06   2.9102592107783648e-05
-9.79791801764625e-06   -1.8103626733638727e-07   2.334882440341128e-05
-9.79791801764625e-06   -1.8103626733638727e-07   2.334882440341128e-05
-9.79791801764625e-06   -1.8103626733638727e-07   2.334882440341128e-05
-9.79791801764625e-06   -1.8103626733638727e-07   2.334882440341128e-05
-1.3497242287683145e-05   -5.132398621266452e-06   3.248518226583124e-05
-1.3497242287683145e-05   -5.132398621266452e-06   3.248518226583124e-05
-1.3497242287683145e-05   -5.132398621266452e-06   3.248518226583124e-05
-1.3497242287683145e-05   -5.132398621266452e-06   3.248518226583124e-05
-1.1592949656670013e-05   -2.6422982348625525e-06   2.781730098230041e-05
-1.1592949656670013e-05   -2.6422982348625525e-06   2.781730098230041e-05
-1.1592949656670013e-05   -2.6422982348625525e-06   2.781730098230041e-05
-1.1592949656670013e-05   -2.6422982348625525e-06   2.781730098230041e-05
-1.3497242287683145e-05   -1.8103626733638727e-07   2.6319641815769385e-05
-1.3497242287683145e-05   -1.8103626733638727e-07   2.6319641815769385e-05
-1.3497242287683145e-05   -1.8103626733638727e-07   2.6319641815769385e-05
-1.3497242287683145e-05   -1.8103626733638727e-07   2.6319641815769385e-05
-9.797918017646304e-06   -5.132398621266506e-06   2.9514364853473126e-05
-9.797918017646304e-06   -5.132398621266506e-06   2.9514364853473126e-05
-9.797918017646304e-06   -5.132398621266506e-06   2.9514364853473126e-05
-9.797918017646304e-06   -5.132398621266506e-06   2.9514364853473126e-05
-9.715671579178917e-06   -7.689717411458324e-07   2.3909111292193903e-05
-9.715671579178917e-06   -7.689717411458324e-07   2.3909111292193903e-05
-9.715671579178917e-06   -7.689717411458324e-07   2.3909111292193903e-05
-9.715671579178917e-06   -7.689717411458324e-07   2.3909111292193903e-05
-1.3543161079363961e-05   -5.2902679767860236e-06   3.300103820055275e-05
-1.3543161079363961e-05   -5.2902679767860236e-06   3.300103820055275e-05
-1.3543161079363961e-05   -5.2902679767860236e-06   3.300103820055275e-05
-1.3543161079363961e-05   -5.2902679767860236e-06   3.300103820055275e-05
-1.1485199353946128e-05   -2.820606050235228e-06   2.8089304835592012e-05
-1.1485199353946128e-05   -2.820606050235228e-06   2.8089304835592012e-05
-1.1485199353946128e-05   -2.820606050235228e-06   2.8089304835592012e-05
-1.1485199353946128e-05   -2.820606050235228e-06   2.8089304835592012e-05
-1.3543161079363961e-05   -7.689717411458324e-07   2.6621889033577985e-05
-1.3543161079363961e-05   -7.689717411458324e-07   2.6621889033577985e-05
-1.3543161079363961e-05   -7.689717411458324e-07   2.6621889033577985e-05
-1.3543161079363961e-05   -7.689717411458324e-07   2.6621889033577985e-05
-9.71567157917897e-06   -5.2902679767860236e-06   3.0288260459168812e-05
-9.71567157917897e-06   -5.2902679767860236e-06   3.0288260459168812e-05
-9.71567157917897e-06   -5.2902679767860236e-06   3.0288260459168812e-05
-9.71567157917897e-06   -5.2902679767860236e-06   3.0288260459168812e-05
-9.51760823464235e-06   -1.36010698556727e-06   2.4775896584408705e-05
-9.51760823464235e-06   -1.36010698556727e-06   2.4775896584408705e-05
-9.51760823464235e-06   -1.36010698556727e-06   2.4775896584408705e-05
-9.51760823464235e-06   -1.36010698556727e-06   2.4775896584408705e-05
-1.3402447674808199e-05   -5.51580134815037e-06   3.3744045602234765e-05
-1.3402447674808199e-05   -5.51580134815037e-06   3.3744045602234765e-05
-1.3402447674808199e-05   -5.51580134815037e-06   3.3744045602234765e-05
-1.3402447674808199e-05   -5.51580134815037e-06   3.3744045602234765e-05
-1.1358829468323246e-05   -3.079408595108501e-06   2.8876179606268117e-05
-1.1358829468323246e-05   -3.079408595108501e-06   2.8876179606268117e-05
-1.1358829468323246e-05   -3.079408595108501e-06   2.8876179606268117e-05
-1.1358829468323246e-05   -3.079408595108501e-06   2.8876179606268117e-05
-9.891684684523478e-06   1.4106618344365135e-06   1.7972403399257137e-05
-9.891684684523478e-06   1.4106618344365135e-06   1.7972403399257137e-05
-9.891684684523478e-06   1.4106618344365135e-06   1.7972403399257137e-05
-9.891684684523478e-06   1.4106618344365135e-06   1.7972403399257137e-05
-8.221538818668599e-06   -2.1421594691560953e-06   1.862428706019307e-05
-8.221538818668599e-06   -2.1421594691560953e-06   1.862428706019307e-05
-8.221538818668599e-06   -2.1421594691560953e-06   1.862428706019307e-05
-8.221538818668599e-06   -2.1421594691560953e-06   1.862428706019307e-05
-8.038748236185826e-06   7.64317623382668e-07   1.6226756877009245e-05
-8.038748236185826e-06   7.64317623382668e-07   1.6226756877009245e-05
-8.038748236185826e-06   7.64317623382668e-07   1.6226756877009245e-05
-8.038748236185826e-06   7.64317623382668e-07   1.6226756877009245e-05
-9.79791801764625e-06   -2.5096582328165457e-06   2.1123092026496186e-05
-9.79791801764625e-06   -2.5096582328165457e-06   2.1123092026496186e-05
-9.79791801764625e-06   -2.5096582328165457e-06   2.1123092026496186e-05
-9.79791801764625e-06   -2.5096582328165457e-06   2.1123092026496186e-05
-8.921612757186766e-06   -4.883371039855538e-07   1.8449790581765444e-05
-8.921612757186766e-06   -4.883371039855538e-07   1.8449790581765444e-05
-8.921612757186766e-06   -4.883371039855538e-07   1.8449790581765444e-05
-8.921612757186766e-06   -4.883371039855538e-07   1.8449790581765444e-05
-9.79791801764625e-06   7.64317623382668e-07   1.8191142390728632e-05
-9.79791801764625e-06   7.64317623382668e-07   1.8191142390728632e-05
-9.79791801764625e-06   7.64317623382668e-07   1.8191142390728632e-05
-9.79791801764625e-06   7.64317623382668e-07   1.8191142390728632e-05
-8.038748236185826e-06   -2.5096582328165457e-06   1.9158706512776636e-05
-8.038748236185826e-06   -2.5096582328165457e-06   1.9158706512776636e-05
-8.038748236185826e-06   -2.5096582328165457e-06   1.9158706512776636e-05
-8.038748236185826e-06   -2.5096582328165457e-06   1.9158706512776636e-05
-7.952821996987602e-06   2.1110435540134306e-07   1.6995662872049252e-05
-7.952821996987602e-06   2.1110435540134306e-07   1.6995662872049252e-05
-7.952821996987602e-06   2.1110435540134306e-07   1.6995662872049252e-05
-7.952821996987602e-06   2.1110435540134306e-07   1.6995662872049252e-05
-9.715671579178917e-06   -2.7904768231276048e-06   2.1734694216151828e-05
-9.715671579178917e-06   -2.7904768231276048e-06   2.1734694216151828e-05
-9.715671579178917e-06   -2.7904768231276048e-06   2.1734694216151828e-05
-9.715671579178917e-06   -2.7904768231276048e-06   2.1734694216151828e-05
-8.740557737935373e-06   -8.830004689015271e-07   1.896501866820936e-05
-8.740557737935373e-06   -8.830004689015271e-07   1.896501866820936e-05
-8.740557737935373e-06   -8.830004689015271e-07   1.896501866820936e-05
-8.740557737935373e-06   -8.830004689015271e-07   1.896501866820936e-05
-9.715671579178917e-06   2.1110435540134306e-07   1.8796611579166176e-05
-9.715671579178917e-06   2.1110435540134306e-07   1.8796611579166176e-05
-9.715671579178917e-06   2.1110435540134306e-07   1.8796611579166176e-05
-9.715671579178917e-06   2.1110435540134306e-07   1.8796611579166176e-05
-7.952821996987602e-06   -2.7904768231276048e-06   1.993374550903447e-05
-7.952821996987602e-06   -2.7904768231276048e-06   1.993374550903447e-05
-7.952821996987602e-06   -2.7904768231276048e-06   1.993374550903447e-05
-7.952821996987602e-06   -2.7904768231276048e-06   1.993374550903447e-05
-7.814823329589161e-06   -3.464134797416833e-07   1.7961274183581153e-05
-7.814823329589161e-06   -3.464134797416833e-07   1.7961274183581153e-05
-7.814823329589161e-06   -3.464134797416833e-07   1.7961274183581153e-05
-7.814823329589161e-06   -3.464134797416833e-07   1.7961274183581153e-05
-9.51760823464235e-06   -3.159290429157152e-06   2.2486975194985475e-05
-9.51760823464235e-06   -3.159290429157152e-06   2.2486975194985475e-05
-9.51760823464235e-06   -3.159290429157152e-06   2.2486975194985475e-05
-9.51760823464235e-06   -3.159290429157152e-06   2.2486975194985475e-05
-8.598011221149188e-06   -1.228314150809786e-06   1.9795727738822406e-05
-8.598011221149188e-06   -1.228314150809786e-06   1.9795727738822406e-05
-8.598011221149188e-06   -1.228314150809786e-06   1.9795727738822406e-05
-8.598011221149188e-06   -1.228314150809786e-06   1.9795727738822406e-05
-8.221538818668599e-06   2.319095869854999e-06   4.060094984541674e-06
-8.221538818668599e-06   2.319095869854999e-06   4.060094984541674e-06
-8.221538818668599e-06   2.319095869854999e-06   4.060094984541674e-06
-8.221538818668599e-06   2.319095869854999e-06   4.060094984541674e-06
-4.715205096842692e-06   -2.4331248663403936e-07   8.366539507024986e-06
-4.715205096842692e-06   -2.4331248663403936e-07   8.366539507024986e-06
-4.715205096842692e-06   -2.4331248663403936e-07   8.366539507024986e-06
-4.715205096842692e-06   -2.4331248663403936e-07   8.366539507024986e-06
-4.978156191256535e-06   1.8624303271480916e-06   4.0955169504064935e-06
-4.978156191256535e-06   1.8624303271480916e-06   4.0955169504064935e-06
-4.978156191256535e-06   1.8624303271480916e-06   4.0955169504064935e-06
-4.978156191256535e-06   1.8624303271480916e-06   4.0955169504064935e-06
-8.038748236185826e-06   -3.3773019579753797e-07   1.0516600005723185e-05
-8.038748236185826e-06   -3.3773019579753797e-07   1.0516600005723185e-05
-8.038748236185826e-06   -3.3773019579753797e-07   1.0516600005723185e-05
-8.038748236185826e-06   -3.3773019579753797e-07   1.0516600005723185e-05
-6.265402195877224e-06   1.1912666559299716e-06   6.64362516083919e-06
-6.265402195877224e-06   1.1912666559299716e-06   6.64362516083919e-06
-6.265402195877224e-06   1.1912666559299716e-06   6.64362516083919e-06
-6.265402195877224e-06   1.1912666559299716e-06   6.64362516083919e-06
-8.038748236185826e-06   1.8624303271480916e-06   5.41561326417386e-06
-8.038748236185826e-06   1.8624303271480916e-06   5.41561326417386e-06
-8.038748236185826e-06   1.8624303271480916e-06   5.41561326417386e-06
-8.038748236185826e-06   1.8624303271480916e-06   5.41561326417386e-06
-4.978156191256535e-06   -3.3773019579753797e-07   9.196503691955601e-06
-4.978156191256535e-06   -3.3773019579753797e-07   9.196503691955601e-06
-4.978156191256535e-06   -3.3773019579753797e-07   9.196503691955601e-06
-4.978156191256535e-06   -3.3773019579753797e-07   9.196503691955601e-06
-5.193181332948781e-06   1.5636387179243606e-06   5.339207260264328e-06
-5.193181332948781e-06   1.5636387179243606e-06   5.339207260264328e-06
-5.193181332948781e-06   1.5636387179243606e-06   5.339207260264328e-06
-5.193181332948781e-06   1.5636387179243606e-06   5.339207260264328e-06
-7.952821996987602e-06   -4.660478132995083e-07   1.1156420285729734e-05
-7.952821996987602e-06   -4.660478132995083e-07   1.1156420285729734e-05
-7.952821996987602e-06   -4.660478132995083e-07   1.1156420285729734e-05
-7.952821996987602e-06   -4.660478132995083e-07   1.1156420285729734e-05
-6.369402539250081e-06   9.644677267302846e-07   7.659078532148912e-06
-6.369402539250081e-06   9.644677267302846e-07   7.659078532148912e-06
-6.369402539250081e-06   9.644677267302846e-07   7.659078532148912e-06
-6.369402539250081e-06   9.644677267302846e-07   7.659078532148912e-06
-7.952821996987602e-06   1.5636387179242522e-06   6.557019178998476e-06
-7.952821996987602e-06   1.5636387179242522e-06   6.557019178998476e-06
-7.952821996987602e-06   1.5636387179242522e-06   6.557019178998476e-06
-7.952821996987602e-06   1.5636387179242522e-06   6.557019178998476e-06
-5.193181332948781e-06   -4.660478132995083e-07   9.938608366995478e-06
-5.193181332948781e-06   -4.660478132995083e-07   9.938608366995478e-06
-5.193181332948781e-06   -4.660478132995083e-07   9.938608366995478e-06
-5.193181332948781e-06   -4.660478132995083e-07   9.938608366995478e-06
-5.732934900233122e-06   9.648759293588846e-07   7.561830348035018e-06
-5.732934900233122e-06   9.648759293588846e-07   7.561830348035018e-06
-5.732934900233122e-06   9.648759293588846e-07   7.561830348035018e-06
-5.732934900233122e-06   9.648759293588846e-07   7.561830348035018e-06
-7.814823329589161e-06   -6.200603203546724e-07   1.1982606146789454e-05
-7.814823329589161e-06   -6.200603203546724e-07   1.1982606146789454e-05
-7.814823329589161e-06   -6.200603203546724e-07   1.1982606146789454e-05
-7.814823329589161e-06   -6.200603203546724e-07   1.1982606146789454e-05
-6.37859373317604e-06   8.119201994097021e-07   8.729701840909138e-06
-6.37859373317604e-06   8.119201994097021e-07   8.729701840909138e-06
-6.37859373317604e-06   8.119201994097021e-07   8.729701840909138e-06
-6.37859373317604e-06   8.119201994097021e-07   8.729701840909138e-06
-7.622240425449535e-05   5.989796916999052e-06   3.235896580788185e-05
-7.622240425449535e-05   5.989796916999052e-06   3.235896580788185e-05
-7.622240425449535e-05   5.989796916999052e-06   3.235896580788185e-05
-7.622240425449535e-05   5.989796916999052e-06   3.235896580788185e-05
-1.795414248436919e-05   -3.687292303256271e-05   0.00010375510345502178
-1.795414248436919e-05   -3.687292303256271e-05   0.00010375510345502178
-1.795414248436919e-05   -3.687292303256271e-05   0.00010375510345502178
-1.795414248436919e-05   -3.687292303256271e-05   0.00010375510345502178
-2.10495851898837e-05   2.449313509516541e-06   1.7793491528755303e-05
-2.10495851898837e-05   2.449313509516541e-06   1.7793491528755303e-05
-2.10495851898837e-05   2.449313509516541e-06   1.7793491528755303e-05
-2.10495851898837e-05   2.449313509516541e-06   1.7793491528755303e-05
-6.951679165300082e-05   -2.8603057977219326e-05   0.00011720359185932522
-6.951679165300082e-05   -2.8603057977219326e-05   0.00011720359185932522
-6.951679165300082e-05   -2.8603057977219326e-05   0.00011720359185932522
-6.951679165300082e-05   -2.8603057977219326e-05   0.00011720359185932522
-4.635928750284718e-05   -1.4242526739742973e-05   6.99914328665833e-05
-4.635928750284718e-05   -1.4242526739742973e-05   6.99914328665833e-05
-4.635928750284718e-05   -1.4242526739742973e-05   6.99914328665833e-05
-4.635928750284718e-05   -1.4242526739742973e-05   6.99914328665833e-05
-6.95167916530007e-05   2.449313509516541e-06   3.6424914420796775e-05
-6.95167916530007e-05   2.449313509516541e-06   3.6424914420796775e-05
-6.95167916530007e-05   2.449313509516541e-06   3.6424914420796775e-05
-6.95167916530007e-05   2.449313509516541e-06   3.6424914420796775e-05
-2.104958518988374e-05   -2.8603057977219326e-05   9.857216896728372e-05
-2.104958518988374e-05   -2.8603057977219326e-05   9.857216896728372e-05
-2.104958518988374e-05   -2.8603057977219326e-05   9.857216896728372e-05
-2.104958518988374e-05   -2.8603057977219326e-05   9.857216896728372e-05
-2.151356483341662e-05   1.7656735328050845e-06   1.9550792418693557e-05
-2.151356483341662e-05   1.7656735328050845e-06   1.9550792418693557e-05
-2.151356483341662e-05   1.7656735328050845e-06   1.9550792418693557e-05
-2.151356483341662e-05   1.7656735328050845e-06   1.9550792418693557e-05
-6.558837394789017e-05   -2.4610656216502683e-05   0.00010883460545906728
-6.558837394789017e-05   -2.4610656216502683e-05   0.00010883460545906728
-6.558837394789017e-05   -2.4610656216502683e-05   0.00010883460545906728
-6.558837394789017e-05   -2.4610656216502683e-05   0.00010883460545906728
-4.496327006619821e-05   -1.3487353083398742e-05   6.778545044305169e-05
-4.496327006619821e-05   -1.3487353083398742e-05   6.778545044305169e-05
-4.496327006619821e-05   -1.3487353083398742e-05   6.778545044305169e-05
-4.496327006619821e-05   -1.3487353083398742e-05   6.778545044305169e-05
-6.558837394789006e-05   1.7656735328050845e-06   3.537659026827815e-05
-6.558837394789006e-05   1.7656735328050845e-06   3.537659026827815e-05
-6.558837394789006e-05   1.7656735328050845e-06   3.537659026827815e-05
-6.558837394789006e-05   1.7656735328050845e-06   3.537659026827815e-05
-2.1513564833416674e-05   -2.4610656216502683e-05   9.300880760948264e-05
-2.1513564833416674e-05   -2.4610656216502683e-05   9.300880760948264e-05
-2.1513564833416674e-05   -2.4610656216502683e-05   9.300880760948264e-05
-2.1513564833416674e-05   -2.4610656216502683e-05   9.300880760948264e-05
-2.354124414779684e-05   -1.1368060341709917e-06   2.4493361046116368e-05
-2.354124414779684e-05   -1.1368060341709917e-06   2.4493361046116368e-05
-2.354124414779684e-05   -1.1368060341709917e-06   2.4493361046116368e-05
-2.354124414779684e-05   -1.1368060341709917e-06   2.4493361046116368e-05
-6.055678871942035e-05   -1.9313597777297517e-05   9.709201037803129e-05
-6.055678871942035e-05   -1.9313597777297517e-05   9.709201037803129e-05
-6.055678871942035e-05   -1.9313597777297517e-05   9.709201037803129e-05
-6.055678871942035e-05   -1.9313597777297517e-05   9.709201037803129e-05
-4.323552524440953e-05   -1.2447378945356442e-05   6.410350662051536e-05
-4.323552524440953e-05   -1.2447378945356442e-05   6.410350662051536e-05
-4.323552524440953e-05   -1.2447378945356442e-05   6.410350662051536e-05
-4.323552524440953e-05   -1.2447378945356442e-05   6.410350662051536e-05
-1.7954142484369163e-05   -6.690439499401179e-06   1.830746224167697e-05
-1.7954142484369163e-05   -6.690439499401179e-06   1.830746224167697e-05
-1.7954142484369163e-05   -6.690439499401179e-06   1.830746224167697e-05
-1.7954142484369163e-05   -6.690439499401179e-06   1.830746224167697e-05
-6.264428852319941e-06   -1.1327389614070771e-05   3.500814822629075e-05
-6.264428852319941e-06   -1.1327389614070771e-05   3.500814822629075e-05
-6.264428852319941e-06   -1.1327389614070771e-05   3.500814822629075e-05
-6.264428852319941e-06   -1.1327389614070771e-05   3.500814822629075e-05
-6.983904119748453e-06   -5.472307956584351e-06   1.6407179799985956e-05
-6.983904119748453e-06   -5.472307956584351e-06   1.6407179799985956e-05
-6.983904119748453e-06   -5.472307956584351e-06   1.6407179799985956e-05
-6.983904119748453e-06   -5.472307956584351e-06   1.6407179799985956e-05
-2.104958518988374e-05   -1.5061274374570563e-05   4.560336143433617e-05
-2.104958518988374e-05   -1.5061274374570563e-05   4.560336143433617e-05
-2.104958518988374e-05   -1.5061274374570563e-05   4.560336143433617e-05
-2.104958518988374e-05   -1.5061274374570563e-05   4.560336143433617e-05
-1.2382034167169519e-05   -7.906578915205828e-06   2.6864625787526947e-05
-1.2382034167169519e-05   -7.906578915205828e-06   2.6864625787526947e-05
-1.2382034167169519e-05   -7.906578915205828e-06   2.6864625787526947e-05
-1.2382034167169519e-05   -7.906578915205828e-06   2.6864625787526947e-05
-2.1049585189883687e-05   -5.472307956584351e-06   2.21605596507774e-05
-2.1049585189883687e-05   -5.472307956584351e-06   2.21605596507774e-05
-2.1049585189883687e-05   -5.472307956584351e-06   2.21605596507774e-05
-2.1049585189883687e-05   -5.472307956584351e-06   2.21605596507774e-05
-6.98390411974848e-06   -1.5061274374570563e-05   3.98499815835445e-05
-6.98390411974848e-06   -1.5061274374570563e-05   3.98499815835445e-05
-6.98390411974848e-06   -1.5061274374570563e-05   3.98499815835445e-05
-6.98390411974848e-06   -1.5061274374570563e-05   3.98499815835445e-05
-7.599232080116443e-06   -5.598415937054055e-06   1.844650700216316e-05
-7.599232080116443e-06   -5.598415937054055e-06   1.844650700216316e-05
-7.599232080116443e-06   -5.598415937054055e-06   1.844650700216316e-05
-7.599232080116443e-06   -5.598415937054055e-06   1.844650700216316e-05
-2.1513564833416674e-05   -1.375073466426933e-05   4.652845282732585e-05
-2.1513564833416674e-05   -1.375073466426933e-05   4.652845282732585e-05
-2.1513564833416674e-05   -1.375073466426933e-05   4.652845282732585e-05
-2.1513564833416674e-05   -1.375073466426933e-05   4.652845282732585e-05
-1.3946489148656575e-05   -9.68018217161845e-06   3.1474328523802106e-05
-1.3946489148656575e-05   -9.68018217161845e-06   3.1474328523802106e-05
-1.3946489148656575e-05   -9.68018217161845e-06   3.1474328523802106e-05
-1.3946489148656575e-05   -9.68018217161845e-06   3.1474328523802106e-05
-2.151356483341662e-05   -5.598415937054055e-06   2.333789823849233e-05
-2.151356483341662e-05   -5.598415937054055e-06   2.333789823849233e-05
-2.151356483341662e-05   -5.598415937054055e-06   2.333789823849233e-05
-2.151356483341662e-05   -5.598415937054055e-06   2.333789823849233e-05
-7.59923208011647e-06   -1.375073466426933e-05   4.163706159099666e-05
-7.59923208011647e-06   -1.375073466426933e-05   4.163706159099666e-05
-7.59923208011647e-06   -1.375073466426933e-05   4.163706159099666e-05
-7.59923208011647e-06   -1.375073466426933e-05   4.163706159099666e-05
-8.597808681100002e-06   -5.65485724347847e-06   2.0166853886075193e-05
-8.597808681100002e-06   -5.65485724347847e-06   2.0166853886075193e-05
-8.597808681100002e-06   -5.65485724347847e-06   2.0166853886075193e-05
-8.597808681100002e-06   -5.65485724347847e-06   2.0166853886075193e-05
-2.3541244147796852e-05   -1.2926670302012695e-05   4.943566749902368e-05
-2.3541244147796852e-05   -1.2926670302012695e-05   4.943566749902368e-05
-2.3541244147796852e-05   -1.2926670302012695e-05   4.943566749902368e-05
-2.3541244147796852e-05   -1.2926670302012695e-05   4.943566749902368e-05
-1.4851560497240238e-05   -8.836190939552982e-06   3.249857379728681e-05
-1.4851560497240238e-05   -8.836190939552982e-06   3.249857379728681e-05
-1.4851560497240238e-05   -8.836190939552982e-06   3.249857379728681e-05
-1.4851560497240238e-05   -8.836190939552982e-06   3.249857379728681e-05
-6.264428852319941e-06   -5.22588239279748e-06   9.801233179827697e-06
-6.264428852319941e-06   -5.22588239279748e-06   9.801233179827697e-06
-6.264428852319941e-06   -5.22588239279748e-06   9.801233179827697e-06
-6.264428852319941e-06   -5.22588239279748e-06   9.801233179827697e-06
-3.4887347729258304e-06   -3.106339675587957e-06   1.5699115609143718e-05
-3.4887347729258304e-06   -3.106339675587957e-06   1.5699115609143718e-05
-3.4887347729258304e-06   -3.106339675587957e-06   1.5699115609143718e-05
-3.4887347729258304e-06   -3.106339675587957e-06   1.5699115609143718e-05
-3.34609759954969e-06   -5.132398621266506e-06   1.1359840222333506e-05
-3.34609759954969e-06   -5.132398621266506e-06   1.1359840222333506e-05
-3.34609759954969e-06   -5.132398621266506e-06   1.1359840222333506e-05
-3.34609759954969e-06   -5.132398621266506e-06   1.1359840222333506e-05
-6.98390411974848e-06   -4.085225676408082e-06   1.679454732241622e-05
-6.98390411974848e-06   -4.085225676408082e-06   1.679454732241622e-05
-6.98390411974848e-06   -4.085225676408082e-06   1.679454732241622e-05
-6.98390411974848e-06   -4.085225676408082e-06   1.679454732241622e-05
-4.703749396501477e-06   -4.162284164481054e-06   1.3040524543181484e-05
-4.703749396501477e-06   -4.162284164481054e-06   1.3040524543181484e-05
-4.703749396501477e-06   -4.162284164481054e-06   1.3040524543181484e-05
-4.703749396501477e-06   -4.162284164481054e-06   1.3040524543181484e-05
-6.983904119748453e-06   -5.132398621266452e-06   1.0731536455418325e-05
-6.983904119748453e-06   -5.132398621266452e-06   1.0731536455418325e-05
-6.983904119748453e-06   -5.132398621266452e-06   1.0731536455418325e-05
-6.983904119748453e-06   -5.132398621266452e-06   1.0731536455418325e-05
-3.34609759954969e-06   -4.085225676408082e-06   1.742285108933129e-05
-3.34609759954969e-06   -4.085225676408082e-06   1.742285108933129e-05
-3.34609759954969e-06   -4.085225676408082e-06   1.742285108933129e-05
-3.34609759954969e-06   -4.085225676408082e-06   1.742285108933129e-05
-3.344798600299131e-06   -5.2902679767860236e-06   1.2141341397494385e-05
-3.344798600299131e-06   -5.2902679767860236e-06   1.2141341397494385e-05
-3.344798600299131e-06   -5.2902679767860236e-06   1.2141341397494385e-05
-3.344798600299131e-06   -5.2902679767860236e-06   1.2141341397494385e-05
-7.59923208011647e-06   -5.269586789263792e-06   1.9219655151343014e-05
-7.59923208011647e-06   -5.269586789263792e-06   1.9219655151343014e-05
-7.59923208011647e-06   -5.269586789263792e-06   1.9219655151343014e-05
-7.59923208011647e-06   -5.269586789263792e-06   1.9219655151343014e-05
-4.979011165464774e-06   -4.551329721071292e-06   1.4421666052674741e-05
-4.979011165464774e-06   -4.551329721071292e-06   1.4421666052674741e-05
-4.979011165464774e-06   -4.551329721071292e-06   1.4421666052674741e-05
-4.979011165464774e-06   -4.551329721071292e-06   1.4421666052674741e-05
-7.599232080116443e-06   -5.2902679767860236e-06   1.2128932684980981e-05
-7.599232080116443e-06   -5.2902679767860236e-06   1.2128932684980981e-05
-7.599232080116443e-06   -5.2902679767860236e-06   1.2128932684980981e-05
-7.599232080116443e-06   -5.2902679767860236e-06   1.2128932684980981e-05
-3.344798600299131e-06   -5.269586789263792e-06   1.9232063863856364e-05
-3.344798600299131e-06   -5.269586789263792e-06   1.9232063863856364e-05
-3.344798600299131e-06   -5.269586789263792e-06   1.9232063863856364e-05
-3.344798600299131e-06   -5.269586789263792e-06   1.9232063863856364e-05
-3.3831209051156494e-06   -5.51580134815037e-06   1.3308045686517573e-05
-3.3831209051156494e-06   -5.51580134815037e-06   1.3308045686517573e-05
-3.3831209051156494e-06   -5.51580134815037e-06   1.3308045686517573e-05
-3.3831209051156494e-06   -5.51580134815037e-06   1.3308045686517573e-05
-8.597808681100002e-06   -6.396212811288554e-06   2.2527438857707495e-05
-8.597808681100002e-06   -6.396212811288554e-06   2.2527438857707495e-05
-8.597808681100002e-06   -6.396212811288554e-06   2.2527438857707495e-05
-8.597808681100002e-06   -6.396212811288554e-06   2.2527438857707495e-05
-5.290946333945734e-06   -4.9766353797163845e-06   1.61642551535072e-05
-5.290946333945734e-06   -4.9766353797163845e-06   1.61642551535072e-05
-5.290946333945734e-06   -4.9766353797163845e-06   1.61642551535072e-05
-5.290946333945734e-06   -4.9766353797163845e-06   1.61642551535072e-05
-3.4887347729258304e-06   -2.1421594691561495e-06   2.726346544718527e-06
-3.4887347729258304e-06   -2.1421594691561495e-06   2.726346544718527e-06
-3.4887347729258304e-06   -2.1421594691561495e-06   2.726346544718527e-06
-3.4887347729258304e-06   -2.1421594691561495e-06   2.726346544718527e-06
-2.5774324178017873e-06   6.011249000015655e-07   5.891154424753097e-06
-2.5774324178017873e-06   6.011249000015655e-07   5.891154424753097e-06
-2.5774324178017873e-06   6.011249000015655e-07   5.891154424753097e-06
-2.5774324178017873e-06   6.011249000015655e-07   5.891154424753097e-06
-2.080025849022257e-06   -2.5096582328165457e-06   4.627602649147052e-06
-2.080025849022257e-06   -2.5096582328165457e-06   4.627602649147052e-06
-2.080025849022257e-06   -2.5096582328165457e-06   4.627602649147052e-06
-2.080025849022257e-06   -2.5096582328165457e-06   4.627602649147052e-06
-3.34609759954969e-06   2.554005235012432e-07   5.078686979568766e-06
-3.34609759954969e-06   2.554005235012432e-07   5.078686979568766e-06
-3.34609759954969e-06   2.554005235012432e-07   5.078686979568766e-06
-3.34609759954969e-06   2.554005235012432e-07   5.078686979568766e-06
-2.6962646500032494e-06   -9.862944888812722e-07   4.7406490710872815e-06
-2.6962646500032494e-06   -9.862944888812722e-07   4.7406490710872815e-06
-2.6962646500032494e-06   -9.862944888812722e-07   4.7406490710872815e-06
-2.6962646500032494e-06   -9.862944888812722e-07   4.7406490710872815e-06
-3.34609759954969e-06   -2.5096582328165457e-06   2.9685673953565046e-06
-3.34609759954969e-06   -2.5096582328165457e-06   2.9685673953565046e-06
-3.34609759954969e-06   -2.5096582328165457e-06   2.9685673953565046e-06
-3.34609759954969e-06   -2.5096582328165457e-06   2.9685673953565046e-06
-2.080025849022257e-06   2.554005235012432e-07   6.7377222333593135e-06
-2.080025849022257e-06   2.554005235012432e-07   6.7377222333593135e-06
-2.080025849022257e-06   2.554005235012432e-07   6.7377222333593135e-06
-2.080025849022257e-06   2.554005235012432e-07   6.7377222333593135e-06
-1.8047500006846025e-06   -2.7904768231276048e-06   5.083047744408489e-06
-1.8047500006846025e-06   -2.7904768231276048e-06   5.083047744408489e-06
-1.8047500006846025e-06   -2.7904768231276048e-06   5.083047744408489e-06
-1.8047500006846025e-06   -2.7904768231276048e-06   5.083047744408489e-06
-3.344798600299131e-06   -2.983558399090078e-07   6.154522820501487e-06
-3.344798600299131e-06   -2.983558399090078e-07   6.154522820501487e-06
-3.344798600299131e-06   -2.983558399090078e-07   6.154522820501487e-06
-3.344798600299131e-06   -2.983558399090078e-07   6.154522820501487e-06
-2.4387716303701204e-06   -1.2675899308370363e-06   5.226018325176656e-06
-2.4387716303701204e-06   -1.2675899308370363e-06   5.226018325176656e-06
-2.4387716303701204e-06   -1.2675899308370363e-06   5.226018325176656e-06
-2.4387716303701204e-06   -1.2675899308370363e-06   5.226018325176656e-06
-3.344798600299131e-06   -2.7904768231276048e-06   3.58777515447711e-06
-3.344798600299131e-06   -2.7904768231276048e-06   3.58777515447711e-06
-3.344798600299131e-06   -2.7904768231276048e-06   3.58777515447711e-06
-3.344798600299131e-06   -2.7904768231276048e-06   3.58777515447711e-06
-1.8047500006846025e-06   -2.983558399090078e-07   7.649795410432595e-06
-1.8047500006846025e-06   -2.983558399090078e-07   7.649795410432595e-06
-1.8047500006846025e-06   -2.983558399090078e-07   7.649795410432595e-06
-1.8047500006846025e-06   -2.983558399090078e-07   7.649795410432595e-06
-1.3821727769993807e-06   -3.159290429157152e-06   5.574267353200394e-06
-1.3821727769993807e-06   -3.159290429157152e-06   5.574267353200394e-06
-1.3821727769993807e-06   -3.159290429157152e-06   5.574267353200394e-06
-1.3821727769993807e-06   -3.159290429157152e-06   5.574267353200394e-06
-3.3831209051156494e-06   -1.4428313351868858e-06   7.879305443678512e-06
-3.3831209051156494e-06   -1.4428313351868858e-06   7.879305443678512e-06
-3.3831209051156494e-06   -1.4428313351868858e-06   7.879305443678512e-06
-3.3831209051156494e-06   -1.4428313351868858e-06   7.879305443678512e-06
-2.2262817939834676e-06   -1.7005953901665723e-06   6.105898691446412e-06
-2.2262817939834676e-06   -1.7005953901665723e-06   6.105898691446412e-06
-2.2262817939834676e-06   -1.7005953901665723e-06   6.105898691446412e-06
-2.2262817939834676e-06   -1.7005953901665723e-06   6.105898691446412e-06
-2.5774324178017873e-06   -2.4331248663398515e-07   -4.347985373061606e-06
-2.5774324178017873e-06   -2.4331248663398515e-07   -4.347985373061606e-06
-2.5774324178017873e-06   -2.4331248663398515e-07   -4.347985373061606e-06
-2.5774324178017873e-06   -2.4331248663398515e-07   -4.347985373061606e-06
-4.6537342412154327e-07   3.7470917153764263e-07   -4.570740553581313e-07
-4.6537342412154327e-07   3.7470917153764263e-07   -4.570740553581313e-07
-4.6537342412154327e-07   3.7470917153764263e-07   -4.570740553581313e-07
-4.6537342412154327e-07   3.7470917153764263e-07   -4.570740553581313e-07
2.3585510126422453e-08   -3.3773019579753797e-07   -3.421569842324782e-06
2.3585510126422453e-08   -3.3773019579753797e-07   -3.421569842324782e-06
2.3585510126422453e-08   -3.3773019579753797e-07   -3.421569842324782e-06
2.3585510126422453e-08   -3.3773019579753797e-07   -3.421569842324782e-06
-2.080025849022257e-06   6.504931635052067e-07   -5.084849259922404e-07
-2.080025849022257e-06   6.504931635052067e-07   -5.084849259922404e-07
-2.080025849022257e-06   6.504931635052067e-07   -5.084849259922404e-07
-2.080025849022257e-06   6.504931635052067e-07   -5.084849259922404e-07
-1.1653489832006477e-06   1.7156251596179813e-07   -1.7455879805024395e-06
-1.1653489832006477e-06   1.7156251596179813e-07   -1.7455879805024395e-06
-1.1653489832006477e-06   1.7156251596179813e-07   -1.7455879805024395e-06
-1.1653489832006477e-06   1.7156251596179813e-07   -1.7455879805024395e-06
-2.080025849022257e-06   -3.3773019579753797e-07   -4.01450385790667e-06
-2.080025849022257e-06   -3.3773019579753797e-07   -4.01450385790667e-06
-2.080025849022257e-06   -3.3773019579753797e-07   -4.01450385790667e-06
-2.080025849022257e-06   -3.3773019579753797e-07   -4.01450385790667e-06
2.3585510126422453e-08   6.504931635052067e-07   8.444908958943082e-08
2.3585510126422453e-08   6.504931635052067e-07   8.444908958943082e-08
2.3585510126422453e-08   6.504931635052067e-07   8.444908958943082e-08
2.3585510126422453e-08   6.504931635052067e-07   8.444908958943082e-08
2.821515496323219e-07   -4.660478132995083e-07   -3.076912088299062e-06
2.821515496323219e-07   -4.660478132995083e-07   -3.076912088299062e-06
2.821515496323219e-07   -4.660478132995083e-07   -3.076912088299062e-06
2.821515496323219e-07   -4.660478132995083e-07   -3.076912088299062e-06
-1.8047500006846025e-06   5.628945043622223e-07   -2.1610822836814775e-07
-1.8047500006846025e-06   5.628945043622223e-07   -2.1610822836814775e-07
-1.8047500006846025e-06   5.628945043622223e-07   -2.1610822836814775e-07
-1.8047500006846025e-06   5.628945043622223e-07   -2.1610822836814775e-07
-8.028505948229261e-07   1.1253037325846971e-07   -1.6157220928080234e-06
-8.028505948229261e-07   1.1253037325846971e-07   -1.6157220928080234e-06
-8.028505948229261e-07   1.1253037325846971e-07   -1.6157220928080234e-06
-8.028505948229261e-07   1.1253037325846971e-07   -1.6157220928080234e-06
-1.8047500006846025e-06   -4.660478132995083e-07   -3.694277478895867e-06
-1.8047500006846025e-06   -4.660478132995083e-07   -3.694277478895867e-06
-1.8047500006846025e-06   -4.660478132995083e-07   -3.694277478895867e-06
-1.8047500006846025e-06   -4.660478132995083e-07   -3.694277478895867e-06
2.821515496323219e-07   5.628945043622223e-07   4.01257162229037e-07
2.821515496323219e-07   5.628945043622223e-07   4.01257162229037e-07
2.821515496323219e-07   5.628945043622223e-07   4.01257162229037e-07
2.821515496323219e-07   5.628945043622223e-07   4.01257162229037e-07
6.055125315884442e-07   -6.200603203547267e-07   -2.573906853492545e-06
6.055125315884442e-07   -6.200603203547267e-07   -2.573906853492545e-06
6.055125315884442e-07   -6.200603203547267e-07   -2.573906853492545e-06
6.055125315884442e-07   -6.200603203547267e-07   -2.573906853492545e-06
-1.3821727769993807e-06   4.940541327350638e-07   7.043332229950128e-08
-1.3821727769993807e-06   4.940541327350638e-07   7.043332229950128e-08
-1.3821727769993807e-06   4.940541327350638e-07   7.043332229950128e-08
-1.3821727769993807e-06   4.940541327350638e-07   7.043332229950128e-08
-4.7421013645514805e-07   4.22309040842752e-08   -1.171743808083491e-06
-4.7421013645514805e-07   4.22309040842752e-08   -1.171743808083491e-06
-4.7421013645514805e-07   4.22309040842752e-08   -1.171743808083491e-06
-4.7421013645514805e-07   4.22309040842752e-08   -1.171743808083491e-06
              </DataArray>   
             <DataArray type="Float64" NumberOfComponents="3" Name="Stress" format="ascii">   
-3.951506273634031   -0.9878765684085078   -0.9878765684085078
-3.951506273634031   -0.9878765684085078   -0.9878765684085078
-3.951506273634031   -0.9878765684085078   -0.9878765684085078
-3.951506273634031   -0.9878765684085078   -0.9878765684085078
-2.2868135569840105   -0.07221399656853511   -0.04575624221108679
-2.2868135569840105   -0.07221399656853511   -0.04575624221108679
-2.2868135569840105   -0.07221399656853511   -0.04575624221108679
-2.2868135569840105   -0.07221399656853511   -0.04575624221108679
-2.4651488037845826   -0.6162872009461456   -0.6162872009461456
-2.4651488037845826   -0.6162872009461456   -0.6162872009461456
-2.4651488037845826   -0.6162872009461456   -0.6162872009461456
-2.4651488037845826   -0.6162872009461456   -0.6162872009461456
-3.8085198077229396   -0.3125743011695309   -0.1194790712734887
-3.8085198077229396   -0.3125743011695309   -0.1194790712734887
-3.8085198077229396   -0.3125743011695309   -0.1194790712734887
-3.8085198077229396   -0.3125743011695309   -0.1194790712734887
-2.987061847189906   -0.48960009302268637   -0.008235218734989034
-2.987061847189906   -0.48960009302268637   -0.008235218734989034
-2.987061847189906   -0.48960009302268637   -0.008235218734989034
-2.987061847189906   -0.48960009302268637   -0.008235218734989034
-4.135676814704825   -1.0339192036762062   -1.0339192036762062
-4.135676814704825   -1.0339192036762062   -1.0339192036762062
-4.135676814704825   -1.0339192036762062   -1.0339192036762062
-4.135676814704825   -1.0339192036762062   -1.0339192036762062
-2.215558464718968   0.027491033644265528   -0.012113740208482576
-2.215558464718968   0.027491033644265528   -0.012113740208482576
-2.215558464718968   0.027491033644265528   -0.012113740208482576
-2.215558464718968   0.027491033644265528   -0.012113740208482576
-2.4723095021176884   -0.6180773755294221   -0.6180773755294221
-2.4723095021176884   -0.6180773755294221   -0.6180773755294221
-2.4723095021176884   -0.6180773755294221   -0.6180773755294221
-2.4723095021176884   -0.6180773755294221   -0.6180773755294221
-3.9367510875923504   -0.31563797907483027   -0.1751057240319326
-3.9367510875923504   -0.31563797907483027   -0.1751057240319326
-3.9367510875923504   -0.31563797907483027   -0.1751057240319326
-3.9367510875923504   -0.31563797907483027   -0.1751057240319326
-3.0986961720988835   -0.4610413169018895   -0.1644703307418997
-3.0986961720988835   -0.4610413169018895   -0.1644703307418997
-3.0986961720988835   -0.4610413169018895   -0.1644703307418997
-3.0986961720988835   -0.4610413169018895   -0.1644703307418997
-4.265113718856672   -1.066278429714168   -1.066278429714168
-4.265113718856672   -1.066278429714168   -1.066278429714168
-4.265113718856672   -1.066278429714168   -1.066278429714168
-4.265113718856672   -1.066278429714168   -1.066278429714168
-2.2093134473559823   0.06719649860730603   0.011629024142380456
-2.2093134473559823   0.06719649860730603   0.011629024142380456
-2.2093134473559823   0.06719649860730603   0.011629024142380456
-2.2093134473559823   0.06719649860730603   0.011629024142380456
-2.4712450872650114   -0.6178112718162528   -0.6178112718162528
-2.4712450872650114   -0.6178112718162528   -0.6178112718162528
-2.4712450872650114   -0.6178112718162528   -0.6178112718162528
-2.4712450872650114   -0.6178112718162528   -0.6178112718162528
-4.165763784856266   -0.2770002717777751   -0.10494584091726167
-4.165763784856266   -0.2770002717777751   -0.10494584091726167
-4.165763784856266   -0.2770002717777751   -0.10494584091726167
-4.165763784856266   -0.2770002717777751   -0.10494584091726167
-3.181605557901428   -0.45393057792220937   -0.297289897811167
-3.181605557901428   -0.45393057792220937   -0.297289897811167
-3.181605557901428   -0.45393057792220937   -0.297289897811167
-3.181605557901428   -0.45393057792220937   -0.297289897811167
-2.514688343586766   -0.6286720858966915   -0.6286720858966915
-2.514688343586766   -0.6286720858966915   -0.6286720858966915
-2.514688343586766   -0.6286720858966915   -0.6286720858966915
-2.514688343586766   -0.6286720858966915   -0.6286720858966915
-1.048922031370442   -0.06963737933500591   -0.022646001066388192
-1.048922031370442   -0.06963737933500591   -0.022646001066388192
-1.048922031370442   -0.06963737933500591   -0.022646001066388192
-1.048922031370442   -0.06963737933500591   -0.022646001066388192
-1.1014110317996155   -0.2753527579499039   -0.2753527579499039
-1.1014110317996155   -0.2753527579499039   -0.2753527579499039
-1.1014110317996155   -0.2753527579499039   -0.2753527579499039
-1.1014110317996155   -0.2753527579499039   -0.2753527579499039
-2.289616392520683   -0.2691986129734021   -0.08571373259939405
-2.289616392520683   -0.2691986129734021   -0.08571373259939405
-2.289616392520683   -0.2691986129734021   -0.08571373259939405
-2.289616392520683   -0.2691986129734021   -0.08571373259939405
-1.6885636026230526   -0.3198237997261975   0.013229381230280751
-1.6885636026230526   -0.3198237997261975   0.013229381230280751
-1.6885636026230526   -0.3198237997261975   0.013229381230280751
-1.6885636026230526   -0.3198237997261975   0.013229381230280751
-2.4651488037845803   -0.6162872009461451   -0.6162872009461451
-2.4651488037845803   -0.6162872009461451   -0.6162872009461451
-2.4651488037845803   -0.6162872009461451   -0.6162872009461451
-2.4651488037845803   -0.6162872009461451   -0.6162872009461451
-0.9898149761714365   0.007799474387119698   -0.0005247121460323148
-0.9898149761714365   0.007799474387119698   -0.0005247121460323148
-0.9898149761714365   0.007799474387119698   -0.0005247121460323148
-0.9898149761714365   0.007799474387119698   -0.0005247121460323148
-1.0770369915768683   -0.26925924789421707   -0.26925924789421707
-1.0770369915768683   -0.26925924789421707   -0.26925924789421707
-1.0770369915768683   -0.26925924789421707   -0.26925924789421707
-1.0770369915768683   -0.26925924789421707   -0.26925924789421707
-2.284060507665395   -0.2196645193922956   -0.0752452594050802
-2.284060507665395   -0.2196645193922956   -0.0752452594050802
-2.284060507665395   -0.2196645193922956   -0.0752452594050802
-2.284060507665395   -0.2196645193922956   -0.0752452594050802
-1.6652598463145762   -0.2692922035854606   -0.08708898842417206
-1.6652598463145762   -0.2692922035854606   -0.08708898842417206
-1.6652598463145762   -0.2692922035854606   -0.08708898842417206
-1.6652598463145762   -0.2692922035854606   -0.08708898842417206
-2.4723095021176884   -0.6180773755294221   -0.6180773755294221
-2.4723095021176884   -0.6180773755294221   -0.6180773755294221
-2.4723095021176884   -0.6180773755294221   -0.6180773755294221
-2.4723095021176884   -0.6180773755294221   -0.6180773755294221
-0.9507132982520229   0.06722830711546121   0.025871663720332005
-0.9507132982520229   0.06722830711546121   0.025871663720332005
-0.9507132982520229   0.06722830711546121   0.025871663720332005
-0.9507132982520229   0.06722830711546121   0.025871663720332005
-1.0548769688252486   -0.26371924220631215   -0.26371924220631215
-1.0548769688252486   -0.26371924220631215   -0.26371924220631215
-1.0548769688252486   -0.26371924220631215   -0.26371924220631215
-1.0548769688252486   -0.26371924220631215   -0.26371924220631215
-2.2675039450066956   -0.16955704769310886   -0.047359784647846195
-2.2675039450066956   -0.16955704769310886   -0.047359784647846195
-2.2675039450066956   -0.16955704769310886   -0.047359784647846195
-2.2675039450066956   -0.16955704769310886   -0.047359784647846195
-1.6737194715157386   -0.23836648598364052   -0.19406131197344656
-1.6737194715157386   -0.23836648598364052   -0.19406131197344656
-1.6737194715157386   -0.23836648598364052   -0.19406131197344656
-1.6737194715157386   -0.23836648598364052   -0.19406131197344656
-1.1449615058779608   -0.2862403764694902   -0.2862403764694902
-1.1449615058779608   -0.2862403764694902   -0.2862403764694902
-1.1449615058779608   -0.2862403764694902   -0.2862403764694902
-1.1449615058779608   -0.2862403764694902   -0.2862403764694902
0.1364424205676333   0.009022211417231411   0.0011091667792994114
0.1364424205676333   0.009022211417231411   0.0011091667792994114
0.1364424205676333   0.009022211417231411   0.0011091667792994114
0.1364424205676333   0.009022211417231411   0.0011091667792994114
0.1770527968229715   0.04426319920574288   0.04426319920574288
0.1770527968229715   0.04426319920574288   0.04426319920574288
0.1770527968229715   0.04426319920574288   0.04426319920574288
0.1770527968229715   0.04426319920574288   0.04426319920574288
-1.0354269796483464   -0.17897145024041172   -0.04181380490304987
-1.0354269796483464   -0.17897145024041172   -0.04181380490304987
-1.0354269796483464   -0.17897145024041172   -0.04181380490304987
-1.0354269796483464   -0.17897145024041172   -0.04181380490304987
-0.4429684802090955   -0.11238331072088295   0.0753355050491262
-0.4429684802090955   -0.11238331072088295   0.0753355050491262
-0.4429684802090955   -0.11238331072088295   0.0753355050491262
-0.4429684802090955   -0.11238331072088295   0.0753355050491262
-1.1014110317996155   -0.2753527579499039   -0.2753527579499039
-1.1014110317996155   -0.2753527579499039   -0.2753527579499039
-1.1014110317996155   -0.2753527579499039   -0.2753527579499039
-1.1014110317996155   -0.2753527579499039   -0.2753527579499039
0.18017882390023068   0.07778648184122508   0.02637005195655536
0.18017882390023068   0.07778648184122508   0.02637005195655536
0.18017882390023068   0.07778648184122508   0.02637005195655536
0.18017882390023068   0.07778648184122508   0.02637005195655536
0.19888903207554479   0.049722258018886197   0.049722258018886197
0.19888903207554479   0.049722258018886197   0.049722258018886197
0.19888903207554479   0.049722258018886197   0.049722258018886197
0.19888903207554479   0.049722258018886197   0.049722258018886197
-0.9990528349380541   -0.12055461151465935   -0.028043101079712023
-0.9990528349380541   -0.12055461151465935   -0.028043101079712023
-0.9990528349380541   -0.12055461151465935   -0.028043101079712023
-0.9990528349380541   -0.12055461151465935   -0.028043101079712023
-0.4251672322833315   -0.0694913614022804   -0.025670300635218773
-0.4251672322833315   -0.0694913614022804   -0.025670300635218773
-0.4251672322833315   -0.0694913614022804   -0.025670300635218773
-0.4251672322833315   -0.0694913614022804   -0.025670300635218773
-1.0770369915768683   -0.26925924789421707   -0.26925924789421707
-1.0770369915768683   -0.26925924789421707   -0.26925924789421707
-1.0770369915768683   -0.26925924789421707   -0.26925924789421707
-1.0770369915768683   -0.26925924789421707   -0.26925924789421707
0.21527984617372387   0.13683355185781026   0.044565034670855985
0.21527984617372387   0.13683355185781026   0.044565034670855985
0.21527984617372387   0.13683355185781026   0.044565034670855985
0.21527984617372387   0.13683355185781026   0.044565034670855985
0.22833901788736943   0.05708475447184236   0.05708475447184236
0.22833901788736943   0.05708475447184236   0.05708475447184236
0.22833901788736943   0.05708475447184236   0.05708475447184236
0.22833901788736943   0.05708475447184236   0.05708475447184236
-0.9594631128799957   -0.05087103671500756   0.0005018320286432482
-0.9594631128799957   -0.05087103671500756   0.0005018320286432482
-0.9594631128799957   -0.05087103671500756   0.0005018320286432482
-0.9594631128799957   -0.05087103671500756   0.0005018320286432482
-0.41269749657816784   -0.028142453585499785   -0.12577458850397089
-0.41269749657816784   -0.028142453585499785   -0.12577458850397089
-0.41269749657816784   -0.028142453585499785   -0.12577458850397089
-0.41269749657816784   -0.028142453585499785   -0.12577458850397089
0.149351272142586   0.0373378180356465   0.0373378180356465
0.149351272142586   0.0373378180356465   0.0373378180356465
0.149351272142586   0.0373378180356465   0.0373378180356465
0.149351272142586   0.0373378180356465   0.0373378180356465
1.433840658369822   0.13153064264404568   0.04408411248339196
1.433840658369822   0.13153064264404568   0.04408411248339196
1.433840658369822   0.13153064264404568   0.04408411248339196
1.433840658369822   0.13153064264404568   0.04408411248339196
1.5566085718299776   0.3891521429574944   0.3891521429574944
1.5566085718299776   0.3891521429574944   0.3891521429574944
1.5566085718299776   0.3891521429574944   0.3891521429574944
1.5566085718299776   0.3891521429574944   0.3891521429574944
0.13491060107215963   -0.10098578411611228   -0.021198796226464065
0.13491060107215963   -0.10098578411611228   -0.021198796226464065
0.13491060107215963   -0.10098578411611228   -0.021198796226464065
0.13491060107215963   -0.10098578411611228   -0.021198796226464065
0.8177635405272058   0.10179798636629697   0.14861006733146406
0.8177635405272058   0.10179798636629697   0.14861006733146406
0.8177635405272058   0.10179798636629697   0.14861006733146406
0.8177635405272058   0.10179798636629697   0.14861006733146406
0.17705279682297212   0.04426319920574303   0.04426319920574303
0.17705279682297212   0.04426319920574303   0.04426319920574303
0.17705279682297212   0.04426319920574303   0.04426319920574303
0.17705279682297212   0.04426319920574303   0.04426319920574303
1.4505786002268246   0.18001538378329854   0.06813904411592508
1.4505786002268246   0.18001538378329854   0.06813904411592508
1.4505786002268246   0.18001538378329854   0.06813904411592508
1.4505786002268246   0.18001538378329854   0.06813904411592508
1.5496956148975525   0.3874239037243881   0.3874239037243881
1.5496956148975525   0.3874239037243881   0.3874239037243881
1.5496956148975525   0.3874239037243881   0.3874239037243881
1.5496956148975525   0.3874239037243881   0.3874239037243881
0.1702354497068797   -0.043872897129329014   4.950132377434108e-05
0.1702354497068797   -0.043872897129329014   4.950132377434108e-05
0.1702354497068797   -0.043872897129329014   4.950132377434108e-05
0.1702354497068797   -0.043872897129329014   4.950132377434108e-05
0.8114777096372945   0.13350776205773573   0.038696859757556254
0.8114777096372945   0.13350776205773573   0.038696859757556254
0.8114777096372945   0.13350776205773573   0.038696859757556254
0.8114777096372945   0.13350776205773573   0.038696859757556254
0.19888903207554495   0.04972225801888624   0.04972225801888624
0.19888903207554495   0.04972225801888624   0.04972225801888624
0.19888903207554495   0.04972225801888624   0.04972225801888624
0.19888903207554495   0.04972225801888624   0.04972225801888624
1.4577668425916908   0.23055355863897656   0.08465038728049101
1.4577668425916908   0.23055355863897656   0.08465038728049101
1.4577668425916908   0.23055355863897656   0.08465038728049101
1.4577668425916908   0.23055355863897656   0.08465038728049101
1.5794719632864063   0.39486799082160157   0.39486799082160157
1.5794719632864063   0.39486799082160157   0.39486799082160157
1.5794719632864063   0.39486799082160157   0.39486799082160157
1.5794719632864063   0.39486799082160157   0.39486799082160157
0.21660807470207305   0.031709019176864264   0.023805773840336823
0.21660807470207305   0.031709019176864264   0.023805773840336823
0.21660807470207305   0.031709019176864264   0.023805773840336823
0.21660807470207305   0.031709019176864264   0.023805773840336823
0.8238297265288274   0.18105502020198966   -0.0632186271222399
0.8238297265288274   0.18105502020198966   -0.0632186271222399
0.8238297265288274   0.18105502020198966   -0.0632186271222399
0.8238297265288274   0.18105502020198966   -0.0632186271222399
1.5541307859381492   0.3885326964845373   0.3885326964845373
1.5541307859381492   0.3885326964845373   0.3885326964845373
1.5541307859381492   0.3885326964845373   0.3885326964845373
1.5541307859381492   0.3885326964845373   0.3885326964845373
3.222339121189813   0.24554808361857167   0.08392094219234635
3.222339121189813   0.24554808361857167   0.08392094219234635
3.222339121189813   0.24554808361857167   0.08392094219234635
3.222339121189813   0.24554808361857167   0.08392094219234635
3.293419464024524   0.823354866006131   0.823354866006131
3.293419464024524   0.823354866006131   0.823354866006131
3.293419464024524   0.823354866006131   0.823354866006131
3.293419464024524   0.823354866006131   0.823354866006131
1.3836019438830904   -0.07871591239723619   -0.008012941422211109
1.3836019438830904   -0.07871591239723619   -0.008012941422211109
1.3836019438830904   -0.07871591239723619   -0.008012941422211109
1.3836019438830904   -0.07871591239723619   -0.008012941422211109
2.298348246226524   0.3252115392514842   0.2595416294651216
2.298348246226524   0.3252115392514842   0.2595416294651216
2.298348246226524   0.3252115392514842   0.2595416294651216
2.298348246226524   0.3252115392514842   0.2595416294651216
1.556608571829976   0.389152142957494   0.389152142957494
1.556608571829976   0.389152142957494   0.389152142957494
1.556608571829976   0.389152142957494   0.389152142957494
1.556608571829976   0.389152142957494   0.389152142957494
3.051940823325613   0.28701479789938616   0.15230173061837377
3.051940823325613   0.28701479789938616   0.15230173061837377
3.051940823325613   0.28701479789938616   0.15230173061837377
3.051940823325613   0.28701479789938616   0.15230173061837377
3.1947432634914166   0.7986858158728541   0.7986858158728541
3.1947432634914166   0.7986858158728541   0.7986858158728541
3.1947432634914166   0.7986858158728541   0.7986858158728541
3.1947432634914166   0.7986858158728541   0.7986858158728541
1.3882088682600082   -0.04353995558737256   0.01095402984842725
1.3882088682600082   -0.04353995558737256   0.01095402984842725
1.3882088682600082   -0.04353995558737256   0.01095402984842725
1.3882088682600082   -0.04353995558737256   0.01095402984842725
2.22990666836424   0.334525274382769   0.12446643796529873
2.22990666836424   0.334525274382769   0.12446643796529873
2.22990666836424   0.334525274382769   0.12446643796529873
2.22990666836424   0.334525274382769   0.12446643796529873
1.5496956148975525   0.3874239037243881   0.3874239037243881
1.5496956148975525   0.3874239037243881   0.3874239037243881
1.5496956148975525   0.3874239037243881   0.3874239037243881
1.5496956148975525   0.3874239037243881   0.3874239037243881
2.9534224864666774   0.2878879261739082   0.10287982044815412
2.9534224864666774   0.2878879261739082   0.10287982044815412
2.9534224864666774   0.2878879261739082   0.10287982044815412
2.9534224864666774   0.2878879261739082   0.10287982044815412
3.0480142561547163   0.7620035640386791   0.7620035640386791
3.0480142561547163   0.7620035640386791   0.7620035640386791
3.0480142561547163   0.7620035640386791   0.7620035640386791
3.0480142561547163   0.7620035640386791   0.7620035640386791
1.4393313350005077   0.04515022181604256   0.043882618397667605
1.4393313350005077   0.04515022181604256   0.043882618397667605
1.4393313350005077   0.04515022181604256   0.043882618397667605
1.4393313350005077   0.04515022181604256   0.043882618397667605
2.134974450602684   0.3626261319219197   -0.032601088776114805
2.134974450602684   0.3626261319219197   -0.032601088776114805
2.134974450602684   0.3626261319219197   -0.032601088776114805
2.134974450602684   0.3626261319219197   -0.032601088776114805
-3.1252127200465525   -0.2237532702496744   0.03494655244575898
-3.1252127200465525   -0.2237532702496744   0.03494655244575898
-3.1252127200465525   -0.2237532702496744   0.03494655244575898
-3.1252127200465525   -0.2237532702496744   0.03494655244575898
-1.9890134777285766   -0.04566221640072449   -0.012780718532779817
-1.9890134777285766   -0.04566221640072449   -0.012780718532779817
-1.9890134777285766   -0.04566221640072449   -0.012780718532779817
-1.9890134777285766   -0.04566221640072449   -0.012780718532779817
-2.002683547674855   0.08082424675799299   0.04167740831604955
-2.002683547674855   0.08082424675799299   0.04167740831604955
-2.002683547674855   0.08082424675799299   0.04167740831604955
-2.002683547674855   0.08082424675799299   0.04167740831604955
-3.1718401239772898   -0.2162418542837275   -0.037454158784507904
-3.1718401239772898   -0.2162418542837275   -0.037454158784507904
-3.1718401239772898   -0.2162418542837275   -0.037454158784507904
-3.1718401239772898   -0.2162418542837275   -0.037454158784507904
-2.470945655109139   -0.0843137201393725   -0.009674099431915897
-2.470945655109139   -0.0843137201393725   -0.009674099431915897
-2.470945655109139   -0.0843137201393725   -0.009674099431915897
-2.470945655109139   -0.0843137201393725   -0.009674099431915897
-3.148890589312032   -0.1537852593175344   0.014836919575589191
-3.148890589312032   -0.1537852593175344   0.014836919575589191
-3.148890589312032   -0.1537852593175344   0.014836919575589191
-3.148890589312032   -0.1537852593175344   0.014836919575589191
-2.0289725270710264   0.015028207060892806   -0.023971448967670214
-2.0289725270710264   0.015028207060892806   -0.023971448967670214
-2.0289725270710264   0.015028207060892806   -0.023971448967670214
-2.0289725270710264   0.015028207060892806   -0.023971448967670214
-2.0052065551442144   0.115191415850735   0.04749671814776127
-2.0052065551442144   0.115191415850735   0.04749671814776127
-2.0052065551442144   0.115191415850735   0.04749671814776127
-2.0052065551442144   0.115191415850735   0.04749671814776127
-3.1912583382718056   -0.19052163489487572   -0.049457153834412765
-3.1912583382718056   -0.19052163489487572   -0.049457153834412765
-3.1912583382718056   -0.19052163489487572   -0.049457153834412765
-3.1912583382718056   -0.19052163489487572   -0.049457153834412765
-2.5405048759722835   -0.05649907049364222   -0.024034014191028352
-2.5405048759722835   -0.05649907049364222   -0.024034014191028352
-2.5405048759722835   -0.05649907049364222   -0.024034014191028352
-2.5405048759722835   -0.05649907049364222   -0.024034014191028352
-3.13408610234561   -0.09242279919897067   0.1383051901006289
-3.13408610234561   -0.09242279919897067   0.1383051901006289
-3.13408610234561   -0.09242279919897067   0.1383051901006289
-3.13408610234561   -0.09242279919897067   0.1383051901006289
-2.0385328232288047   0.04093854799643326   -0.04488175442086886
-2.0385328232288047   0.04093854799643326   -0.04488175442086886
-2.0385328232288047   0.04093854799643326   -0.04488175442086886
-2.0385328232288047   0.04093854799643326   -0.04488175442086886
-1.9688858755862286   0.20064533959860176   0.08640430669458876
-1.9688858755862286   0.20064533959860176   0.08640430669458876
-1.9688858755862286   0.20064533959860176   0.08640430669458876
-1.9688858755862286   0.20064533959860176   0.08640430669458876
-3.1033489094647235   -0.15384555273477862   -0.08096410309056473
-3.1033489094647235   -0.15384555273477862   -0.08096410309056473
-3.1033489094647235   -0.15384555273477862   -0.08096410309056473
-3.1033489094647235   -0.15384555273477862   -0.08096410309056473
-2.443559207165251   0.022663983360518225   0.054110472456096126
-2.443559207165251   0.022663983360518225   0.054110472456096126
-2.443559207165251   0.022663983360518225   0.054110472456096126
-2.443559207165251   0.022663983360518225   0.054110472456096126
-2.0384927964765893   -0.27015853156472636   -0.03568099710884119
-2.0384927964765893   -0.27015853156472636   -0.03568099710884119
-2.0384927964765893   -0.27015853156472636   -0.03568099710884119
-2.0384927964765893   -0.27015853156472636   -0.03568099710884119
-0.9388230081263622   -0.02072219738162845   0.010000182813508667
-0.9388230081263622   -0.02072219738162845   0.010000182813508667
-0.9388230081263622   -0.02072219738162845   0.010000182813508667
-0.9388230081263622   -0.02072219738162845   0.010000182813508667
-0.9527111823887933   0.018156150512752683   0.014154874699493253
-0.9527111823887933   0.018156150512752683   0.014154874699493253
-0.9527111823887933   0.018156150512752683   0.014154874699493253
-0.9527111823887933   0.018156150512752683   0.014154874699493253
-2.078977913781042   -0.19777417749480325   -0.061195997962088605
-2.078977913781042   -0.19777417749480325   -0.061195997962088605
-2.078977913781042   -0.19777417749480325   -0.061195997962088605
-2.078977913781042   -0.19777417749480325   -0.061195997962088605
-1.5021985460522282   -0.12189703214092273   -0.034374604808774925
-1.5021985460522282   -0.12189703214092273   -0.034374604808774925
-1.5021985460522282   -0.12189703214092273   -0.034374604808774925
-1.5021985460522282   -0.12189703214092273   -0.034374604808774925
-2.0770467657504383   -0.21617069013354273   -0.03314374517033905
-2.0770467657504383   -0.21617069013354273   -0.03314374517033905
-2.0770467657504383   -0.21617069013354273   -0.03314374517033905
-2.0770467657504383   -0.21617069013354273   -0.03314374517033905
-0.9509345480242689   0.04026044554662103   0.0009337514882525044
-0.9509345480242689   0.04026044554662103   0.0009337514882525044
-0.9509345480242689   0.04026044554662103   0.0009337514882525044
-0.9509345480242689   0.04026044554662103   0.0009337514882525044
-0.94924697486829   0.06620108093289076   0.019269209423750988
-0.94924697486829   0.06620108093289076   0.019269209423750988
-0.94924697486829   0.06620108093289076   0.019269209423750988
-0.94924697486829   0.06620108093289076   0.019269209423750988
-2.0799799941053427   -0.1450003975170271   -0.06617866329011868
-2.0799799941053427   -0.1450003975170271   -0.06617866329011868
-2.0799799941053427   -0.1450003975170271   -0.06617866329011868
-2.0799799941053427   -0.1450003975170271   -0.06617866329011868
-1.4994127463697005   -0.06786715366091861   -0.016337460865040385
-1.4994127463697005   -0.06786715366091861   -0.016337460865040385
-1.4994127463697005   -0.06786715366091861   -0.016337460865040385
-1.4994127463697005   -0.06786715366091861   -0.016337460865040385
-2.0718687999615946   -0.16358478665683474   -0.007038303431571746
-2.0718687999615946   -0.16358478665683474   -0.007038303431571746
-2.0718687999615946   -0.16358478665683474   -0.007038303431571746
-2.0718687999615946   -0.16358478665683474   -0.007038303431571746
-0.9504749619125878   0.09166867717215021   -0.012338322036979113
-0.9504749619125878   0.09166867717215021   -0.012338322036979113
-0.9504749619125878   0.09166867717215021   -0.012338322036979113
-0.9504749619125878   0.09166867717215021   -0.012338322036979113
-0.9334699882664045   0.11447565983686583   0.0387697962617362
-0.9334699882664045   0.11447565983686583   0.0387697962617362
-0.9334699882664045   0.11447565983686583   0.0387697962617362
-0.9334699882664045   0.11447565983686583   0.0387697962617362
-2.057848639440068   -0.08402628809467311   -0.07373788488134324
-2.057848639440068   -0.08402628809467311   -0.07373788488134324
-2.057848639440068   -0.08402628809467311   -0.07373788488134324
-2.057848639440068   -0.08402628809467311   -0.07373788488134324
-1.493286149854301   -0.016740646181883423   0.007502932712864688
-1.493286149854301   -0.016740646181883423   0.007502932712864688
-1.493286149854301   -0.016740646181883423   0.007502932712864688
-1.493286149854301   -0.016740646181883423   0.007502932712864688
-0.990037957174556   -0.22487920787407165   -0.04191755193502457
-0.990037957174556   -0.22487920787407165   -0.04191755193502457
-0.990037957174556   -0.22487920787407165   -0.04191755193502457
-0.990037957174556   -0.22487920787407165   -0.04191755193502457
0.10327062977795082   0.023481148796444508   0.03856956041506793
0.10327062977795082   0.023481148796444508   0.03856956041506793
0.10327062977795082   0.023481148796444508   0.03856956041506793
0.10327062977795082   0.023481148796444508   0.03856956041506793
0.0984742711057164   0.05678518730385988   0.003068132064241719
0.0984742711057164   0.05678518730385988   0.003068132064241719
0.0984742711057164   0.05678518730385988   0.003068132064241719
0.0984742711057164   0.05678518730385988   0.003068132064241719
-0.9943299098207119   -0.14902154491525943   -0.02676106703208746
-0.9943299098207119   -0.14902154491525943   -0.02676106703208746
-0.9943299098207119   -0.14902154491525943   -0.02676106703208746
-0.9943299098207119   -0.14902154491525943   -0.02676106703208746
-0.44996355456189663   -0.074516465739835   -0.014203675972638123
-0.44996355456189663   -0.074516465739835   -0.014203675972638123
-0.44996355456189663   -0.074516465739835   -0.014203675972638123
-0.44996355456189663   -0.074516465739835   -0.014203675972638123
-1.0012051263456307   -0.17149671459470564   -0.03866197997723664
-1.0012051263456307   -0.17149671459470564   -0.03866197997723664
-1.0012051263456307   -0.17149671459470564   -0.03866197997723664
-1.0012051263456307   -0.17149671459470564   -0.03866197997723664
0.1091787097950046   0.08308957914767491   0.03028593366686773
0.1091787097950046   0.08308957914767491   0.03028593366686773
0.1091787097950046   0.08308957914767491   0.03028593366686773
0.1091787097950046   0.08308957914767491   0.03028593366686773
0.1061323252997676   0.109678887419261   0.017939233352069924
0.1061323252997676   0.109678887419261   0.017939233352069924
0.1061323252997676   0.109678887419261   0.017939233352069924
0.1061323252997676   0.109678887419261   0.017939233352069924
-0.9912213157826217   -0.09102143586856226   -0.033379978346454724
-0.9912213157826217   -0.09102143586856226   -0.033379978346454724
-0.9912213157826217   -0.09102143586856226   -0.033379978346454724
-0.9912213157826217   -0.09102143586856226   -0.033379978346454724
-0.44301957232567857   -0.01829758187465516   0.005321497143506177
-0.44301957232567857   -0.01829758187465516   0.005321497143506177
-0.44301957232567857   -0.01829758187465516   0.005321497143506177
-0.44301957232567857   -0.01829758187465516   0.005321497143506177
-0.9938696928116489   -0.11786501895455569   -0.019778280405597
-0.9938696928116489   -0.11786501895455569   -0.019778280405597
-0.9938696928116489   -0.11786501895455569   -0.019778280405597
-0.9938696928116489   -0.11786501895455569   -0.019778280405597
0.1128999381682978   0.14064170634475737   0.02081447876922378
0.1128999381682978   0.14064170634475737   0.02081447876922378
0.1128999381682978   0.14064170634475737   0.02081447876922378
0.1128999381682978   0.14064170634475737   0.02081447876922378
0.108499710776361   0.16853085526510322   0.029548468272842198
0.108499710776361   0.16853085526510322   0.029548468272842198
0.108499710776361   0.16853085526510322   0.029548468272842198
0.108499710776361   0.16853085526510322   0.029548468272842198
-0.9783299976819189   -0.029009605294741836   -0.04204498568422414
-0.9783299976819189   -0.029009605294741836   -0.04204498568422414
-0.9783299976819189   -0.029009605294741836   -0.04204498568422414
-0.9783299976819189   -0.029009605294741836   -0.04204498568422414
-0.4320098397384673   0.040494805876943124   0.02669654572237347
-0.4320098397384673   0.040494805876943124   0.02669654572237347
-0.4320098397384673   0.040494805876943124   0.02669654572237347
-0.4320098397384673   0.040494805876943124   0.02669654572237347
0.047612189055089744   -0.16481681049678112   -0.051424683906011806
0.047612189055089744   -0.16481681049678112   -0.051424683906011806
0.047612189055089744   -0.16481681049678112   -0.051424683906011806
0.047612189055089744   -0.16481681049678112   -0.051424683906011806
1.1802150547807284   0.08151971901245053   0.07075159315081454
1.1802150547807284   0.08151971901245053   0.07075159315081454
1.1802150547807284   0.08151971901245053   0.07075159315081454
1.1802150547807284   0.08151971901245053   0.07075159315081454
1.1787219334940182   0.10975738480149769   -0.011294284060278388
1.1787219334940182   0.10975738480149769   -0.011294284060278388
1.1787219334940182   0.10975738480149769   -0.011294284060278388
1.1787219334940182   0.10975738480149769   -0.011294284060278388
0.06809241479798081   -0.09907804152530145   0.007022079354725118
0.06809241479798081   -0.09907804152530145   0.007022079354725118
0.06809241479798081   -0.09907804152530145   0.007022079354725118
0.06809241479798081   -0.09907804152530145   0.007022079354725118
0.6110429002711192   -0.014081910123766056   0.0013253205500548676
0.6110429002711192   -0.014081910123766056   0.0013253205500548676
0.6110429002711192   -0.014081910123766056   0.0013253205500548676
0.6110429002711192   -0.014081910123766056   0.0013253205500548676
0.0547397985142769   -0.12045332841684553   -0.03836571517224952
0.0547397985142769   -0.12045332841684553   -0.03836571517224952
0.0547397985142769   -0.12045332841684553   -0.03836571517224952
0.0547397985142769   -0.12045332841684553   -0.03836571517224952
1.1989509232858981   0.13800904520121682   0.06159900449939135
1.1989509232858981   0.13800904520121682   0.06159900449939135
1.1989509232858981   0.13800904520121682   0.06159900449939135
1.1989509232858981   0.13800904520121682   0.06159900449939135
1.1879539724696018   0.1620657453333595   0.012024190874492746
1.1879539724696018   0.1620657453333595   0.012024190874492746
1.1879539724696018   0.1620657453333595   0.012024190874492746
1.1879539724696018   0.1620657453333595   0.012024190874492746
0.07045409710559494   -0.04724676291581928   -0.0035262572837130423
0.07045409710559494   -0.04724676291581928   -0.0035262572837130423
0.07045409710559494   -0.04724676291581928   -0.0035262572837130423
0.07045409710559494   -0.04724676291581928   -0.0035262572837130423
0.6191312266470882   0.035921661947208014   0.025321172554155818
0.6191312266470882   0.035921661947208014   0.025321172554155818
0.6191312266470882   0.035921661947208014   0.025321172554155818
0.6191312266470882   0.035921661947208014   0.025321172554155818
0.06073535341974881   -0.07138013698105154   -0.02798660164771119
0.06073535341974881   -0.07138013698105154   -0.02798660164771119
0.06073535341974881   -0.07138013698105154   -0.02798660164771119
0.06073535341974881   -0.07138013698105154   -0.02798660164771119
1.2026477967115858   0.19117419995472673   0.05638485746302632
1.2026477967115858   0.19117419995472673   0.05638485746302632
1.2026477967115858   0.19117419995472673   0.05638485746302632
1.2026477967115858   0.19117419995472673   0.05638485746302632
1.1688269550651436   0.22243956259467532   0.025239610566321707
1.1688269550651436   0.22243956259467532   0.025239610566321707
1.1688269550651436   0.22243956259467532   0.025239610566321707
1.1688269550651436   0.22243956259467532   0.025239610566321707
0.0697661814655645   0.016960242353531094   -0.012548565369568134
0.0697661814655645   0.016960242353531094   -0.012548565369568134
0.0697661814655645   0.016960242353531094   -0.012548565369568134
0.0697661814655645   0.016960242353531094   -0.012548565369568134
0.6282204708347846   0.09309054202182954   0.047527942407659916
0.6282204708347846   0.09309054202182954   0.047527942407659916
0.6282204708347846   0.09309054202182954   0.047527942407659916
0.6282204708347846   0.09309054202182954   0.047527942407659916
1.087319192393072   -0.2172347421118741   -0.09497325766314153
1.087319192393072   -0.2172347421118741   -0.09497325766314153
1.087319192393072   -0.2172347421118741   -0.09497325766314153
1.087319192393072   -0.2172347421118741   -0.09497325766314153
2.238440678196598   0.14784735678397848   0.06882763763820782
2.238440678196598   0.14784735678397848   0.06882763763820782
2.238440678196598   0.14784735678397848   0.06882763763820782
2.238440678196598   0.14784735678397848   0.06882763763820782
2.263683485978049   0.0703323166577639   -0.14285333824216923
2.263683485978049   0.0703323166577639   -0.14285333824216923
2.263683485978049   0.0703323166577639   -0.14285333824216923
2.263683485978049   0.0703323166577639   -0.14285333824216923
1.1583110201870572   -0.044715256852663476   0.04112379105905718
1.1583110201870572   -0.044715256852663476   0.04112379105905718
1.1583110201870572   -0.044715256852663476   0.04112379105905718
1.1583110201870572   -0.044715256852663476   0.04112379105905718
1.6030923241297894   -0.027893583374975273   -0.040021488313061626
1.6030923241297894   -0.027893583374975273   -0.040021488313061626
1.6030923241297894   -0.027893583374975273   -0.040021488313061626
1.6030923241297894   -0.027893583374975273   -0.040021488313061626
1.1178621632798864   -0.14285702524943578   -0.06297872508000919
1.1178621632798864   -0.14285702524943578   -0.06297872508000919
1.1178621632798864   -0.14285702524943578   -0.06297872508000919
1.1178621632798864   -0.14285702524943578   -0.06297872508000919
2.324665356849853   0.18900709901917306   0.04338123375544396
2.324665356849853   0.18900709901917306   0.04338123375544396
2.324665356849853   0.18900709901917306   0.04338123375544396
2.324665356849853   0.18900709901917306   0.04338123375544396
2.288498901633875   0.12788471089348435   -0.032212671121155
2.288498901633875   0.12788471089348435   -0.032212671121155
2.288498901633875   0.12788471089348435   -0.032212671121155
2.288498901633875   0.12788471089348435   -0.032212671121155
1.1535892404890404   -0.018882152162291777   0.021148428467317668
1.1535892404890404   -0.018882152162291777   0.021148428467317668
1.1535892404890404   -0.018882152162291777   0.021148428467317668
1.1535892404890404   -0.018882152162291777   0.021148428467317668
1.6868685724368284   0.04212811630252472   0.027697526420192173
1.6868685724368284   0.04212811630252472   0.027697526420192173
1.6868685724368284   0.04212811630252472   0.027697526420192173
1.6868685724368284   0.04212811630252472   0.027697526420192173
1.1211549202048423   -0.10926884682606774   -0.050636478289886766
1.1211549202048423   -0.10926884682606774   -0.050636478289886766
1.1211549202048423   -0.10926884682606774   -0.050636478289886766
1.1211549202048423   -0.10926884682606774   -0.050636478289886766
2.3182034750281173   0.21554165866730685   0.028653248076234136
2.3182034750281173   0.21554165866730685   0.028653248076234136
2.3182034750281173   0.21554165866730685   0.028653248076234136
2.3182034750281173   0.21554165866730685   0.028653248076234136
2.284531939520235   0.195540254380491   -0.04936782329981866
2.284531939520235   0.195540254380491   -0.04936782329981866
2.284531939520235   0.195540254380491   -0.04936782329981866
2.284531939520235   0.195540254380491   -0.04936782329981866
1.1297737736260018   0.04069837759192185   0.011714888373348546
1.1297737736260018   0.04069837759192185   0.011714888373348546
1.1297737736260018   0.04069837759192185   0.011714888373348546
1.1297737736260018   0.04069837759192185   0.011714888373348546
1.6436388433609537   0.07377938159526426   0.020468289261648592
1.6436388433609537   0.07377938159526426   0.020468289261648592
1.6436388433609537   0.07377938159526426   0.020468289261648592
1.6436388433609537   0.07377938159526426   0.020468289261648592
-2.4580074903468097   -0.11165909110223643   0.12622892057788626
-2.4580074903468097   -0.11165909110223643   0.12622892057788626
-2.4580074903468097   -0.11165909110223643   0.12622892057788626
-2.4580074903468097   -0.11165909110223643   0.12622892057788626
-1.6319293904954204   -0.06180242290370269   -0.032845388870274356
-1.6319293904954204   -0.06180242290370269   -0.032845388870274356
-1.6319293904954204   -0.06180242290370269   -0.032845388870274356
-1.6319293904954204   -0.06180242290370269   -0.032845388870274356
-1.5732524482343748   0.13215343619895625   0.10593461788599585
-1.5732524482343748   0.13215343619895625   0.10593461788599585
-1.5732524482343748   0.13215343619895625   0.10593461788599585
-1.5732524482343748   0.13215343619895625   0.10593461788599585
-2.469386234055251   -0.17622699360838745   -0.05148500283183097
-2.469386234055251   -0.17622699360838745   -0.05148500283183097
-2.469386234055251   -0.17622699360838745   -0.05148500283183097
-2.469386234055251   -0.17622699360838745   -0.05148500283183097
-1.9505556719762487   -0.03016357425428895   -0.003460071683088206
-1.9505556719762487   -0.03016357425428895   -0.003460071683088206
-1.9505556719762487   -0.03016357425428895   -0.003460071683088206
-1.9505556719762487   -0.03016357425428895   -0.003460071683088206
-2.4007943044447986   -0.02624360691493227   0.14149125852697658
-2.4007943044447986   -0.02624360691493227   0.14149125852697658
-2.4007943044447986   -0.02624360691493227   0.14149125852697658
-2.4007943044447986   -0.02624360691493227   0.14149125852697658
-1.6310380803683067   -0.007023653017980636   -0.04381645356672563
-1.6310380803683067   -0.007023653017980636   -0.04381645356672563
-1.6310380803683067   -0.007023653017980636   -0.04381645356672563
-1.6310380803683067   -0.007023653017980636   -0.04381645356672563
-1.5668837146629637   0.1638883906397165   0.09821835022970624
-1.5668837146629637   0.1638883906397165   0.09821835022970624
-1.5668837146629637   0.1638883906397165   0.09821835022970624
-1.5668837146629637   0.1638883906397165   0.09821835022970624
-2.4312586676914787   -0.14746590686951144   -0.07051339062424308
-2.4312586676914787   -0.14746590686951144   -0.07051339062424308
-2.4312586676914787   -0.14746590686951144   -0.07051339062424308
-2.4312586676914787   -0.14746590686951144   -0.07051339062424308
-1.9548049549211612   0.007123745421265093   0.02259887112077806
-1.9548049549211612   0.007123745421265093   0.02259887112077806
-1.9548049549211612   0.007123745421265093   0.02259887112077806
-1.9548049549211612   0.007123745421265093   0.02259887112077806
-2.3673763833042245   0.003693843128355412   0.09773828131416148
-2.3673763833042245   0.003693843128355412   0.09773828131416148
-2.3673763833042245   0.003693843128355412   0.09773828131416148
-2.3673763833042245   0.003693843128355412   0.09773828131416148
-1.6272038275026879   0.016290812189381554   -0.05578463551856891
-1.6272038275026879   0.016290812189381554   -0.05578463551856891
-1.6272038275026879   0.016290812189381554   -0.05578463551856891
-1.6272038275026879   0.016290812189381554   -0.05578463551856891
-1.5684430152851476   0.18491473565933797   0.07793144470044272
-1.5684430152851476   0.18491473565933797   0.07793144470044272
-1.5684430152851476   0.18491473565933797   0.07793144470044272
-1.5684430152851476   0.18491473565933797   0.07793144470044272
-2.3817358203094607   -0.1169358988148596   -0.0899386645064802
-2.3817358203094607   -0.1169358988148596   -0.0899386645064802
-2.3817358203094607   -0.1169358988148596   -0.0899386645064802
-2.3817358203094607   -0.1169358988148596   -0.0899386645064802
-1.8987048647644094   0.04049988936086424   0.046906026725606814
-1.8987048647644094   0.04049988936086424   0.046906026725606814
-1.8987048647644094   0.04049988936086424   0.046906026725606814
-1.8987048647644094   0.04049988936086424   0.046906026725606814
-1.6368895901634666   -0.15518776031216183   0.0357389501979539
-1.6368895901634666   -0.15518776031216183   0.0357389501979539
-1.6368895901634666   -0.15518776031216183   0.0357389501979539
-1.6368895901634666   -0.15518776031216183   0.0357389501979539
-0.826200331436423   -0.02976255149951834   0.0016050049131892952
-0.826200331436423   -0.02976255149951834   0.0016050049131892952
-0.826200331436423   -0.02976255149951834   0.0016050049131892952
-0.826200331436423   -0.02976255149951834   0.0016050049131892952
-0.8028384090805857   0.08120961610156627   0.05758346531930292
-0.8028384090805857   0.08120961610156627   0.05758346531930292
-0.8028384090805857   0.08120961610156627   0.05758346531930292
-0.8028384090805857   0.08120961610156627   0.05758346531930292
-1.6629377553425666   -0.15304325349754888   -0.057295227958474415
-1.6629377553425666   -0.15304325349754888   -0.057295227958474415
-1.6629377553425666   -0.15304325349754888   -0.057295227958474415
-1.6629377553425666   -0.15304325349754888   -0.057295227958474415
-1.2278243309407875   -0.060250109487354125   -0.024814527897689474
-1.2278243309407875   -0.060250109487354125   -0.024814527897689474
-1.2278243309407875   -0.060250109487354125   -0.024814527897689474
-1.2278243309407875   -0.060250109487354125   -0.024814527897689474
-1.6317783934214665   -0.08916950683381042   0.03462783498330027
-1.6317783934214665   -0.08916950683381042   0.03462783498330027
-1.6317783934214665   -0.08916950683381042   0.03462783498330027
-1.6317783934214665   -0.08916950683381042   0.03462783498330027
-0.8276782696291235   0.023655370810393178   -0.009061592132207558
-0.8276782696291235   0.023655370810393178   -0.009061592132207558
-0.8276782696291235   0.023655370810393178   -0.009061592132207558
-0.8276782696291235   0.023655370810393178   -0.009061592132207558
-0.8003293858523308   0.13413124557735634   0.04982894392878681
-0.8003293858523308   0.13413124557735634   0.04982894392878681
-0.8003293858523308   0.13413124557735634   0.04982894392878681
-0.8003293858523308   0.13413124557735634   0.04982894392878681
-1.6535613359828438   -0.10363749303661762   -0.0676438726933597
-1.6535613359828438   -0.10363749303661762   -0.0676438726933597
-1.6535613359828438   -0.10363749303661762   -0.0676438726933597
-1.6535613359828438   -0.10363749303661762   -0.0676438726933597
-1.2144574938192056   -0.006689610078158714   -5.3958120915270635e-05
-1.2144574938192056   -0.006689610078158714   -5.3958120915270635e-05
-1.2144574938192056   -0.006689610078158714   -5.3958120915270635e-05
-1.2144574938192056   -0.006689610078158714   -5.3958120915270635e-05
-1.6217643935443675   -0.03548406287860639   0.02318740934100988
-1.6217643935443675   -0.03548406287860639   0.02318740934100988
-1.6217643935443675   -0.03548406287860639   0.02318740934100988
-1.6217643935443675   -0.03548406287860639   0.02318740934100988
-0.8269801378327565   0.07112400587740042   -0.020417576273371887
-0.8269801378327565   0.07112400587740042   -0.020417576273371887
-0.8269801378327565   0.07112400587740042   -0.020417576273371887
-0.8269801378327565   0.07112400587740042   -0.020417576273371887
-0.8001250104424734   0.18973500129753876   0.03734493308212146
-0.8001250104424734   0.18973500129753876   0.03734493308212146
-0.8001250104424734   0.18973500129753876   0.03734493308212146
-0.8001250104424734   0.18973500129753876   0.03734493308212146
-1.6456392129186153   -0.05033744397327938   -0.0727973638342866
-1.6456392129186153   -0.05033744397327938   -0.0727973638342866
-1.6456392129186153   -0.05033744397327938   -0.0727973638342866
-1.6456392129186153   -0.05033744397327938   -0.0727973638342866
-1.215287995985308   0.042412587930714674   0.018863523872133414
-1.215287995985308   0.042412587930714674   0.018863523872133414
-1.215287995985308   0.042412587930714674   0.018863523872133414
-1.215287995985308   0.042412587930714674   0.018863523872133414
-0.8570147093899096   -0.17727976532574605   -0.004949671028024349
-0.8570147093899096   -0.17727976532574605   -0.004949671028024349
-0.8570147093899096   -0.17727976532574605   -0.004949671028024349
-0.8570147093899096   -0.17727976532574605   -0.004949671028024349
-0.02796553479012455   0.008913656899429684   0.036602632201988686
-0.02796553479012455   0.008913656899429684   0.036602632201988686
-0.02796553479012455   0.008913656899429684   0.036602632201988686
-0.02796553479012455   0.008913656899429684   0.036602632201988686
-0.031132150332746775   0.052467474286957284   0.017486269491030965
-0.031132150332746775   0.052467474286957284   0.017486269491030965
-0.031132150332746775   0.052467474286957284   0.017486269491030965
-0.031132150332746775   0.052467474286957284   0.017486269491030965
-0.8576235886759352   -0.11367140026755788   -0.02146141628832107
-0.8576235886759352   -0.11367140026755788   -0.02146141628832107
-0.8576235886759352   -0.11367140026755788   -0.02146141628832107
-0.8576235886759352   -0.11367140026755788   -0.02146141628832107
-0.44479110412139594   -0.05553494098157203   -0.013875894248631558
-0.44479110412139594   -0.05553494098157203   -0.013875894248631558
-0.44479110412139594   -0.05553494098157203   -0.013875894248631558
-0.44479110412139594   -0.05553494098157203   -0.013875894248631558
-0.8567007997277654   -0.11853940321104876   -0.011979468603980737
-0.8567007997277654   -0.11853940321104876   -0.011979468603980737
-0.8567007997277654   -0.11853940321104876   -0.011979468603980737
-0.8567007997277654   -0.11853940321104876   -0.011979468603980737
-0.027342942711903396   0.06204747379946149   0.026852308082743997
-0.027342942711903396   0.06204747379946149   0.026852308082743997
-0.027342942711903396   0.06204747379946149   0.026852308082743997
-0.027342942711903396   0.06204747379946149   0.026852308082743997
-0.027257113245298573   0.11012871974379973   0.008406597178032056
-0.027257113245298573   0.11012871974379973   0.008406597178032056
-0.027257113245298573   0.11012871974379973   0.008406597178032056
-0.027257113245298573   0.11012871974379973   0.008406597178032056
-0.855500816597074   -0.06044982377474056   -0.031447140442824414
-0.855500816597074   -0.06044982377474056   -0.031447140442824414
-0.855500816597074   -0.06044982377474056   -0.031447140442824414
-0.855500816597074   -0.06044982377474056   -0.031447140442824414
-0.4405029207510108   -0.0022114254887829615   0.006128039348227126
-0.4405029207510108   -0.0022114254887829615   0.006128039348227126
-0.4405029207510108   -0.0022114254887829615   0.006128039348227126
-0.4405029207510108   -0.0022114254887829615   0.006128039348227126
-0.8542122047627454   -0.061695332503733685   -0.02375857254218821
-0.8542122047627454   -0.061695332503733685   -0.02375857254218821
-0.8542122047627454   -0.061695332503733685   -0.02375857254218821
-0.8542122047627454   -0.061695332503733685   -0.02375857254218821
-0.024654562073390777   0.11526539147902937   0.016282681302341995
-0.024654562073390777   0.11526539147902937   0.016282681302341995
-0.024654562073390777   0.11526539147902937   0.016282681302341995
-0.024654562073390777   0.11526539147902937   0.016282681302341995
-0.026459887944233776   0.1695169252554096   -0.001282442671152087
-0.026459887944233776   0.1695169252554096   -0.001282442671152087
-0.026459887944233776   0.1695169252554096   -0.001282442671152087
-0.026459887944233776   0.1695169252554096   -0.001282442671152087
-0.8551114175338665   -0.006319556406863769   -0.04153254467044673
-0.8551114175338665   -0.006319556406863769   -0.04153254467044673
-0.8551114175338665   -0.006319556406863769   -0.04153254467044673
-0.8551114175338665   -0.006319556406863769   -0.04153254467044673
-0.4371802413497489   0.05116247040875202   0.02447144781921188
-0.4371802413497489   0.05116247040875202   0.02447144781921188
-0.4371802413497489   0.05116247040875202   0.02447144781921188
-0.4371802413497489   0.05116247040875202   0.02447144781921188
-0.0843693267542511   -0.19404000839046046   -0.042462662328753446
-0.0843693267542511   -0.19404000839046046   -0.042462662328753446
-0.0843693267542511   -0.19404000839046046   -0.042462662328753446
-0.0843693267542511   -0.19404000839046046   -0.042462662328753446
0.7673348995347112   0.054201141375796624   0.06957923785253667
0.7673348995347112   0.054201141375796624   0.06957923785253667
0.7673348995347112   0.054201141375796624   0.06957923785253667
0.7673348995347112   0.054201141375796624   0.06957923785253667
0.7422483462573372   0.02887457335870211   -0.027370777684613393
0.7422483462573372   0.02887457335870211   -0.027370777684613393
0.7422483462573372   0.02887457335870211   -0.027370777684613393
0.7422483462573372   0.02887457335870211   -0.027370777684613393
-0.056361690234625714   -0.07111218788717384   0.01491823215576775
-0.056361690234625714   -0.07111218788717384   0.01491823215576775
-0.056361690234625714   -0.07111218788717384   0.01491823215576775
-0.056361690234625714   -0.07111218788717384   0.01491823215576775
0.33737231714495736   -0.044830144786880285   -0.007815347747486105
0.33737231714495736   -0.044830144786880285   -0.007815347747486105
0.33737231714495736   -0.044830144786880285   -0.007815347747486105
0.33737231714495736   -0.044830144786880285   -0.007815347747486105
-0.08410007245302423   -0.1415817735092714   -0.053304093314127304
-0.08410007245302423   -0.1415817735092714   -0.053304093314127304
-0.08410007245302423   -0.1415817735092714   -0.053304093314127304
-0.08410007245302423   -0.1415817735092714   -0.053304093314127304
0.775345482214805   0.1047029127198704   0.06228656274155809
0.775345482214805   0.1047029127198704   0.06228656274155809
0.775345482214805   0.1047029127198704   0.06228656274155809
0.775345482214805   0.1047029127198704   0.06228656274155809
0.7541781796745356   0.08251232750217348   -0.03845488776268988
0.7541781796745356   0.08251232750217348   -0.03845488776268988
0.7541781796745356   0.08251232750217348   -0.03845488776268988
0.7541781796745356   0.08251232750217348   -0.03845488776268988
-0.05479700755533125   -0.02343012915208125   0.004265974523750646
-0.05479700755533125   -0.02343012915208125   0.004265974523750646
-0.05479700755533125   -0.02343012915208125   0.004265974523750646
-0.05479700755533125   -0.02343012915208125   0.004265974523750646
0.3402758548033917   0.0033953203695358952   0.012056209545808199
0.3402758548033917   0.0033953203695358952   0.012056209545808199
0.3402758548033917   0.0033953203695358952   0.012056209545808199
0.3402758548033917   0.0033953203695358952   0.012056209545808199
-0.0817730243145119   -0.08982981952328747   -0.06421441890094713
-0.0817730243145119   -0.08982981952328747   -0.06421441890094713
-0.0817730243145119   -0.08982981952328747   -0.06421441890094713
-0.0817730243145119   -0.08982981952328747   -0.06421441890094713
0.7869935476296679   0.15475136906932874   0.05338291044581681
0.7869935476296679   0.15475136906932874   0.05338291044581681
0.7869935476296679   0.15475136906932874   0.05338291044581681
0.7869935476296679   0.15475136906932874   0.05338291044581681
0.7615092987935088   0.14979483590700537   -0.04011871493013335
0.7615092987935088   0.14979483590700537   -0.04011871493013335
0.7615092987935088   0.14979483590700537   -0.04011871493013335
0.7615092987935088   0.14979483590700537   -0.04011871493013335
-0.05491592923067633   0.03231412214747254   -0.006359845995427245
-0.05491592923067633   0.03231412214747254   -0.006359845995427245
-0.05491592923067633   0.03231412214747254   -0.006359845995427245
-0.05491592923067633   0.03231412214747254   -0.006359845995427245
0.35196393293557054   0.05719586250267833   0.03566476575158703
0.35196393293557054   0.05719586250267833   0.03566476575158703
0.35196393293557054   0.05719586250267833   0.03566476575158703
0.35196393293557054   0.05719586250267833   0.03566476575158703
0.687531562990381   -0.19262271206963957   -0.08261359142367296
0.687531562990381   -0.19262271206963957   -0.08261359142367296
0.687531562990381   -0.19262271206963957   -0.08261359142367296
0.687531562990381   -0.19262271206963957   -0.08261359142367296
1.5109202855743284   0.11224667939561153   0.07728138080051289
1.5109202855743284   0.11224667939561153   0.07728138080051289
1.5109202855743284   0.11224667939561153   0.07728138080051289
1.5109202855743284   0.11224667939561153   0.07728138080051289
1.4991230290314328   -0.0067694645895038374   -0.10995925646952019
1.4991230290314328   -0.0067694645895038374   -0.10995925646952019
1.4991230290314328   -0.0067694645895038374   -0.10995925646952019
1.4991230290314328   -0.0067694645895038374   -0.10995925646952019
0.7490718193729189   -0.0162210269108444   0.05184218816284998
0.7490718193729189   -0.0162210269108444   0.05184218816284998
0.7490718193729189   -0.0162210269108444   0.05184218816284998
0.7490718193729189   -0.0162210269108444   0.05184218816284998
1.0577052238286473   -0.03749222070692104   -0.034639863172678184
1.0577052238286473   -0.03749222070692104   -0.034639863172678184
1.0577052238286473   -0.03749222070692104   -0.034639863172678184
1.0577052238286473   -0.03749222070692104   -0.034639863172678184
0.6881653167194862   -0.16729285513418335   -0.10161849688097112
0.6881653167194862   -0.16729285513418335   -0.10161849688097112
0.6881653167194862   -0.16729285513418335   -0.10161849688097112
0.6881653167194862   -0.16729285513418335   -0.10161849688097112
1.5644074894271338   0.14868032137610399   0.06101325954337711
1.5644074894271338   0.14868032137610399   0.06101325954337711
1.5644074894271338   0.14868032137610399   0.06101325954337711
1.5644074894271338   0.14868032137610399   0.06101325954337711
1.5357170641864692   0.02382474788283029   -0.14744489500450064
1.5357170641864692   0.02382474788283029   -0.14744489500450064
1.5357170641864692   0.02382474788283029   -0.14744489500450064
1.5357170641864692   0.02382474788283029   -0.14744489500450064
0.7545100434254164   0.007114888378495915   0.038601870115405466
0.7545100434254164   0.007114888378495915   0.038601870115405466
0.7545100434254164   0.007114888378495915   0.038601870115405466
0.7545100434254164   0.007114888378495915   0.038601870115405466
1.1054287806912853   -0.004432871090167961   -0.010602957940716022
1.1054287806912853   -0.004432871090167961   -0.010602957940716022
1.1054287806912853   -0.004432871090167961   -0.010602957940716022
1.1054287806912853   -0.004432871090167961   -0.010602957940716022
0.6959048719674304   -0.1367587760994034   -0.11055032269663041
0.6959048719674304   -0.1367587760994034   -0.11055032269663041
0.6959048719674304   -0.1367587760994034   -0.11055032269663041
0.6959048719674304   -0.1367587760994034   -0.11055032269663041
1.603990050065635   0.17736622678191108   0.04037855549226279
1.603990050065635   0.17736622678191108   0.04037855549226279
1.603990050065635   0.17736622678191108   0.04037855549226279
1.603990050065635   0.17736622678191108   0.04037855549226279
1.5938322336164037   0.10343877659106113   -0.1386415766213569
1.5938322336164037   0.10343877659106113   -0.1386415766213569
1.5938322336164037   0.10343877659106113   -0.1386415766213569
1.5938322336164037   0.10343877659106113   -0.1386415766213569
0.7569533003410651   0.05872628461702853   0.028169844097636204
0.7569533003410651   0.05872628461702853   0.028169844097636204
0.7569533003410651   0.05872628461702853   0.028169844097636204
0.7569533003410651   0.05872628461702853   0.028169844097636204
1.1134540596354963   0.03339444676123354   0.015969627376534318
1.1134540596354963   0.03339444676123354   0.015969627376534318
1.1134540596354963   0.03339444676123354   0.015969627376534318
1.1134540596354963   0.03339444676123354   0.015969627376534318
-1.758298548634817   -0.057616239752854626   0.1144546850233624
-1.758298548634817   -0.057616239752854626   0.1144546850233624
-1.758298548634817   -0.057616239752854626   0.1144546850233624
-1.758298548634817   -0.057616239752854626   0.1144546850233624
-1.2295451394793537   -0.08195734419328499   -0.043269548143976586
-1.2295451394793537   -0.08195734419328499   -0.043269548143976586
-1.2295451394793537   -0.08195734419328499   -0.043269548143976586
-1.2295451394793537   -0.08195734419328499   -0.043269548143976586
-1.157402592022663   0.11599044421406224   0.09761854424783009
-1.157402592022663   0.11599044421406224   0.09761854424783009
-1.157402592022663   0.11599044421406224   0.09761854424783009
-1.157402592022663   0.11599044421406224   0.09761854424783009
-1.7584432726828272   -0.14470282886206587   -0.06328431913221595
-1.7584432726828272   -0.14470282886206587   -0.06328431913221595
-1.7584432726828272   -0.14470282886206587   -0.06328431913221595
-1.7584432726828272   -0.14470282886206587   -0.06328431913221595
-1.4154199823025366   -0.0225977922489774   -0.0029799940795372792
-1.4154199823025366   -0.0225977922489774   -0.0029799940795372792
-1.4154199823025366   -0.0225977922489774   -0.0029799940795372792
-1.4154199823025366   -0.0225977922489774   -0.0029799940795372792
-1.6928346095219164   0.011159637855583215   0.10889652995468826
-1.6928346095219164   0.011159637855583215   0.10889652995468826
-1.6928346095219164   0.011159637855583215   0.10889652995468826
-1.6928346095219164   0.011159637855583215   0.10889652995468826
-1.2176766642531824   -0.03453743157318931   -0.05322394111750842
-1.2176766642531824   -0.03453743157318931   -0.05322394111750842
-1.2176766642531824   -0.03453743157318931   -0.05322394111750842
-1.2176766642531824   -0.03453743157318931   -0.05322394111750842
-1.1465088363124227   0.14008912781328942   0.08251195141070519
-1.1465088363124227   0.14008912781328942   0.08251195141070519
-1.1465088363124227   0.14008912781328942   0.08251195141070519
-1.1465088363124227   0.14008912781328942   0.08251195141070519
-1.7169157066076786   -0.11784420715276533   -0.08002368022570402
-1.7169157066076786   -0.11784420715276533   -0.08002368022570402
-1.7169157066076786   -0.11784420715276533   -0.08002368022570402
-1.7169157066076786   -0.11784420715276533   -0.08002368022570402
-1.405591777176889   0.009196755155058023   0.014946820101103625
-1.405591777176889   0.009196755155058023   0.014946820101103625
-1.405591777176889   0.009196755155058023   0.014946820101103625
-1.405591777176889   0.009196755155058023   0.014946820101103625
-1.6518567590044229   0.04000210260025838   0.08742474803755015
-1.6518567590044229   0.04000210260025838   0.08742474803755015
-1.6518567590044229   0.04000210260025838   0.08742474803755015
-1.6518567590044229   0.04000210260025838   0.08742474803755015
-1.206742054327447   -0.012931452351501282   -0.06563355849961519
-1.206742054327447   -0.012931452351501282   -0.06563355849961519
-1.206742054327447   -0.012931452351501282   -0.06563355849961519
-1.206742054327447   -0.012931452351501282   -0.06563355849961519
-1.1404738660680311   0.163505066459187   0.0710042076223235
-1.1404738660680311   0.163505066459187   0.0710042076223235
-1.1404738660680311   0.163505066459187   0.0710042076223235
-1.1404738660680311   0.163505066459187   0.0710042076223235
-1.6612690783357298   -0.08235768882973638   -0.0958244146649347
-1.6612690783357298   -0.08235768882973638   -0.0958244146649347
-1.6612690783357298   -0.08235768882973638   -0.0958244146649347
-1.6612690783357298   -0.08235768882973638   -0.0958244146649347
-1.3528939050999518   0.038964213750137144   0.040126199494326664
-1.3528939050999518   0.038964213750137144   0.040126199494326664
-1.3528939050999518   0.038964213750137144   0.040126199494326664
-1.3528939050999518   0.038964213750137144   0.040126199494326664
-1.2158170990091446   -0.09943686999495449   0.04285018000873042
-1.2158170990091446   -0.09943686999495449   0.04285018000873042
-1.2158170990091446   -0.09943686999495449   0.04285018000873042
-1.2158170990091446   -0.09943686999495449   0.04285018000873042
-0.7043901522775937   -0.053111262275522986   -0.0069809825947506135
-0.7043901522775937   -0.053111262275522986   -0.0069809825947506135
-0.7043901522775937   -0.053111262275522986   -0.0069809825947506135
-0.7043901522775937   -0.053111262275522986   -0.0069809825947506135
-0.6686148424241104   0.06780760133431807   0.0526361332824191
-0.6686148424241104   0.06780760133431807   0.0526361332824191
-0.6686148424241104   0.06780760133431807   0.0526361332824191
-0.6686148424241104   0.06780760133431807   0.0526361332824191
-1.2340709509537569   -0.11829130382781258   -0.05144150236576351
-1.2340709509537569   -0.11829130382781258   -0.05144150236576351
-1.2340709509537569   -0.11829130382781258   -0.05144150236576351
-1.2340709509537569   -0.11829130382781258   -0.05144150236576351
-0.9518599324392938   -0.0464572092259285   -0.0193742626795525
-0.9518599324392938   -0.0464572092259285   -0.0193742626795525
-0.9518599324392938   -0.0464572092259285   -0.0193742626795525
-0.9518599324392938   -0.0464572092259285   -0.0193742626795525
-1.20158286738527   -0.04230975665385636   0.035017368302706554
-1.20158286738527   -0.04230975665385636   0.035017368302706554
-1.20158286738527   -0.04230975665385636   0.035017368302706554
-1.20158286738527   -0.04230975665385636   0.035017368302706554
-0.6969367077042189   -0.004007727551266271   -0.01715786423253917
-0.6969367077042189   -0.004007727551266271   -0.01715786423253917
-0.6969367077042189   -0.004007727551266271   -0.01715786423253917
-0.6969367077042189   -0.004007727551266271   -0.01715786423253917
-0.6601083247832711   0.11721473778848507   0.04316427023258129
-0.6601083247832711   0.11721473778848507   0.04316427023258129
-0.6601083247832711   0.11721473778848507   0.04316427023258129
-0.6601083247832711   0.11721473778848507   0.04316427023258129
-1.217478999511397   -0.07164401243030402   -0.060605724340574284
-1.217478999511397   -0.07164401243030402   -0.060605724340574284
-1.217478999511397   -0.07164401243030402   -0.060605724340574284
-1.217478999511397   -0.07164401243030402   -0.060605724340574284
-0.9335864807701466   0.002130420316644177   0.0014971464818719499
-0.9335864807701466   0.002130420316644177   0.0014971464818719499
-0.9335864807701466   0.002130420316644177   0.0014971464818719499
-0.9335864807701466   0.002130420316644177   0.0014971464818719499
-1.1825318589961584   0.010495308383711932   0.031990657421603064
-1.1825318589961584   0.010495308383711932   0.031990657421603064
-1.1825318589961584   0.010495308383711932   0.031990657421603064
-1.1825318589961584   0.010495308383711932   0.031990657421603064
-0.689881659782178   0.040249222490801595   -0.028736889464265412
-0.689881659782178   0.040249222490801595   -0.028736889464265412
-0.689881659782178   0.040249222490801595   -0.028736889464265412
-0.689881659782178   0.040249222490801595   -0.028736889464265412
-0.6518902075667213   0.16984057456752874   0.03434372351786004
-0.6518902075667213   0.16984057456752874   0.03434372351786004
-0.6518902075667213   0.16984057456752874   0.03434372351786004
-0.6518902075667213   0.16984057456752874   0.03434372351786004
-1.2050523885224822   -0.021395002768682003   -0.0669883354220584
-1.2050523885224822   -0.021395002768682003   -0.0669883354220584
-1.2050523885224822   -0.021395002768682003   -0.0669883354220584
-1.2050523885224822   -0.021395002768682003   -0.0669883354220584
-0.926517163136857   0.047823842288660434   0.02136254433233202
-0.926517163136857   0.047823842288660434   0.02136254433233202
-0.926517163136857   0.047823842288660434   0.02136254433233202
-0.926517163136857   0.047823842288660434   0.02136254433233202
-0.7193063873046439   -0.13634143670414825   0.0016680166986183876
-0.7193063873046439   -0.13634143670414825   0.0016680166986183876
-0.7193063873046439   -0.13634143670414825   0.0016680166986183876
-0.7193063873046439   -0.13634143670414825   0.0016680166986183876
-0.1847141464359968   -0.015770374299682734   0.029341253226199286
-0.1847141464359968   -0.015770374299682734   0.029341253226199286
-0.1847141464359968   -0.015770374299682734   0.029341253226199286
-0.1847141464359968   -0.015770374299682734   0.029341253226199286
-0.1801522394327365   0.02811631751818973   0.0100058233972183
-0.1801522394327365   0.02811631751818973   0.0100058233972183
-0.1801522394327365   0.02811631751818973   0.0100058233972183
-0.1801522394327365   0.02811631751818973   0.0100058233972183
-0.7114135329441891   -0.0798219264255826   -0.013727791558081622
-0.7114135329441891   -0.0798219264255826   -0.013727791558081622
-0.7114135329441891   -0.0798219264255826   -0.013727791558081622
-0.7114135329441891   -0.0798219264255826   -0.013727791558081622
-0.4496589237904989   -0.04878144265678782   -0.013762108558459505
-0.4496589237904989   -0.04878144265678782   -0.013762108558459505
-0.4496589237904989   -0.04878144265678782   -0.013762108558459505
-0.4496589237904989   -0.04878144265678782   -0.013762108558459505
-0.7102571580647203   -0.08121616633742897   -0.006551677248891354
-0.7102571580647203   -0.08121616633742897   -0.006551677248891354
-0.7102571580647203   -0.08121616633742897   -0.006551677248891354
-0.7102571580647203   -0.08121616633742897   -0.006551677248891354
-0.1771320191421868   0.033687152600054615   0.01953608976810205
-0.1771320191421868   0.033687152600054615   0.01953608976810205
-0.1771320191421868   0.033687152600054615   0.01953608976810205
-0.1771320191421868   0.033687152600054615   0.01953608976810205
-0.16988194682127253   0.08348997996789284   0.00263300849455644
-0.16988194682127253   0.08348997996789284   0.00263300849455644
-0.16988194682127253   0.08348997996789284   0.00263300849455644
-0.16988194682127253   0.08348997996789284   0.00263300849455644
-0.7028993676861877   -0.0300227964790295   -0.023553410014486333
-0.7028993676861877   -0.0300227964790295   -0.023553410014486333
-0.7028993676861877   -0.0300227964790295   -0.023553410014486333
-0.7028993676861877   -0.0300227964790295   -0.023553410014486333
-0.43869032244251394   0.0009903011680698348   0.005903831782141943
-0.43869032244251394   0.0009903011680698348   0.005903831782141943
-0.43869032244251394   0.0009903011680698348   0.005903831782141943
-0.43869032244251394   0.0009903011680698348   0.005903831782141943
-0.7002897466108331   -0.02601983492689683   -0.014508266189846672
-0.7002897466108331   -0.02601983492689683   -0.014508266189846672
-0.7002897466108331   -0.02601983492689683   -0.014508266189846672
-0.7002897466108331   -0.02601983492689683   -0.014508266189846672
-0.16863543685907081   0.0833431494533243   0.009012388820135185
-0.16863543685907081   0.0833431494533243   0.009012388820135185
-0.16863543685907081   0.0833431494533243   0.009012388820135185
-0.16863543685907081   0.0833431494533243   0.009012388820135185
-0.16067221517968897   0.13966667445324943   -0.006040592724073632
-0.16067221517968897   0.13966667445324943   -0.006040592724073632
-0.16067221517968897   0.13966667445324943   -0.006040592724073632
-0.16067221517968897   0.13966667445324943   -0.006040592724073632
-0.6954206133685099   0.020355661463447222   -0.033823392387002674
-0.6954206133685099   0.020355661463447222   -0.033823392387002674
-0.6954206133685099   0.020355661463447222   -0.033823392387002674
-0.6954206133685099   0.020355661463447222   -0.033823392387002674
-0.4286751435255145   0.05100043671829824   0.024849930543184684
-0.4286751435255145   0.05100043671829824   0.024849930543184684
-0.4286751435255145   0.05100043671829824   0.024849930543184684
-0.4286751435255145   0.05100043671829824   0.024849930543184684
-0.22846721311297902   -0.16659501634660667   -0.03859943811178948
-0.22846721311297902   -0.16659501634660667   -0.03859943811178948
-0.22846721311297902   -0.16659501634660667   -0.03859943811178948
-0.22846721311297902   -0.16659501634660667   -0.03859943811178948
0.32822070815457416   0.026115209220161487   0.06363537106006051
0.32822070815457416   0.026115209220161487   0.06363537106006051
0.32822070815457416   0.026115209220161487   0.06363537106006051
0.32822070815457416   0.026115209220161487   0.06363537106006051
0.3055001607710591   -0.008801095575268536   -0.03538815729040601
0.3055001607710591   -0.008801095575268536   -0.03538815729040601
0.3055001607710591   -0.008801095575268536   -0.03538815729040601
0.3055001607710591   -0.008801095575268536   -0.03538815729040601
-0.19081595114342617   -0.038726153985574496   0.023529736347534285
-0.19081595114342617   -0.038726153985574496   0.023529736347534285
-0.19081595114342617   -0.038726153985574496   0.023529736347534285
-0.19081595114342617   -0.038726153985574496   0.023529736347534285
0.051530332844842555   -0.045699446486601424   -0.009790378853828522
0.051530332844842555   -0.045699446486601424   -0.009790378853828522
0.051530332844842555   -0.045699446486601424   -0.009790378853828522
0.051530332844842555   -0.045699446486601424   -0.009790378853828522
-0.22056076801928956   -0.11643312523227631   -0.04748737678508079
-0.22056076801928956   -0.11643312523227631   -0.04748737678508079
-0.22056076801928956   -0.11643312523227631   -0.04748737678508079
-0.22056076801928956   -0.11643312523227631   -0.04748737678508079
0.3402161264669933   0.07387702449150078   0.055513551122491275
0.3402161264669933   0.07387702449150078   0.055513551122491275
0.3402161264669933   0.07387702449150078   0.055513551122491275
0.3402161264669933   0.07387702449150078   0.055513551122491275
0.3245962695133249   0.04357766550870566   -0.04008832924097089
0.3245962695133249   0.04357766550870566   -0.04008832924097089
0.3245962695133249   0.04357766550870566   -0.04008832924097089
0.3245962695133249   0.04357766550870566   -0.04008832924097089
-0.18340339711942685   0.005809461099196778   0.01270627587248247
-0.18340339711942685   0.005809461099196778   0.01270627587248247
-0.18340339711942685   0.005809461099196778   0.01270627587248247
-0.18340339711942685   0.005809461099196778   0.01270627587248247
0.06167988781078853   -0.000584670615208456   0.010210555189766157
0.06167988781078853   -0.000584670615208456   0.010210555189766157
0.06167988781078853   -0.000584670615208456   0.010210555189766157
0.06167988781078853   -0.000584670615208456   0.010210555189766157
-0.21210821810544495   -0.0672893664654471   -0.057719001492964904
-0.21210821810544495   -0.0672893664654471   -0.057719001492964904
-0.21210821810544495   -0.0672893664654471   -0.057719001492964904
-0.21210821810544495   -0.0672893664654471   -0.057719001492964904
0.35761180633801004   0.12098720891201012   0.04757981147914288
0.35761180633801004   0.12098720891201012   0.04757981147914288
0.35761180633801004   0.12098720891201012   0.04757981147914288
0.35761180633801004   0.12098720891201012   0.04757981147914288
0.3399685044370989   0.10330052466541718   -0.046312267073479296
0.3399685044370989   0.10330052466541718   -0.046312267073479296
0.3399685044370989   0.10330052466541718   -0.046312267073479296
0.3399685044370989   0.10330052466541718   -0.046312267073479296
-0.1754799374242125   0.05717717640842878   0.0024102940981277424
-0.1754799374242125   0.05717717640842878   0.0024102940981277424
-0.1754799374242125   0.05717717640842878   0.0024102940981277424
-0.1754799374242125   0.05717717640842878   0.0024102940981277424
0.07738539019696163   0.04852419451090659   0.030932717201824604
0.07738539019696163   0.04852419451090659   0.030932717201824604
0.07738539019696163   0.04852419451090659   0.030932717201824604
0.07738539019696163   0.04852419451090659   0.030932717201824604
0.26137798449588623   -0.16834222048568742   -0.07612081752752436
0.26137798449588623   -0.16834222048568742   -0.07612081752752436
0.26137798449588623   -0.16834222048568742   -0.07612081752752436
0.26137798449588623   -0.16834222048568742   -0.07612081752752436
0.7846006807478297   0.07727056131370101   0.08232184758898943
0.7846006807478297   0.07727056131370101   0.08232184758898943
0.7846006807478297   0.07727056131370101   0.08232184758898943
0.7846006807478297   0.07727056131370101   0.08232184758898943
0.7768378311876997   -0.04107619934546716   -0.10019968582502937
0.7768378311876997   -0.04107619934546716   -0.10019968582502937
0.7768378311876997   -0.04107619934546716   -0.10019968582502937
0.7768378311876997   -0.04107619934546716   -0.10019968582502937
0.3293920254858516   0.013852898355001544   0.061417172353284005
0.3293920254858516   0.013852898355001544   0.061417172353284005
0.3293920254858516   0.013852898355001544   0.061417172353284005
0.3293920254858516   0.013852898355001544   0.061417172353284005
0.510015015091988   -0.03472772975779037   -0.026858746961866818
0.510015015091988   -0.03472772975779037   -0.026858746961866818
0.510015015091988   -0.03472772975779037   -0.026858746961866818
0.510015015091988   -0.03472772975779037   -0.026858746961866818
0.2686736390870563   -0.14027789404810423   -0.08804396723758658
0.2686736390870563   -0.14027789404810423   -0.08804396723758658
0.2686736390870563   -0.14027789404810423   -0.08804396723758658
0.2686736390870563   -0.14027789404810423   -0.08804396723758658
0.8426247059867013   0.11812308145784935   0.0695354073666734
0.8426247059867013   0.11812308145784935   0.0695354073666734
0.8426247059867013   0.11812308145784935   0.0695354073666734
0.8426247059867013   0.11812308145784935   0.0695354073666734
0.81904524962396   -0.011726557232682733   -0.12014056413901578
0.81904524962396   -0.011726557232682733   -0.12014056413901578
0.81904524962396   -0.011726557232682733   -0.12014056413901578
0.81904524962396   -0.011726557232682733   -0.12014056413901578
0.3405430296770304   0.03534967518338011   0.047873461902874566
0.3405430296770304   0.03534967518338011   0.047873461902874566
0.3405430296770304   0.03534967518338011   0.047873461902874566
0.3405430296770304   0.03534967518338011   0.047873461902874566
0.5527106203950555   -0.005149066970204119   -0.0032806142233616636
0.5527106203950555   -0.005149066970204119   -0.0032806142233616636
0.5527106203950555   -0.005149066970204119   -0.0032806142233616636
0.5527106203950555   -0.005149066970204119   -0.0032806142233616636
0.28031112272651726   -0.11586045776469156   -0.10207593990161738
0.28031112272651726   -0.11586045776469156   -0.10207593990161738
0.28031112272651726   -0.11586045776469156   -0.10207593990161738
0.28031112272651726   -0.11586045776469156   -0.10207593990161738
0.8845558775008566   0.14476229664177676   0.050923721371031516
0.8845558775008566   0.14476229664177676   0.050923721371031516
0.8845558775008566   0.14476229664177676   0.050923721371031516
0.8845558775008566   0.14476229664177676   0.050923721371031516
0.8838213577962446   0.052750251692643246   -0.12857837797946967
0.8838213577962446   0.052750251692643246   -0.12857837797946967
0.8838213577962446   0.052750251692643246   -0.12857837797946967
0.8838213577962446   0.052750251692643246   -0.12857837797946967
0.35195677842751927   0.07889855285782925   0.03803107468620856
0.35195677842751927   0.07889855285782925   0.03803107468620856
0.35195677842751927   0.07889855285782925   0.03803107468620856
0.35195677842751927   0.07889855285782925   0.03803107468620856
0.5739090060869618   0.027477241381170234   0.01698602225279425
0.5739090060869618   0.027477241381170234   0.01698602225279425
0.5739090060869618   0.027477241381170234   0.01698602225279425
0.5739090060869618   0.027477241381170234   0.01698602225279425
-1.0552749541843989   -0.017907724414079174   0.10270836545706705
-1.0552749541843989   -0.017907724414079174   0.10270836545706705
-1.0552749541843989   -0.017907724414079174   0.10270836545706705
-1.0552749541843989   -0.017907724414079174   0.10270836545706705
-0.8221963232729773   -0.10420159889443878   -0.050886591480116726
-0.8221963232729773   -0.10420159889443878   -0.050886591480116726
-0.8221963232729773   -0.10420159889443878   -0.050886591480116726
-0.8221963232729773   -0.10420159889443878   -0.050886591480116726
-0.7442709615679314   0.08835817546119831   0.08784839136920912
-0.7442709615679314   0.08835817546119831   0.08784839136920912
-0.7442709615679314   0.08835817546119831   0.08784839136920912
-0.7442709615679314   0.08835817546119831   0.08784839136920912
-1.0507712553542994   -0.11442698903820935   -0.06923333801094864
-1.0507712553542994   -0.11442698903820935   -0.06923333801094864
-1.0507712553542994   -0.11442698903820935   -0.06923333801094864
-1.0507712553542994   -0.11442698903820935   -0.06923333801094864
-0.8829450718460854   -0.024349615411797004   -0.012849235556604235
-0.8829450718460854   -0.024349615411797004   -0.012849235556604235
-0.8829450718460854   -0.024349615411797004   -0.012849235556604235
-0.8829450718460854   -0.024349615411797004   -0.012849235556604235
-0.9859960465973734   0.04207218627380205   0.09814353046166972
-0.9859960465973734   0.04207218627380205   0.09814353046166972
-0.9859960465973734   0.04207218627380205   0.09814353046166972
-0.9859960465973734   0.04207218627380205   0.09814353046166972
-0.8045543143646963   -0.06364914389065073   -0.06156105326275858
-0.8045543143646963   -0.06364914389065073   -0.06156105326275858
-0.8045543143646963   -0.06364914389065073   -0.06156105326275858
-0.8045543143646963   -0.06364914389065073   -0.06156105326275858
-0.7257556431736819   0.11125634527268896   0.07431901846757119
-0.7257556431736819   0.11125634527268896   0.07431901846757119
-0.7257556431736819   0.11125634527268896   0.07431901846757119
-0.7257556431736819   0.11125634527268896   0.07431901846757119
-1.0025934624592734   -0.08848142380815735   -0.08652687077400492
-1.0025934624592734   -0.08848142380815735   -0.08652687077400492
-1.0025934624592734   -0.08848142380815735   -0.08652687077400492
-1.0025934624592734   -0.08848142380815735   -0.08652687077400492
-0.8577614727826796   0.0056340139236754905   0.006269550851467479
-0.8577614727826796   0.0056340139236754905   0.006269550851467479
-0.8577614727826796   0.0056340139236754905   0.006269550851467479
-0.8577614727826796   0.0056340139236754905   0.006269550851467479
-0.937756279219245   0.06985661557804584   0.07932100603991868
-0.937756279219245   0.06985661557804584   0.07932100603991868
-0.937756279219245   0.06985661557804584   0.07932100603991868
-0.937756279219245   0.06985661557804584   0.07932100603991868
-0.7863377433502878   -0.042826611050092944   -0.07450852609266859
-0.7863377433502878   -0.042826611050092944   -0.07450852609266859
-0.7863377433502878   -0.042826611050092944   -0.07450852609266859
-0.7863377433502878   -0.042826611050092944   -0.07450852609266859
-0.7107428960888138   0.13973223257950315   0.06409901013431615
-0.7107428960888138   0.13973223257950315   0.06409901013431615
-0.7107428960888138   0.13973223257950315   0.06409901013431615
-0.7107428960888138   0.13973223257950315   0.06409901013431615
-0.9378606555437522   -0.046952013121913216   -0.10014511343396519
-0.9378606555437522   -0.046952013121913216   -0.10014511343396519
-0.9378606555437522   -0.046952013121913216   -0.10014511343396519
-0.9378606555437522   -0.046952013121913216   -0.10014511343396519
-0.8068947538432667   0.03517418675843492   0.030010078720462137
-0.8068947538432667   0.03517418675843492   0.030010078720462137
-0.8068947538432667   0.03517418675843492   0.030010078720462137
-0.8068947538432667   0.03517418675843492   0.030010078720462137
-0.7934780076396579   -0.05985996605881433   0.04836335385085671
-0.7934780076396579   -0.05985996605881433   0.04836335385085671
-0.7934780076396579   -0.05985996605881433   0.04836335385085671
-0.7934780076396579   -0.05985996605881433   0.04836335385085671
-0.5816989117240877   -0.07901585139524994   -0.015071359190386558
-0.5816989117240877   -0.07901585139524994   -0.015071359190386558
-0.5816989117240877   -0.07901585139524994   -0.015071359190386558
-0.5816989117240877   -0.07901585139524994   -0.015071359190386558
-0.5382108661938133   0.04015045730494235   0.044907218538098516
-0.5382108661938133   0.04015045730494235   0.044907218538098516
-0.5382108661938133   0.04015045730494235   0.044907218538098516
-0.5382108661938133   0.04015045730494235   0.044907218538098516
-0.8051180607505326   -0.08449859157153691   -0.04353033751104663
-0.8051180607505326   -0.08449859157153691   -0.04353033751104663
-0.8051180607505326   -0.08449859157153691   -0.04353033751104663
-0.8051180607505326   -0.08449859157153691   -0.04353033751104663
-0.6777287561015999   -0.042209114010616486   -0.018203992351630834
-0.6777287561015999   -0.042209114010616486   -0.018203992351630834
-0.6777287561015999   -0.042209114010616486   -0.018203992351630834
-0.6777287561015999   -0.042209114010616486   -0.018203992351630834
-0.772783065236719   -0.007513513761633367   0.041159562248094715
-0.772783065236719   -0.007513513761633367   0.041159562248094715
-0.772783065236719   -0.007513513761633367   0.041159562248094715
-0.772783065236719   -0.007513513761633367   0.041159562248094715
-0.5669227045190826   -0.033211463316415474   -0.025290052466889583
-0.5669227045190826   -0.033211463316415474   -0.025290052466889583
-0.5669227045190826   -0.033211463316415474   -0.025290052466889583
-0.5669227045190826   -0.033211463316415474   -0.025290052466889583
-0.5222393888275004   0.0867100870679185   0.03592516246664149
-0.5222393888275004   0.0867100870679185   0.03592516246664149
-0.5222393888275004   0.0867100870679185   0.03592516246664149
-0.5222393888275004   0.0867100870679185   0.03592516246664149
-0.781234040218488   -0.039707876523639496   -0.052108744960114674
-0.781234040218488   -0.039707876523639496   -0.052108744960114674
-0.781234040218488   -0.039707876523639496   -0.052108744960114674
-0.781234040218488   -0.039707876523639496   -0.052108744960114674
-0.654659812271414   0.002710656288044039   0.0019154334135072296
-0.654659812271414   0.002710656288044039   0.0019154334135072296
-0.654659812271414   0.002710656288044039   0.0019154334135072296
-0.654659812271414   0.002710656288044039   0.0019154334135072296
-0.7470024412529646   0.04203393229855576   0.03730744104529194
-0.7470024412529646   0.04203393229855576   0.03730744104529194
-0.7470024412529646   0.04203393229855576   0.03730744104529194
-0.7470024412529646   0.04203393229855576   0.03730744104529194
-0.5522880766535255   0.009151189385217556   -0.036759378980791686
-0.5522880766535255   0.009151189385217556   -0.036759378980791686
-0.5522880766535255   0.009151189385217556   -0.036759378980791686
-0.5522880766535255   0.009151189385217556   -0.036759378980791686
-0.5063197802001537   0.1372232441364556   0.02737029078127025
-0.5063197802001537   0.1372232441364556   0.02737029078127025
-0.5063197802001537   0.1372232441364556   0.02737029078127025
-0.5063197802001537   0.1372232441364556   0.02737029078127025
-0.7614989587793819   0.009188646857879845   -0.059137717596893596
-0.7614989587793819   0.009188646857879845   -0.059137717596893596
-0.7614989587793819   0.009188646857879845   -0.059137717596893596
-0.7614989587793819   0.009188646857879845   -0.059137717596893596
-0.6379689489263973   0.046716776984448094   0.021584070272878828
-0.6379689489263973   0.046716776984448094   0.021584070272878828
-0.6379689489263973   0.046716776984448094   0.021584070272878828
-0.6379689489263973   0.046716776984448094   0.021584070272878828
-0.5810284371582453   -0.09920704220054954   0.008472204444113765
-0.5810284371582453   -0.09920704220054954   0.008472204444113765
-0.5810284371582453   -0.09920704220054954   0.008472204444113765
-0.5810284371582453   -0.09920704220054954   0.008472204444113765
-0.3445109354060447   -0.04156772419832441   0.021371530967299095
-0.3445109354060447   -0.04156772419832441   0.021371530967299095
-0.3445109354060447   -0.04156772419832441   0.021371530967299095
-0.3445109354060447   -0.04156772419832441   0.021371530967299095
-0.3326015750741881   -0.0007608417377840543   0.0027656740109407614
-0.3326015750741881   -0.0007608417377840543   0.0027656740109407614
-0.3326015750741881   -0.0007608417377840543   0.0027656740109407614
-0.3326015750741881   -0.0007608417377840543   0.0027656740109407614
-0.5652914040996394   -0.0452986052497026   -0.005046408436386655
-0.5652914040996394   -0.0452986052497026   -0.005046408436386655
-0.5652914040996394   -0.0452986052497026   -0.005046408436386655
-0.5652914040996394   -0.0452986052497026   -0.005046408436386655
-0.4565814414487384   -0.044526787282889585   -0.013249103305996171
-0.4565814414487384   -0.044526787282889585   -0.013249103305996171
-0.4565814414487384   -0.044526787282889585   -0.013249103305996171
-0.4565814414487384   -0.044526787282889585   -0.013249103305996171
-0.564625623376739   -0.047601673512333895   0.0005855634407424988
-0.564625623376739   -0.047601673512333895   0.0005855634407424988
-0.564625623376739   -0.047601673512333895   0.0005855634407424988
-0.564625623376739   -0.047601673512333895   0.0005855634407424988
-0.32966487703108516   0.005144705290849941   0.011543617197821664
-0.32966487703108516   0.005144705290849941   0.011543617197821664
-0.32966487703108516   0.005144705290849941   0.011543617197821664
-0.32966487703108516   0.005144705290849941   0.011543617197821664
-0.31526058419322034   0.051302324447962594   -0.004566588872523841
-0.31526058419322034   0.051302324447962594   -0.004566588872523841
-0.31526058419322034   0.051302324447962594   -0.004566588872523841
-0.31526058419322034   0.051302324447962594   -0.004566588872523841
-0.5492916888192428   0.0020794218662318342   -0.014705672290392165
-0.5492916888192428   0.0020794218662318342   -0.014705672290392165
-0.5492916888192428   0.0020794218662318342   -0.014705672290392165
-0.5492916888192428   0.0020794218662318342   -0.014705672290392165
-0.43829392530978806   0.002292705104361026   0.006256760178048073
-0.43829392530978806   0.002292705104361026   0.006256760178048073
-0.43829392530978806   0.002292705104361026   0.006256760178048073
-0.43829392530978806   0.002292705104361026   0.006256760178048073
-0.547391221634035   0.004303943195561169   -0.0074278576936856675
-0.547391221634035   0.004303943195561169   -0.0074278576936856675
-0.547391221634035   0.004303943195561169   -0.0074278576936856675
-0.547391221634035   0.004303943195561169   -0.0074278576936856675
-0.3139035511680049   0.05233530332905133   0.0011855973724674562
-0.3139035511680049   0.05233530332905133   0.0011855973724674562
-0.3139035511680049   0.05233530332905133   0.0011855973724674562
-0.3139035511680049   0.05233530332905133   0.0011855973724674562
-0.29888260315758675   0.10384042408019353   -0.012937589514194166
-0.29888260315758675   0.10384042408019353   -0.012937589514194166
-0.29888260315758675   0.10384042408019353   -0.012937589514194166
-0.29888260315758675   0.10384042408019353   -0.012937589514194166
-0.5342783516169693   0.04982362473680893   -0.02502294690316218
-0.5342783516169693   0.04982362473680893   -0.02502294690316218
-0.5342783516169693   0.04982362473680893   -0.02502294690316218
-0.5342783516169693   0.04982362473680893   -0.02502294690316218
-0.42099158175795787   0.049279983851706594   0.024978185016648356
-0.42099158175795787   0.049279983851706594   0.024978185016648356
-0.42099158175795787   0.049279983851706594   0.024978185016648356
-0.42099158175795787   0.049279983851706594   0.024978185016648356
-0.37352906563577326   -0.1333493238548792   -0.0319375205247953
-0.37352906563577326   -0.1333493238548792   -0.0319375205247953
-0.37352906563577326   -0.1333493238548792   -0.0319375205247953
-0.37352906563577326   -0.1333493238548792   -0.0319375205247953
-0.11382320877068611   -0.0018030657287885273   0.05604753496954354
-0.11382320877068611   -0.0018030657287885273   0.05604753496954354
-0.11382320877068611   -0.0018030657287885273   0.05604753496954354
-0.11382320877068611   -0.0018030657287885273   0.05604753496954354
-0.12961974486840888   -0.03940001278936623   -0.041035763946441636
-0.12961974486840888   -0.03940001278936623   -0.041035763946441636
-0.12961974486840888   -0.03940001278936623   -0.041035763946441636
-0.12961974486840888   -0.03940001278936623   -0.041035763946441636
-0.3276128658794108   -0.005096926221041784   0.03204530446808239
-0.3276128658794108   -0.005096926221041784   0.03204530446808239
-0.3276128658794108   -0.005096926221041784   0.03204530446808239
-0.3276128658794108   -0.005096926221041784   0.03204530446808239
-0.236122679242137   -0.04295003651370575   -0.009559322352129878
-0.236122679242137   -0.04295003651370575   -0.009559322352129878
-0.236122679242137   -0.04295003651370575   -0.009559322352129878
-0.236122679242137   -0.04295003651370575   -0.009559322352129878
-0.35807055946253763   -0.08495920071051404   -0.04038088895808262
-0.35807055946253763   -0.08495920071051404   -0.04038088895808262
-0.35807055946253763   -0.08495920071051404   -0.04038088895808262
-0.35807055946253763   -0.08495920071051404   -0.04038088895808262
-0.0951244635081143   0.04449984947727839   0.04754078058838671
-0.0951244635081143   0.04449984947727839   0.04754078058838671
-0.0951244635081143   0.04449984947727839   0.04754078058838671
-0.0951244635081143   0.04449984947727839   0.04754078058838671
-0.10429533106073186   0.009851031333509015   -0.04619393901465134
-0.10429533106073186   0.009851031333509015   -0.04619393901465134
-0.10429533106073186   0.009851031333509015   -0.04619393901465134
-0.10429533106073186   0.009851031333509015   -0.04619393901465134
-0.3128450393090045   0.03744568026037541   0.02136777973614289
-0.3128450393090045   0.03744568026037541   0.02136777973614289
-0.3128450393090045   0.03744568026037541   0.02136777973614289
-0.3128450393090045   0.03744568026037541   0.02136777973614289
-0.2166838619001068   0.0006441035929609304   0.010314927136507163
-0.2166838619001068   0.0006441035929609304   0.010314927136507163
-0.2166838619001068   0.0006441035929609304   0.010314927136507163
-0.2166838619001068   0.0006441035929609304   0.010314927136507163
-0.3423364426620441   -0.03853926211463337   -0.05010429465405101
-0.3423364426620441   -0.03853926211463337   -0.05010429465405101
-0.3423364426620441   -0.03853926211463337   -0.05010429465405101
-0.3423364426620441   -0.03853926211463337   -0.05010429465405101
-0.07104574791117227   0.08959415350503765   0.04031085456162191
-0.07104574791117227   0.08959415350503765   0.04031085456162191
-0.07104574791117227   0.08959415350503765   0.04031085456162191
-0.07104574791117227   0.08959415350503765   0.04031085456162191
-0.08287110109426374   0.0648687942675523   -0.05174045293620345
-0.08287110109426374   0.0648687942675523   -0.05174045293620345
-0.08287110109426374   0.0648687942675523   -0.05174045293620345
-0.08287110109426374   0.0648687942675523   -0.05174045293620345
-0.29772716423507783   0.0856051792377512   0.011074849940792844
-0.29772716423507783   0.0856051792377512   0.011074849940792844
-0.29772716423507783   0.0856051792377512   0.011074849940792844
-0.29772716423507783   0.0856051792377512   0.011074849940792844
-0.19654557232934514   0.04611440801928015   0.03020136956965942
-0.19654557232934514   0.04611440801928015   0.03020136956965942
-0.19654557232934514   0.04611440801928015   0.03020136956965942
-0.19654557232934514   0.04611440801928015   0.03020136956965942
-0.16723171312330348   -0.14343324790232617   -0.06936480462001332
-0.16723171312330348   -0.14343324790232617   -0.06936480462001332
-0.16723171312330348   -0.14343324790232617   -0.06936480462001332
-0.16723171312330348   -0.14343324790232617   -0.06936480462001332
0.060983516249404304   0.04267729476162077   0.08537347347588378
0.060983516249404304   0.04267729476162077   0.08537347347588378
0.060983516249404304   0.04267729476162077   0.08537347347588378
0.060983516249404304   0.04267729476162077   0.08537347347588378
0.06149521129364037   -0.07037559444480768   -0.09182847745355092
0.06149521129364037   -0.07037559444480768   -0.09182847745355092
0.06149521129364037   -0.07037559444480768   -0.09182847745355092
0.06149521129364037   -0.07037559444480768   -0.09182847745355092
-0.09071680280699886   0.04420792021933634   0.06987101335190596
-0.09071680280699886   0.04420792021933634   0.06987101335190596
-0.09071680280699886   0.04420792021933634   0.06987101335190596
-0.09071680280699886   0.04420792021933634   0.06987101335190596
-0.03587810417921648   -0.030359616784585274   -0.016301738148568647
-0.03587810417921648   -0.030359616784585274   -0.016301738148568647
-0.03587810417921648   -0.030359616784585274   -0.016301738148568647
-0.03587810417921648   -0.030359616784585274   -0.016301738148568647
-0.15159566065750602   -0.11057595373382122   -0.07973940194747221
-0.15159566065750602   -0.11057595373382122   -0.07973940194747221
-0.15159566065750602   -0.11057595373382122   -0.07973940194747221
-0.15159566065750602   -0.11057595373382122   -0.07973940194747221
0.12669200241274275   0.0887262127769451   0.07505367092020819
0.12669200241274275   0.0887262127769451   0.07505367092020819
0.12669200241274275   0.0887262127769451   0.07505367092020819
0.12669200241274275   0.0887262127769451   0.07505367092020819
0.10992776331813252   -0.042160197875731824   -0.10906063703375658
0.10992776331813252   -0.042160197875731824   -0.10906063703375658
0.10992776331813252   -0.042160197875731824   -0.10906063703375658
0.10992776331813252   -0.042160197875731824   -0.10906063703375658
-0.0728856970430498   0.06468058201777327   0.05602468038949859
-0.0728856970430498   0.06468058201777327   0.05602468038949859
-0.0728856970430498   0.06468058201777327   0.05602468038949859
-0.0728856970430498   0.06468058201777327   0.05602468038949859
0.004002013879375997   -0.0013425235154325339   0.005249984000451432
0.004002013879375997   -0.0013425235154325339   0.005249984000451432
0.004002013879375997   -0.0013425235154325339   0.005249984000451432
0.004002013879375997   -0.0013425235154325339   0.005249984000451432
-0.1329390591115227   -0.0873614537849424   -0.09220009415015418
-0.1329390591115227   -0.0873614537849424   -0.09220009415015418
-0.1329390591115227   -0.0873614537849424   -0.09220009415015418
-0.1329390591115227   -0.0873614537849424   -0.09220009415015418
0.1743007982657882   0.11420151080616596   0.05644282902262403
0.1743007982657882   0.11420151080616596   0.05644282902262403
0.1743007982657882   0.11420151080616596   0.05644282902262403
0.1743007982657882   0.11420151080616596   0.05644282902262403
0.17774669309160046   0.013096047797473837   -0.11677136527968031
0.17774669309160046   0.013096047797473837   -0.11677136527968031
0.17774669309160046   0.013096047797473837   -0.11677136527968031
0.17774669309160046   0.013096047797473837   -0.11677136527968031
-0.05622318564444133   0.10084281855541703   0.04552510002504397
-0.05622318564444133   0.10084281855541703   0.04552510002504397
-0.05622318564444133   0.10084281855541703   0.04552510002504397
-0.05622318564444133   0.10084281855541703   0.04552510002504397
0.0398420575733839   0.029169093187411958   0.02629572726234936
0.0398420575733839   0.029169093187411958   0.02629572726234936
0.0398420575733839   0.029169093187411958   0.02629572726234936
0.0398420575733839   0.029169093187411958   0.02629572726234936
-0.35110607706324953   0.019698737223448712   0.09752484289959293
-0.35110607706324953   0.019698737223448712   0.09752484289959293
-0.35110607706324953   0.019698737223448712   0.09752484289959293
-0.35110607706324953   0.019698737223448712   0.09752484289959293
-0.41557503905923304   -0.12722954145560877   -0.05756183622763401
-0.41557503905923304   -0.12722954145560877   -0.05756183622763401
-0.41557503905923304   -0.12722954145560877   -0.05756183622763401
-0.41557503905923304   -0.12722954145560877   -0.05756183622763401
-0.3317826332702084   0.05919239191735144   0.07987494468279513
-0.3317826332702084   0.05919239191735144   0.07987494468279513
-0.3317826332702084   0.05919239191735144   0.07987494468279513
-0.3317826332702084   0.05919239191735144   0.07987494468279513
-0.34089839585562143   -0.08391218647575543   -0.07413717187295117
-0.34089839585562143   -0.08391218647575543   -0.07413717187295117
-0.34089839585562143   -0.08391218647575543   -0.07413717187295117
-0.34089839585562143   -0.08391218647575543   -0.07413717187295117
-0.3506852607971   -0.02698462965869801   -0.02659261972587286
-0.3506852607971   -0.02698462965869801   -0.02659261972587286
-0.3506852607971   -0.02698462965869801   -0.02659261972587286
-0.3506852607971   -0.02698462965869801   -0.02659261972587286
-0.2766366835081112   0.07241536134248266   0.09084384204635401
-0.2766366835081112   0.07241536134248266   0.09084384204635401
-0.2766366835081112   0.07241536134248266   0.09084384204635401
-0.2766366835081112   0.07241536134248266   0.09084384204635401
-0.3920297526846488   -0.0931205629678284   -0.0690476975042272
-0.3920297526846488   -0.0931205629678284   -0.0690476975042272
-0.3920297526846488   -0.0931205629678284   -0.0690476975042272
-0.3920297526846488   -0.0931205629678284   -0.0690476975042272
-0.30584305093625436   0.08162108155359721   0.06723524451177938
-0.30584305093625436   0.08162108155359721   0.06723524451177938
-0.30584305093625436   0.08162108155359721   0.06723524451177938
-0.30584305093625436   0.08162108155359721   0.06723524451177938
-0.28547650872273644   -0.058564855144727576   -0.092381199939392
-0.28547650872273644   -0.058564855144727576   -0.092381199939392
-0.28547650872273644   -0.058564855144727576   -0.092381199939392
-0.28547650872273644   -0.058564855144727576   -0.092381199939392
-0.30979570888688873   0.0016840041937906808   -0.00545471529380465
-0.30979570888688873   0.0016840041937906808   -0.00545471529380465
-0.30979570888688873   0.0016840041937906808   -0.00545471529380465
-0.30979570888688873   0.0016840041937906808   -0.00545471529380465
-0.2208303132461067   0.09969463720756269   0.0725902850914591
-0.2208303132461067   0.09969463720756269   0.0725902850914591
-0.2208303132461067   0.09969463720756269   0.0725902850914591
-0.2208303132461067   0.09969463720756269   0.0725902850914591
-0.3666993429642649   -0.07284850735006351   -0.08257662672460468
-0.3666993429642649   -0.07284850735006351   -0.08257662672460468
-0.3666993429642649   -0.07284850735006351   -0.08257662672460468
-0.3666993429642649   -0.07284850735006351   -0.08257662672460468
-0.28209879847331754   0.11584406041408499   0.0580733971755603
-0.28209879847331754   0.11584406041408499   0.0580733971755603
-0.28209879847331754   0.11584406041408499   0.0580733971755603
-0.28209879847331754   0.11584406041408499   0.0580733971755603
-0.21150496930421483   -0.01037977949534398   -0.10407921342388533
-0.21150496930421483   -0.01037977949534398   -0.10407921342388533
-0.21150496930421483   -0.01037977949534398   -0.10407921342388533
-0.21150496930421483   -0.01037977949534398   -0.10407921342388533
-0.2605990651424369   0.03161431168026936   0.01719250115989049
-0.2605990651424369   0.03161431168026936   0.01719250115989049
-0.2605990651424369   0.03161431168026936   0.01719250115989049
-0.2605990651424369   0.03161431168026936   0.01719250115989049
-0.3721488495414779   -0.02301971094962773   0.05535928085514539
-0.3721488495414779   -0.02301971094962773   0.05535928085514539
-0.3721488495414779   -0.02301971094962773   0.05535928085514539
-0.3721488495414779   -0.02301971094962773   0.05535928085514539
-0.46074631226125096   -0.10377172806678733   -0.022492074058043626
-0.46074631226125096   -0.10377172806678733   -0.022492074058043626
-0.46074631226125096   -0.10377172806678733   -0.022492074058043626
-0.46074631226125096   -0.10377172806678733   -0.022492074058043626
-0.4105871411389676   0.010525513431371827   0.037059267891962594
-0.4105871411389676   0.010525513431371827   0.037059267891962594
-0.4105871411389676   0.010525513431371827   0.037059267891962594
-0.4105871411389676   0.010525513431371827   0.037059267891962594
-0.3762577681611129   -0.04921322008124029   -0.03409511777313551
-0.3762577681611129   -0.04921322008124029   -0.03409511777313551
-0.3762577681611129   -0.04921322008124029   -0.03409511777313551
-0.3762577681611129   -0.04921322008124029   -0.03409511777313551
-0.40520370812038015   -0.03820992662372336   -0.018760148869312418
-0.40520370812038015   -0.03820992662372336   -0.018760148869312418
-0.40520370812038015   -0.03820992662372336   -0.018760148869312418
-0.40520370812038015   -0.03820992662372336   -0.018760148869312418
-0.3447426877477392   0.0259466361447747   0.04832042806771792
-0.3447426877477392   0.0259466361447747   0.04832042806771792
-0.3447426877477392   0.0259466361447747   0.04832042806771792
-0.3447426877477392   0.0259466361447747   0.04832042806771792
-0.4389593141487884   -0.061491435391085765   -0.032784648334687395
-0.4389593141487884   -0.061491435391085765   -0.032784648334687395
-0.4389593141487884   -0.061491435391085765   -0.032784648334687395
-0.4389593141487884   -0.061491435391085765   -0.032784648334687395
-0.38741763145937963   0.05513313039778324   0.028279880887890747
-0.38741763145937963   0.05513313039778324   0.028279880887890747
-0.38741763145937963   0.05513313039778324   0.028279880887890747
-0.38741763145937963   0.05513313039778324   0.028279880887890747
-0.3453157825035078   -0.006188784080373877   -0.042318547690508856
-0.3453157825035078   -0.006188784080373877   -0.042318547690508856
-0.3453157825035078   -0.006188784080373877   -0.042318547690508856
-0.3453157825035078   -0.006188784080373877   -0.042318547690508856
-0.37754634844191054   0.003442424740027372   0.0007590266655231152
-0.37754634844191054   0.003442424740027372   0.0007590266655231152
-0.37754634844191054   0.003442424740027372   0.0007590266655231152
-0.37754634844191054   0.003442424740027372   0.0007590266655231152
-0.3122700664716197   0.07320909741288922   0.04351215097566071
-0.3122700664716197   0.07320909741288922   0.04351215097566071
-0.3122700664716197   0.07320909741288922   0.04351215097566071
-0.3122700664716197   0.07320909741288922   0.04351215097566071
-0.41711379048878006   -0.02091519409299475   -0.044152589768340966
-0.41711379048878006   -0.02091519409299475   -0.044152589768340966
-0.41711379048878006   -0.02091519409299475   -0.044152589768340966
-0.41711379048878006   -0.02091519409299475   -0.044152589768340966
-0.3641378969550787   0.10447550683176046   0.019935520448206262
-0.3641378969550787   0.10447550683176046   0.019935520448206262
-0.3641378969550787   0.10447550683176046   0.019935520448206262
-0.3641378969550787   0.10447550683176046   0.019935520448206262
-0.31859169171723256   0.04153198864605198   -0.05007899727597435
-0.31859169171723256   0.04153198864605198   -0.05007899727597435
-0.31859169171723256   0.04153198864605198   -0.05007899727597435
-0.31859169171723256   0.04153198864605198   -0.05007899727597435
-0.35140111543483393   0.04642359314814773   0.020613509553033767
-0.35140111543483393   0.04642359314814773   0.020613509553033767
-0.35140111543483393   0.04642359314814773   0.020613509553033767
-0.35140111543483393   0.04642359314814773   0.020613509553033767
-0.44495623811728446   -0.06282814767918879   0.01551471627418633
-0.44495623811728446   -0.06282814767918879   0.01551471627418633
-0.44495623811728446   -0.06282814767918879   0.01551471627418633
-0.44495623811728446   -0.06282814767918879   0.01551471627418633
-0.5058376096096474   -0.06537297021996674   0.013621306259216445
-0.5058376096096474   -0.06537297021996674   0.013621306259216445
-0.5058376096096474   -0.06537297021996674   0.013621306259216445
-0.5058376096096474   -0.06537297021996674   0.013621306259216445
-0.48724342132064   -0.029637511751892068   -0.004788923726333497
-0.48724342132064   -0.029637511751892068   -0.004788923726333497
-0.48724342132064   -0.029637511751892068   -0.004788923726333497
-0.48724342132064   -0.029637511751892068   -0.004788923726333497
-0.42100737196877275   -0.008938693699583389   0.004422320873892025
-0.42100737196877275   -0.008938693699583389   0.004422320873892025
-0.42100737196877275   -0.008938693699583389   0.004422320873892025
-0.42100737196877275   -0.008938693699583389   0.004422320873892025
-0.4654578855742584   -0.03932986887410784   -0.012434272494835289
-0.4654578855742584   -0.03932986887410784   -0.012434272494835289
-0.4654578855742584   -0.03932986887410784   -0.012434272494835289
-0.4654578855742584   -0.03932986887410784   -0.012434272494835289
-0.4213640697935609   -0.013969857575947889   0.0076699956263082784
-0.4213640697935609   -0.013969857575947889   0.0076699956263082784
-0.4213640697935609   -0.013969857575947889   0.0076699956263082784
-0.4213640697935609   -0.013969857575947889   0.0076699956263082784
-0.483925276895331   -0.021644901274996936   0.003809187923321116
-0.483925276895331   -0.021644901274996936   0.003809187923321116
-0.483925276895331   -0.021644901274996936   0.003809187923321116
-0.483925276895331   -0.021644901274996936   0.003809187923321116
-0.4629127723432316   0.0198639156614199   -0.012162119790493628
-0.4629127723432316   0.0198639156614199   -0.012162119790493628
-0.4629127723432316   0.0198639156614199   -0.012162119790493628
-0.4629127723432316   0.0198639156614199   -0.012162119790493628
-0.3979162395525796   0.03599809763075246   -0.005078126811077985
-0.3979162395525796   0.03599809763075246   -0.005078126811077985
-0.3979162395525796   0.03599809763075246   -0.005078126811077985
-0.3979162395525796   0.03599809763075246   -0.005078126811077985
-0.44004557059389   0.004930910291218768   0.006830950215234364
-0.44004557059389   0.004930910291218768   0.006830950215234364
-0.44004557059389   0.004930910291218768   0.006830950215234364
-0.44004557059389   0.004930910291218768   0.006830950215234364
-0.3971261228625063   0.03535648364138676   -0.0004859293713540061
-0.3971261228625063   0.03535648364138676   -0.0004859293713540061
-0.3971261228625063   0.03535648364138676   -0.0004859293713540061
-0.3971261228625063   0.03535648364138676   -0.0004859293713540061
-0.4611208453845753   0.023087573299508696   -0.006426142635301085
-0.4611208453845753   0.023087573299508696   -0.006426142635301085
-0.4611208453845753   0.023087573299508696   -0.006426142635301085
-0.4611208453845753   0.023087573299508696   -0.006426142635301085
-0.43961648037144657   0.06966226931222247   -0.02049159527158665
-0.43961648037144657   0.06966226931222247   -0.02049159527158665
-0.43961648037144657   0.06966226931222247   -0.02049159527158665
-0.43961648037144657   0.06966226931222247   -0.02049159527158665
-0.3758968130084712   0.08111883538890621   -0.015502388375898249
-0.3758968130084712   0.08111883538890621   -0.015502388375898249
-0.3758968130084712   0.08111883538890621   -0.015502388375898249
-0.3758968130084712   0.08111883538890621   -0.015502388375898249
-0.4158021374820849   0.049271527425716666   0.025195438832208365
-0.4158021374820849   0.049271527425716666   0.025195438832208365
-0.4158021374820849   0.049271527425716666   0.025195438832208365
-0.4158021374820849   0.049271527425716666   0.025195438832208365
-0.520447159819549   -0.0994143716121078   -0.025385043398159213
-0.520447159819549   -0.0994143716121078   -0.025385043398159213
-0.520447159819549   -0.0994143716121078   -0.025385043398159213
-0.520447159819549   -0.0994143716121078   -0.025385043398159213
-0.5546901373706531   -0.027771038438905576   0.048149421729131385
-0.5546901373706531   -0.027771038438905576   0.048149421729131385
-0.5546901373706531   -0.027771038438905576   0.048149421729131385
-0.5546901373706531   -0.027771038438905576   0.048149421729131385
-0.5635300189358936   -0.0681208963640591   -0.04715739319055208
-0.5635300189358936   -0.0681208963640591   -0.04715739319055208
-0.5635300189358936   -0.0681208963640591   -0.04715739319055208
-0.5635300189358936   -0.0681208963640591   -0.04715739319055208
-0.4662758412196669   0.02983600920452817   0.04057545582211153
-0.4662758412196669   0.02983600920452817   0.04057545582211153
-0.4662758412196669   0.02983600920452817   0.04057545582211153
-0.4662758412196669   0.02983600920452817   0.04057545582211153
-0.524062274665645   -0.03868117394897   -0.007808677797371669
-0.524062274665645   -0.03868117394897   -0.007808677797371669
-0.524062274665645   -0.03868117394897   -0.007808677797371669
-0.524062274665645   -0.03868117394897   -0.007808677797371669
-0.4974911942480232   -0.0521789273428416   -0.03348637277230426
-0.4974911942480232   -0.0521789273428416   -0.03348637277230426
-0.4974911942480232   -0.0521789273428416   -0.03348637277230426
-0.4974911942480232   -0.0521789273428416   -0.03348637277230426
-0.5292090998662113   0.016999606224620614   0.039326699569179537
-0.5292090998662113   0.016999606224620614   0.039326699569179537
-0.5292090998662113   0.016999606224620614   0.039326699569179537
-0.5292090998662113   0.016999606224620614   0.039326699569179537
-0.5316862746576347   -0.02117753444163943   -0.052907058425300954
-0.5316862746576347   -0.02117753444163943   -0.052907058425300954
-0.5316862746576347   -0.02117753444163943   -0.052907058425300954
-0.5316862746576347   -0.02117753444163943   -0.052907058425300954
-0.4443540968577417   0.07036897426044404   0.03012619903792716
-0.4443540968577417   0.07036897426044404   0.03012619903792716
-0.4443540968577417   0.07036897426044404   0.03012619903792716
-0.4443540968577417   0.07036897426044404   0.03012619903792716
-0.4952183837048434   0.0039316594550200396   0.012072685949980625
-0.4952183837048434   0.0039316594550200396   0.012072685949980625
-0.4952183837048434   0.0039316594550200396   0.012072685949980625
-0.4952183837048434   0.0039316594550200396   0.012072685949980625
-0.4746033741540148   -0.007774821077046051   -0.042976392105954
-0.4746033741540148   -0.007774821077046051   -0.042976392105954
-0.4746033741540148   -0.007774821077046051   -0.042976392105954
-0.4746033741540148   -0.007774821077046051   -0.042976392105954
-0.4982983617141293   0.060104896543072855   0.032750075307520166
-0.4982983617141293   0.060104896543072855   0.032750075307520166
-0.4982983617141293   0.060104896543072855   0.032750075307520166
-0.4982983617141293   0.060104896543072855   0.032750075307520166
-0.5038142374823593   0.030562978947310304   -0.05804907826416097
-0.5038142374823593   0.030562978947310304   -0.05804907826416097
-0.5038142374823593   0.030562978947310304   -0.05804907826416097
-0.5038142374823593   0.030562978947310304   -0.05804907826416097
-0.4223715341784356   0.11557433338305527   0.019821071622635397
-0.4223715341784356   0.11557433338305527   0.019821071622635397
-0.4223715341784356   0.11557433338305527   0.019821071622635397
-0.4223715341784356   0.11557433338305527   0.019821071622635397
-0.47068071582991067   0.046247668449923146   0.03109296548897232
-0.47068071582991067   0.046247668449923146   0.03109296548897232
-0.47068071582991067   0.046247668449923146   0.03109296548897232
-0.47068071582991067   0.046247668449923146   0.03109296548897232
-0.5951346026191074   -0.11832484358139059   -0.06351909937066115
-0.5951346026191074   -0.11832484358139059   -0.06351909937066115
-0.5951346026191074   -0.11832484358139059   -0.06351909937066115
-0.5951346026191074   -0.11832484358139059   -0.06351909937066115
-0.6569184977546882   0.009427831191286373   0.08650608003950952
-0.6569184977546882   0.009427831191286373   0.08650608003950952
-0.6569184977546882   0.009427831191286373   0.08650608003950952
-0.6569184977546882   0.009427831191286373   0.08650608003950952
-0.647885717126805   -0.0981116997347318   -0.08455817209862858
-0.647885717126805   -0.0981116997347318   -0.08455817209862858
-0.647885717126805   -0.0981116997347318   -0.08455817209862858
-0.647885717126805   -0.0981116997347318   -0.08455817209862858
-0.5100531729661705   0.07456243166349177   0.07754350863050738
-0.5100531729661705   0.07456243166349177   0.07754350863050738
-0.5100531729661705   0.07456243166349177   0.07754350863050738
-0.5100531729661705   0.07456243166349177   0.07754350863050738
-0.578381777858307   -0.0253181945505961   -0.003965704104298199
-0.578381777858307   -0.0253181945505961   -0.003965704104298199
-0.578381777858307   -0.0253181945505961   -0.003965704104298199
-0.578381777858307   -0.0253181945505961   -0.003965704104298199
-0.5710707396097111   -0.08036120699693627   -0.07262068592677558
-0.5710707396097111   -0.08036120699693627   -0.07262068592677558
-0.5710707396097111   -0.08036120699693627   -0.07262068592677558
-0.5710707396097111   -0.08036120699693627   -0.07262068592677558
-0.5835846464508028   0.060095442958170625   0.07874003858847256
-0.5835846464508028   0.060095442958170625   0.07874003858847256
-0.5835846464508028   0.060095442958170625   0.07874003858847256
-0.5835846464508028   0.060095442958170625   0.07874003858847256
-0.5929756363632531   -0.07069516854400325   -0.10076413309918064
-0.5929756363632531   -0.07069516854400325   -0.10076413309918064
-0.5929756363632531   -0.07069516854400325   -0.10076413309918064
-0.5929756363632531   -0.07069516854400325   -0.10076413309918064
-0.48540228994560597   0.0938726586540233   0.0634626720391804
-0.48540228994560597   0.0938726586540233   0.0634626720391804
-0.48540228994560597   0.0938726586540233   0.0634626720391804
-0.48540228994560597   0.0938726586540233   0.0634626720391804
-0.5411242004728   0.003320970169828588   0.015123951575304412
-0.5411242004728   0.003320970169828588   0.015123951575304412
-0.5411242004728   0.003320970169828588   0.015123951575304412
-0.5411242004728   0.003320970169828588   0.015123951575304412
-0.5452287404293475   -0.057793622568739725   -0.08400329915676863
-0.5452287404293475   -0.057793622568739725   -0.08400329915676863
-0.5452287404293475   -0.057793622568739725   -0.08400329915676863
-0.5452287404293475   -0.057793622568739725   -0.08400329915676863
-0.5297091531082873   0.08441114544998338   0.06046196918166205
-0.5297091531082873   0.08441114544998338   0.06046196918166205
-0.5297091531082873   0.08441114544998338   0.06046196918166205
-0.5297091531082873   0.08441114544998338   0.06046196918166205
-0.5209695367054968   -0.023231020508731506   -0.11009774423461247
-0.5209695367054968   -0.023231020508731506   -0.11009774423461247
-0.5209695367054968   -0.023231020508731506   -0.11009774423461247
-0.5209695367054968   -0.023231020508731506   -0.11009774423461247
-0.46331473451255   0.12273799507747382   0.05227342045471621
-0.46331473451255   0.12273799507747382   0.05227342045471621
-0.46331473451255   0.12273799507747382   0.05227342045471621
-0.46331473451255   0.12273799507747382   0.05227342045471621
-0.4903427580074873   0.03196115789518977   0.03720033660164049
-0.4903427580074873   0.03196115789518977   0.03720033660164049
-0.4903427580074873   0.03196115789518977   0.03720033660164049
-0.4903427580074873   0.03196115789518977   0.03720033660164049
0.3598945089106744   0.05826823401978266   0.09445749317941562
0.3598945089106744   0.05826823401978266   0.09445749317941562
0.3598945089106744   0.05826823401978266   0.09445749317941562
0.3598945089106744   0.05826823401978266   0.09445749317941562
-0.009254421750540111   -0.1518867352725613   -0.06245575467326532
-0.009254421750540111   -0.1518867352725613   -0.06245575467326532
-0.009254421750540111   -0.1518867352725613   -0.06245575467326532
-0.009254421750540111   -0.1518867352725613   -0.06245575467326532
0.08025311630507427   0.02974530308150394   0.07299876375264999
0.08025311630507427   0.02974530308150394   0.07299876375264999
0.08025311630507427   0.02974530308150394   0.07299876375264999
0.08025311630507427   0.02974530308150394   0.07299876375264999
0.37572637342592496   -0.05348939553426664   -0.07813199435466973
0.37572637342592496   -0.05348939553426664   -0.07813199435466973
0.37572637342592496   -0.05348939553426664   -0.07813199435466973
0.37572637342592496   -0.05348939553426664   -0.07813199435466973
0.18359811832516837   -0.029616579637342717   -0.04494115942973943
0.18359811832516837   -0.029616579637342717   -0.04494115942973943
0.18359811832516837   -0.029616579637342717   -0.04494115942973943
0.18359811832516837   -0.029616579637342717   -0.04494115942973943
0.43992350153303195   0.10412706458823637   0.08523718605835447
0.43992350153303195   0.10412706458823637   0.08523718605835447
0.43992350153303195   0.10412706458823637   0.08523718605835447
0.43992350153303195   0.10412706458823637   0.08523718605835447
0.019990155774586814   -0.12393698946437061   -0.07463374635391276
0.019990155774586814   -0.12393698946437061   -0.07463374635391276
0.019990155774586814   -0.12393698946437061   -0.07463374635391276
0.019990155774586814   -0.12393698946437061   -0.07463374635391276
0.11299709166673028   0.05179423095100733   0.06094063014981576
0.11299709166673028   0.05179423095100733   0.06094063014981576
0.11299709166673028   0.05179423095100733   0.06094063014981576
0.11299709166673028   0.05179423095100733   0.06094063014981576
0.4382630190798042   -0.028577520510684143   -0.09778809009477209
0.4382630190798042   -0.028577520510684143   -0.09778809009477209
0.4382630190798042   -0.028577520510684143   -0.09778809009477209
0.4382630190798042   -0.028577520510684143   -0.09778809009477209
0.2400137533690775   -0.0021088398588882604   -0.02107498282736117
0.2400137533690775   -0.0021088398588882604   -0.02107498282736117
0.2400137533690775   -0.0021088398588882604   -0.02107498282736117
0.2400137533690775   -0.0021088398588882604   -0.02107498282736117
0.5031802743686979   0.13107239552436553   0.06714827031463913
0.5031802743686979   0.13107239552436553   0.06714827031463913
0.5031802743686979   0.13107239552436553   0.06714827031463913
0.5031802743686979   0.13107239552436553   0.06714827031463913
0.051934705006732265   -0.10400081645514665   -0.08857625574401273
0.051934705006732265   -0.10400081645514665   -0.08857625574401273
0.051934705006732265   -0.10400081645514665   -0.08857625574401273
0.051934705006732265   -0.10400081645514665   -0.08857625574401273
0.1447817669454197   0.09224090602586353   0.05273747793251765
0.1447817669454197   0.09224090602586353   0.05273747793251765
0.1447817669454197   0.09224090602586353   0.05273747793251765
0.1447817669454197   0.09224090602586353   0.05273747793251765
0.5212593863392768   0.027191486355656554   -0.107858202939755
0.5212593863392768   0.027191486355656554   -0.107858202939755
0.5212593863392768   0.027191486355656554   -0.107858202939755
0.5212593863392768   0.027191486355656554   -0.107858202939755
0.2874557191177964   0.02869374729525813   0.001512691285224117
0.2874557191177964   0.02869374729525813   0.001512691285224117
0.2874557191177964   0.02869374729525813   0.001512691285224117
0.2874557191177964   0.02869374729525813   0.001512691285224117
0.04953648167414078   0.01558804247284608   0.06402398470473172
0.04953648167414078   0.01558804247284608   0.06402398470473172
0.04953648167414078   0.01558804247284608   0.06402398470473172
0.04953648167414078   0.01558804247284608   0.06402398470473172
-0.34343272880861014   -0.12891246538411832   -0.028643459879721795
-0.34343272880861014   -0.12891246538411832   -0.028643459879721795
-0.34343272880861014   -0.12891246538411832   -0.028643459879721795
-0.34343272880861014   -0.12891246538411832   -0.028643459879721795
-0.28688797367652746   -0.018659843515892532   0.029301970569079253
-0.28688797367652746   -0.018659843515892532   0.029301970569079253
-0.28688797367652746   -0.018659843515892532   0.029301970569079253
-0.28688797367652746   -0.018659843515892532   0.029301970569079253
0.05214118019871623   -0.015013605390612693   -0.022802008307023558
0.05214118019871623   -0.015013605390612693   -0.022802008307023558
0.05214118019871623   -0.015013605390612693   -0.022802008307023558
0.05214118019871623   -0.015013605390612693   -0.022802008307023558
-0.1349810796884142   -0.0334475813639751   -0.021627675914191853
-0.1349810796884142   -0.0334475813639751   -0.021627675914191853
-0.1349810796884142   -0.0334475813639751   -0.021627675914191853
-0.1349810796884142   -0.0334475813639751   -0.021627675914191853
0.08323803735690492   0.06086558249637523   0.05680308959692427
0.08323803735690492   0.06086558249637523   0.05680308959692427
0.08323803735690492   0.06086558249637523   0.05680308959692427
0.08323803735690492   0.06086558249637523   0.05680308959692427
-0.3151254349818779   -0.09167963555003325   -0.03886554392353218
-0.3151254349818779   -0.09167963555003325   -0.03886554392353218
-0.3151254349818779   -0.09167963555003325   -0.03886554392353218
-0.3151254349818779   -0.09167963555003325   -0.03886554392353218
-0.2570228184942573   0.02407677691090125   0.020716293256616235
-0.2570228184942573   0.02407677691090125   0.020716293256616235
-0.2570228184942573   0.02407677691090125   0.020716293256616235
-0.2570228184942573   0.02407677691090125   0.020716293256616235
0.08939619819383425   0.02557961142794407   -0.0308492176916011
0.08939619819383425   0.02557961142794407   -0.0308492176916011
0.08939619819383425   0.02557961142794407   -0.0308492176916011
0.08939619819383425   0.02557961142794407   -0.0308492176916011
-0.1033308426400224   0.0042808085024907926   -0.002605037996120666
-0.1033308426400224   0.0042808085024907926   -0.002605037996120666
-0.1033308426400224   0.0042808085024907926   -0.002605037996120666
-0.1033308426400224   0.0042808085024907926   -0.002605037996120666
0.12179763974526477   0.10587094183848458   0.050866659655010873
0.12179763974526477   0.10587094183848458   0.050866659655010873
0.12179763974526477   0.10587094183848458   0.050866659655010873
0.12179763974526477   0.10587094183848458   0.050866659655010873
-0.28667441344161704   -0.053464706895558364   -0.05000019767372328
-0.28667441344161704   -0.053464706895558364   -0.05000019767372328
-0.28667441344161704   -0.053464706895558364   -0.05000019767372328
-0.28667441344161704   -0.053464706895558364   -0.05000019767372328
-0.22698381897893763   0.07237567845765759   0.01253157904375874
-0.22698381897893763   0.07237567845765759   0.01253157904375874
-0.22698381897893763   0.07237567845765759   0.01253157904375874
-0.22698381897893763   0.07237567845765759   0.01253157904375874
0.1222206455679673   0.07157640117654697   -0.03940362410542776
0.1222206455679673   0.07157640117654697   -0.03940362410542776
0.1222206455679673   0.07157640117654697   -0.03940362410542776
0.1222206455679673   0.07157640117654697   -0.03940362410542776
-0.06836149349077163   0.045903655594318284   0.01766312513941606
-0.06836149349077163   0.045903655594318284   0.01766312513941606
-0.06836149349077163   0.045903655594318284   0.01766312513941606
-0.06836149349077163   0.045903655594318284   0.01766312513941606
-0.3122789862682434   -0.02478579109659798   0.02299857853459497
-0.3122789862682434   -0.02478579109659798   0.02299857853459497
-0.3122789862682434   -0.02478579109659798   0.02299857853459497
-0.3122789862682434   -0.02478579109659798   0.02299857853459497
-0.6715814139508169   -0.09142662880132715   0.0059823307844366295
-0.6715814139508169   -0.09142662880132715   0.0059823307844366295
-0.6715814139508169   -0.09142662880132715   0.0059823307844366295
-0.6715814139508169   -0.09142662880132715   0.0059823307844366295
-0.645399902735386   -0.057234349679241694   -0.012663428257786265
-0.645399902735386   -0.057234349679241694   -0.012663428257786265
-0.645399902735386   -0.057234349679241694   -0.012663428257786265
-0.645399902735386   -0.057234349679241694   -0.012663428257786265
-0.28138784181711507   0.02382897979570983   0.014313806554542854
-0.28138784181711507   0.02382897979570983   0.014313806554542854
-0.28138784181711507   0.02382897979570983   0.014313806554542854
-0.28138784181711507   0.02382897979570983   0.014313806554542854
-0.478361217707826   -0.03433500160952428   -0.012569508720522309
-0.478361217707826   -0.03433500160952428   -0.012569508720522309
-0.478361217707826   -0.03433500160952428   -0.012569508720522309
-0.478361217707826   -0.03433500160952428   -0.012569508720522309
-0.2817727161822173   0.021056213489914696   0.015162201034826923
-0.2817727161822173   0.021056213489914696   0.015162201034826923
-0.2817727161822173   0.021056213489914696   0.015162201034826923
-0.2817727161822173   0.021056213489914696   0.015162201034826923
-0.6425664739297671   -0.05201302893292986   -0.0037176049760034996
-0.6425664739297671   -0.05201302893292986   -0.0037176049760034996
-0.6425664739297671   -0.05201302893292986   -0.0037176049760034996
-0.6425664739297671   -0.05201302893292986   -0.0037176049760034996
-0.6140038666715766   -0.010186783735642635   -0.01991490652405639
-0.6140038666715766   -0.010186783735642635   -0.01991490652405639
-0.6140038666715766   -0.010186783735642635   -0.01991490652405639
-0.6140038666715766   -0.010186783735642635   -0.01991490652405639
-0.25181696873494563   0.06557520210684896   0.005247116857230727
-0.25181696873494563   0.06557520210684896   0.005247116857230727
-0.25181696873494563   0.06557520210684896   0.005247116857230727
-0.25181696873494563   0.06557520210684896   0.005247116857230727
-0.4459512080943178   0.007000567417108611   0.006587005000436366
-0.4459512080943178   0.007000567417108611   0.006587005000436366
-0.4459512080943178   0.007000567417108611   0.006587005000436366
-0.4459512080943178   0.007000567417108611   0.006587005000436366
-0.2510765422387632   0.0677387939539414   0.006785657491050395
-0.2510765422387632   0.0677387939539414   0.006785657491050395
-0.2510765422387632   0.0677387939539414   0.006785657491050395
-0.2510765422387632   0.0677387939539414   0.006785657491050395
-0.612790629382149   -0.01039671179713611   -0.013638792015429696
-0.612790629382149   -0.01039671179713611   -0.013638792015429696
-0.612790629382149   -0.01039671179713611   -0.013638792015429696
-0.612790629382149   -0.01039671179713611   -0.013638792015429696
-0.5838768535320072   0.03698368039004235   -0.028198122846681523
-0.5838768535320072   0.03698368039004235   -0.028198122846681523
-0.5838768535320072   0.03698368039004235   -0.028198122846681523
-0.5838768535320072   0.03698368039004235   -0.028198122846681523
-0.22351361409354592   0.10744448196114646   -0.005186200032767312
-0.22351361409354592   0.10744448196114646   -0.005186200032767312
-0.22351361409354592   0.10744448196114646   -0.005186200032767312
-0.22351361409354592   0.10744448196114646   -0.005186200032767312
-0.4152241266781003   0.048219605636138085   0.024492823741588052
-0.4152241266781003   0.048219605636138085   0.024492823741588052
-0.4152241266781003   0.048219605636138085   0.024492823741588052
-0.4152241266781003   0.048219605636138085   0.024492823741588052
-0.6712693584653431   -0.06457797593465431   -0.019306044654860965
-0.6712693584653431   -0.06457797593465431   -0.019306044654860965
-0.6712693584653431   -0.06457797593465431   -0.019306044654860965
-0.6712693584653431   -0.06457797593465431   -0.019306044654860965
-0.996091319970946   -0.0562037686643963   0.03999722778333642
-0.996091319970946   -0.0562037686643963   0.03999722778333642
-0.996091319970946   -0.0562037686643963   0.03999722778333642
-0.996091319970946   -0.0562037686643963   0.03999722778333642
-0.9962155039506582   -0.09498677425615634   -0.05359879875031978
-0.9962155039506582   -0.09498677425615634   -0.05359879875031978
-0.9962155039506582   -0.09498677425615634   -0.05359879875031978
-0.9962155039506582   -0.09498677425615634   -0.05359879875031978
-0.6094824532203758   0.06083501745602732   0.04885445218199576
-0.6094824532203758   0.06083501745602732   0.04885445218199576
-0.6094824532203758   0.06083501745602732   0.04885445218199576
-0.6094824532203758   0.06083501745602732   0.04885445218199576
-0.8136987291232186   -0.034730350194083576   -0.005274285232357838
-0.8136987291232186   -0.034730350194083576   -0.005274285232357838
-0.8136987291232186   -0.034730350194083576   -0.005274285232357838
-0.8136987291232186   -0.034730350194083576   -0.005274285232357838
-0.6404950218751421   -0.018497994015135022   -0.02687537962066796
-0.6404950218751421   -0.018497994015135022   -0.02687537962066796
-0.6404950218751421   -0.018497994015135022   -0.02687537962066796
-0.6404950218751421   -0.018497994015135022   -0.02687537962066796
-0.9631842936147162   -0.013635121103826309   0.03020559977706798
-0.9631842936147162   -0.013635121103826309   0.03020559977706798
-0.9631842936147162   -0.013635121103826309   0.03020559977706798
-0.9631842936147162   -0.013635121103826309   0.03020559977706798
-0.9569238542965222   -0.050097345361740764   -0.05963564163415491
-0.9569238542965222   -0.050097345361740764   -0.05963564163415491
-0.9569238542965222   -0.050097345361740764   -0.05963564163415491
-0.9569238542965222   -0.050097345361740764   -0.05963564163415491
-0.5804408755270173   0.09883595414330415   0.038877311319793266
-0.5804408755270173   0.09883595414330415   0.038877311319793266
-0.5804408755270173   0.09883595414330415   0.038877311319793266
-0.5804408755270173   0.09883595414330415   0.038877311319793266
-0.7748768729715563   0.006931222304886714   0.01445595552389601
-0.7748768729715563   0.006931222304886714   0.01445595552389601
-0.7748768729715563   0.006931222304886714   0.01445595552389601
-0.7748768729715563   0.006931222304886714   0.01445595552389601
-0.6104275135756774   0.023904221794348313   -0.03612414657455437
-0.6104275135756774   0.023904221794348313   -0.03612414657455437
-0.6104275135756774   0.023904221794348313   -0.03612414657455437
-0.6104275135756774   0.023904221794348313   -0.03612414657455437
-0.9246657895701956   0.02710581366488113   0.024451522970856447
-0.9246657895701956   0.02710581366488113   0.024451522970856447
-0.9246657895701956   0.02710581366488113   0.024451522970856447
-0.9246657895701956   0.02710581366488113   0.024451522970856447
-0.9217668744050307   -0.0011061148902559992   -0.06418582951732588
-0.9217668744050307   -0.0011061148902559992   -0.06418582951732588
-0.9217668744050307   -0.0011061148902559992   -0.06418582951732588
-0.9217668744050307   -0.0011061148902559992   -0.06418582951732588
-0.5516997585787369   0.14084358983752712   0.02882744247218537
-0.5516997585787369   0.14084358983752712   0.02882744247218537
-0.5516997585787369   0.14084358983752712   0.02882744247218537
-0.5516997585787369   0.14084358983752712   0.02882744247218537
-0.7457409880448361   0.045819936662105876   0.03214944340048204
-0.7457409880448361   0.045819936662105876   0.03214944340048204
-0.7457409880448361   0.045819936662105876   0.03214944340048204
-0.7457409880448361   0.045819936662105876   0.03214944340048204
-1.0231244654315477   -0.09282419332400074   -0.05854807486006655
-1.0231244654315477   -0.09282419332400074   -0.05854807486006655
-1.0231244654315477   -0.09282419332400074   -0.05854807486006655
-1.0231244654315477   -0.09282419332400074   -0.05854807486006655
-1.3657904428109748   -0.02377023113735277   0.0864499057548486
-1.3657904428109748   -0.02377023113735277   0.0864499057548486
-1.3657904428109748   -0.02377023113735277   0.0864499057548486
-1.3657904428109748   -0.02377023113735277   0.0864499057548486
-1.3464746642015828   -0.12384240854927628   -0.07805920119798193
-1.3464746642015828   -0.12384240854927628   -0.07805920119798193
-1.3464746642015828   -0.12384240854927628   -0.07805920119798193
-1.3464746642015828   -0.12384240854927628   -0.07805920119798193
-0.9289051818351313   0.10274235702314927   0.08522368054800848
-0.9289051818351313   0.10274235702314927   0.08522368054800848
-0.9289051818351313   0.10274235702314927   0.08522368054800848
-0.9289051818351313   0.10274235702314927   0.08522368054800848
-1.115826695047077   -0.019767923968937395   0.009171221922811702
-1.115826695047077   -0.019767923968937395   0.009171221922811702
-1.115826695047077   -0.019767923968937395   0.009171221922811702
-1.115826695047077   -0.019767923968937395   0.009171221922811702
-0.9897668318248117   -0.05013120359147774   -0.0662110087857602
-0.9897668318248117   -0.05013120359147774   -0.0662110087857602
-0.9897668318248117   -0.05013120359147774   -0.0662110087857602
-0.9897668318248117   -0.05013120359147774   -0.0662110087857602
-1.283784875271125   0.0308592910061265   0.08068804389888833
-1.283784875271125   0.0308592910061265   0.08068804389888833
-1.283784875271125   0.0308592910061265   0.08068804389888833
-1.283784875271125   0.0308592910061265   0.08068804389888833
-1.284408993606507   -0.09719791705505576   -0.0928835028453136
-1.284408993606507   -0.09719791705505576   -0.0928835028453136
-1.284408993606507   -0.09719791705505576   -0.0928835028453136
-1.284408993606507   -0.09719791705505576   -0.0928835028453136
-0.8968764345380179   0.12025826331954032   0.0702458484770794
-0.8968764345380179   0.12025826331954032   0.0702458484770794
-0.8968764345380179   0.12025826331954032   0.0702458484770794
-0.8968764345380179   0.12025826331954032   0.0702458484770794
-1.0804888197636597   0.008178161460578759   0.025118664158793068
-1.0804888197636597   0.008178161460578759   0.025118664158793068
-1.0804888197636597   0.008178161460578759   0.025118664158793068
-1.0804888197636597   0.008178161460578759   0.025118664158793068
-0.9559054658367591   -0.028207266559549443   -0.07643377813753024
-0.9559054658367591   -0.028207266559549443   -0.07643377813753024
-0.9559054658367591   -0.028207266559549443   -0.07643377813753024
-0.9559054658367591   -0.028207266559549443   -0.07643377813753024
-1.2231401939338298   0.05350738119796933   0.06275519726503623
-1.2231401939338298   0.05350738119796933   0.06275519726503623
-1.2231401939338298   0.05350738119796933   0.06275519726503623
-1.2231401939338298   0.05350738119796933   0.06275519726503623
-1.2080126076753126   -0.05736713938581475   -0.10355437869890263
-1.2080126076753126   -0.05736713938581475   -0.10355437869890263
-1.2080126076753126   -0.05736713938581475   -0.10355437869890263
-1.2080126076753126   -0.05736713938581475   -0.10355437869890263
-0.8687094898663704   0.14147779842256167   0.05851717986315759
-0.8687094898663704   0.14147779842256167   0.05851717986315759
-0.8687094898663704   0.14147779842256167   0.05851717986315759
-0.8687094898663704   0.14147779842256167   0.05851717986315759
-1.0146909063495475   0.0343820611826709   0.04755060985911687
-1.0146909063495475   0.0343820611826709   0.04755060985911687
-1.0146909063495475   0.0343820611826709   0.04755060985911687
-1.0146909063495475   0.0343820611826709   0.04755060985911687
1.0866986945466697   0.09869490491333355   0.0944993299589992
1.0866986945466697   0.09869490491333355   0.0944993299589992
1.0866986945466697   0.09869490491333355   0.0944993299589992
1.0866986945466697   0.09869490491333355   0.0944993299589992
0.39827966246584845   -0.18111341901873598   -0.062214603714846564
0.39827966246584845   -0.18111341901873598   -0.062214603714846564
0.39827966246584845   -0.18111341901873598   -0.062214603714846564
0.39827966246584845   -0.18111341901873598   -0.062214603714846564
0.49218707332110645   -0.0009675816720507574   0.06801637506116687
0.49218707332110645   -0.0009675816720507574   0.06801637506116687
0.49218707332110645   -0.0009675816720507574   0.06801637506116687
0.49218707332110645   -0.0009675816720507574   0.06801637506116687
1.106639283479336   -0.025474549048150497   -0.07941181570889155
1.106639283479336   -0.025474549048150497   -0.07941181570889155
1.106639283479336   -0.025474549048150497   -0.07941181570889155
1.106639283479336   -0.025474549048150497   -0.07941181570889155
0.7235263425217883   -0.032881854459651944   -0.06996585005719458
0.7235263425217883   -0.032881854459651944   -0.06996585005719458
0.7235263425217883   -0.032881854459651944   -0.06996585005719458
0.7235263425217883   -0.032881854459651944   -0.06996585005719458
1.1715924346016335   0.1377384114522576   0.08214097940218137
1.1715924346016335   0.1377384114522576   0.08214097940218137
1.1715924346016335   0.1377384114522576   0.08214097940218137
1.1715924346016335   0.1377384114522576   0.08214097940218137
0.43182139573083406   -0.15959306864042455   -0.07518652592182119
0.43182139573083406   -0.15959306864042455   -0.07518652592182119
0.43182139573083406   -0.15959306864042455   -0.07518652592182119
0.43182139573083406   -0.15959306864042455   -0.07518652592182119
0.5293359464806461   0.020415880129659517   0.05610598570610435
0.5293359464806461   0.020415880129659517   0.05610598570610435
0.5293359464806461   0.020415880129659517   0.05610598570610435
0.5293359464806461   0.020415880129659517   0.05610598570610435
1.1742345679105564   -0.0011630426396496696   -0.10008574053961036
1.1742345679105564   -0.0011630426396496696   -0.10008574053961036
1.1742345679105564   -0.0011630426396496696   -0.10008574053961036
1.1742345679105564   -0.0011630426396496696   -0.10008574053961036
0.7940634777134296   -0.006608179339943232   -0.042346235637288496
0.7940634777134296   -0.006608179339943232   -0.042346235637288496
0.7940634777134296   -0.006608179339943232   -0.042346235637288496
0.7940634777134296   -0.006608179339943232   -0.042346235637288496
1.239921226222002   0.16395720051025153   0.06322730786770826
1.239921226222002   0.16395720051025153   0.06322730786770826
1.239921226222002   0.16395720051025153   0.06322730786770826
1.239921226222002   0.16395720051025153   0.06322730786770826
0.4685393779027339   -0.13981427328670828   -0.08764670376708097
0.4685393779027339   -0.13981427328670828   -0.08764670376708097
0.4685393779027339   -0.13981427328670828   -0.08764670376708097
0.4685393779027339   -0.13981427328670828   -0.08764670376708097
0.5664310812483312   0.06752302342133912   0.04862778747960344
0.5664310812483312   0.06752302342133912   0.04862778747960344
0.5664310812483312   0.06752302342133912   0.04862778747960344
0.5664310812483312   0.06752302342133912   0.04862778747960344
1.262973511884038   0.06224766299422835   -0.10798115743980724
1.262973511884038   0.06224766299422835   -0.10798115743980724
1.262973511884038   0.06224766299422835   -0.10798115743980724
1.262973511884038   0.06224766299422835   -0.10798115743980724
0.8377166457286416   0.025330741667399126   -0.01842565631241727
0.8377166457286416   0.025330741667399126   -0.01842565631241727
0.8377166457286416   0.025330741667399126   -0.01842565631241727
0.8377166457286416   0.025330741667399126   -0.01842565631241727
0.4730711992042138   0.05520245365503178   0.07542720730320486
0.4730711992042138   0.05520245365503178   0.07542720730320486
0.4730711992042138   0.05520245365503178   0.07542720730320486
0.4730711992042138   0.05520245365503178   0.07542720730320486
-0.22997447517692943   -0.16896913561705185   -0.032573418274904904
-0.22997447517692943   -0.16896913561705185   -0.032573418274904904
-0.22997447517692943   -0.16896913561705185   -0.032573418274904904
-0.22997447517692943   -0.16896913561705185   -0.032573418274904904
-0.16532527127094168   -0.049369155293971304   0.022886693645841304
-0.16532527127094168   -0.049369155293971304   0.022886693645841304
-0.16532527127094168   -0.049369155293971304   0.022886693645841304
-0.16532527127094168   -0.049369155293971304   0.022886693645841304
0.47697999346181896   0.0010543731704867193   -0.010040979077807915
0.47697999346181896   0.0010543731704867193   -0.010040979077807915
0.47697999346181896   0.0010543731704867193   -0.010040979077807915
0.47697999346181896   0.0010543731704867193   -0.010040979077807915
0.13246756543713342   -0.03581807354774843   -0.029848280324800046
0.13246756543713342   -0.03581807354774843   -0.029848280324800046
0.13246756543713342   -0.03581807354774843   -0.029848280324800046
0.13246756543713342   -0.03581807354774843   -0.029848280324800046
0.511217621996729   0.09483532665320041   0.06736621011402914
0.511217621996729   0.09483532665320041   0.06736621011402914
0.511217621996729   0.09483532665320041   0.06736621011402914
0.511217621996729   0.09483532665320041   0.06736621011402914
-0.1968077044661571   -0.1403949134369903   -0.04349971418721689
-0.1968077044661571   -0.1403949134369903   -0.04349971418721689
-0.1968077044661571   -0.1403949134369903   -0.04349971418721689
-0.1968077044661571   -0.1403949134369903   -0.04349971418721689
-0.13071026615016273   -0.009376202616624307   0.014478176429492645
-0.13071026615016273   -0.009376202616624307   0.014478176429492645
-0.13071026615016273   -0.009376202616624307   0.014478176429492645
-0.13071026615016273   -0.009376202616624307   0.014478176429492645
0.5176822973114567   0.036957793222863994   -0.018704173233039745
0.5176822973114567   0.036957793222863994   -0.018704173233039745
0.5176822973114567   0.036957793222863994   -0.018704173233039745
0.5176822973114567   0.036957793222863994   -0.018704173233039745
0.16592446214022272   -0.00420508696424101   -0.011874952056030218
0.16592446214022272   -0.00420508696424101   -0.011874952056030218
0.16592446214022272   -0.00420508696424101   -0.011874952056030218
0.16592446214022272   -0.00420508696424101   -0.011874952056030218
0.5532870764242056   0.136485944769209   0.0597915707843523
0.5532870764242056   0.136485944769209   0.0597915707843523
0.5532870764242056   0.136485944769209   0.0597915707843523
0.5532870764242056   0.136485944769209   0.0597915707843523
-0.16355229216438238   -0.10614160106444132   -0.05296655519378859
-0.16355229216438238   -0.10614160106444132   -0.05296655519378859
-0.16355229216438238   -0.10614160106444132   -0.05296655519378859
-0.16355229216438238   -0.10614160106444132   -0.05296655519378859
-0.09653642664622784   0.036926853924660906   0.006105711849398418
-0.09653642664622784   0.036926853924660906   0.006105711849398418
-0.09653642664622784   0.036926853924660906   0.006105711849398418
-0.09653642664622784   0.036926853924660906   0.006105711849398418
0.5537987488211104   0.07968426974242585   -0.026695120977578847
0.5537987488211104   0.07968426974242585   -0.026695120977578847
0.5537987488211104   0.07968426974242585   -0.026695120977578847
0.5537987488211104   0.07968426974242585   -0.026695120977578847
0.20719524568411765   0.03453946605754536   0.009101070834456094
0.20719524568411765   0.03453946605754536   0.009101070834456094
0.20719524568411765   0.03453946605754536   0.009101070834456094
0.20719524568411765   0.03453946605754536   0.009101070834456094
-0.18087363633427528   0.011925657191120341   0.03203598313019367
-0.18087363633427528   0.011925657191120341   0.03203598313019367
-0.18087363633427528   0.011925657191120341   0.03203598313019367
-0.18087363633427528   0.011925657191120341   0.03203598313019367
-0.8457452736307314   -0.14913382910652928   -0.004265877207228697
-0.8457452736307314   -0.14913382910652928   -0.004265877207228697
-0.8457452736307314   -0.14913382910652928   -0.004265877207228697
-0.8457452736307314   -0.14913382910652928   -0.004265877207228697
-0.8046731504208917   -0.08766768894355903   -0.019884228538024698
-0.8046731504208917   -0.08766768894355903   -0.019884228538024698
-0.8046731504208917   -0.08766768894355903   -0.019884228538024698
-0.8046731504208917   -0.08766768894355903   -0.019884228538024698
-0.15137384713714838   0.021945103803645623   0.0213295552171908
-0.15137384713714838   0.021945103803645623   0.0213295552171908
-0.15137384713714838   0.021945103803645623   0.0213295552171908
-0.15137384713714838   0.021945103803645623   0.0213295552171908
-0.4965417087166607   -0.045881419238792284   -0.01862610141415824
-0.4965417087166607   -0.045881419238792284   -0.01862610141415824
-0.4965417087166607   -0.045881419238792284   -0.01862610141415824
-0.4965417087166607   -0.045881419238792284   -0.01862610141415824
-0.14454884964838566   0.0531782885095643   0.024221357955085787
-0.14454884964838566   0.0531782885095643   0.024221357955085787
-0.14454884964838566   0.0531782885095643   0.024221357955085787
-0.14454884964838566   0.0531782885095643   0.024221357955085787
-0.809665445741565   -0.11706817148138818   -0.015445222603561634
-0.809665445741565   -0.11706817148138818   -0.015445222603561634
-0.809665445741565   -0.11706817148138818   -0.015445222603561634
-0.809665445741565   -0.11706817148138818   -0.015445222603561634
-0.7665272891833327   -0.04378928937740942   -0.026865020115612537
-0.7665272891833327   -0.04378928937740942   -0.026865020115612537
-0.7665272891833327   -0.04378928937740942   -0.026865020115612537
-0.7665272891833327   -0.04378928937740942   -0.026865020115612537
-0.11767919626640878   0.05821029424292339   0.012047028988714747
-0.11767919626640878   0.05821029424292339   0.012047028988714747
-0.11767919626640878   0.05821029424292339   0.012047028988714747
-0.11767919626640878   0.05821029424292339   0.012047028988714747
-0.45807152218076364   -0.009165429401893715   -0.0002900022370380083
-0.45807152218076364   -0.009165429401893715   -0.0002900022370380083
-0.45807152218076364   -0.009165429401893715   -0.0002900022370380083
-0.45807152218076364   -0.009165429401893715   -0.0002900022370380083
-0.10944606799301165   0.09607045983626197   0.015352504762361871
-0.10944606799301165   0.09607045983626197   0.015352504762361871
-0.10944606799301165   0.09607045983626197   0.015352504762361871
-0.10944606799301165   0.09607045983626197   0.015352504762361871
-0.7730565461509833   -0.07994558366499116   -0.023355010666283524
-0.7730565461509833   -0.07994558366499116   -0.023355010666283524
-0.7730565461509833   -0.07994558366499116   -0.023355010666283524
-0.7730565461509833   -0.07994558366499116   -0.023355010666283524
-0.7310224024092249   -6.374640386161423e-05   -0.035218553542189966
-0.7310224024092249   -6.374640386161423e-05   -0.035218553542189966
-0.7310224024092249   -6.374640386161423e-05   -0.035218553542189966
-0.7310224024092249   -6.374640386161423e-05   -0.035218553542189966
-0.08550736499815112   0.09525593630174752   0.002921937712695437
-0.08550736499815112   0.09525593630174752   0.002921937712695437
-0.08550736499815112   0.09525593630174752   0.002921937712695437
-0.08550736499815112   0.09525593630174752   0.002921937712695437
-0.4227261069510291   0.02741075296515541   0.01716128563265646
-0.4227261069510291   0.02741075296515541   0.01716128563265646
-0.4227261069510291   0.02741075296515541   0.01716128563265646
-0.4227261069510291   0.02741075296515541   0.01716128563265646
-0.8240728723233146   -0.032339220539058966   -0.012698479237608473
-0.8240728723233146   -0.032339220539058966   -0.012698479237608473
-0.8240728723233146   -0.032339220539058966   -0.012698479237608473
-0.8240728723233146   -0.032339220539058966   -0.012698479237608473
-1.4472181072908512   -0.12072089316729795   0.028095652839396495
-1.4472181072908512   -0.12072089316729795   0.028095652839396495
-1.4472181072908512   -0.12072089316729795   0.028095652839396495
-1.4472181072908512   -0.12072089316729795   0.028095652839396495
-1.4271089190087947   -0.12443153520450662   -0.05985184533225531
-1.4271089190087947   -0.12443153520450662   -0.05985184533225531
-1.4271089190087947   -0.12443153520450662   -0.05985184533225531
-1.4271089190087947   -0.12443153520450662   -0.05985184533225531
-0.7612278866783244   0.056008362688917984   0.05366603854234216
-0.7612278866783244   0.056008362688917984   0.05366603854234216
-0.7612278866783244   0.056008362688917984   0.05366603854234216
-0.7612278866783244   0.056008362688917984   0.05366603854234216
-1.1071926724072045   -0.04837154734166532   -0.006484763687923535
-1.1071926724072045   -0.04837154734166532   -0.006484763687923535
-1.1071926724072045   -0.04837154734166532   -0.006484763687923535
-1.1071926724072045   -0.04837154734166532   -0.006484763687923535
-0.7845811540105739   0.01218833314632578   -0.01928026857631375
-0.7845811540105739   0.01218833314632578   -0.01928026857631375
-0.7845811540105739   0.01218833314632578   -0.01928026857631375
-0.7845811540105739   0.01218833314632578   -0.01928026857631375
-1.4036832275584101   -0.0805390815437777   0.013384158258949355
-1.4036832275584101   -0.0805390815437777   0.013384158258949355
-1.4036832275584101   -0.0805390815437777   0.013384158258949355
-1.4036832275584101   -0.0805390815437777   0.013384158258949355
-1.3772911949368793   -0.08154929505827788   -0.06619861527825494
-1.3772911949368793   -0.08154929505827788   -0.06619861527825494
-1.3772911949368793   -0.08154929505827788   -0.06619861527825494
-1.3772911949368793   -0.08154929505827788   -0.06619861527825494
-0.7257000602401499   0.09060028869158404   0.04288154653131583
-0.7257000602401499   0.09060028869158404   0.04288154653131583
-0.7257000602401499   0.09060028869158404   0.04288154653131583
-0.7257000602401499   0.09060028869158404   0.04288154653131583
-1.0565433615083004   -0.007782401387422394   0.011893291095353892
-1.0565433615083004   -0.007782401387422394   0.011893291095353892
-1.0565433615083004   -0.007782401387422394   0.011893291095353892
-1.0565433615083004   -0.007782401387422394   0.011893291095353892
-0.7476217683149278   0.05199914357630392   -0.028125848727297433
-0.7476217683149278   0.05199914357630392   -0.028125848727297433
-0.7476217683149278   0.05199914357630392   -0.028125848727297433
-0.7476217683149278   0.05199914357630392   -0.028125848727297433
-1.3542320749987267   -0.04181073807962371   0.009358427433853803
-1.3542320749987267   -0.04181073807962371   0.009358427433853803
-1.3542320749987267   -0.04181073807962371   0.009358427433853803
-1.3542320749987267   -0.04181073807962371   0.009358427433853803
-1.332742219143342   -0.03504934990122993   -0.06959479565699504
-1.332742219143342   -0.03504934990122993   -0.06959479565699504
-1.332742219143342   -0.03504934990122993   -0.06959479565699504
-1.332742219143342   -0.03504934990122993   -0.06959479565699504
-0.691289893592988   0.12866067296402095   0.03471957117111796
-0.691289893592988   0.12866067296402095   0.03471957117111796
-0.691289893592988   0.12866067296402095   0.03471957117111796
-0.691289893592988   0.12866067296402095   0.03471957117111796
-1.022196119098526   0.026936376692737768   0.027753836547414437
-1.022196119098526   0.026936376692737768   0.027753836547414437
-1.022196119098526   0.026936376692737768   0.027753836547414437
-1.022196119098526   0.026936376692737768   0.027753836547414437
-1.4533939208657818   -0.06940147461650586   -0.05410283358604877
-1.4533939208657818   -0.06940147461650586   -0.05410283358604877
-1.4533939208657818   -0.06940147461650586   -0.05410283358604877
-1.4533939208657818   -0.06940147461650586   -0.05410283358604877
-2.070946710419175   -0.07460754864667979   0.09378590958135986
-2.070946710419175   -0.07460754864667979   0.09378590958135986
-2.070946710419175   -0.07460754864667979   0.09378590958135986
-2.070946710419175   -0.07460754864667979   0.09378590958135986
-2.0307876293914604   -0.1489978809004936   -0.07159506151387669
-2.0307876293914604   -0.1489978809004936   -0.07159506151387669
-2.0307876293914604   -0.1489978809004936   -0.07159506151387669
-2.0307876293914604   -0.1489978809004936   -0.07159506151387669
-1.3479930019864839   0.11600946003421869   0.09528674454057254
-1.3479930019864839   0.11600946003421869   0.09528674454057254
-1.3479930019864839   0.11600946003421869   0.09528674454057254
-1.3479930019864839   0.11600946003421869   0.09528674454057254
-1.649255554972744   -0.02039543226814977   0.01899776321871985
-1.649255554972744   -0.02039543226814977   0.01899776321871985
-1.649255554972744   -0.02039543226814977   0.01899776321871985
-1.649255554972744   -0.02039543226814977   0.01899776321871985
-1.4066557865567828   -0.021880036405102055   -0.060137681871596696
-1.4066557865567828   -0.021880036405102055   -0.060137681871596696
-1.4066557865567828   -0.021880036405102055   -0.060137681871596696
-1.4066557865567828   -0.021880036405102055   -0.060137681871596696
-1.9711757609700102   -0.010159300610023292   0.08762570030288916
-1.9711757609700102   -0.010159300610023292   0.08762570030288916
-1.9711757609700102   -0.010159300610023292   0.08762570030288916
-1.9711757609700102   -0.010159300610023292   0.08762570030288916
-1.9554925900963283   -0.12237417598023465   -0.08430019246342374
-1.9554925900963283   -0.12237417598023465   -0.08430019246342374
-1.9554925900963283   -0.12237417598023465   -0.08430019246342374
-1.9554925900963283   -0.12237417598023465   -0.08430019246342374
-1.306158159747534   0.13243356456692829   0.07548370104326581
-1.306158159747534   0.13243356456692829   0.07548370104326581
-1.306158159747534   0.13243356456692829   0.07548370104326581
-1.306158159747534   0.13243356456692829   0.07548370104326581
-1.6102212995642755   0.008656896107583356   0.03432343090762682
-1.6102212995642755   0.008656896107583356   0.03432343090762682
-1.6102212995642755   0.008656896107583356   0.03432343090762682
-1.6102212995642755   0.008656896107583356   0.03432343090762682
-1.3615051535540696   -0.000400159052996063   -0.06841754436948921
-1.3615051535540696   -0.000400159052996063   -0.06841754436948921
-1.3615051535540696   -0.000400159052996063   -0.06841754436948921
-1.3615051535540696   -0.000400159052996063   -0.06841754436948921
-1.899203556767881   0.011401587161584514   0.06336921103695542
-1.899203556767881   0.011401587161584514   0.06336921103695542
-1.899203556767881   0.011401587161584514   0.06336921103695542
-1.899203556767881   0.011401587161584514   0.06336921103695542
-1.8732510285680966   -0.09034128590697615   -0.09603670308280547
-1.8732510285680966   -0.09034128590697615   -0.09603670308280547
-1.8732510285680966   -0.09034128590697615   -0.09603670308280547
-1.8732510285680966   -0.09034128590697615   -0.09603670308280547
-1.2693650356075918   0.14795649099376712   0.06428528112675895
-1.2693650356075918   0.14795649099376712   0.06428528112675895
-1.2693650356075918   0.14795649099376712   0.06428528112675895
-1.2693650356075918   0.14795649099376712   0.06428528112675895
-1.5273325706402934   0.03283208516843672   0.05743188564402349
-1.5273325706402934   0.03283208516843672   0.05743188564402349
-1.5273325706402934   0.03283208516843672   0.05743188564402349
-1.5273325706402934   0.03283208516843672   0.05743188564402349
1.8268639485066493   0.13644996286836836   0.0970180196798742
1.8268639485066493   0.13644996286836836   0.0970180196798742
1.8268639485066493   0.13644996286836836   0.0970180196798742
1.8268639485066493   0.13644996286836836   0.0970180196798742
0.806245478865857   -0.2155964870576445   -0.04448163956156234
0.806245478865857   -0.2155964870576445   -0.04448163956156234
0.806245478865857   -0.2155964870576445   -0.04448163956156234
0.806245478865857   -0.2155964870576445   -0.04448163956156234
0.8993416130344816   -0.037716277036255574   0.06667721479537615
0.8993416130344816   -0.037716277036255574   0.06667721479537615
0.8993416130344816   -0.037716277036255574   0.06667721479537615
0.8993416130344816   -0.037716277036255574   0.06667721479537615
1.8472205349519168   -0.003840722486855741   -0.06979038096146506
1.8472205349519168   -0.003840722486855741   -0.06979038096146506
1.8472205349519168   -0.003840722486855741   -0.06979038096146506
1.8472205349519168   -0.003840722486855741   -0.06979038096146506
1.2661221493460573   -0.038568701888246015   -0.09919485359811733
1.2661221493460573   -0.038568701888246015   -0.09919485359811733
1.2661221493460573   -0.038568701888246015   -0.09919485359811733
1.2661221493460573   -0.038568701888246015   -0.09919485359811733
1.9117130373250883   0.16765737212191223   0.08117403629560839
1.9117130373250883   0.16765737212191223   0.08117403629560839
1.9117130373250883   0.16765737212191223   0.08117403629560839
1.9117130373250883   0.16765737212191223   0.08117403629560839
0.8410382352434247   -0.20302524706291034   -0.059530704133245765
0.8410382352434247   -0.20302524706291034   -0.059530704133245765
0.8410382352434247   -0.20302524706291034   -0.059530704133245765
0.8410382352434247   -0.20302524706291034   -0.059530704133245765
0.9358259907468836   -0.01804271729434126   0.05392446335060458
0.9358259907468836   -0.01804271729434126   0.05392446335060458
0.9358259907468836   -0.01804271729434126   0.05392446335060458
0.9358259907468836   -0.01804271729434126   0.05392446335060458
1.9108609864390174   0.017860148725344804   -0.08725069889654857
1.9108609864390174   0.017860148725344804   -0.08725069889654857
1.9108609864390174   0.017860148725344804   -0.08725069889654857
1.9108609864390174   0.017860148725344804   -0.08725069889654857
1.345960957298356   -0.01535915386600123   -0.06744475815540604
1.345960957298356   -0.01535915386600123   -0.06744475815540604
1.345960957298356   -0.01535915386600123   -0.06744475815540604
1.345960957298356   -0.01535915386600123   -0.06744475815540604
1.9749828292677039   0.19103957544512296   0.0601790885271056
1.9749828292677039   0.19103957544512296   0.0601790885271056
1.9749828292677039   0.19103957544512296   0.0601790885271056
1.9749828292677039   0.19103957544512296   0.0601790885271056
0.8771255176233519   -0.18580077430896463   -0.0718198452524304
0.8771255176233519   -0.18580077430896463   -0.0718198452524304
0.8771255176233519   -0.18580077430896463   -0.0718198452524304
0.8771255176233519   -0.18580077430896463   -0.0718198452524304
0.9688662941805266   0.03447787267776181   0.047277108681371555
0.9688662941805266   0.03447787267776181   0.047277108681371555
0.9688662941805266   0.03447787267776181   0.047277108681371555
0.9688662941805266   0.03447787267776181   0.047277108681371555
1.98912011010705   0.08133968022975957   -0.0913866821016848
1.98912011010705   0.08133968022975957   -0.0913866821016848
1.98912011010705   0.08133968022975957   -0.0913866821016848
1.98912011010705   0.08133968022975957   -0.0913866821016848
1.3759703888915018   0.01585820918774622   -0.04544093375674872
1.3759703888915018   0.01585820918774622   -0.04544093375674872
1.3759703888915018   0.01585820918774622   -0.04544093375674872
1.3759703888915018   0.01585820918774622   -0.04544093375674872
0.8919269465077315   0.07965972891073383   0.08866948267942401
0.8919269465077315   0.07965972891073383   0.08866948267942401
0.8919269465077315   0.07965972891073383   0.08866948267942401
0.8919269465077315   0.07965972891073383   0.08866948267942401
-0.10948310540775426   -0.26582474832932435   -0.025303142668951714
-0.10948310540775426   -0.26582474832932435   -0.025303142668951714
-0.10948310540775426   -0.26582474832932435   -0.025303142668951714
-0.10948310540775426   -0.26582474832932435   -0.025303142668951714
-0.0292208861944636   -0.09364935585021701   0.022641255474955994
-0.0292208861944636   -0.09364935585021701   0.022641255474955994
-0.0292208861944636   -0.09364935585021701   0.022641255474955994
-0.0292208861944636   -0.09364935585021701   0.022641255474955994
0.8844710021249343   -0.04972906607533084   0.004336949286715866
0.8844710021249343   -0.04972906607533084   0.004336949286715866
0.8844710021249343   -0.04972906607533084   0.004336949286715866
0.8844710021249343   -0.04972906607533084   0.004336949286715866
0.39833346941845904   -0.0743004464515881   -0.047362607078191024
0.39833346941845904   -0.0743004464515881   -0.047362607078191024
0.39833346941845904   -0.0743004464515881   -0.047362607078191024
0.39833346941845904   -0.0743004464515881   -0.047362607078191024
0.9311755780234473   0.10960653203263655   0.0785242306713129
0.9311755780234473   0.10960653203263655   0.0785242306713129
0.9311755780234473   0.10960653203263655   0.0785242306713129
0.9311755780234473   0.10960653203263655   0.0785242306713129
-0.0726722755842951   -0.249731767449503   -0.03853327987491551
-0.0726722755842951   -0.249731767449503   -0.03853327987491551
-0.0726722755842951   -0.249731767449503   -0.03853327987491551
-0.0726722755842951   -0.249731767449503   -0.03853327987491551
0.007987598141938414   -0.05847150641672869   0.013844027738453772
0.007987598141938414   -0.05847150641672869   0.013844027738453772
0.007987598141938414   -0.05847150641672869   0.013844027738453772
0.007987598141938414   -0.05847150641672869   0.013844027738453772
0.9225552509891193   -0.0232080843008603   -0.007263868431697615
0.9225552509891193   -0.0232080843008603   -0.007263868431697615
0.9225552509891193   -0.0232080843008603   -0.007263868431697615
0.9225552509891193   -0.0232080843008603   -0.007263868431697615
0.4306848182063302   -0.052709215704372134   -0.030718355455546728
0.4306848182063302   -0.052709215704372134   -0.030718355455546728
0.4306848182063302   -0.052709215704372134   -0.030718355455546728
0.4306848182063302   -0.052709215704372134   -0.030718355455546728
0.9717691694053938   0.14552960846501867   0.0700680308837964
0.9717691694053938   0.14552960846501867   0.0700680308837964
0.9717691694053938   0.14552960846501867   0.0700680308837964
0.9717691694053938   0.14552960846501867   0.0700680308837964
-0.039298634507575425   -0.22528151341585712   -0.05577712850998702
-0.039298634507575425   -0.22528151341585712   -0.05577712850998702
-0.039298634507575425   -0.22528151341585712   -0.05577712850998702
-0.039298634507575425   -0.22528151341585712   -0.05577712850998702
0.037190223211026614   -0.01730870579712382   0.004948526934756717
0.037190223211026614   -0.01730870579712382   0.004948526934756717
0.037190223211026614   -0.01730870579712382   0.004948526934756717
0.037190223211026614   -0.01730870579712382   0.004948526934756717
0.9510844599891325   0.010594760266356917   -0.01774894986420998
0.9510844599891325   0.010594760266356917   -0.01774894986420998
0.9510844599891325   0.010594760266356917   -0.01774894986420998
0.9510844599891325   0.010594760266356917   -0.01774894986420998
0.4702254961662543   -0.020428145220093716   -0.012884171386531109
0.4702254961662543   -0.020428145220093716   -0.012884171386531109
0.4702254961662543   -0.020428145220093716   -0.012884171386531109
0.4702254961662543   -0.020428145220093716   -0.012884171386531109
-0.038040667746508085   0.02206427247780362   0.04402002483015122
-0.038040667746508085   0.02206427247780362   0.04402002483015122
-0.038040667746508085   0.02206427247780362   0.04402002483015122
-0.038040667746508085   0.02206427247780362   0.04402002483015122
-1.01817898410622   -0.333802217058194   -0.020400516113853538
-1.01817898410622   -0.333802217058194   -0.020400516113853538
-1.01817898410622   -0.333802217058194   -0.020400516113853538
-1.01817898410622   -0.333802217058194   -0.020400516113853538
-0.9368877698838042   -0.14370532699628247   -0.02140867603579389
-0.9368877698838042   -0.14370532699628247   -0.02140867603579389
-0.9368877698838042   -0.14370532699628247   -0.02140867603579389
-0.9368877698838042   -0.14370532699628247   -0.02140867603579389
-0.03417183793137359   -0.11557243296000022   0.01980957390018924
-0.03417183793137359   -0.11557243296000022   0.01980957390018924
-0.03417183793137359   -0.11557243296000022   0.01980957390018924
-0.03417183793137359   -0.11557243296000022   0.01980957390018924
-0.5091420493498052   -0.13510500525118196   -0.04233325562701373
-0.5091420493498052   -0.13510500525118196   -0.04233325562701373
-0.5091420493498052   -0.13510500525118196   -0.04233325562701373
-0.5091420493498052   -0.13510500525118196   -0.04233325562701373
0.0032826964176122606   0.05576038667348604   0.03574942601163225
0.0032826964176122606   0.05576038667348604   0.03574942601163225
0.0032826964176122606   0.05576038667348604   0.03574942601163225
0.0032826964176122606   0.05576038667348604   0.03574942601163225
-0.9719961699677608   -0.31269201236473954   -0.02796399108711997
-0.9719961699677608   -0.31269201236473954   -0.02796399108711997
-0.9719961699677608   -0.31269201236473954   -0.02796399108711997
-0.9719961699677608   -0.31269201236473954   -0.02796399108711997
-0.8907444924665019   -0.10464755242216701   -0.029176908136705555
-0.8907444924665019   -0.10464755242216701   -0.029176908136705555
-0.8907444924665019   -0.10464755242216701   -0.029176908136705555
-0.8907444924665019   -0.10464755242216701   -0.029176908136705555
0.0005003799779563535   -0.09009264518801652   0.00802907568983131
0.0005003799779563535   -0.09009264518801652   0.00802907568983131
0.0005003799779563535   -0.09009264518801652   0.00802907568983131
0.0005003799779563535   -0.09009264518801652   0.00802907568983131
-0.46434832640599594   -0.10703782321838434   -0.02353803295464013
-0.46434832640599594   -0.10703782321838434   -0.02353803295464013
-0.46434832640599594   -0.10703782321838434   -0.02353803295464013
-0.46434832640599594   -0.10703782321838434   -0.02353803295464013
0.04110036851689562   0.09312006336762985   0.027816309828881253
0.04110036851689562   0.09312006336762985   0.027816309828881253
0.04110036851689562   0.09312006336762985   0.027816309828881253
0.04110036851689562   0.09312006336762985   0.027816309828881253
-0.9313774227204442   -0.28789320269281515   -0.0490959091357613
-0.9313774227204442   -0.28789320269281515   -0.0490959091357613
-0.9313774227204442   -0.28789320269281515   -0.0490959091357613
-0.9313774227204442   -0.28789320269281515   -0.0490959091357613
-0.8581409243559198   -0.06742887190333301   -0.03786854395493844
-0.8581409243559198   -0.06742887190333301   -0.03786854395493844
-0.8581409243559198   -0.06742887190333301   -0.03786854395493844
-0.8581409243559198   -0.06742887190333301   -0.03786854395493844
0.02327813355365622   -0.06976262911221136   -0.01215799803701154
0.02327813355365622   -0.06976262911221136   -0.01215799803701154
0.02327813355365622   -0.06976262911221136   -0.01215799803701154
0.02327813355365622   -0.06976262911221136   -0.01215799803701154
-0.4314889120433908   -0.08087637982190826   -0.01179315648982631
-0.4314889120433908   -0.08087637982190826   -0.01179315648982631
-0.4314889120433908   -0.08087637982190826   -0.01179315648982631
-0.4314889120433908   -0.08087637982190826   -0.01179315648982631
-0.9532056135622272   -0.027837250899892557   -0.0014986295522005089
-0.9532056135622272   -0.027837250899892557   -0.0014986295522005089
-0.9532056135622272   -0.027837250899892557   -0.0014986295522005089
-0.9532056135622272   -0.027837250899892557   -0.0014986295522005089
-1.930892936145759   -0.35887740984759675   -0.016455134421835233
-1.930892936145759   -0.35887740984759675   -0.016455134421835233
-1.930892936145759   -0.35887740984759675   -0.016455134421835233
-1.930892936145759   -0.35887740984759675   -0.016455134421835233
-1.8434921993421962   -0.1839382343122994   -0.06380263379987282
-1.8434921993421962   -0.1839382343122994   -0.06380263379987282
-1.8434921993421962   -0.1839382343122994   -0.06380263379987282
-1.8434921993421962   -0.1839382343122994   -0.06380263379987282
-0.9194530725005128   -0.12003802144546251   0.042097505329835014
-0.9194530725005128   -0.12003802144546251   0.042097505329835014
-0.9194530725005128   -0.12003802144546251   0.042097505329835014
-0.9194530725005128   -0.12003802144546251   0.042097505329835014
-1.3993689033231191   -0.16231948104359545   -0.029851391961256843
-1.3993689033231191   -0.16231948104359545   -0.029851391961256843
-1.3993689033231191   -0.16231948104359545   -0.029851391961256843
-1.3993689033231191   -0.16231948104359545   -0.029851391961256843
-0.9022326788756683   0.015588739118916506   -0.007427287110321354
-0.9022326788756683   0.015588739118916506   -0.007427287110321354
-0.9022326788756683   0.015588739118916506   -0.007427287110321354
-0.9022326788756683   0.015588739118916506   -0.007427287110321354
-1.8614855576466172   -0.32033795955625216   -0.017369700078008938
-1.8614855576466172   -0.32033795955625216   -0.017369700078008938
-1.8614855576466172   -0.32033795955625216   -0.017369700078008938
-1.8614855576466172   -0.32033795955625216   -0.017369700078008938
-1.7775599072252377   -0.1431298565466967   -0.07390933267499993
-1.7775599072252377   -0.1431298565466967   -0.07390933267499993
-1.7775599072252377   -0.1431298565466967   -0.07390933267499993
-1.7775599072252377   -0.1431298565466967   -0.07390933267499993
-0.8746207811166572   -0.0893794941380751   0.03617359032843363
-0.8746207811166572   -0.0893794941380751   0.03617359032843363
-0.8746207811166572   -0.0893794941380751   0.03617359032843363
-0.8746207811166572   -0.0893794941380751   0.03617359032843363
-1.3316576481126905   -0.12316920083338073   -0.009870421300359825
-1.3316576481126905   -0.12316920083338073   -0.009870421300359825
-1.3316576481126905   -0.12316920083338073   -0.009870421300359825
-1.3316576481126905   -0.12316920083338073   -0.009870421300359825
-0.8559747207468456   0.05331160574321894   -0.01328720770381396
-0.8559747207468456   0.05331160574321894   -0.01328720770381396
-0.8559747207468456   0.05331160574321894   -0.01328720770381396
-0.8559747207468456   0.05331160574321894   -0.01328720770381396
-1.7994080393515153   -0.2890230281844658   -0.03725682166860056
-1.7994080393515153   -0.2890230281844658   -0.03725682166860056
-1.7994080393515153   -0.2890230281844658   -0.03725682166860056
-1.7994080393515153   -0.2890230281844658   -0.03725682166860056
-1.724019459762886   -0.10007972383832592   -0.0762528466707185
-1.724019459762886   -0.10007972383832592   -0.0762528466707185
-1.724019459762886   -0.10007972383832592   -0.0762528466707185
-1.724019459762886   -0.10007972383832592   -0.0762528466707185
-0.848857329433893   -0.06988849275686772   0.011009051508738429
-0.848857329433893   -0.06988849275686772   0.011009051508738429
-0.848857329433893   -0.06988849275686772   0.011009051508738429
-0.848857329433893   -0.06988849275686772   0.011009051508738429
-1.294177789115158   -0.09929276794305517   -0.0033628920844170837
-1.294177789115158   -0.09929276794305517   -0.0033628920844170837
-1.294177789115158   -0.09929276794305517   -0.0033628920844170837
-1.294177789115158   -0.09929276794305517   -0.0033628920844170837
-1.8779993457543256   -0.06412348007702895   -0.046741112235235346
-1.8779993457543256   -0.06412348007702895   -0.046741112235235346
-1.8779993457543256   -0.06412348007702895   -0.046741112235235346
-1.8779993457543256   -0.06412348007702895   -0.046741112235235346
-2.831687616129189   -0.2422204354749673   0.10753397936593148
-2.831687616129189   -0.2422204354749673   0.10753397936593148
-2.831687616129189   -0.2422204354749673   0.10753397936593148
-2.831687616129189   -0.2422204354749673   0.10753397936593148
-2.733937776171675   -0.19272396091550248   -0.06243558602290383
-2.733937776171675   -0.19272396091550248   -0.06243558602290383
-2.733937776171675   -0.19272396091550248   -0.06243558602290383
-2.733937776171675   -0.19272396091550248   -0.06243558602290383
-1.76411780439234   0.05037977728227172   0.0987513293548215
-1.76411780439234   0.05037977728227172   0.0987513293548215
-1.76411780439234   0.05037977728227172   0.0987513293548215
-1.76411780439234   0.05037977728227172   0.0987513293548215
-2.1989988832278438   -0.07613904399901172   0.010268905094861766
-2.1989988832278438   -0.07613904399901172   0.010268905094861766
-2.1989988832278438   -0.07613904399901172   0.010268905094861766
-2.1989988832278438   -0.07613904399901172   0.010268905094861766
-1.8052768809100712   -0.004864599874100928   -0.05179967607743832
-1.8052768809100712   -0.004864599874100928   -0.05179967607743832
-1.8052768809100712   -0.004864599874100928   -0.05179967607743832
-1.8052768809100712   -0.004864599874100928   -0.05179967607743832
-2.68613862118159   -0.13083950528678234   0.11467573329880121
-2.68613862118159   -0.13083950528678234   0.11467573329880121
-2.68613862118159   -0.13083950528678234   0.11467573329880121
-2.68613862118159   -0.13083950528678234   0.11467573329880121
-2.6291091571421634   -0.1621241655026774   -0.07435395191007155
-2.6291091571421634   -0.1621241655026774   -0.07435395191007155
-2.6291091571421634   -0.1621241655026774   -0.07435395191007155
-2.6291091571421634   -0.1621241655026774   -0.07435395191007155
-1.6988912178705555   0.08090624813605102   0.09539800941566332
-1.6988912178705555   0.08090624813605102   0.09539800941566332
-1.6988912178705555   0.08090624813605102   0.09539800941566332
-1.6988912178705555   0.08090624813605102   0.09539800941566332
-2.136888602018827   -0.03071652720103102   0.043727605946508805
-2.136888602018827   -0.03071652720103102   0.043727605946508805
-2.136888602018827   -0.03071652720103102   0.043727605946508805
-2.136888602018827   -0.03071652720103102   0.043727605946508805
-1.7415202308795292   0.019080207194363596   -0.055921014687500825
-1.7415202308795292   0.019080207194363596   -0.055921014687500825
-1.7415202308795292   0.019080207194363596   -0.055921014687500825
-1.7415202308795292   0.019080207194363596   -0.055921014687500825
-2.5851524530581305   -0.09897043348594226   0.0822758364933337
-2.5851524530581305   -0.09897043348594226   0.0822758364933337
-2.5851524530581305   -0.09897043348594226   0.0822758364933337
-2.5851524530581305   -0.09897043348594226   0.0822758364933337
-2.5207193676088155   -0.1331398805672282   -0.08984224467699405
-2.5207193676088155   -0.1331398805672282   -0.08984224467699405
-2.5207193676088155   -0.1331398805672282   -0.08984224467699405
-2.5207193676088155   -0.1331398805672282   -0.08984224467699405
-1.6504700381567383   0.11756596109537237   0.07384857642632171
-1.6504700381567383   0.11756596109537237   0.07384857642632171
-1.6504700381567383   0.11756596109537237   0.07384857642632171
-1.6504700381567383   0.11756596109537237   0.07384857642632171
-2.020474558903118   0.008141857756115922   0.07717193549618552
-2.020474558903118   0.008141857756115922   0.07717193549618552
-2.020474558903118   0.008141857756115922   0.07717193549618552
-2.020474558903118   0.008141857756115922   0.07717193549618552
2.4966024766135737   0.14952299039359002   0.09075874994695472
2.4966024766135737   0.14952299039359002   0.09075874994695472
2.4966024766135737   0.14952299039359002   0.09075874994695472
2.4966024766135737   0.14952299039359002   0.09075874994695472
1.19064471760112   -0.2232859499435897   0.020564638033686855
1.19064471760112   -0.2232859499435897   0.020564638033686855
1.19064471760112   -0.2232859499435897   0.020564638033686855
1.19064471760112   -0.2232859499435897   0.020564638033686855
1.2565780336512082   -0.09403157582635113   0.0698978536417666
1.2565780336512082   -0.09403157582635113   0.0698978536417666
1.2565780336512082   -0.09403157582635113   0.0698978536417666
1.2565780336512082   -0.09403157582635113   0.0698978536417666
2.509901809307831   0.020812512878202183   -0.019978599243891282
2.509901809307831   0.020812512878202183   -0.019978599243891282
2.509901809307831   0.020812512878202183   -0.019978599243891282
2.509901809307831   0.020812512878202183   -0.019978599243891282
1.7555582149196887   -0.048111979559628704   -0.11682886506435385
1.7555582149196887   -0.048111979559628704   -0.11682886506435385
1.7555582149196887   -0.048111979559628704   -0.11682886506435385
1.7555582149196887   -0.048111979559628704   -0.11682886506435385
2.557394007530419   0.16650919097549   0.07178571377176163
2.557394007530419   0.16650919097549   0.07178571377176163
2.557394007530419   0.16650919097549   0.07178571377176163
2.557394007530419   0.16650919097549   0.07178571377176163
1.22049863283792   -0.22831545651433927   0.02378473026331268
1.22049863283792   -0.22831545651433927   0.02378473026331268
1.22049863283792   -0.22831545651433927   0.02378473026331268
1.22049863283792   -0.22831545651433927   0.02378473026331268
1.2816099203309272   -0.07989811276832942   0.05320905974317017
1.2816099203309272   -0.07989811276832942   0.05320905974317017
1.2816099203309272   -0.07989811276832942   0.05320905974317017
1.2816099203309272   -0.07989811276832942   0.05320905974317017
2.5540546641312516   0.036756626814574034   -0.0058944392572667925
2.5540546641312516   0.036756626814574034   -0.0058944392572667925
2.5540546641312516   0.036756626814574034   -0.0058944392572667925
2.5540546641312516   0.036756626814574034   -0.0058944392572667925
1.828149600273955   -0.03808427441759171   -0.07976201162835361
1.828149600273955   -0.03808427441759171   -0.07976201162835361
1.828149600273955   -0.03808427441759171   -0.07976201162835361
1.828149600273955   -0.03808427441759171   -0.07976201162835361
2.594218988201935   0.18193220869948534   0.04975159921123651
2.594218988201935   0.18193220869948534   0.04975159921123651
2.594218988201935   0.18193220869948534   0.04975159921123651
2.594218988201935   0.18193220869948534   0.04975159921123651
1.2493851449049453   -0.2171341460085397   0.029321215853471277
1.2493851449049453   -0.2171341460085397   0.029321215853471277
1.2493851449049453   -0.2171341460085397   0.029321215853471277
1.2493851449049453   -0.2171341460085397   0.029321215853471277
1.3184233553784157   -0.02479412381620344   0.04864105239713459
1.3184233553784157   -0.02479412381620344   0.04864105239713459
1.3184233553784157   -0.02479412381620344   0.04864105239713459
1.3184233553784157   -0.02479412381620344   0.04864105239713459
2.599935539868976   0.07319592922094093   -0.0007306320432480112
2.599935539868976   0.07319592922094093   -0.0007306320432480112
2.599935539868976   0.07319592922094093   -0.0007306320432480112
2.599935539868976   0.07319592922094093   -0.0007306320432480112
1.8373214456160871   -0.01766704291041421   -0.05955300869802972
1.8373214456160871   -0.01766704291041421   -0.05955300869802972
1.8373214456160871   -0.01766704291041421   -0.05955300869802972
1.8373214456160871   -0.01766704291041421   -0.05955300869802972
1.256465828693115   0.03141876311221198   0.09496548043786054
1.256465828693115   0.03141876311221198   0.09496548043786054
1.256465828693115   0.03141876311221198   0.09496548043786054
1.256465828693115   0.03141876311221198   0.09496548043786054
0.06727986544029468   -0.4454178378686875   0.045962032144248044
0.06727986544029468   -0.4454178378686875   0.045962032144248044
0.06727986544029468   -0.4454178378686875   0.045962032144248044
0.06727986544029468   -0.4454178378686875   0.045962032144248044
0.1532969570913693   -0.18827885525004112   0.042762048446729636
0.1532969570913693   -0.18827885525004112   0.042762048446729636
0.1532969570913693   -0.18827885525004112   0.042762048446729636
0.1532969570913693   -0.18827885525004112   0.042762048446729636
1.224166629460725   -0.21509746127611512   0.028906718139102783
1.224166629460725   -0.21509746127611512   0.028906718139102783
1.224166629460725   -0.21509746127611512   0.028906718139102783
1.224166629460725   -0.21509746127611512   0.028906718139102783
0.6533360166740456   -0.20002661441984473   -0.07486720323343593
0.6533360166740456   -0.20002661441984473   -0.07486720323343593
0.6533360166740456   -0.20002661441984473   -0.07486720323343593
0.6533360166740456   -0.20002661441984473   -0.07486720323343593
1.2863875428404123   0.045641347468925175   0.07927247629251809
1.2863875428404123   0.045641347468925175   0.07927247629251809
1.2863875428404123   0.045641347468925175   0.07927247629251809
1.2863875428404123   0.045641347468925175   0.07927247629251809
0.10750035817364878   -0.4325933495331217   0.058093548141207596
0.10750035817364878   -0.4325933495331217   0.058093548141207596
0.10750035817364878   -0.4325933495331217   0.058093548141207596
0.10750035817364878   -0.4325933495331217   0.058093548141207596
0.187913862728933   -0.1624765916781582   0.031034982941999065
0.187913862728933   -0.1624765916781582   0.031034982941999065
0.187913862728933   -0.1624765916781582   0.031034982941999065
0.187913862728933   -0.1624765916781582   0.031034982941999065
1.2537818708371948   -0.201611474716548   0.0357821742227267
1.2537818708371948   -0.201611474716548   0.0357821742227267
1.2537818708371948   -0.201611474716548   0.0357821742227267
1.2537818708371948   -0.201611474716548   0.0357821742227267
0.6828380397682643   -0.19017101793446856   -0.03743191328596221
0.6828380397682643   -0.19017101793446856   -0.03743191328596221
0.6828380397682643   -0.19017101793446856   -0.03743191328596221
0.6828380397682643   -0.19017101793446856   -0.03743191328596221
1.3142888247267182   0.06994374826979821   0.06676172068399618
1.3142888247267182   0.06994374826979821   0.06676172068399618
1.3142888247267182   0.06994374826979821   0.06676172068399618
1.3142888247267182   0.06994374826979821   0.06676172068399618
0.14321116998214484   -0.41822755352176877   0.0632724810516728
0.14321116998214484   -0.41822755352176877   0.0632724810516728
0.14321116998214484   -0.41822755352176877   0.0632724810516728
0.14321116998214484   -0.41822755352176877   0.0632724810516728
0.2410237881678452   -0.12374880456604667   0.0205938977950592
0.2410237881678452   -0.12374880456604667   0.0205938977950592
0.2410237881678452   -0.12374880456604667   0.0205938977950592
0.2410237881678452   -0.12374880456604667   0.0205938977950592
1.2862128034157227   -0.18109950665821628   0.043893675425691434
1.2862128034157227   -0.18109950665821628   0.043893675425691434
1.2862128034157227   -0.18109950665821628   0.043893675425691434
1.2862128034157227   -0.18109950665821628   0.043893675425691434
0.7344470298750744   -0.1662597317675152   0.006119812025715418
0.7344470298750744   -0.1662597317675152   0.006119812025715418
0.7344470298750744   -0.1662597317675152   0.006119812025715418
0.7344470298750744   -0.1662597317675152   0.006119812025715418
0.14232117150139306   -0.08539328149807512   0.0611440060791276
0.14232117150139306   -0.08539328149807512   0.0611440060791276
0.14232117150139306   -0.08539328149807512   0.0611440060791276
0.14232117150139306   -0.08539328149807512   0.0611440060791276
-1.0655143796675397   -0.7655740975094614   0.06642106720976271
-1.0655143796675397   -0.7655740975094614   0.06642106720976271
-1.0655143796675397   -0.7655740975094614   0.06642106720976271
-1.0655143796675397   -0.7655740975094614   0.06642106720976271
-0.9294392145219571   -0.2976731737658615   0.00457324646146634
-0.9294392145219571   -0.2976731737658615   0.00457324646146634
-0.9294392145219571   -0.2976731737658615   0.00457324646146634
-0.9294392145219571   -0.2976731737658615   0.00457324646146634
0.07579127519937748   -0.5581609149442273   0.025115698680956644
0.07579127519937748   -0.5581609149442273   0.025115698680956644
0.07579127519937748   -0.5581609149442273   0.025115698680956644
0.07579127519937748   -0.5581609149442273   0.025115698680956644
-0.4582226142448095   -0.42976978673403027   -0.08984505140749818
-0.4582226142448095   -0.42976978673403027   -0.08984505140749818
-0.4582226142448095   -0.42976978673403027   -0.08984505140749818
-0.4582226142448095   -0.42976978673403027   -0.08984505140749818
0.17856911732950176   -0.06734779817532735   0.04819179256267822
0.17856911732950176   -0.06734779817532735   0.04819179256267822
0.17856911732950176   -0.06734779817532735   0.04819179256267822
0.17856911732950176   -0.06734779817532735   0.04819179256267822
-1.0084743435787082   -0.7647435774613869   0.07646800487324426
-1.0084743435787082   -0.7647435774613869   0.07646800487324426
-1.0084743435787082   -0.7647435774613869   0.07646800487324426
-1.0084743435787082   -0.7647435774613869   0.07646800487324426
-0.876956664915812   -0.26715979877655543   0.0001503526409050611
-0.876956664915812   -0.26715979877655543   0.0001503526409050611
-0.876956664915812   -0.26715979877655543   0.0001503526409050611
-0.876956664915812   -0.26715979877655543   0.0001503526409050611
0.1122760163164096   -0.5459984920626303   0.03636765126385802
0.1122760163164096   -0.5459984920626303   0.03636765126385802
0.1122760163164096   -0.5459984920626303   0.03636765126385802
0.1122760163164096   -0.5459984920626303   0.03636765126385802
-0.40509002009218786   -0.415208481928121   -0.033569388083717414
-0.40509002009218786   -0.415208481928121   -0.033569388083717414
-0.40509002009218786   -0.415208481928121   -0.033569388083717414
-0.40509002009218786   -0.415208481928121   -0.033569388083717414
0.21170808407160624   -0.04329251659317553   0.03082201457038639
0.21170808407160624   -0.04329251659317553   0.03082201457038639
0.21170808407160624   -0.04329251659317553   0.03082201457038639
0.21170808407160624   -0.04329251659317553   0.03082201457038639
-0.954934280804171   -0.7484113223791806   0.09151379680174862
-0.954934280804171   -0.7484113223791806   0.09151379680174862
-0.954934280804171   -0.7484113223791806   0.09151379680174862
-0.954934280804171   -0.7484113223791806   0.09151379680174862
-0.7903576057119961   -0.2320008733302511   -0.009713479861558103
-0.7903576057119961   -0.2320008733302511   -0.009713479861558103
-0.7903576057119961   -0.2320008733302511   -0.009713479861558103
-0.7903576057119961   -0.2320008733302511   -0.009713479861558103
0.16923601144486491   -0.5118472920287169   0.04975350164282796
0.16923601144486491   -0.5118472920287169   0.04975350164282796
0.16923601144486491   -0.5118472920287169   0.04975350164282796
0.16923601144486491   -0.5118472920287169   0.04975350164282796
-0.3361107679955595   -0.38243913757376646   0.025398344566798042
-0.3361107679955595   -0.38243913757376646   0.025398344566798042
-0.3361107679955595   -0.38243913757376646   0.025398344566798042
-0.3361107679955595   -0.38243913757376646   0.025398344566798042
-0.9505964350126224   -0.15369978678468882   0.02913647975956783
-0.9505964350126224   -0.15369978678468882   0.02913647975956783
-0.9505964350126224   -0.15369978678468882   0.02913647975956783
-0.9505964350126224   -0.15369978678468882   0.02913647975956783
-2.3728914668473555   -1.1923945726156455   -0.05663595387051934
-2.3728914668473555   -1.1923945726156455   -0.05663595387051934
-2.3728914668473555   -1.1923945726156455   -0.05663595387051934
-2.3728914668473555   -1.1923945726156455   -0.05663595387051934
-2.1482384386725126   -0.3873378607680862   -0.0656163251112838
-2.1482384386725126   -0.3873378607680862   -0.0656163251112838
-2.1482384386725126   -0.3873378607680862   -0.0656163251112838
-2.1482384386725126   -0.3873378607680862   -0.0656163251112838
-1.0664066925034883   -0.9977456177970966   0.019808300585045208
-1.0664066925034883   -0.9977456177970966   0.019808300585045208
-1.0664066925034883   -0.9977456177970966   0.019808300585045208
-1.0664066925034883   -0.9977456177970966   0.019808300585045208
-1.6326692920176322   -0.7052448716858426   -0.09432799845413455
-1.6326692920176322   -0.7052448716858426   -0.09432799845413455
-1.6326692920176322   -0.7052448716858426   -0.09432799845413455
-1.6326692920176322   -0.7052448716858426   -0.09432799845413455
-0.8885750496878501   -0.11669811547972404   0.02791901234586448
-0.8885750496878501   -0.11669811547972404   0.02791901234586448
-0.8885750496878501   -0.11669811547972404   0.02791901234586448
-0.8885750496878501   -0.11669811547972404   0.02791901234586448
-2.3207788245036696   -1.263094106100977   -0.052562008934176396
-2.3207788245036696   -1.263094106100977   -0.052562008934176396
-2.3207788245036696   -1.263094106100977   -0.052562008934176396
-2.3207788245036696   -1.263094106100977   -0.052562008934176396
-2.078426551957368   -0.35074315393510236   -0.06683893781592998
-2.078426551957368   -0.35074315393510236   -0.06683893781592998
-2.078426551957368   -0.35074315393510236   -0.06683893781592998
-2.078426551957368   -0.35074315393510236   -0.06683893781592998
-1.0155622597927179   -0.9900304647024072   0.02999304418223675
-1.0155622597927179   -0.9900304647024072   0.02999304418223675
-1.0155622597927179   -0.9900304647024072   0.02999304418223675
-1.0155622597927179   -0.9900304647024072   0.02999304418223675
-1.5594942258723543   -0.6863236842765318   -0.06638448517115017
-1.5594942258723543   -0.6863236842765318   -0.06638448517115017
-1.5594942258723543   -0.6863236842765318   -0.06638448517115017
-1.5594942258723543   -0.6863236842765318   -0.06638448517115017
-0.8392085952189675   -0.08765466212876742   0.00938556447734359
-0.8392085952189675   -0.08765466212876742   0.00938556447734359
-0.8392085952189675   -0.08765466212876742   0.00938556447734359
-0.8392085952189675   -0.08765466212876742   0.00938556447734359
-2.2547524351359716   -1.2530911751135831   -0.04612033253045009
-2.2547524351359716   -1.2530911751135831   -0.04612033253045009
-2.2547524351359716   -1.2530911751135831   -0.04612033253045009
-2.2547524351359716   -1.2530911751135831   -0.04612033253045009
-1.969571737637228   -0.3113855998302632   -0.07576207565490412
-1.969571737637228   -0.3113855998302632   -0.07576207565490412
-1.969571737637228   -0.3113855998302632   -0.07576207565490412
-1.969571737637228   -0.3113855998302632   -0.07576207565490412
-0.9055686940544438   -0.8906991446096382   0.07292934970560183
-0.9055686940544438   -0.8906991446096382   0.07292934970560183
-0.9055686940544438   -0.8906991446096382   0.07292934970560183
-0.9055686940544438   -0.8906991446096382   0.07292934970560183
-1.4777930106242376   -0.6223696663821912   -0.037203432031395936
-1.4777930106242376   -0.6223696663821912   -0.037203432031395936
-1.4777930106242376   -0.6223696663821912   -0.037203432031395936
-1.4777930106242376   -0.6223696663821912   -0.037203432031395936
-2.152286727651658   -0.13087368312848607   -0.01513314737919294
-2.152286727651658   -0.13087368312848607   -0.01513314737919294
-2.152286727651658   -0.13087368312848607   -0.01513314737919294
-2.152286727651658   -0.13087368312848607   -0.01513314737919294
-3.8003753147295467   -0.7523267317231879   0.038741656113606915
-3.8003753147295467   -0.7523267317231879   0.038741656113606915
-3.8003753147295467   -0.7523267317231879   0.038741656113606915
-3.8003753147295467   -0.7523267317231879   0.038741656113606915
-3.6504383209668605   -0.3626968820884692   -0.08031145092430167
-3.6504383209668605   -0.3626968820884692   -0.08031145092430167
-3.6504383209668605   -0.3626968820884692   -0.08031145092430167
-3.6504383209668605   -0.3626968820884692   -0.08031145092430167
-2.103935875545683   -0.38922954096515405   0.1577881707199127
-2.103935875545683   -0.38922954096515405   0.1577881707199127
-2.103935875545683   -0.38922954096515405   0.1577881707199127
-2.103935875545683   -0.38922954096515405   0.1577881707199127
-2.8081508458086515   -0.436545496908888   0.04048470831889207
-2.8081508458086515   -0.436545496908888   0.04048470831889207
-2.8081508458086515   -0.436545496908888   0.04048470831889207
-2.8081508458086515   -0.436545496908888   0.04048470831889207
-2.063372869537283   -0.029122308048616374   0.0004959678453851091
-2.063372869537283   -0.029122308048616374   0.0004959678453851091
-2.063372869537283   -0.029122308048616374   0.0004959678453851091
-2.063372869537283   -0.029122308048616374   0.0004959678453851091
-3.7053386789608838   -0.7371414669906335   0.019631344007715934
-3.7053386789608838   -0.7371414669906335   0.019631344007715934
-3.7053386789608838   -0.7371414669906335   0.019631344007715934
-3.7053386789608838   -0.7371414669906335   0.019631344007715934
-3.567671281689396   -0.3323145271457607   -0.10192580317455494
-3.567671281689396   -0.3323145271457607   -0.10192580317455494
-3.567671281689396   -0.3323145271457607   -0.10192580317455494
-3.567671281689396   -0.3323145271457607   -0.10192580317455494
-2.0320633214560857   -0.3696382101167812   0.1838722708721795
-2.0320633214560857   -0.3696382101167812   0.1838722708721795
-2.0320633214560857   -0.3696382101167812   0.1838722708721795
-2.0320633214560857   -0.3696382101167812   0.1838722708721795
-2.7643154716454363   -0.3594539299617382   0.03886286296683494
-2.7643154716454363   -0.3594539299617382   0.03886286296683494
-2.7643154716454363   -0.3594539299617382   0.03886286296683494
-2.7643154716454363   -0.3594539299617382   0.03886286296683494
-1.9993350702119543   -0.0022392173501254997   -0.01988546567382035
-1.9993350702119543   -0.0022392173501254997   -0.01988546567382035
-1.9993350702119543   -0.0022392173501254997   -0.01988546567382035
-1.9993350702119543   -0.0022392173501254997   -0.01988546567382035
-3.6057145945386253   -0.7050285815175192   0.08057168695102868
-3.6057145945386253   -0.7050285815175192   0.08057168695102868
-3.6057145945386253   -0.7050285815175192   0.08057168695102868
-3.6057145945386253   -0.7050285815175192   0.08057168695102868
-3.395816800061985   -0.2690475998051987   -0.11387246617128698
-3.395816800061985   -0.2690475998051987   -0.11387246617128698
-3.395816800061985   -0.2690475998051987   -0.11387246617128698
-3.395816800061985   -0.2690475998051987   -0.11387246617128698
-1.9203112279559256   -0.34352605917242707   0.20268093209379034
-1.9203112279559256   -0.34352605917242707   0.20268093209379034
-1.9203112279559256   -0.34352605917242707   0.20268093209379034
-1.9203112279559256   -0.34352605917242707   0.20268093209379034
-2.5983896454675057   -0.27474353332693185   0.0794229966401951
-2.5983896454675057   -0.27474353332693185   0.0794229966401951
-2.5983896454675057   -0.27474353332693185   0.0794229966401951
-2.5983896454675057   -0.27474353332693185   0.0794229966401951
2.7344928714692323   0.08908976598525531   0.038595063809799574
2.7344928714692323   0.08908976598525531   0.038595063809799574
2.7344928714692323   0.08908976598525531   0.038595063809799574
2.7344928714692323   0.08908976598525531   0.038595063809799574
1.3970187387849449   -0.07325623894169064   0.028614439113612528
1.3970187387849449   -0.07325623894169064   0.028614439113612528
1.3970187387849449   -0.07325623894169064   0.028614439113612528
1.3970187387849449   -0.07325623894169064   0.028614439113612528
1.3421840300824497   -0.1975306093899601   0.05602356864067873
1.3421840300824497   -0.1975306093899601   0.05602356864067873
1.3421840300824497   -0.1975306093899601   0.05602356864067873
1.3421840300824497   -0.1975306093899601   0.05602356864067873
2.7146106218762505   0.1529864704896407   0.020786473758177063
2.7146106218762505   0.1529864704896407   0.020786473758177063
2.7146106218762505   0.1529864704896407   0.020786473758177063
2.7146106218762505   0.1529864704896407   0.020786473758177063
1.9379703273831839   -0.027657644342979737   -0.07151598090967103
1.9379703273831839   -0.027657644342979737   -0.07151598090967103
1.9379703273831839   -0.027657644342979737   -0.07151598090967103
1.9379703273831839   -0.027657644342979737   -0.07151598090967103
2.6994986959793694   0.0686418941783089   0.029571420585103703
2.6994986959793694   0.0686418941783089   0.029571420585103703
2.6994986959793694   0.0686418941783089   0.029571420585103703
2.6994986959793694   0.0686418941783089   0.029571420585103703
1.352794903871026   -0.11768708518693288   0.0292344133805333
1.352794903871026   -0.11768708518693288   0.0292344133805333
1.352794903871026   -0.11768708518693288   0.0292344133805333
1.352794903871026   -0.11768708518693288   0.0292344133805333
1.3072584749817007   -0.20214975538009955   0.04636983891891677
1.3072584749817007   -0.20214975538009955   0.04636983891891677
1.3072584749817007   -0.20214975538009955   0.04636983891891677
1.3072584749817007   -0.20214975538009955   0.04636983891891677
2.6826596664757356   0.14629474103380008   0.03583439851128663
2.6826596664757356   0.14629474103380008   0.03583439851128663
2.6826596664757356   0.14629474103380008   0.03583439851128663
2.6826596664757356   0.14629474103380008   0.03583439851128663
1.931995139751237   -0.03816326814907639   -0.08291403699222809
1.931995139751237   -0.03816326814907639   -0.08291403699222809
1.931995139751237   -0.03816326814907639   -0.08291403699222809
1.931995139751237   -0.03816326814907639   -0.08291403699222809
2.660195280623732   0.06093756668461092   0.008869643600437238
2.660195280623732   0.06093756668461092   0.008869643600437238
2.660195280623732   0.06093756668461092   0.008869643600437238
2.660195280623732   0.06093756668461092   0.008869643600437238
1.3216568348008952   -0.12485860706372265   0.04107048969851333
1.3216568348008952   -0.12485860706372265   0.04107048969851333
1.3216568348008952   -0.12485860706372265   0.04107048969851333
1.3216568348008952   -0.12485860706372265   0.04107048969851333
1.2703867531234654   -0.18456044622889073   0.04003627745310433
1.2703867531234654   -0.18456044622889073   0.04003627745310433
1.2703867531234654   -0.18456044622889073   0.04003627745310433
1.2703867531234654   -0.18456044622889073   0.04003627745310433
2.633394648970852   0.14776598823789522   0.05142328061865553
2.633394648970852   0.14776598823789522   0.05142328061865553
2.633394648970852   0.14776598823789522   0.05142328061865553
2.633394648970852   0.14776598823789522   0.05142328061865553
1.8592153682393024   -0.03852690763197719   -0.11206156605025874
1.8592153682393024   -0.03852690763197719   -0.11206156605025874
1.8592153682393024   -0.03852690763197719   -0.11206156605025874
1.8592153682393024   -0.03852690763197719   -0.11206156605025874
1.3841152950330071   -0.17756246841378998   0.06840344982602345
1.3841152950330071   -0.17756246841378998   0.06840344982602345
1.3841152950330071   -0.17756246841378998   0.06840344982602345
1.3841152950330071   -0.17756246841378998   0.06840344982602345
0.27074107980577783   -0.16486407666315345   0.014883681057984544
0.27074107980577783   -0.16486407666315345   0.014883681057984544
0.27074107980577783   -0.16486407666315345   0.014883681057984544
0.27074107980577783   -0.16486407666315345   0.014883681057984544
0.17620178546805126   -0.415735184331016   0.07368294685733368
0.17620178546805126   -0.415735184331016   0.07368294685733368
0.17620178546805126   -0.415735184331016   0.07368294685733368
0.17620178546805126   -0.415735184331016   0.07368294685733368
1.3917571743678456   0.05345442221597296   0.05290425846172543
1.3917571743678456   0.05345442221597296   0.05290425846172543
1.3917571743678456   0.05345442221597296   0.05290425846172543
1.3917571743678456   0.05345442221597296   0.05290425846172543
0.7933292186540993   -0.17687877834771146   -0.003007847005401909
0.7933292186540993   -0.17687877834771146   -0.003007847005401909
0.7933292186540993   -0.17687877834771146   -0.003007847005401909
0.7933292186540993   -0.17687877834771146   -0.003007847005401909
1.3448826992032619   -0.18528194165372763   0.0572682465085034
1.3448826992032619   -0.18528194165372763   0.0572682465085034
1.3448826992032619   -0.18528194165372763   0.0572682465085034
1.3448826992032619   -0.18528194165372763   0.0572682465085034
0.21124218624151136   -0.18883289485242943   0.021982661246047724
0.21124218624151136   -0.18883289485242943   0.021982661246047724
0.21124218624151136   -0.18883289485242943   0.021982661246047724
0.21124218624151136   -0.18883289485242943   0.021982661246047724
0.13388859103387585   -0.41955061728935594   0.06597974116200617
0.13388859103387585   -0.41955061728935594   0.06597974116200617
0.13388859103387585   -0.41955061728935594   0.06597974116200617
0.13388859103387585   -0.41955061728935594   0.06597974116200617
1.359544956448316   0.042942208282096106   0.06271028258979706
1.359544956448316   0.042942208282096106   0.06271028258979706
1.359544956448316   0.042942208282096106   0.06271028258979706
1.359544956448316   0.042942208282096106   0.06271028258979706
0.7358915985619595   -0.18855381312731823   -0.03813171188378067
0.7358915985619595   -0.18855381312731823   -0.03813171188378067
0.7358915985619595   -0.18855381312731823   -0.03813171188378067
0.7358915985619595   -0.18855381312731823   -0.03813171188378067
1.3102790459559521   -0.1880032390460974   0.04732617745616108
1.3102790459559521   -0.1880032390460974   0.04732617745616108
1.3102790459559521   -0.1880032390460974   0.04732617745616108
1.3102790459559521   -0.1880032390460974   0.04732617745616108
0.170297506366264   -0.20146216512112958   0.02993586565572047
0.170297506366264   -0.20146216512112958   0.02993586565572047
0.170297506366264   -0.20146216512112958   0.02993586565572047
0.170297506366264   -0.20146216512112958   0.02993586565572047
0.08653236552719894   -0.4194769616125539   0.05168683854252738
0.08653236552719894   -0.4194769616125539   0.05168683854252738
0.08653236552719894   -0.4194769616125539   0.05168683854252738
0.08653236552719894   -0.4194769616125539   0.05168683854252738
1.3229876141679184   0.04347647455152065   0.07500366189496585
1.3229876141679184   0.04347647455152065   0.07500366189496585
1.3229876141679184   0.04347647455152065   0.07500366189496585
1.3229876141679184   0.04347647455152065   0.07500366189496585
0.7007498459660837   -0.187213069927638   -0.06803450505098751
0.7007498459660837   -0.187213069927638   -0.06803450505098751
0.7007498459660837   -0.187213069927638   -0.06803450505098751
0.7007498459660837   -0.187213069927638   -0.06803450505098751
0.2107730075886864   -0.5113041540319123   0.06148339734128222
0.2107730075886864   -0.5113041540319123   0.06148339734128222
0.2107730075886864   -0.5113041540319123   0.06148339734128222
0.2107730075886864   -0.5113041540319123   0.06148339734128222
-0.811863113004432   -0.25610241210321366   0.0011166947802321477
-0.811863113004432   -0.25610241210321366   0.0011166947802321477
-0.811863113004432   -0.25610241210321366   0.0011166947802321477
-0.811863113004432   -0.25610241210321366   0.0011166947802321477
-0.9829012333470024   -0.7580321387443146   0.08445208822689954
-0.9829012333470024   -0.7580321387443146   0.08445208822689954
-0.9829012333470024   -0.7580321387443146   0.08445208822689954
-0.9829012333470024   -0.7580321387443146   0.08445208822689954
0.24248015950785215   -0.044053899671426686   0.03339353239674475
0.24248015950785215   -0.044053899671426686   0.03339353239674475
0.24248015950785215   -0.044053899671426686   0.03339353239674475
0.24248015950785215   -0.044053899671426686   0.03339353239674475
-0.33085255858407797   -0.3868546904169929   0.014501653481970758
-0.33085255858407797   -0.3868546904169929   0.014501653481970758
-0.33085255858407797   -0.3868546904169929   0.014501653481970758
-0.33085255858407797   -0.3868546904169929   0.014501653481970758
0.14533854681776642   -0.5404569054181351   0.04408847469302843
0.14533854681776642   -0.5404569054181351   0.04408847469302843
0.14533854681776642   -0.5404569054181351   0.04408847469302843
0.14533854681776642   -0.5404569054181351   0.04408847469302843
-0.9023015531369486   -0.2781710654776286   0.007589416010474626
-0.9023015531369486   -0.2781710654776286   0.007589416010474626
-0.9023015531369486   -0.2781710654776286   0.007589416010474626
-0.9023015531369486   -0.2781710654776286   0.007589416010474626
-1.0418738290834404   -0.7703694028567387   0.06866294269322745
-1.0418738290834404   -0.7703694028567387   0.06866294269322745
-1.0418738290834404   -0.7703694028567387   0.06866294269322745
-1.0418738290834404   -0.7703694028567387   0.06866294269322745
0.20284183304273187   -0.0557281963832062   0.04692353030013646
0.20284183304273187   -0.0557281963832062   0.04692353030013646
0.20284183304273187   -0.0557281963832062   0.04692353030013646
0.20284183304273187   -0.0557281963832062   0.04692353030013646
-0.40452588454360694   -0.4104679095172875   -0.034731133994059554
-0.40452588454360694   -0.4104679095172875   -0.034731133994059554
-0.40452588454360694   -0.4104679095172875   -0.034731133994059554
-0.40452588454360694   -0.4104679095172875   -0.034731133994059554
0.1002665547828594   -0.550008438415498   0.028327381033069865
0.1002665547828594   -0.550008438415498   0.028327381033069865
0.1002665547828594   -0.550008438415498   0.028327381033069865
0.1002665547828594   -0.550008438415498   0.028327381033069865
-0.9589463104371473   -0.2957369204380168   0.008668053505962638
-0.9589463104371473   -0.2957369204380168   0.008668053505962638
-0.9589463104371473   -0.2957369204380168   0.008668053505962638
-0.9589463104371473   -0.2957369204380168   0.008668053505962638
-1.1057434160417734   -0.7651948239672888   0.05799526943660652
-1.1057434160417734   -0.7651948239672888   0.05799526943660652
-1.1057434160417734   -0.7651948239672888   0.05799526943660652
-1.1057434160417734   -0.7651948239672888   0.05799526943660652
0.15872914857799658   -0.062267362448608705   0.05546115463257039
0.15872914857799658   -0.062267362448608705   0.05546115463257039
0.15872914857799658   -0.062267362448608705   0.05546115463257039
0.15872914857799658   -0.062267362448608705   0.05546115463257039
-0.464268857486571   -0.4194810789202174   -0.08384832976768719
-0.464268857486571   -0.4194810789202174   -0.08384832976768719
-0.464268857486571   -0.4194810789202174   -0.08384832976768719
-0.464268857486571   -0.4194810789202174   -0.08384832976768719
-0.9214761677739594   -0.8761621002174876   0.07311110904687357
-0.9214761677739594   -0.8761621002174876   0.07311110904687357
-0.9214761677739594   -0.8761621002174876   0.07311110904687357
-0.9214761677739594   -0.8761621002174876   0.07311110904687357
-2.0437085393992134   -0.3189357532849416   -0.04748167845221475
-2.0437085393992134   -0.3189357532849416   -0.04748167845221475
-2.0437085393992134   -0.3189357532849416   -0.04748167845221475
-2.0437085393992134   -0.3189357532849416   -0.04748167845221475
-2.3425245833625885   -1.2701537381416803   -0.06611441027877285
-2.3425245833625885   -1.2701537381416803   -0.06611441027877285
-2.3425245833625885   -1.2701537381416803   -0.06611441027877285
-2.3425245833625885   -1.2701537381416803   -0.06611441027877285
-0.8568930723641822   -0.07239202577687252   0.028852780173550353
-0.8568930723641822   -0.07239202577687252   0.028852780173550353
-0.8568930723641822   -0.07239202577687252   0.028852780173550353
-0.8568930723641822   -0.07239202577687252   0.028852780173550353
-1.5264388858616114   -0.6099409141278221   -0.05289909371420834
-1.5264388858616114   -0.6099409141278221   -0.05289909371420834
-1.5264388858616114   -0.6099409141278221   -0.05289909371420834
-1.5264388858616114   -0.6099409141278221   -0.05289909371420834
-1.0416820120295063   -0.9918826088377468   0.024398664907811896
-1.0416820120295063   -0.9918826088377468   0.024398664907811896
-1.0416820120295063   -0.9918826088377468   0.024398664907811896
-1.0416820120295063   -0.9918826088377468   0.024398664907811896
-2.1529410757010448   -0.34586858708458534   -0.04248202302815081
-2.1529410757010448   -0.34586858708458534   -0.04248202302815081
-2.1529410757010448   -0.34586858708458534   -0.04248202302815081
-2.1529410757010448   -0.34586858708458534   -0.04248202302815081
-2.4126316420880016   -1.2907351044209046   -0.07646077211502841
-2.4126316420880016   -1.2907351044209046   -0.07646077211502841
-2.4126316420880016   -1.2907351044209046   -0.07646077211502841
-2.4126316420880016   -1.2907351044209046   -0.07646077211502841
-0.911205565097424   -0.09150663912278548   0.04314149888934816
-0.911205565097424   -0.09150663912278548   0.04314149888934816
-0.911205565097424   -0.09150663912278548   0.04314149888934816
-0.911205565097424   -0.09150663912278548   0.04314149888934816
-1.6120701004372087   -0.6756186073032182   -0.07453065287121
-1.6120701004372087   -0.6756186073032182   -0.07453065287121
-1.6120701004372087   -0.6756186073032182   -0.07453065287121
-1.6120701004372087   -0.6756186073032182   -0.07453065287121
-1.1019066256513432   -1.0113933627593226   0.009522919756285053
-1.1019066256513432   -1.0113933627593226   0.009522919756285053
-1.1019066256513432   -1.0113933627593226   0.009522919756285053
-1.1019066256513432   -1.0113933627593226   0.009522919756285053
-2.2221269533592514   -0.3710447526095504   -0.04362768028264918
-2.2221269533592514   -0.3710447526095504   -0.04362768028264918
-2.2221269533592514   -0.3710447526095504   -0.04362768028264918
-2.2221269533592514   -0.3710447526095504   -0.04362768028264918
-2.4724737327303403   -1.2359117642617283   -0.08622870987895292
-2.4724737327303403   -1.2359117642617283   -0.08622870987895292
-2.4724737327303403   -1.2359117642617283   -0.08622870987895292
-2.4724737327303403   -1.2359117642617283   -0.08622870987895292
-0.9800188275206724   -0.11848128841837956   0.03990467649318587
-0.9800188275206724   -0.11848128841837956   0.03990467649318587
-0.9800188275206724   -0.11848128841837956   0.03990467649318587
-0.9800188275206724   -0.11848128841837956   0.03990467649318587
-1.6908468073432588   -0.6980775618760553   -0.09513125445229373
-1.6908468073432588   -0.6980775618760553   -0.09513125445229373
-1.6908468073432588   -0.6980775618760553   -0.09513125445229373
-1.6908468073432588   -0.6980775618760553   -0.09513125445229373
-2.0070219328291734   -0.36500105528602683   0.1820166563990393
-2.0070219328291734   -0.36500105528602683   0.1820166563990393
-2.0070219328291734   -0.36500105528602683   0.1820166563990393
-2.0070219328291734   -0.36500105528602683   0.1820166563990393
-3.53805242817259   -0.26519697259746133   -0.06325673077036734
-3.53805242817259   -0.26519697259746133   -0.06325673077036734
-3.53805242817259   -0.26519697259746133   -0.06325673077036734
-3.53805242817259   -0.26519697259746133   -0.06325673077036734
-3.7553269080392933   -0.7410646300506245   0.05000375778617028
-3.7553269080392933   -0.7410646300506245   0.05000375778617028
-3.7553269080392933   -0.7410646300506245   0.05000375778617028
-3.7553269080392933   -0.7410646300506245   0.05000375778617028
-2.0658374798935664   0.029406404015612342   0.017760964909024665
-2.0658374798935664   0.029406404015612342   0.017760964909024665
-2.0658374798935664   0.029406404015612342   0.017760964909024665
-2.0658374798935664   0.029406404015612342   0.017760964909024665
-2.706228623719341   -0.2603494647899704   0.05448450048131788
-2.706228623719341   -0.2603494647899704   0.05448450048131788
-2.706228623719341   -0.2603494647899704   0.05448450048131788
-2.706228623719341   -0.2603494647899704   0.05448450048131788
-2.1213531215353383   -0.3919606601365947   0.1615498208523648
-2.1213531215353383   -0.3919606601365947   0.1615498208523648
-2.1213531215353383   -0.3919606601365947   0.1615498208523648
-2.1213531215353383   -0.3919606601365947   0.1615498208523648
-3.690229280358646   -0.310115579859539   -0.055457154001652256
-3.690229280358646   -0.310115579859539   -0.055457154001652256
-3.690229280358646   -0.310115579859539   -0.055457154001652256
-3.690229280358646   -0.310115579859539   -0.055457154001652256
-3.8477830764251832   -0.7727525663567084   -0.015979755358358938
-3.8477830764251832   -0.7727525663567084   -0.015979755358358938
-3.8477830764251832   -0.7727525663567084   -0.015979755358358938
-3.8477830764251832   -0.7727525663567084   -0.015979755358358938
-2.1310547180943207   0.008016481268618036   0.032672262163834676
-2.1310547180943207   0.008016481268618036   0.032672262163834676
-2.1310547180943207   0.008016481268618036   0.032672262163834676
-2.1310547180943207   0.008016481268618036   0.032672262163834676
-2.8687401587404735   -0.34384351608513486   0.022530958088041314
-2.8687401587404735   -0.34384351608513486   0.022530958088041314
-2.8687401587404735   -0.34384351608513486   0.022530958088041314
-2.8687401587404735   -0.34384351608513486   0.022530958088041314
-2.1948115215566073   -0.4121511325725976   0.13405585869361913
-2.1948115215566073   -0.4121511325725976   0.13405585869361913
-2.1948115215566073   -0.4121511325725976   0.13405585869361913
-2.1948115215566073   -0.4121511325725976   0.13405585869361913
-3.7648640151958013   -0.3334226947483865   -0.040714320819707606
-3.7648640151958013   -0.3334226947483865   -0.040714320819707606
-3.7648640151958013   -0.3334226947483865   -0.040714320819707606
-3.7648640151958013   -0.3334226947483865   -0.040714320819707606
-3.9284829815998084   -0.785720678282815   -0.00012040981426708619
-3.9284829815998084   -0.785720678282815   -0.00012040981426708619
-3.9284829815998084   -0.785720678282815   -0.00012040981426708619
-3.9284829815998084   -0.785720678282815   -0.00012040981426708619
-2.222582857253438   -0.08598015518049507   0.013294058424326141
-2.222582857253438   -0.08598015518049507   0.013294058424326141
-2.222582857253438   -0.08598015518049507   0.013294058424326141
-2.222582857253438   -0.08598015518049507   0.013294058424326141
-2.9040990603032744   -0.41561085362473205   0.035597774248358284
-2.9040990603032744   -0.41561085362473205   0.035597774248358284
-2.9040990603032744   -0.41561085362473205   0.035597774248358284
-2.9040990603032744   -0.41561085362473205   0.035597774248358284
2.392661038353925   0.10969706847971583   -0.05226132334827388
2.392661038353925   0.10969706847971583   -0.05226132334827388
2.392661038353925   0.10969706847971583   -0.05226132334827388
2.392661038353925   0.10969706847971583   -0.05226132334827388
1.2050113124748338   -0.02384187125173226   0.02583716331482719
1.2050113124748338   -0.02384187125173226   0.02583716331482719
1.2050113124748338   -0.02384187125173226   0.02583716331482719
1.2050113124748338   -0.02384187125173226   0.02583716331482719
1.1279750918723412   -0.17771514454051096   -0.04608607138867225
1.1279750918723412   -0.17771514454051096   -0.04608607138867225
1.1279750918723412   -0.17771514454051096   -0.04608607138867225
1.1279750918723412   -0.17771514454051096   -0.04608607138867225
2.3648524871196   0.17291404256983767   0.030229251144548885
2.3648524871196   0.17291404256983767   0.030229251144548885
2.3648524871196   0.17291404256983767   0.030229251144548885
2.3648524871196   0.17291404256983767   0.030229251144548885
1.6797015682462035   0.004112031116290216   -0.0648946835752644
1.6797015682462035   0.004112031116290216   -0.0648946835752644
1.6797015682462035   0.004112031116290216   -0.0648946835752644
1.6797015682462035   0.004112031116290216   -0.0648946835752644
2.3257905227441693   0.06052654189919976   -0.05269307006194672
2.3257905227441693   0.06052654189919976   -0.05269307006194672
2.3257905227441693   0.06052654189919976   -0.05269307006194672
2.3257905227441693   0.06052654189919976   -0.05269307006194672
1.1648570866554468   -0.06750761346219636   0.028116371448532185
1.1648570866554468   -0.06750761346219636   0.028116371448532185
1.1648570866554468   -0.06750761346219636   0.028116371448532185
1.1648570866554468   -0.06750761346219636   0.028116371448532185
1.0865116435431765   -0.18770698706718653   -0.038026219061087316
1.0865116435431765   -0.18770698706718653   -0.038026219061087316
1.0865116435431765   -0.18770698706718653   -0.038026219061087316
1.0865116435431765   -0.18770698706718653   -0.038026219061087316
2.307222084284022   0.1587807200984916   0.04410810928267715
2.307222084284022   0.1587807200984916   0.04410810928267715
2.307222084284022   0.1587807200984916   0.04410810928267715
2.307222084284022   0.1587807200984916   0.04410810928267715
1.6568879852809937   -0.016930347250907307   -0.07758982110792621
1.6568879852809937   -0.016930347250907307   -0.07758982110792621
1.6568879852809937   -0.016930347250907307   -0.07758982110792621
1.6568879852809937   -0.016930347250907307   -0.07758982110792621
2.267878987456793   0.04783866214729904   -0.04166531690227564
2.267878987456793   0.04783866214729904   -0.04166531690227564
2.267878987456793   0.04783866214729904   -0.04166531690227564
2.267878987456793   0.04783866214729904   -0.04166531690227564
1.122842741068783   -0.0797769284176168   0.035699209917374145
1.122842741068783   -0.0797769284176168   0.035699209917374145
1.122842741068783   -0.0797769284176168   0.035699209917374145
1.122842741068783   -0.0797769284176168   0.035699209917374145
1.0463290050590524   -0.1851421537871022   -0.02605178559453117
1.0463290050590524   -0.1851421537871022   -0.02605178559453117
1.0463290050590524   -0.1851421537871022   -0.02605178559453117
1.0463290050590524   -0.1851421537871022   -0.02605178559453117
2.235842156478493   0.14903397554978298   0.05731383683511039
2.235842156478493   0.14903397554978298   0.05731383683511039
2.235842156478493   0.14903397554978298   0.05731383683511039
2.235842156478493   0.14903397554978298   0.05731383683511039
1.5746403368228248   -0.029575746122131263   -0.10199002931672661
1.5746403368228248   -0.029575746122131263   -0.10199002931672661
1.5746403368228248   -0.029575746122131263   -0.10199002931672661
1.5746403368228248   -0.029575746122131263   -0.10199002931672661
1.2112005351549788   0.022366132739876254   0.010575272723931939
1.2112005351549788   0.022366132739876254   0.010575272723931939
1.2112005351549788   0.022366132739876254   0.010575272723931939
1.2112005351549788   0.022366132739876254   0.010575272723931939
0.11783779730142546   -0.07232383527336679   -0.002608171307589762
0.11783779730142546   -0.07232383527336679   -0.002608171307589762
0.11783779730142546   -0.07232383527336679   -0.002608171307589762
0.11783779730142546   -0.07232383527336679   -0.002608171307589762
0.04524955766260007   -0.23528782752606803   -0.04429937354323393
0.04524955766260007   -0.23528782752606803   -0.04429937354323393
0.04524955766260007   -0.23528782752606803   -0.04429937354323393
0.04524955766260007   -0.23528782752606803   -0.04429937354323393
1.2127119791021916   0.1397812911078456   0.06010192911221435
1.2127119791021916   0.1397812911078456   0.06010192911221435
1.2127119791021916   0.1397812911078456   0.06010192911221435
1.2127119791021916   0.1397812911078456   0.06010192911221435
0.63487858091261   -0.03326076833272973   -0.025270682676720044
0.63487858091261   -0.03326076833272973   -0.025270682676720044
0.63487858091261   -0.03326076833272973   -0.025270682676720044
0.63487858091261   -0.03326076833272973   -0.025270682676720044
1.177132312646246   0.0036213131394799425   0.018363574800859886
1.177132312646246   0.0036213131394799425   0.018363574800859886
1.177132312646246   0.0036213131394799425   0.018363574800859886
1.177132312646246   0.0036213131394799425   0.018363574800859886
0.08216935921489699   -0.09778771446134976   0.0027995211535324013
0.08216935921489699   -0.09778771446134976   0.0027995211535324013
0.08216935921489699   -0.09778771446134976   0.0027995211535324013
0.08216935921489699   -0.09778771446134976   0.0027995211535324013
0.005271153474578294   -0.24660791885205124   -0.030766550107263257
0.005271153474578294   -0.24660791885205124   -0.030766550107263257
0.005271153474578294   -0.24660791885205124   -0.030766550107263257
0.005271153474578294   -0.24660791885205124   -0.030766550107263257
1.168818057647615   0.11949064671209461   0.06630821768182402
1.168818057647615   0.11949064671209461   0.06630821768182402
1.168818057647615   0.11949064671209461   0.06630821768182402
1.168818057647615   0.11949064671209461   0.06630821768182402
0.5889164351386585   -0.051916129046512105   -0.03578194080083162
0.5889164351386585   -0.051916129046512105   -0.03578194080083162
0.5889164351386585   -0.051916129046512105   -0.03578194080083162
0.5889164351386585   -0.051916129046512105   -0.03578194080083162
1.1352319843613528   -0.009073952550610498   0.02694245051322723
1.1352319843613528   -0.009073952550610498   0.02694245051322723
1.1352319843613528   -0.009073952550610498   0.02694245051322723
1.1352319843613528   -0.009073952550610498   0.02694245051322723
0.03866158616091336   -0.118238960189282   0.007816654661642823
0.03866158616091336   -0.118238960189282   0.007816654661642823
0.03866158616091336   -0.118238960189282   0.007816654661642823
0.03866158616091336   -0.118238960189282   0.007816654661642823
-0.037661973031170436   -0.24784051531998558   -0.02093170026353762
-0.037661973031170436   -0.24784051531998558   -0.02093170026353762
-0.037661973031170436   -0.24784051531998558   -0.02093170026353762
-0.037661973031170436   -0.24784051531998558   -0.02093170026353762
1.1245344438454168   0.10653359866164158   0.0732996558885534
1.1245344438454168   0.10653359866164158   0.0732996558885534
1.1245344438454168   0.10653359866164158   0.0732996558885534
1.1245344438454168   0.10653359866164158   0.0732996558885534
0.5528724200832356   -0.05943003133448378   -0.04484567734936962
0.5528724200832356   -0.05943003133448378   -0.04484567734936962
0.5528724200832356   -0.05943003133448378   -0.04484567734936962
0.5528724200832356   -0.05943003133448378   -0.04484567734936962
0.11973665178932032   -0.0692444541073384   0.0038067199658560376
0.11973665178932032   -0.0692444541073384   0.0038067199658560376
0.11973665178932032   -0.0692444541073384   0.0038067199658560376
0.11973665178932032   -0.0692444541073384   0.0038067199658560376
-0.9328876739979098   -0.10790464373654626   -0.029377810102661335
-0.9328876739979098   -0.10790464373654626   -0.029377810102661335
-0.9328876739979098   -0.10790464373654626   -0.029377810102661335
-0.9328876739979098   -0.10790464373654626   -0.029377810102661335
-1.0135844678979045   -0.31202807332030313   -0.05041270844188101
-1.0135844678979045   -0.31202807332030313   -0.05041270844188101
-1.0135844678979045   -0.31202807332030313   -0.05041270844188101
-1.0135844678979045   -0.31202807332030313   -0.05041270844188101
0.1285050884326874   0.10225033233983233   0.03444012044130245
0.1285050884326874   0.10225033233983233   0.03444012044130245
0.1285050884326874   0.10225033233983233   0.03444012044130245
0.1285050884326874   0.10225033233983233   0.03444012044130245
-0.4258328640776652   -0.09209396003021458   -0.02511466349573982
-0.4258328640776652   -0.09209396003021458   -0.02511466349573982
-0.4258328640776652   -0.09209396003021458   -0.02511466349573982
-0.4258328640776652   -0.09209396003021458   -0.02511466349573982
0.08970559900603531   -0.07729076426797013   0.019983769915844364
0.08970559900603531   -0.07729076426797013   0.019983769915844364
0.08970559900603531   -0.07729076426797013   0.019983769915844364
0.08970559900603531   -0.07729076426797013   0.019983769915844364
-0.9718238825352595   -0.1295258807765079   -0.024111974172451648
-0.9718238825352595   -0.1295258807765079   -0.024111974172451648
-0.9718238825352595   -0.1295258807765079   -0.024111974172451648
-0.9718238825352595   -0.1295258807765079   -0.024111974172451648
-1.060479020835301   -0.3244369230266395   -0.03329924903899731
-1.060479020835301   -0.3244369230266395   -0.03329924903899731
-1.060479020835301   -0.3244369230266395   -0.03329924903899731
-1.060479020835301   -0.3244369230266395   -0.03329924903899731
0.08464171809832081   0.08052234861409252   0.03895600554530562
0.08464171809832081   0.08052234861409252   0.03895600554530562
0.08464171809832081   0.08052234861409252   0.03895600554530562
0.08464171809832081   0.08052234861409252   0.03895600554530562
-0.4646164090125273   -0.10506102430018113   -0.030134812651918495
-0.4646164090125273   -0.10506102430018113   -0.030134812651918495
-0.4646164090125273   -0.10506102430018113   -0.030134812651918495
-0.4646164090125273   -0.10506102430018113   -0.030134812651918495
0.0481865881724107   -0.09050284209277351   0.02770554662262102
0.0481865881724107   -0.09050284209277351   0.02770554662262102
0.0481865881724107   -0.09050284209277351   0.02770554662262102
0.0481865881724107   -0.09050284209277351   0.02770554662262102
-1.0234086312866342   -0.15279647269701804   -0.019587751625292277
-1.0234086312866342   -0.15279647269701804   -0.019587751625292277
-1.0234086312866342   -0.15279647269701804   -0.019587751625292277
-1.0234086312866342   -0.15279647269701804   -0.019587751625292277
-1.112525274938921   -0.3335318220207043   -0.029606719710928764
-1.112525274938921   -0.3335318220207043   -0.029606719710928764
-1.112525274938921   -0.3335318220207043   -0.029606719710928764
-1.112525274938921   -0.3335318220207043   -0.029606719710928764
0.037198678833440905   0.061965982087940644   0.043565061651592865
0.037198678833440905   0.061965982087940644   0.043565061651592865
0.037198678833440905   0.061965982087940644   0.043565061651592865
0.037198678833440905   0.061965982087940644   0.043565061651592865
-0.5150176970560751   -0.12058731451187168   -0.04221286098200717
-0.5150176970560751   -0.12058731451187168   -0.04221286098200717
-0.5150176970560751   -0.12058731451187168   -0.04221286098200717
-0.5150176970560751   -0.12058731451187168   -0.04221286098200717
-0.9188090674536512   -0.08153117285746661   0.014641751739536947
-0.9188090674536512   -0.08153117285746661   0.014641751739536947
-0.9188090674536512   -0.08153117285746661   0.014641751739536947
-0.9188090674536512   -0.08153117285746661   0.014641751739536947
-1.9579643579515396   -0.1262600850088923   -0.051867210441954886
-1.9579643579515396   -0.1262600850088923   -0.051867210441954886
-1.9579643579515396   -0.1262600850088923   -0.051867210441954886
-1.9579643579515396   -0.1262600850088923   -0.051867210441954886
-2.0497344537761153   -0.32678208357092775   -0.05025612738479242
-2.0497344537761153   -0.32678208357092775   -0.05025612738479242
-2.0497344537761153   -0.32678208357092775   -0.05025612738479242
-2.0497344537761153   -0.32678208357092775   -0.05025612738479242
-0.9235665321727566   0.07798462487821844   0.009664271985321493
-0.9235665321727566   0.07798462487821844   0.009664271985321493
-0.9235665321727566   0.07798462487821844   0.009664271985321493
-0.9235665321727566   0.07798462487821844   0.009664271985321493
-1.4504483831838286   -0.10885332891513372   -0.021164869238648742
-1.4504483831838286   -0.10885332891513372   -0.021164869238648742
-1.4504483831838286   -0.10885332891513372   -0.021164869238648742
-1.4504483831838286   -0.10885332891513372   -0.021164869238648742
-0.9520792427186759   -0.0901522892130863   0.0352376333470368
-0.9520792427186759   -0.0901522892130863   0.0352376333470368
-0.9520792427186759   -0.0901522892130863   0.0352376333470368
-0.9520792427186759   -0.0901522892130863   0.0352376333470368
-2.0154024916674698   -0.15282591791689792   -0.05255248249560909
-2.0154024916674698   -0.15282591791689792   -0.05255248249560909
-2.0154024916674698   -0.15282591791689792   -0.05255248249560909
-2.0154024916674698   -0.15282591791689792   -0.05255248249560909
-2.1146406595090657   -0.3478662523516156   -0.03522147284316101
-2.1146406595090657   -0.3478662523516156   -0.03522147284316101
-2.1146406595090657   -0.3478662523516156   -0.03522147284316101
-2.1146406595090657   -0.3478662523516156   -0.03522147284316101
-0.9757242124796603   0.05418727809882373   0.011850591613734515
-0.9757242124796603   0.05418727809882373   0.011850591613734515
-0.9757242124796603   0.05418727809882373   0.011850591613734515
-0.9757242124796603   0.05418727809882373   0.011850591613734515
-1.4915651420681175   -0.12057643974460447   -0.02125819036849616
-1.4915651420681175   -0.12057643974460447   -0.02125819036849616
-1.4915651420681175   -0.12057643974460447   -0.02125819036849616
-1.4915651420681175   -0.12057643974460447   -0.02125819036849616
-1.0038934088580165   -0.11136177507384895   0.0365536628946232
-1.0038934088580165   -0.11136177507384895   0.0365536628946232
-1.0038934088580165   -0.11136177507384895   0.0365536628946232
-1.0038934088580165   -0.11136177507384895   0.0365536628946232
-2.082574163292446   -0.17841989934068003   -0.04433534477099872
-2.082574163292446   -0.17841989934068003   -0.04433534477099872
-2.082574163292446   -0.17841989934068003   -0.04433534477099872
-2.082574163292446   -0.17841989934068003   -0.04433534477099872
-2.1881100912208136   -0.37562869575379443   -0.037741096483808814
-2.1881100912208136   -0.37562869575379443   -0.037741096483808814
-2.1881100912208136   -0.37562869575379443   -0.037741096483808814
-2.1881100912208136   -0.37562869575379443   -0.037741096483808814
-1.0320870017152735   0.024847462965168682   0.014205361421417234
-1.0320870017152735   0.024847462965168682   0.014205361421417234
-1.0320870017152735   0.024847462965168682   0.014205361421417234
-1.0320870017152735   0.024847462965168682   0.014205361421417234
-1.5643343655265765   -0.14898760970416625   -0.03447912934322825
-1.5643343655265765   -0.14898760970416625   -0.03447912934322825
-1.5643343655265765   -0.14898760970416625   -0.03447912934322825
-1.5643343655265765   -0.14898760970416625   -0.03447912934322825
-1.8914565433804857   0.08971325499658789   0.06469852240783516
-1.8914565433804857   0.08971325499658789   0.06469852240783516
-1.8914565433804857   0.08971325499658789   0.06469852240783516
-1.8914565433804857   0.08971325499658789   0.06469852240783516
-2.933113026366908   -0.14617243790214807   -0.039684128792793816
-2.933113026366908   -0.14617243790214807   -0.039684128792793816
-2.933113026366908   -0.14617243790214807   -0.039684128792793816
-2.933113026366908   -0.14617243790214807   -0.039684128792793816
-3.005707649259689   -0.1488223947219413   0.06648714058731688
-3.005707649259689   -0.1488223947219413   0.06648714058731688
-3.005707649259689   -0.1488223947219413   0.06648714058731688
-3.005707649259689   -0.1488223947219413   0.06648714058731688
-1.9653938989744975   0.060638053914266576   -0.01597349086191313
-1.9653938989744975   0.060638053914266576   -0.01597349086191313
-1.9653938989744975   0.060638053914266576   -0.01597349086191313
-1.9653938989744975   0.060638053914266576   -0.01597349086191313
-2.334813228011891   0.0018746431181941858   0.05920451140194591
-2.334813228011891   0.0018746431181941858   0.05920451140194591
-2.334813228011891   0.0018746431181941858   0.05920451140194591
-2.334813228011891   0.0018746431181941858   0.05920451140194591
-1.9447237860550994   0.06639997944281684   0.08161514820651873
-1.9447237860550994   0.06639997944281684   0.08161514820651873
-1.9447237860550994   0.06639997944281684   0.08161514820651873
-1.9447237860550994   0.06639997944281684   0.08161514820651873
-3.0250312971453575   -0.15323785521676414   -0.025715638346206215
-3.0250312971453575   -0.15323785521676414   -0.025715638346206215
-3.0250312971453575   -0.15323785521676414   -0.025715638346206215
-3.0250312971453575   -0.15323785521676414   -0.025715638346206215
-3.0973997175188037   -0.17370895431395939   0.09039008367543055
-3.0973997175188037   -0.17370895431395939   0.09039008367543055
-3.0973997175188037   -0.17370895431395939   0.09039008367543055
-3.0973997175188037   -0.17370895431395939   0.09039008367543055
-2.032612417322376   0.043735641484890064   -0.016682155746232802
-2.032612417322376   0.043735641484890064   -0.016682155746232802
-2.032612417322376   0.043735641484890064   -0.016682155746232802
-2.032612417322376   0.043735641484890064   -0.016682155746232802
-2.45287363876653   -0.027276841077782832   0.03218576947253107
-2.45287363876653   -0.027276841077782832   0.03218576947253107
-2.45287363876653   -0.027276841077782832   0.03218576947253107
-2.45287363876653   -0.027276841077782832   0.03218576947253107
-2.0137202290318346   0.04104317673885155   0.08047125045251546
-2.0137202290318346   0.04104317673885155   0.08047125045251546
-2.0137202290318346   0.04104317673885155   0.08047125045251546
-2.0137202290318346   0.04104317673885155   0.08047125045251546
-3.1198492724654585   -0.17457385622404376   -0.020992789147758373
-3.1198492724654585   -0.17457385622404376   -0.020992789147758373
-3.1198492724654585   -0.17457385622404376   -0.020992789147758373
-3.1198492724654585   -0.17457385622404376   -0.020992789147758373
-3.2276923731821783   -0.2739374591089145   0.07861705471090823
-3.2276923731821783   -0.2739374591089145   0.07861705471090823
-3.2276923731821783   -0.2739374591089145   0.07861705471090823
-3.2276923731821783   -0.2739374591089145   0.07861705471090823
-2.110109239203273   -0.0076726267207580245   -0.015692905429180504
-2.110109239203273   -0.0076726267207580245   -0.015692905429180504
-2.110109239203273   -0.0076726267207580245   -0.015692905429180504
-2.110109239203273   -0.0076726267207580245   -0.015692905429180504
-2.5034993836827137   -0.06392044418886511   0.008328639886080763
-2.5034993836827137   -0.06392044418886511   0.008328639886080763
-2.5034993836827137   -0.06392044418886511   0.008328639886080763
-2.5034993836827137   -0.06392044418886511   0.008328639886080763
1.9363314176628772   0.10337829465703974   -0.06938211232935615
1.9363314176628772   0.10337829465703974   -0.06938211232935615
1.9363314176628772   0.10337829465703974   -0.06938211232935615
1.9363314176628772   0.10337829465703974   -0.06938211232935615
0.9604828708423033   -0.0006006424220409701   0.02523882289785328
0.9604828708423033   -0.0006006424220409701   0.02523882289785328
0.9604828708423033   -0.0006006424220409701   0.02523882289785328
0.9604828708423033   -0.0006006424220409701   0.02523882289785328
0.8774618934045461   -0.14332374547070006   -0.06356909534302391
0.8774618934045461   -0.14332374547070006   -0.06356909534302391
0.8774618934045461   -0.14332374547070006   -0.06356909534302391
0.8774618934045461   -0.14332374547070006   -0.06356909534302391
1.8996763669139587   0.15675534098472965   0.031640147411600456
1.8996763669139587   0.15675534098472965   0.031640147411600456
1.8996763669139587   0.15675534098472965   0.031640147411600456
1.8996763669139587   0.15675534098472965   0.031640147411600456
1.3451542666354903   0.011899143931205836   -0.044259705257976345
1.3451542666354903   0.011899143931205836   -0.044259705257976345
1.3451542666354903   0.011899143931205836   -0.044259705257976345
1.3451542666354903   0.011899143931205836   -0.044259705257976345
1.8591095334060952   0.052359888141360056   -0.0667985672843337
1.8591095334060952   0.052359888141360056   -0.0667985672843337
1.8591095334060952   0.052359888141360056   -0.0667985672843337
1.8591095334060952   0.052359888141360056   -0.0667985672843337
0.9162826595688479   -0.04067435997088273   0.0278853499786495
0.9162826595688479   -0.04067435997088273   0.0278853499786495
0.9162826595688479   -0.04067435997088273   0.0278853499786495
0.9162826595688479   -0.04067435997088273   0.0278853499786495
0.8359347640736716   -0.1553454998699902   -0.055235670349381635
0.8359347640736716   -0.1553454998699902   -0.055235670349381635
0.8359347640736716   -0.1553454998699902   -0.055235670349381635
0.8359347640736716   -0.1553454998699902   -0.055235670349381635
1.8375499104478967   0.1402497352572471   0.043208519537953766
1.8375499104478967   0.1402497352572471   0.043208519537953766
1.8375499104478967   0.1402497352572471   0.043208519537953766
1.8375499104478967   0.1402497352572471   0.043208519537953766
1.312530147921002   -0.009728009057450415   -0.05825288081702386
1.312530147921002   -0.009728009057450415   -0.05825288081702386
1.312530147921002   -0.009728009057450415   -0.05825288081702386
1.312530147921002   -0.009728009057450415   -0.05825288081702386
1.7978573138250025   0.03757099873858688   -0.052575727057826996
1.7978573138250025   0.03757099873858688   -0.052575727057826996
1.7978573138250025   0.03757099873858688   -0.052575727057826996
1.7978573138250025   0.03757099873858688   -0.052575727057826996
0.874067319883687   -0.054226804164204945   0.03430841299490292
0.874067319883687   -0.054226804164204945   0.03430841299490292
0.874067319883687   -0.054226804164204945   0.03430841299490292
0.874067319883687   -0.054226804164204945   0.03430841299490292
0.7979989363739566   -0.1590211134434998   -0.045118388026766945
0.7979989363739566   -0.1590211134434998   -0.045118388026766945
0.7979989363739566   -0.1590211134434998   -0.045118388026766945
0.7979989363739566   -0.1590211134434998   -0.045118388026766945
1.7675117936553706   0.12569447408395268   0.053722931350316735
1.7675117936553706   0.12569447408395268   0.053722931350316735
1.7675117936553706   0.12569447408395268   0.053722931350316735
1.7675117936553706   0.12569447408395268   0.053722931350316735
1.2369151213044265   -0.02465753225426187   -0.07916986424287496
1.2369151213044265   -0.02465753225426187   -0.07916986424287496
1.2369151213044265   -0.02465753225426187   -0.07916986424287496
1.2369151213044265   -0.02465753225426187   -0.07916986424287496
0.9767929037740658   0.10102207442467002   0.005166270709954044
0.9767929037740658   0.10102207442467002   0.005166270709954044
0.9767929037740658   0.10102207442467002   0.005166270709954044
0.9767929037740658   0.10102207442467002   0.005166270709954044
0.03422115942482348   -0.03172876042912096   -0.0038828040478761554
0.03422115942482348   -0.03172876042912096   -0.0038828040478761554
0.03422115942482348   -0.03172876042912096   -0.0038828040478761554
0.03422115942482348   -0.03172876042912096   -0.0038828040478761554
-0.028351855348171133   -0.12909180058462205   -0.0431996948997609
-0.028351855348171133   -0.12909180058462205   -0.0431996948997609
-0.028351855348171133   -0.12909180058462205   -0.0431996948997609
-0.028351855348171133   -0.12909180058462205   -0.0431996948997609
0.9578579087404187   0.1418777307531135   0.053209505112507216
0.9578579087404187   0.1418777307531135   0.053209505112507216
0.9578579087404187   0.1418777307531135   0.053209505112507216
0.9578579087404187   0.1418777307531135   0.053209505112507216
0.4775752525016001   0.0202045650123463   -0.005508020126969708
0.4775752525016001   0.0202045650123463   -0.005508020126969708
0.4775752525016001   0.0202045650123463   -0.005508020126969708
0.4775752525016001   0.0202045650123463   -0.005508020126969708
0.9358963423733389   0.074544715621398   0.010734688408829435
0.9358963423733389   0.074544715621398   0.010734688408829435
0.9358963423733389   0.074544715621398   0.010734688408829435
0.9358963423733389   0.074544715621398   0.010734688408829435
-0.006003318643692858   -0.06137181511550714   0.0008230031535155571
-0.006003318643692858   -0.06137181511550714   0.0008230031535155571
-0.006003318643692858   -0.06137181511550714   0.0008230031535155571
-0.006003318643692858   -0.06137181511550714   0.0008230031535155571
-0.06769162219965634   -0.1485374575428606   -0.03732262374568043
-0.06769162219965634   -0.1485374575428606   -0.03732262374568043
-0.06769162219965634   -0.1485374575428606   -0.03732262374568043
-0.06769162219965634   -0.1485374575428606   -0.03732262374568043
0.913296621610705   0.11733758590382501   0.05889053156196247
0.913296621610705   0.11733758590382501   0.05889053156196247
0.913296621610705   0.11733758590382501   0.05889053156196247
0.913296621610705   0.11733758590382501   0.05889053156196247
0.4295612265296296   -0.003964878021756019   -0.01924816732086434
0.4295612265296296   -0.003964878021756019   -0.01924816732086434
0.4295612265296296   -0.003964878021756019   -0.01924816732086434
0.4295612265296296   -0.003964878021756019   -0.01924816732086434
0.892154286528759   0.054166281135976324   0.01635016092008878
0.892154286528759   0.054166281135976324   0.01635016092008878
0.892154286528759   0.054166281135976324   0.01635016092008878
0.892154286528759   0.054166281135976324   0.01635016092008878
-0.046510316405144435   -0.08532718206244472   0.005373629746463229
-0.046510316405144435   -0.08532718206244472   0.005373629746463229
-0.046510316405144435   -0.08532718206244472   0.005373629746463229
-0.046510316405144435   -0.08532718206244472   0.005373629746463229
-0.1066388152173011   -0.16029178233733482   -0.029653990043610634
-0.1066388152173011   -0.16029178233733482   -0.029653990043610634
-0.1066388152173011   -0.16029178233733482   -0.029653990043610634
-0.1066388152173011   -0.16029178233733482   -0.029653990043610634
0.87091622321445   0.09660281519857893   0.06384411753361229
0.87091622321445   0.09660281519857893   0.06384411753361229
0.87091622321445   0.09660281519857893   0.06384411753361229
0.87091622321445   0.09660281519857893   0.06384411753361229
0.3939969512491301   -0.019478246917431025   -0.029393548873478132
0.3939969512491301   -0.019478246917431025   -0.029393548873478132
0.3939969512491301   -0.019478246917431025   -0.029393548873478132
0.3939969512491301   -0.019478246917431025   -0.029393548873478132
0.06616982740312725   0.10217397803924815   0.021957797375273577
0.06616982740312725   0.10217397803924815   0.021957797375273577
0.06616982740312725   0.10217397803924815   0.021957797375273577
0.06616982740312725   0.10217397803924815   0.021957797375273577
-0.8631927858907634   -0.05569188070752379   -0.029722940754001684
-0.8631927858907634   -0.05569188070752379   -0.029722940754001684
-0.8631927858907634   -0.05569188070752379   -0.029722940754001684
-0.8631927858907634   -0.05569188070752379   -0.029722940754001684
-0.9120131548123237   -0.11819347489695557   -0.027260672497625957
-0.9120131548123237   -0.11819347489695557   -0.027260672497625957
-0.9120131548123237   -0.11819347489695557   -0.027260672497625957
-0.9120131548123237   -0.11819347489695557   -0.027260672497625957
0.034487858947975035   0.11615899004480795   0.025748085951539938
0.034487858947975035   0.11615899004480795   0.025748085951539938
0.034487858947975035   0.11615899004480795   0.025748085951539938
0.034487858947975035   0.11615899004480795   0.025748085951539938
-0.4181152945874296   0.013100271940647903   0.0015656211335204999
-0.4181152945874296   0.013100271940647903   0.0015656211335204999
-0.4181152945874296   0.013100271940647903   0.0015656211335204999
-0.4181152945874296   0.013100271940647903   0.0015656211335204999
0.02778062715629976   0.0807429995032405   0.02762791753473101
0.02778062715629976   0.0807429995032405   0.02762791753473101
0.02778062715629976   0.0807429995032405   0.02762791753473101
0.02778062715629976   0.0807429995032405   0.02762791753473101
-0.9042348019282557   -0.08170636326299544   -0.024856019711246305
-0.9042348019282557   -0.08170636326299544   -0.024856019711246305
-0.9042348019282557   -0.08170636326299544   -0.024856019711246305
-0.9042348019282557   -0.08170636326299544   -0.024856019711246305
-0.9542349342006782   -0.13956456731751582   -0.022601921813736964
-0.9542349342006782   -0.13956456731751582   -0.022601921813736964
-0.9542349342006782   -0.13956456731751582   -0.022601921813736964
-0.9542349342006782   -0.13956456731751582   -0.022601921813736964
-0.006084588635844199   0.09091164529361401   0.031263441236909516
-0.006084588635844199   0.09091164529361401   0.031263441236909516
-0.006084588635844199   0.09091164529361401   0.031263441236909516
-0.006084588635844199   0.09091164529361401   0.031263441236909516
-0.45856275182258144   -0.007791102833578714   -0.008774127302047987
-0.45856275182258144   -0.007791102833578714   -0.008774127302047987
-0.45856275182258144   -0.007791102833578714   -0.008774127302047987
-0.45856275182258144   -0.007791102833578714   -0.008774127302047987
-0.01181763622641889   0.06011770529634392   0.03339214328130233
-0.01181763622641889   0.06011770529634392   0.03339214328130233
-0.01181763622641889   0.06011770529634392   0.03339214328130233
-0.01181763622641889   0.06011770529634392   0.03339214328130233
-0.9475789252039317   -0.10784766591407252   -0.021038778233435668
-0.9475789252039317   -0.10784766591407252   -0.021038778233435668
-0.9475789252039317   -0.10784766591407252   -0.021038778233435668
-0.9475789252039317   -0.10784766591407252   -0.021038778233435668
-0.9961764040922589   -0.15639421787179228   -0.014860855221372067
-0.9961764040922589   -0.15639421787179228   -0.014860855221372067
-0.9961764040922589   -0.15639421787179228   -0.014860855221372067
-0.9961764040922589   -0.15639421787179228   -0.014860855221372067
-0.04811535983277786   0.0671278725568743   0.03554363198480035
-0.04811535983277786   0.0671278725568743   0.03554363198480035
-0.04811535983277786   0.0671278725568743   0.03554363198480035
-0.04811535983277786   0.0671278725568743   0.03554363198480035
-0.502081643112632   -0.0290394613475755   -0.020066246731744907
-0.502081643112632   -0.0290394613475755   -0.020066246731744907
-0.502081643112632   -0.0290394613475755   -0.020066246731744907
-0.502081643112632   -0.0290394613475755   -0.020066246731744907
-0.8138756678554993   0.12097104070140097   0.04019972801340946
-0.8138756678554993   0.12097104070140097   0.04019972801340946
-0.8138756678554993   0.12097104070140097   0.04019972801340946
-0.8138756678554993   0.12097104070140097   0.04019972801340946
-1.7304481468389328   -0.07665019526813432   -0.04875308257432226
-1.7304481468389328   -0.07665019526813432   -0.04875308257432226
-1.7304481468389328   -0.07665019526813432   -0.04875308257432226
-1.7304481468389328   -0.07665019526813432   -0.04875308257432226
-1.7685241788065422   -0.09446373996648516   -0.007619905604472427
-1.7685241788065422   -0.09446373996648516   -0.007619905604472427
-1.7685241788065422   -0.09446373996648516   -0.007619905604472427
-1.7685241788065422   -0.09446373996648516   -0.007619905604472427
-0.8656666273947191   0.08779818550561641   -0.0015196958121640458
-0.8656666273947191   0.08779818550561641   -0.0015196958121640458
-0.8656666273947191   0.08779818550561641   -0.0015196958121640458
-0.8656666273947191   0.08779818550561641   -0.0015196958121640458
-1.2852827997230618   0.01341765231165476   0.009347219048316216
-1.2852827997230618   0.01341765231165476   0.009347219048316216
-1.2852827997230618   0.01341765231165476   0.009347219048316216
-1.2852827997230618   0.01341765231165476   0.009347219048316216
-0.8541017349800052   0.09897110022760092   0.04513185153942098
-0.8541017349800052   0.09897110022760092   0.04513185153942098
-0.8541017349800052   0.09897110022760092   0.04513185153942098
-0.8541017349800052   0.09897110022760092   0.04513185153942098
-1.778625498454861   -0.10417308192207714   -0.04841716189049006
-1.778625498454861   -0.10417308192207714   -0.04841716189049006
-1.778625498454861   -0.10417308192207714   -0.04841716189049006
-1.778625498454861   -0.10417308192207714   -0.04841716189049006
-1.8205275360819915   -0.11848538177439177   -0.006709384150012224
-1.8205275360819915   -0.11848538177439177   -0.006709384150012224
-1.8205275360819915   -0.11848538177439177   -0.006709384150012224
-1.8205275360819915   -0.11848538177439177   -0.006709384150012224
-0.9083812205252736   0.06370509168652694   0.0033969875592553544
-0.9083812205252736   0.06370509168652694   0.0033969875592553544
-0.9083812205252736   0.06370509168652694   0.0033969875592553544
-0.9083812205252736   0.06370509168652694   0.0033969875592553544
-1.3217473130568618   -0.005724938664261381   0.0008602291658787592
-1.3217473130568618   -0.005724938664261381   0.0008602291658787592
-1.3217473130568618   -0.005724938664261381   0.0008602291658787592
-1.3217473130568618   -0.005724938664261381   0.0008602291658787592
-0.8957197983484046   0.07824990052363737   0.05215928960648546
-0.8957197983484046   0.07824990052363737   0.05215928960648546
-0.8957197983484046   0.07824990052363737   0.05215928960648546
-0.8957197983484046   0.07824990052363737   0.05215928960648546
-1.8302283496102427   -0.13006958196287766   -0.043629251602798375
-1.8302283496102427   -0.13006958196287766   -0.043629251602798375
-1.8302283496102427   -0.13006958196287766   -0.043629251602798375
-1.8302283496102427   -0.13006958196287766   -0.043629251602798375
-1.8684223025317104   -0.14419257086723464   0.005340493075837532
-1.8684223025317104   -0.14419257086723464   0.005340493075837532
-1.8684223025317104   -0.14419257086723464   0.005340493075837532
-1.8684223025317104   -0.14419257086723464   0.005340493075837532
-0.9536465145392589   0.03506428132461542   0.006330093347236512
-0.9536465145392589   0.03506428132461542   0.006330093347236512
-0.9536465145392589   0.03506428132461542   0.006330093347236512
-0.9536465145392589   0.03506428132461542   0.006330093347236512
-1.3785154539456843   -0.0325172997654265   -0.010522775664621065
-1.3785154539456843   -0.0325172997654265   -0.010522775664621065
-1.3785154539456843   -0.0325172997654265   -0.010522775664621065
-1.3785154539456843   -0.0325172997654265   -0.010522775664621065
-1.6689181371671746   0.12587726649968412   0.05636950401663415
-1.6689181371671746   0.12587726649968412   0.05636950401663415
-1.6689181371671746   0.12587726649968412   0.05636950401663415
-1.6689181371671746   0.12587726649968412   0.05636950401663415
-2.5540425668590783   -0.11808344307566376   -0.04512456662047251
-2.5540425668590783   -0.11808344307566376   -0.04512456662047251
-2.5540425668590783   -0.11808344307566376   -0.04512456662047251
-2.5540425668590783   -0.11808344307566376   -0.04512456662047251
-2.5893671493634507   -0.05135624078487078   0.04802828603135306
-2.5893671493634507   -0.05135624078487078   0.04802828603135306
-2.5893671493634507   -0.05135624078487078   0.04802828603135306
-2.5893671493634507   -0.05135624078487078   0.04802828603135306
-1.7427284585139655   0.052311718123022155   -0.02541676223109679
-1.7427284585139655   0.052311718123022155   -0.02541676223109679
-1.7427284585139655   0.052311718123022155   -0.02541676223109679
-1.7427284585139655   0.052311718123022155   -0.02541676223109679
-2.0442960757501445   0.026304260777756383   0.046861967726864406
-2.0442960757501445   0.026304260777756383   0.046861967726864406
-2.0442960757501445   0.026304260777756383   0.046861967726864406
-2.0442960757501445   0.026304260777756383   0.046861967726864406
-1.7095625187407146   0.12795329923753118   0.06477135552062696
-1.7095625187407146   0.12795329923753118   0.06477135552062696
-1.7095625187407146   0.12795329923753118   0.06477135552062696
-1.7095625187407146   0.12795329923753118   0.06477135552062696
-2.6205742872093065   -0.12503901997198075   -0.03432462401077041
-2.6205742872093065   -0.12503901997198075   -0.03432462401077041
-2.6205742872093065   -0.12503901997198075   -0.03432462401077041
-2.6205742872093065   -0.12503901997198075   -0.03432462401077041
-2.6539460118555014   -0.06392171700153904   0.06636464635480854
-2.6539460118555014   -0.06392171700153904   0.06636464635480854
-2.6539460118555014   -0.06392171700153904   0.06636464635480854
-2.6539460118555014   -0.06392171700153904   0.06636464635480854
-1.7923218407679224   0.03846293717885557   -0.02262922653291506
-1.7923218407679224   0.03846293717885557   -0.02262922653291506
-1.7923218407679224   0.03846293717885557   -0.02262922653291506
-1.7923218407679224   0.03846293717885557   -0.02262922653291506
-2.1329044720716133   0.012954431985055526   0.029996166173350852
-2.1329044720716133   0.012954431985055526   0.029996166173350852
-2.1329044720716133   0.012954431985055526   0.029996166173350852
-2.1329044720716133   0.012954431985055526   0.029996166173350852
-1.7556934188150601   0.1185425303480317   0.08043329006222083
-1.7556934188150601   0.1185425303480317   0.08043329006222083
-1.7556934188150601   0.1185425303480317   0.08043329006222083
-1.7556934188150601   0.1185425303480317   0.08043329006222083
-2.6886871914450667   -0.14211406780741004   -0.029148900787099377
-2.6886871914450667   -0.14211406780741004   -0.029148900787099377
-2.6886871914450667   -0.14211406780741004   -0.029148900787099377
-2.6886871914450667   -0.14211406780741004   -0.029148900787099377
-2.741528386682891   -0.11760483675013811   0.06606519190353632
-2.741528386682891   -0.11760483675013811   0.06606519190353632
-2.741528386682891   -0.11760483675013811   0.06606519190353632
-2.741528386682891   -0.11760483675013811   0.06606519190353632
-1.8454804114157115   -0.002897395533406344   -0.021245226677997053
-1.8454804114157115   -0.002897395533406344   -0.021245226677997053
-1.8454804114157115   -0.002897395533406344   -0.021245226677997053
-1.8454804114157115   -0.002897395533406344   -0.021245226677997053
-2.159018384483281   -0.006186608948213879   0.024342211758315885
-2.159018384483281   -0.006186608948213879   0.024342211758315885
-2.159018384483281   -0.006186608948213879   0.024342211758315885
-2.159018384483281   -0.006186608948213879   0.024342211758315885
1.4653041702270262   0.08124873005290276   -0.070335614112151
1.4653041702270262   0.08124873005290276   -0.070335614112151
1.4653041702270262   0.08124873005290276   -0.070335614112151
1.4653041702270262   0.08124873005290276   -0.070335614112151
0.69720077415258   0.014341746089053864   0.02690225580299551
0.69720077415258   0.014341746089053864   0.02690225580299551
0.69720077415258   0.014341746089053864   0.02690225580299551
0.69720077415258   0.014341746089053864   0.02690225580299551
0.6190152923063366   -0.11905397529593884   -0.06674535938411968
0.6190152923063366   -0.11905397529593884   -0.06674535938411968
0.6190152923063366   -0.11905397529593884   -0.06674535938411968
0.6190152923063366   -0.11905397529593884   -0.06674535938411968
1.433343436269625   0.13487649731742238   0.03325372928730317
1.433343436269625   0.13487649731742238   0.03325372928730317
1.433343436269625   0.13487649731742238   0.03325372928730317
1.433343436269625   0.13487649731742238   0.03325372928730317
0.9992962235334921   0.013528721130219662   -0.02954000371547221
0.9992962235334921   0.013528721130219662   -0.02954000371547221
0.9992962235334921   0.013528721130219662   -0.02954000371547221
0.9992962235334921   0.013528721130219662   -0.02954000371547221
1.393613942308684   0.035926148284465664   -0.06644339148444464
1.393613942308684   0.035926148284465664   -0.06644339148444464
1.393613942308684   0.035926148284465664   -0.06644339148444464
1.393613942308684   0.035926148284465664   -0.06644339148444464
0.6579591159272474   -0.020889296603012947   0.029809080027503813
0.6579591159272474   -0.020889296603012947   0.029809080027503813
0.6579591159272474   -0.020889296603012947   0.029809080027503813
0.6579591159272474   -0.020889296603012947   0.029809080027503813
0.5824724269426595   -0.1307873231894643   -0.05689928919030489
0.5824724269426595   -0.1307873231894643   -0.05689928919030489
0.5824724269426595   -0.1307873231894643   -0.05689928919030489
0.5824724269426595   -0.1307873231894643   -0.05689928919030489
1.3765276358088383   0.11811855295995177   0.04369039958040355
1.3765276358088383   0.11811855295995177   0.04369039958040355
1.3765276358088383   0.11811855295995177   0.04369039958040355
1.3765276358088383   0.11811855295995177   0.04369039958040355
0.966466992295676   -0.006784929564859182   -0.041582786714106514
0.966466992295676   -0.006784929564859182   -0.041582786714106514
0.966466992295676   -0.006784929564859182   -0.041582786714106514
0.966466992295676   -0.006784929564859182   -0.041582786714106514
1.337734196740438   0.021011033373188104   -0.05316927617482152
1.337734196740438   0.021011033373188104   -0.05316927617482152
1.337734196740438   0.021011033373188104   -0.05316927617482152
1.337734196740438   0.021011033373188104   -0.05316927617482152
0.6202808740037988   -0.03466479560996019   0.03602041853588328
0.6202808740037988   -0.03466479560996019   0.03602041853588328
0.6202808740037988   -0.03466479560996019   0.03602041853588328
0.6202808740037988   -0.03466479560996019   0.03602041853588328
0.5495218933096414   -0.1381241193256845   -0.04738013535220134
0.5495218933096414   -0.1381241193256845   -0.04738013535220134
0.5495218933096414   -0.1381241193256845   -0.04738013535220134
0.5495218933096414   -0.1381241193256845   -0.04738013535220134
1.3124729097625119   0.09989616146915797   0.051863315368117155
1.3124729097625119   0.09989616146915797   0.051863315368117155
1.3124729097625119   0.09989616146915797   0.051863315368117155
1.3124729097625119   0.09989616146915797   0.051863315368117155
0.9019324972730981   -0.022173356987393672   -0.05934035681619557
0.9019324972730981   -0.022173356987393672   -0.05934035681619557
0.9019324972730981   -0.022173356987393672   -0.05934035681619557
0.9019324972730981   -0.022173356987393672   -0.05934035681619557
0.7086871780016561   0.10306350693609082   -0.004387485798649837
0.7086871780016561   0.10306350693609082   -0.004387485798649837
0.7086871780016561   0.10306350693609082   -0.004387485798649837
0.7086871780016561   0.10306350693609082   -0.004387485798649837
-0.04591032467378913   -0.009793516465065762   -0.00026005270244735444
-0.04591032467378913   -0.009793516465065762   -0.00026005270244735444
-0.04591032467378913   -0.009793516465065762   -0.00026005270244735444
-0.04591032467378913   -0.009793516465065762   -0.00026005270244735444
-0.10098535255757295   -0.08900884729238803   -0.042380123817008855
-0.10098535255757295   -0.08900884729238803   -0.042380123817008855
-0.10098535255757295   -0.08900884729238803   -0.042380123817008855
-0.10098535255757295   -0.08900884729238803   -0.042380123817008855
0.690108508750094   0.12254274502836353   0.04712400251036024
0.690108508750094   0.12254274502836353   0.04712400251036024
0.690108508750094   0.12254274502836353   0.04712400251036024
0.690108508750094   0.12254274502836353   0.04712400251036024
0.30815751656247703   0.030286357723905102   0.002170303588455706
0.30815751656247703   0.030286357723905102   0.002170303588455706
0.30815751656247703   0.030286357723905102   0.002170303588455706
0.30815751656247703   0.030286357723905102   0.002170303588455706
0.6714246041697154   0.07433217811986603   0.0019150465169731345
0.6714246041697154   0.07433217811986603   0.0019150465169731345
0.6714246041697154   0.07433217811986603   0.0019150465169731345
0.6714246041697154   0.07433217811986603   0.0019150465169731345
-0.08197961203567153   -0.040476444442366324   0.004116175942476558
-0.08197961203567153   -0.040476444442366324   0.004116175942476558
-0.08197961203567153   -0.040476444442366324   0.004116175942476558
-0.08197961203567153   -0.040476444442366324   0.004116175942476558
-0.13540959806242625   -0.11118598154647882   -0.03502108601642546
-0.13540959806242625   -0.11118598154647882   -0.03502108601642546
-0.13540959806242625   -0.11118598154647882   -0.03502108601642546
-0.13540959806242625   -0.11118598154647882   -0.03502108601642546
0.6495335826396266   0.09609777784539941   0.05152138825966212
0.6495335826396266   0.09609777784539941   0.05152138825966212
0.6495335826396266   0.09609777784539941   0.05152138825966212
0.6495335826396266   0.09609777784539941   0.05152138825966212
0.265767063855799   0.004148385854596044   -0.010956076631997247
0.265767063855799   0.004148385854596044   -0.010956076631997247
0.265767063855799   0.004148385854596044   -0.010956076631997247
0.265767063855799   0.004148385854596044   -0.010956076631997247
0.6314665174429864   0.05054185565188496   0.006741984469980783
0.6314665174429864   0.05054185565188496   0.006741984469980783
0.6314665174429864   0.05054185565188496   0.006741984469980783
0.6314665174429864   0.05054185565188496   0.006741984469980783
-0.11760124497321307   -0.06588877146039054   0.008723469343552075
-0.11760124497321307   -0.06588877146039054   0.008723469343552075
-0.11760124497321307   -0.06588877146039054   0.008723469343552075
-0.11760124497321307   -0.06588877146039054   0.008723469343552075
-0.16938867630940593   -0.12984823893468203   -0.02810625360883653
-0.16938867630940593   -0.12984823893468203   -0.02810625360883653
-0.16938867630940593   -0.12984823893468203   -0.02810625360883653
-0.16938867630940593   -0.12984823893468203   -0.02810625360883653
0.6120720462472145   0.07161241491951548   0.05563409509046153
0.6120720462472145   0.07161241491951548   0.05563409509046153
0.6120720462472145   0.07161241491951548   0.05563409509046153
0.6120720462472145   0.07161241491951548   0.05563409509046153
0.23320070095691622   -0.015708492754617   -0.02190640672698261
0.23320070095691622   -0.015708492754617   -0.02190640672698261
0.23320070095691622   -0.015708492754617   -0.02190640672698261
0.23320070095691622   -0.015708492754617   -0.02190640672698261
-0.01585790627409262   0.12313448994400383   0.017074032886965584
-0.01585790627409262   0.12313448994400383   0.017074032886965584
-0.01585790627409262   0.12313448994400383   0.017074032886965584
-0.01585790627409262   0.12313448994400383   0.017074032886965584
-0.7731714357635338   -0.03331690576846527   -0.02564797676401958
-0.7731714357635338   -0.03331690576846527   -0.02564797676401958
-0.7731714357635338   -0.03331690576846527   -0.02564797676401958
-0.7731714357635338   -0.03331690576846527   -0.02564797676401958
-0.8086710819631746   -0.06162339593033922   -0.020004903013046263
-0.8086710819631746   -0.06162339593033922   -0.020004903013046263
-0.8086710819631746   -0.06162339593033922   -0.020004903013046263
-0.8086710819631746   -0.06162339593033922   -0.020004903013046263
-0.05081001071225473   0.09897418727860442   0.02051355083859356
-0.05081001071225473   0.09897418727860442   0.02051355083859356
-0.05081001071225473   0.09897418727860442   0.02051355083859356
-0.05081001071225473   0.09897418727860442   0.02051355083859356
-0.4111525427069848   0.0320141763926344   0.008069613996331798
-0.4111525427069848   0.0320141763926344   0.008069613996331798
-0.4111525427069848   0.0320141763926344   0.008069613996331798
-0.4111525427069848   0.0320141763926344   0.008069613996331798
-0.05011677843681023   0.09889935439702252   0.024054545097398013
-0.05011677843681023   0.09889935439702252   0.024054545097398013
-0.05011677843681023   0.09889935439702252   0.024054545097398013
-0.05011677843681023   0.09889935439702252   0.024054545097398013
-0.8086978294718172   -0.06088207828195541   -0.02087995820464314
-0.8086978294718172   -0.06088207828195541   -0.02087995820464314
-0.8086978294718172   -0.06088207828195541   -0.02087995820464314
-0.8086978294718172   -0.06088207828195541   -0.02087995820464314
-0.8439304239760057   -0.08562602532858296   -0.013579076533913825
-0.8439304239760057   -0.08562602532858296   -0.013579076533913825
-0.8439304239760057   -0.08562602532858296   -0.013579076533913825
-0.8439304239760057   -0.08562602532858296   -0.013579076533913825
-0.08669626793610516   0.07174287451486511   0.025616708553836118
-0.08669626793610516   0.07174287451486511   0.025616708553836118
-0.08669626793610516   0.07174287451486511   0.025616708553836118
-0.08669626793610516   0.07174287451486511   0.025616708553836118
-0.44677462265414136   0.00835079754797341   -0.002587805181788482
-0.44677462265414136   0.00835079754797341   -0.002587805181788482
-0.44677462265414136   0.00835079754797341   -0.002587805181788482
-0.44677462265414136   0.00835079754797341   -0.002587805181788482
-0.08529325944055544   0.07474345666214985   0.029631168884299945
-0.08529325944055544   0.07474345666214985   0.029631168884299945
-0.08529325944055544   0.07474345666214985   0.029631168884299945
-0.08529325944055544   0.07474345666214985   0.029631168884299945
-0.8451347954327288   -0.08842797043704106   -0.016798988709070962
-0.8451347954327288   -0.08842797043704106   -0.016798988709070962
-0.8451347954327288   -0.08842797043704106   -0.016798988709070962
-0.8451347954327288   -0.08842797043704106   -0.016798988709070962
-0.8787799530851219   -0.10755798189157723   -0.007221047005174647
-0.8787799530851219   -0.10755798189157723   -0.007221047005174647
-0.8787799530851219   -0.10755798189157723   -0.007221047005174647
-0.8787799530851219   -0.10755798189157723   -0.007221047005174647
-0.12272519967111552   0.04540538162656977   0.02995750902136365
-0.12272519967111552   0.04540538162656977   0.02995750902136365
-0.12272519967111552   0.04540538162656977   0.02995750902136365
-0.12272519967111552   0.04540538162656977   0.02995750902136365
-0.484024524625219   -0.015514275313621845   -0.014453253478434857
-0.484024524625219   -0.015514275313621845   -0.014453253478434857
-0.484024524625219   -0.015514275313621845   -0.014453253478434857
-0.484024524625219   -0.015514275313621845   -0.014453253478434857
-0.7256304982911065   0.1415099266018439   0.03722987822780399
-0.7256304982911065   0.1415099266018439   0.03722987822780399
-0.7256304982911065   0.1415099266018439   0.03722987822780399
-0.7256304982911065   0.1415099266018439   0.03722987822780399
-1.4835396577210205   -0.057328560600340694   -0.04628816372523718
-1.4835396577210205   -0.057328560600340694   -0.04628816372523718
-1.4835396577210205   -0.057328560600340694   -0.04628816372523718
-1.4835396577210205   -0.057328560600340694   -0.04628816372523718
-1.502951221899654   -0.038478672853651696   0.00438060689643005
-1.502951221899654   -0.038478672853651696   0.00438060689643005
-1.502951221899654   -0.038478672853651696   0.00438060689643005
-1.502951221899654   -0.038478672853651696   0.00438060689643005
-0.7793395762396653   0.07103954448309471   -0.006010314808933895
-0.7793395762396653   0.07103954448309471   -0.006010314808933895
-0.7793395762396653   0.07103954448309471   -0.006010314808933895
-0.7793395762396653   0.07103954448309471   -0.006010314808933895
-1.1155858051058771   0.03062007786344917   0.013680394985938052
-1.1155858051058771   0.03062007786344917   0.013680394985938052
-1.1155858051058771   0.03062007786344917   0.013680394985938052
-1.1155858051058771   0.03062007786344917   0.013680394985938052
-0.759948340339998   0.11803571992791073   0.04394968924458645
-0.759948340339998   0.11803571992791073   0.04394968924458645
-0.759948340339998   0.11803571992791073   0.04394968924458645
-0.759948340339998   0.11803571992791073   0.04394968924458645
-1.5221565146486453   -0.08528890514779192   -0.04483562455438707
-1.5221565146486453   -0.08528890514779192   -0.04483562455438707
-1.5221565146486453   -0.08528890514779192   -0.04483562455438707
-1.5221565146486453   -0.08528890514779192   -0.04483562455438707
-1.544005518440702   -0.06274049511360236   0.006793351474037451
-1.544005518440702   -0.06274049511360236   0.006793351474037451
-1.544005518440702   -0.06274049511360236   0.006793351474037451
-1.544005518440702   -0.06274049511360236   0.006793351474037451
-0.8150888571357642   0.04582040034980353   -0.0008176680110807341
-0.8150888571357642   0.04582040034980353   -0.0008176680110807341
-0.8150888571357642   0.04582040034980353   -0.0008176680110807341
-0.8150888571357642   0.04582040034980353   -0.0008176680110807341
-1.1457519206386768   0.009487885971575849   0.0037554311722199363
-1.1457519206386768   0.009487885971575849   0.0037554311722199363
-1.1457519206386768   0.009487885971575849   0.0037554311722199363
-1.1457519206386768   0.009487885971575849   0.0037554311722199363
-0.7948914267067028   0.09576802486266142   0.05022185962135692
-0.7948914267067028   0.09576802486266142   0.05022185962135692
-0.7948914267067028   0.09576802486266142   0.05022185962135692
-0.7948914267067028   0.09576802486266142   0.05022185962135692
-1.5631609529611812   -0.11164612371787977   -0.04007819252408031
-1.5631609529611812   -0.11164612371787977   -0.04007819252408031
-1.5631609529611812   -0.11164612371787977   -0.04007819252408031
-1.5631609529611812   -0.11164612371787977   -0.04007819252408031
-1.5812561987981053   -0.08884151583975014   0.014410791784255403
-1.5812561987981053   -0.08884151583975014   0.014410791784255403
-1.5812561987981053   -0.08884151583975014   0.014410791784255403
-1.5812561987981053   -0.08884151583975014   0.014410791784255403
-0.8518375909300205   0.016988946333239774   0.0029438355455268655
-0.8518375909300205   0.016988946333239774   0.0029438355455268655
-0.8518375909300205   0.016988946333239774   0.0029438355455268655
-0.8518375909300205   0.016988946333239774   0.0029438355455268655
-1.1915892497900014   -0.016967768654410936   -0.008827572947798838
-1.1915892497900014   -0.016967768654410936   -0.008827572947798838
-1.1915892497900014   -0.016967768654410936   -0.008827572947798838
-1.1915892497900014   -0.016967768654410936   -0.008827572947798838
-1.4269024116545228   0.12690283540893665   0.05266667059797395
-1.4269024116545228   0.12690283540893665   0.05266667059797395
-1.4269024116545228   0.12690283540893665   0.05266667059797395
-1.4269024116545228   0.12690283540893665   0.05266667059797395
-2.15858707791921   -0.09953265363040659   -0.05114249935733836
-2.15858707791921   -0.09953265363040659   -0.05114249935733836
-2.15858707791921   -0.09953265363040659   -0.05114249935733836
-2.15858707791921   -0.09953265363040659   -0.05114249935733836
-2.1827696189713643   -0.020899811674802038   0.04856674923724261
-2.1827696189713643   -0.020899811674802038   0.04856674923724261
-2.1827696189713643   -0.020899811674802038   0.04856674923724261
-2.1827696189713643   -0.020899811674802038   0.04856674923724261
-1.4950037078713396   0.035628971516318386   -0.02998946733196843
-1.4950037078713396   0.035628971516318386   -0.02998946733196843
-1.4950037078713396   0.035628971516318386   -0.02998946733196843
-1.4950037078713396   0.035628971516318386   -0.02998946733196843
-1.7355218485321169   0.028635236362001715   0.04242939005166475
-1.7355218485321169   0.028635236362001715   0.04242939005166475
-1.7355218485321169   0.028635236362001715   0.04242939005166475
-1.7355218485321169   0.028635236362001715   0.04242939005166475
-1.458456421771083   0.1266038873791191   0.06177204730650554
-1.458456421771083   0.1266038873791191   0.06177204730650554
-1.458456421771083   0.1266038873791191   0.06177204730650554
-1.458456421771083   0.1266038873791191   0.06177204730650554
-2.2186938024277634   -0.11125162489373303   -0.04070235482580119
-2.2186938024277634   -0.11125162489373303   -0.04070235482580119
-2.2186938024277634   -0.11125162489373303   -0.04070235482580119
-2.2186938024277634   -0.11125162489373303   -0.04070235482580119
-2.2364989453848714   -0.03369477996692577   0.06075929235512682
-2.2364989453848714   -0.03369477996692577   0.06075929235512682
-2.2364989453848714   -0.03369477996692577   0.06075929235512682
-2.2364989453848714   -0.03369477996692577   0.06075929235512682
-1.5335969688360471   0.021801282288349044   -0.02570567790463922
-1.5335969688360471   0.021801282288349044   -0.02570567790463922
-1.5335969688360471   0.021801282288349044   -0.02570567790463922
-1.5335969688360471   0.021801282288349044   -0.02570567790463922
-1.810409433265949   0.014343891456195024   0.025715188882679388
-1.810409433265949   0.014343891456195024   0.025715188882679388
-1.810409433265949   0.014343891456195024   0.025715188882679388
-1.810409433265949   0.014343891456195024   0.025715188882679388
-1.4948280204167517   0.11706301320975832   0.07287733327042782
-1.4948280204167517   0.11706301320975832   0.07287733327042782
-1.4948280204167517   0.11706301320975832   0.07287733327042782
-1.4948280204167517   0.11706301320975832   0.07287733327042782
-2.2742460334950536   -0.12793465057921982   -0.0337362775834769
-2.2742460334950536   -0.12793465057921982   -0.0337362775834769
-2.2742460334950536   -0.12793465057921982   -0.0337362775834769
-2.2742460334950536   -0.12793465057921982   -0.0337362775834769
-2.30740731373913   -0.07909140937436371   0.059711606440695605
-2.30740731373913   -0.07909140937436371   0.059711606440695605
-2.30740731373913   -0.07909140937436371   0.059711606440695605
-2.30740731373913   -0.07909140937436371   0.059711606440695605
-1.5743343926032642   -0.0165316978103065   -0.0232899952709823
-1.5743343926032642   -0.0165316978103065   -0.0232899952709823
-1.5743343926032642   -0.0165316978103065   -0.0232899952709823
-1.5743343926032642   -0.0165316978103065   -0.0232899952709823
-1.829938379190983   -0.003393287731046357   0.020101312416633127
-1.829938379190983   -0.003393287731046357   0.020101312416633127
-1.829938379190983   -0.003393287731046357   0.020101312416633127
-1.829938379190983   -0.003393287731046357   0.020101312416633127
1.0041480954565591   0.0567069078348873   -0.06821925677181623
1.0041480954565591   0.0567069078348873   -0.06821925677181623
1.0041480954565591   0.0567069078348873   -0.06821925677181623
1.0041480954565591   0.0567069078348873   -0.06821925677181623
0.4289330431095179   0.027745209260559872   0.029343436894231467
0.4289330431095179   0.027745209260559872   0.029343436894231467
0.4289330431095179   0.027745209260559872   0.029343436894231467
0.4289330431095179   0.027745209260559872   0.029343436894231467
0.3585687052494118   -0.09944551685746941   -0.06358161056694278
0.3585687052494118   -0.09944551685746941   -0.06358161056694278
0.3585687052494118   -0.09944551685746941   -0.06358161056694278
0.3585687052494118   -0.09944551685746941   -0.06358161056694278
0.9803988433068287   0.11431294916297116   0.03564402819518447
0.9803988433068287   0.11431294916297116   0.03564402819518447
0.9803988433068287   0.11431294916297116   0.03564402819518447
0.9803988433068287   0.11431294916297116   0.03564402819518447
0.6563029701572612   0.014572144772852902   -0.017938022377736895
0.6563029701572612   0.014572144772852902   -0.017938022377736895
0.6563029701572612   0.014572144772852902   -0.017938022377736895
0.6563029701572612   0.014572144772852902   -0.017938022377736895
0.94109667149263   0.01705468513498426   -0.06360856684783127
0.94109667149263   0.01705468513498426   -0.06360856684783127
0.94109667149263   0.01705468513498426   -0.06360856684783127
0.94109667149263   0.01705468513498426   -0.06360856684783127
0.3971330396660648   -0.002925090227038879   0.03271963488589826
0.3971330396660648   -0.002925090227038879   0.03271963488589826
0.3971330396660648   -0.002925090227038879   0.03271963488589826
0.3971330396660648   -0.002925090227038879   0.03271963488589826
0.32857845841287364   -0.11102833423570374   -0.05409485900190911
0.32857845841287364   -0.11102833423570374   -0.05409485900190911
0.32857845841287364   -0.11102833423570374   -0.05409485900190911
0.32857845841287364   -0.11102833423570374   -0.05409485900190911
0.9310689305404926   0.0978817811333533   0.04589999233754726
0.9310689305404926   0.0978817811333533   0.04589999233754726
0.9310689305404926   0.0978817811333533   0.04589999233754726
0.9310689305404926   0.0978817811333533   0.04589999233754726
0.6252129580947312   -0.004510980920421376   -0.029300757244475048
0.6252129580947312   -0.004510980920421376   -0.029300757244475048
0.6252129580947312   -0.004510980920421376   -0.029300757244475048
0.6252129580947312   -0.004510980920421376   -0.029300757244475048
0.8924207639969846   0.0022227390268086955   -0.05168179827345781
0.8924207639969846   0.0022227390268086955   -0.05168179827345781
0.8924207639969846   0.0022227390268086955   -0.05168179827345781
0.8924207639969846   0.0022227390268086955   -0.05168179827345781
0.36614191246366756   -0.016454004621874338   0.03914808163823399
0.36614191246366756   -0.016454004621874338   0.03914808163823399
0.36614191246366756   -0.016454004621874338   0.03914808163823399
0.36614191246366756   -0.016454004621874338   0.03914808163823399
0.30175906484923165   -0.12163486189763456   -0.04507795655256505
0.30175906484923165   -0.12163486189763456   -0.04507795655256505
0.30175906484923165   -0.12163486189763456   -0.04507795655256505
0.30175906484923165   -0.12163486189763456   -0.04507795655256505
0.8735030015219163   0.07622135490115108   0.05235781435888989
0.8735030015219163   0.07622135490115108   0.05235781435888989
0.8735030015219163   0.07622135490115108   0.05235781435888989
0.8735030015219163   0.07622135490115108   0.05235781435888989
0.5728643579633671   -0.02020187350707106   -0.04486113827496595
0.5728643579633671   -0.02020187350707106   -0.04486113827496595
0.5728643579633671   -0.02020187350707106   -0.04486113827496595
0.5728643579633671   -0.02020187350707106   -0.04486113827496595
0.4316932128553042   0.08329758379832122   -0.012408088914605802
0.4316932128553042   0.08329758379832122   -0.012408088914605802
0.4316932128553042   0.08329758379832122   -0.012408088914605802
0.4316932128553042   0.08329758379832122   -0.012408088914605802
-0.13297219983789327   0.007409853455873007   0.0040487961206910495
-0.13297219983789327   0.007409853455873007   0.0040487961206910495
-0.13297219983789327   0.007409853455873007   0.0040487961206910495
-0.13297219983789327   0.007409853455873007   0.0040487961206910495
-0.18107496488214025   -0.06894333926080862   -0.039122945303266154
-0.18107496488214025   -0.06894333926080862   -0.039122945303266154
-0.18107496488214025   -0.06894333926080862   -0.039122945303266154
-0.18107496488214025   -0.06894333926080862   -0.039122945303266154
0.41960490840675124   0.1001876002172713   0.04196628814502042
0.41960490840675124   0.1001876002172713   0.04196628814502042
0.41960490840675124   0.1001876002172713   0.04196628814502042
0.41960490840675124   0.1001876002172713   0.04196628814502042
0.13136272126145718   0.029010565752280882   0.005026975287046982
0.13136272126145718   0.029010565752280882   0.005026975287046982
0.13136272126145718   0.029010565752280882   0.005026975287046982
0.13136272126145718   0.029010565752280882   0.005026975287046982
0.4006077449655847   0.05387617166723373   -0.006708100510779396
0.4006077449655847   0.05387617166723373   -0.006708100510779396
0.4006077449655847   0.05387617166723373   -0.006708100510779396
0.4006077449655847   0.05387617166723373   -0.006708100510779396
-0.1623553819116138   -0.022909491181411896   0.008441121469969436
-0.1623553819116138   -0.022909491181411896   0.008441121469969436
-0.1623553819116138   -0.022909491181411896   0.008441121469969436
-0.1623553819116138   -0.022909491181411896   0.008441121469969436
-0.20897272759229876   -0.09223457657186793   -0.031634073594749214
-0.20897272759229876   -0.09223457657186793   -0.031634073594749214
-0.20897272759229876   -0.09223457657186793   -0.031634073594749214
-0.20897272759229876   -0.09223457657186793   -0.031634073594749214
0.3853957213782139   0.07333827692946301   0.04562484465962846
0.3853957213782139   0.07333827692946301   0.04562484465962846
0.3853957213782139   0.07333827692946301   0.04562484465962846
0.3853957213782139   0.07333827692946301   0.04562484465962846
0.09698474640370411   0.0027072870110345093   -0.0076089202799067435
0.09698474640370411   0.0027072870110345093   -0.0076089202799067435
0.09698474640370411   0.0027072870110345093   -0.0076089202799067435
0.09698474640370411   0.0027072870110345093   -0.0076089202799067435
0.36699899299006783   0.02890206516102193   -0.001922585512666516
0.36699899299006783   0.02890206516102193   -0.001922585512666516
0.36699899299006783   0.02890206516102193   -0.001922585512666516
0.36699899299006783   0.02890206516102193   -0.001922585512666516
-0.19128214881776293   -0.0485045144170374   0.013088758123103216
-0.19128214881776293   -0.0485045144170374   0.013088758123103216
-0.19128214881776293   -0.0485045144170374   0.013088758123103216
-0.19128214881776293   -0.0485045144170374   0.013088758123103216
-0.2365031896675546   -0.11417217118976897   -0.024713599541191525
-0.2365031896675546   -0.11417217118976897   -0.024713599541191525
-0.2365031896675546   -0.11417217118976897   -0.024713599541191525
-0.2365031896675546   -0.11417217118976897   -0.024713599541191525
0.3545246213182775   0.04749961630125434   0.049615347593781715
0.3545246213182775   0.04749961630125434   0.049615347593781715
0.3545246213182775   0.04749961630125434   0.049615347593781715
0.3545246213182775   0.04749961630125434   0.049615347593781715
0.0693443222166525   -0.01916959664003582   -0.018783451152030325
0.0693443222166525   -0.01916959664003582   -0.018783451152030325
0.0693443222166525   -0.01916959664003582   -0.018783451152030325
0.0693443222166525   -0.01916959664003582   -0.018783451152030325
-0.11214667409734869   0.10594574797786088   0.009640530301426066
-0.11214667409734869   0.10594574797786088   0.009640530301426066
-0.11214667409734869   0.10594574797786088   0.009640530301426066
-0.11214667409734869   0.10594574797786088   0.009640530301426066
-0.6865810520683159   -0.01711922700058613   -0.020852880111841582
-0.6865810520683159   -0.01711922700058613   -0.020852880111841582
-0.6865810520683159   -0.01711922700058613   -0.020852880111841582
-0.6865810520683159   -0.01711922700058613   -0.020852880111841582
-0.7140910655721462   -0.04085253976614833   -0.015339029525278686
-0.7140910655721462   -0.04085253976614833   -0.015339029525278686
-0.7140910655721462   -0.04085253976614833   -0.015339029525278686
-0.7140910655721462   -0.04085253976614833   -0.015339029525278686
-0.14093033591403908   0.07640138505178687   0.016255475224644267
-0.14093033591403908   0.07640138505178687   0.016255475224644267
-0.14093033591403908   0.07640138505178687   0.016255475224644267
-0.14093033591403908   0.07640138505178687   0.016255475224644267
-0.41243328159416887   0.030619666439237636   0.008137089199643979
-0.41243328159416887   0.030619666439237636   0.008137089199643979
-0.41243328159416887   0.030619666439237636   0.008137089199643979
-0.41243328159416887   0.030619666439237636   0.008137089199643979
-0.140057212607189   0.08035544341169595   0.016667033398985516
-0.140057212607189   0.08035544341169595   0.016667033398985516
-0.140057212607189   0.08035544341169595   0.016667033398985516
-0.140057212607189   0.08035544341169595   0.016667033398985516
-0.715038982782327   -0.04488139202938815   -0.01604976331294284
-0.715038982782327   -0.04488139202938815   -0.01604976331294284
-0.715038982782327   -0.04488139202938815   -0.01604976331294284
-0.715038982782327   -0.04488139202938815   -0.01604976331294284
-0.7422745103843197   -0.06622905357468276   -0.00866468944568869
-0.7422745103843197   -0.06622905357468276   -0.00866468944568869
-0.7422745103843197   -0.06622905357468276   -0.00866468944568869
-0.7422745103843197   -0.06622905357468276   -0.00866468944568869
-0.17020367905919173   0.048769360185148346   0.021207232313765898
-0.17020367905919173   0.048769360185148346   0.021207232313765898
-0.17020367905919173   0.048769360185148346   0.021207232313765898
-0.17020367905919173   0.048769360185148346   0.021207232313765898
-0.4414106426281953   0.005924579483323866   -0.00273202942433938
-0.4414106426281953   0.005924579483323866   -0.00273202942433938
-0.4414106426281953   0.005924579483323866   -0.00273202942433938
-0.4414106426281953   0.005924579483323866   -0.00273202942433938
-0.16872659200397488   0.05473822795460363   0.022623799820398548
-0.16872659200397488   0.05473822795460363   0.022623799820398548
-0.16872659200397488   0.05473822795460363   0.022623799820398548
-0.16872659200397488   0.05473822795460363   0.022623799820398548
-0.744196530383478   -0.07264285428807891   -0.011860988728084169
-0.744196530383478   -0.07264285428807891   -0.011860988728084169
-0.744196530383478   -0.07264285428807891   -0.011860988728084169
-0.744196530383478   -0.07264285428807891   -0.011860988728084169
-0.7699877620289831   -0.09047440649735326   -0.00217886924038389
-0.7699877620289831   -0.09047440649735326   -0.00217886924038389
-0.7699877620289831   -0.09047440649735326   -0.00217886924038389
-0.7699877620289831   -0.09047440649735326   -0.00217886924038389
-0.19922549165137035   0.021918105758473028   0.02558461359148382
-0.19922549165137035   0.021918105758473028   0.02558461359148382
-0.19922549165137035   0.021918105758473028   0.02558461359148382
-0.19922549165137035   0.021918105758473028   0.02558461359148382
-0.4715776471647488   -0.018799673643164816   -0.014511160256040802
-0.4715776471647488   -0.018799673643164816   -0.014511160256040802
-0.4715776471647488   -0.018799673643164816   -0.014511160256040802
-0.4715776471647488   -0.018799673643164816   -0.014511160256040802
-0.6476832853755609   0.1253364099034004   0.031180316447947373
-0.6476832853755609   0.1253364099034004   0.031180316447947373
-0.6476832853755609   0.1253364099034004   0.031180316447947373
-0.6476832853755609   0.1253364099034004   0.031180316447947373
-1.2302202010493108   -0.041497329679559714   -0.04250172706572859
-1.2302202010493108   -0.041497329679559714   -0.04250172706572859
-1.2302202010493108   -0.041497329679559714   -0.04250172706572859
-1.2302202010493108   -0.041497329679559714   -0.04250172706572859
-1.2405708460978309   -0.017969150398810085   0.010177480639707623
-1.2405708460978309   -0.017969150398810085   0.010177480639707623
-1.2405708460978309   -0.017969150398810085   0.010177480639707623
-1.2405708460978309   -0.017969150398810085   0.010177480639707623
-0.6947198987175149   0.04976755751939893   -0.009103292537684354
-0.6947198987175149   0.04976755751939893   -0.009103292537684354
-0.6947198987175149   0.04976755751939893   -0.009103292537684354
-0.6947198987175149   0.04976755751939893   -0.009103292537684354
-0.9476597626980394   0.029196561351866407   0.011827642940301107
-0.9476597626980394   0.029196561351866407   0.011827642940301107
-0.9476597626980394   0.029196561351866407   0.011827642940301107
-0.9476597626980394   0.029196561351866407   0.011827642940301107
-0.6750737391156993   0.10072815622319689   0.038166906767610906
-0.6750737391156993   0.10072815622319689   0.038166906767610906
-0.6750737391156993   0.10072815622319689   0.038166906767610906
-0.6750737391156993   0.10072815622319689   0.038166906767610906
-1.261069598628717   -0.06978234203167721   -0.04050309038186292
-1.261069598628717   -0.06978234203167721   -0.04050309038186292
-1.261069598628717   -0.06978234203167721   -0.04050309038186292
-1.261069598628717   -0.06978234203167721   -0.04050309038186292
-1.273787512707865   -0.043100631030973974   0.013275830657132594
-1.273787512707865   -0.043100631030973974   0.013275830657132594
-1.273787512707865   -0.043100631030973974   0.013275830657132594
-1.273787512707865   -0.043100631030973974   0.013275830657132594
-0.7232034292664213   0.024306697310830627   -0.0038450347417183506
-0.7232034292664213   0.024306697310830627   -0.0038450347417183506
-0.7232034292664213   0.024306697310830627   -0.0038450347417183506
-0.7232034292664213   0.024306697310830627   -0.0038450347417183506
-0.9720852238602854   0.006786633298911604   0.0009258978249376548
-0.9720852238602854   0.006786633298911604   0.0009258978249376548
-0.9720852238602854   0.006786633298911604   0.0009258978249376548
-0.9720852238602854   0.006786633298911604   0.0009258978249376548
-0.7028521603547034   0.07739572894481281   0.044822278182904886
-0.7028521603547034   0.07739572894481281   0.044822278182904886
-0.7028521603547034   0.07739572894481281   0.044822278182904886
-0.7028521603547034   0.07739572894481281   0.044822278182904886
-1.2942100978477076   -0.09626097889308077   -0.03567674717998928
-1.2942100978477076   -0.09626097889308077   -0.03567674717998928
-1.2942100978477076   -0.09626097889308077   -0.03567674717998928
-1.2942100978477076   -0.09626097889308077   -0.03567674717998928
-1.3033747403909737   -0.06985999554307165   0.020236275624922792
-1.3033747403909737   -0.06985999554307165   0.020236275624922792
-1.3033747403909737   -0.06985999554307165   0.020236275624922792
-1.3033747403909737   -0.06985999554307165   0.020236275624922792
-0.7521826743746987   -0.003915158998007567   0.0002873215316855776
-0.7521826743746987   -0.003915158998007567   0.0002873215316855776
-0.7521826743746987   -0.003915158998007567   0.0002873215316855776
-0.7521826743746987   -0.003915158998007567   0.0002873215316855776
-1.0086631693942223   -0.019188124623739145   -0.011713012077004252
-1.0086631693942223   -0.019188124623739145   -0.011713012077004252
-1.0086631693942223   -0.019188124623739145   -0.011713012077004252
-1.0086631693942223   -0.019188124623739145   -0.011713012077004252
-1.1803841158436352   0.11614392709398469   0.04903744218910494
-1.1803841158436352   0.11614392709398469   0.04903744218910494
-1.1803841158436352   0.11614392709398469   0.04903744218910494
-1.1803841158436352   0.11614392709398469   0.04903744218910494
-1.74115365315265   -0.0800936177389065   -0.05532219457615939
-1.74115365315265   -0.0800936177389065   -0.05532219457615939
-1.74115365315265   -0.0800936177389065   -0.05532219457615939
-1.74115365315265   -0.0800936177389065   -0.05532219457615939
-1.7580767773711563   -0.0012651360641464104   0.04861306426552438
-1.7580767773711563   -0.0012651360641464104   0.04861306426552438
-1.7580767773711563   -0.0012651360641464104   0.04861306426552438
-1.7580767773711563   -0.0012651360641464104   0.04861306426552438
-1.2422984295312285   0.01682359991674587   -0.03325318684285136
-1.2422984295312285   0.01682359991674587   -0.03325318684285136
-1.2422984295312285   0.01682359991674587   -0.03325318684285136
-1.2422984295312285   0.01682359991674587   -0.03325318684285136
-1.4153644511478716   0.027039391059863194   0.035769963979580904
-1.4153644511478716   0.027039391059863194   0.035769963979580904
-1.4153644511478716   0.027039391059863194   0.035769963979580904
-1.4153644511478716   0.027039391059863194   0.035769963979580904
-1.2052136062839336   0.11115315930189168   0.057841370008492
-1.2052136062839336   0.11115315930189168   0.057841370008492
-1.2052136062839336   0.11115315930189168   0.057841370008492
-1.2052136062839336   0.11115315930189168   0.057841370008492
-1.7958876650209712   -0.09632075985180716   -0.045385750195873736
-1.7958876650209712   -0.09632075985180716   -0.045385750195873736
-1.7958876650209712   -0.09632075985180716   -0.045385750195873736
-1.7958876650209712   -0.09632075985180716   -0.045385750195873736
-1.8049871564986528   -0.015080999786982574   0.061273099381369545
-1.8049871564986528   -0.015080999786982574   0.061273099381369545
-1.8049871564986528   -0.015080999786982574   0.061273099381369545
-1.8049871564986528   -0.015080999786982574   0.061273099381369545
-1.272919347397767   0.0028604982549700897   -0.028344472078343425
-1.272919347397767   0.0028604982549700897   -0.028344472078343425
-1.272919347397767   0.0028604982549700897   -0.028344472078343425
-1.272919347397767   0.0028604982549700897   -0.028344472078343425
-1.4785202610309138   0.011148678804022427   0.018653743627279604
-1.4785202610309138   0.011148678804022427   0.018653743627279604
-1.4785202610309138   0.011148678804022427   0.018653743627279604
-1.4785202610309138   0.011148678804022427   0.018653743627279604
-1.2340958822456025   0.10047442131238343   0.06815893062508806
-1.2340958822456025   0.10047442131238343   0.06815893062508806
-1.2340958822456025   0.10047442131238343   0.06815893062508806
-1.2340958822456025   0.10047442131238343   0.06815893062508806
-1.8443359199025047   -0.11322022109606922   -0.037331496328802366
-1.8443359199025047   -0.11322022109606922   -0.037331496328802366
-1.8443359199025047   -0.11322022109606922   -0.037331496328802366
-1.8443359199025047   -0.11322022109606922   -0.037331496328802366
-1.8677441035281428   -0.058255659620766564   0.06149990660159593
-1.8677441035281428   -0.058255659620766564   0.06149990660159593
-1.8677441035281428   -0.058255659620766564   0.06149990660159593
-1.8677441035281428   -0.058255659620766564   0.06149990660159593
-1.3049500799218463   -0.032439891463604986   -0.025060526108922232
-1.3049500799218463   -0.032439891463604986   -0.025060526108922232
-1.3049500799218463   -0.032439891463604986   -0.025060526108922232
-1.3049500799218463   -0.032439891463604986   -0.025060526108922232
-1.4965409811416215   -0.006954418990984812   0.010483443193102182
-1.4965409811416215   -0.006954418990984812   0.010483443193102182
-1.4965409811416215   -0.006954418990984812   0.010483443193102182
-1.4965409811416215   -0.006954418990984812   0.010483443193102182
0.5503542989532726   0.03282841557170865   -0.06666178739377927
0.5503542989532726   0.03282841557170865   -0.06666178739377927
0.5503542989532726   0.03282841557170865   -0.06666178739377927
0.5503542989532726   0.03282841557170865   -0.06666178739377927
0.1593941367557206   0.04015836362149677   0.03193806749301094
0.1593941367557206   0.04015836362149677   0.03193806749301094
0.1593941367557206   0.04015836362149677   0.03193806749301094
0.1593941367557206   0.04015836362149677   0.03193806749301094
0.09731024946583984   -0.08118709164749906   -0.058767582016116315
0.09731024946583984   -0.08118709164749906   -0.058767582016116315
0.09731024946583984   -0.08118709164749906   -0.058767582016116315
0.09731024946583984   -0.08118709164749906   -0.058767582016116315
0.5350413130061994   0.09421484709451058   0.038429990204922326
0.5350413130061994   0.09421484709451058   0.038429990204922326
0.5350413130061994   0.09421484709451058   0.038429990204922326
0.5350413130061994   0.09421484709451058   0.038429990204922326
0.31590004586265313   0.015698887707101435   -0.007327876291251851
0.31590004586265313   0.015698887707101435   -0.007327876291251851
0.31590004586265313   0.015698887707101435   -0.007327876291251851
0.31590004586265313   0.015698887707101435   -0.007327876291251851
0.49590655751405577   -0.0019334180557318281   -0.0610955221055575
0.49590655751405577   -0.0019334180557318281   -0.0610955221055575
0.49590655751405577   -0.0019334180557318281   -0.0610955221055575
0.49590655751405577   -0.0019334180557318281   -0.0610955221055575
0.13522333637791165   0.01373950492268123   0.035871255974063446
0.13522333637791165   0.01373950492268123   0.035871255974063446
0.13522333637791165   0.01373950492268123   0.035871255974063446
0.13522333637791165   0.01373950492268123   0.035871255974063446
0.07386565233708353   -0.0927173311268083   -0.049892290759851875
0.07386565233708353   -0.0927173311268083   -0.049892290759851875
0.07386565233708353   -0.0927173311268083   -0.049892290759851875
0.07386565233708353   -0.0927173311268083   -0.049892290759851875
0.49290111244499335   0.07830139910229159   0.04934057013587087
0.49290111244499335   0.07830139910229159   0.04934057013587087
0.49290111244499335   0.07830139910229159   0.04934057013587087
0.49290111244499335   0.07830139910229159   0.04934057013587087
0.2864173385947231   -0.002299730112370682   -0.019023144752868336
0.2864173385947231   -0.002299730112370682   -0.019023144752868336
0.2864173385947231   -0.002299730112370682   -0.019023144752868336
0.2864173385947231   -0.002299730112370682   -0.019023144752868336
0.45399772611707795   -0.01673954224925875   -0.050135420152159924
0.45399772611707795   -0.01673954224925875   -0.050135420152159924
0.45399772611707795   -0.01673954224925875   -0.050135420152159924
0.45399772611707795   -0.01673954224925875   -0.050135420152159924
0.11113530981148072   0.0006898813712336652   0.04304878411409399
0.11113530981148072   0.0006898813712336652   0.04304878411409399
0.11113530981148072   0.0006898813712336652   0.04304878411409399
0.11113530981148072   0.0006898813712336652   0.04304878411409399
0.05289707043696634   -0.10668063682933668   -0.041546213208599095
0.05289707043696634   -0.10668063682933668   -0.041546213208599095
0.05289707043696634   -0.10668063682933668   -0.041546213208599095
0.05289707043696634   -0.10668063682933668   -0.041546213208599095
0.4407350579367425   0.05280667917058902   0.05475715941424648
0.4407350579367425   0.05280667917058902   0.05475715941424648
0.4407350579367425   0.05280667917058902   0.05475715941424648
0.4407350579367425   0.05280667917058902   0.05475715941424648
0.24580974838198852   -0.018352388965561323   -0.03329590650239245
0.24580974838198852   -0.018352388965561323   -0.03329590650239245
0.24580974838198852   -0.018352388965561323   -0.03329590650239245
0.24580974838198852   -0.018352388965561323   -0.03329590650239245
0.15308381187522396   0.059933548263969155   -0.01938874155194547
0.15308381187522396   0.059933548263969155   -0.01938874155194547
0.15308381187522396   0.059933548263969155   -0.01938874155194547
0.15308381187522396   0.059933548263969155   -0.01938874155194547
-0.22517345147724852   0.01946955834152362   0.007797324851267093
-0.22517345147724852   0.01946955834152362   0.007797324851267093
-0.22517345147724852   0.01946955834152362   0.007797324851267093
-0.22517345147724852   0.01946955834152362   0.007797324851267093
-0.265158840056048   -0.052013028778245415   -0.03427310836976397
-0.265158840056048   -0.052013028778245415   -0.03427310836976397
-0.265158840056048   -0.052013028778245415   -0.03427310836976397
-0.265158840056048   -0.052013028778245415   -0.03427310836976397
0.14746338806725678   0.07440897859370862   0.03640204074976171
0.14746338806725678   0.07440897859370862   0.03640204074976171
0.14746338806725678   0.07440897859370862   0.03640204074976171
0.14746338806725678   0.07440897859370862   0.03640204074976171
-0.048758336278382414   0.02437898620015311   0.0061456748267629206
-0.048758336278382414   0.02437898620015311   0.0061456748267629206
-0.048758336278382414   0.02437898620015311   0.0061456748267629206
-0.048758336278382414   0.02437898620015311   0.0061456748267629206
0.12859892852757268   0.03074240911786775   -0.014253687472818832
0.12859892852757268   0.03074240911786775   -0.014253687472818832
0.12859892852757268   0.03074240911786775   -0.014253687472818832
0.12859892852757268   0.03074240911786775   -0.014253687472818832
-0.24733379168251182   -0.009385870468552597   0.012224975188224182
-0.24733379168251182   -0.009385870468552597   0.012224975188224182
-0.24733379168251182   -0.009385870468552597   0.012224975188224182
-0.24733379168251182   -0.009385870468552597   0.012224975188224182
-0.2861337699085823   -0.07545741858173184   -0.026824141609488254
-0.2861337699085823   -0.07545741858173184   -0.026824141609488254
-0.2861337699085823   -0.07545741858173184   -0.026824141609488254
-0.2861337699085823   -0.07545741858173184   -0.026824141609488254
0.11994282731817207   0.04809083320100335   0.039685419817781106
0.11994282731817207   0.04809083320100335   0.039685419817781106
0.11994282731817207   0.04809083320100335   0.039685419817781106
0.11994282731817207   0.04809083320100335   0.039685419817781106
-0.07466333794383836   -0.0008881960450376897   -0.005959702054433221
-0.07466333794383836   -0.0008881960450376897   -0.005959702054433221
-0.07466333794383836   -0.0008881960450376897   -0.005959702054433221
-0.07466333794383836   -0.0008881960450376897   -0.005959702054433221
0.10163749184706439   0.005592981019963531   -0.009343405356719443
0.10163749184706439   0.005592981019963531   -0.009343405356719443
0.10163749184706439   0.005592981019963531   -0.009343405356719443
0.10163749184706439   0.005592981019963531   -0.009343405356719443
-0.26917346835697975   -0.034304600320186625   0.01682454788698303
-0.26917346835697975   -0.034304600320186625   0.01682454788698303
-0.26917346835697975   -0.034304600320186625   0.01682454788698303
-0.26917346835697975   -0.034304600320186625   0.01682454788698303
-0.30694978775032106   -0.09873657123668947   -0.020091181027338825
-0.30694978775032106   -0.09873657123668947   -0.020091181027338825
-0.30694978775032106   -0.09873657123668947   -0.020091181027338825
-0.30694978775032106   -0.09873657123668947   -0.020091181027338825
0.09584750922870362   0.022226746831215477   0.04429859708953609
0.09584750922870362   0.022226746831215477   0.04429859708953609
0.09584750922870362   0.022226746831215477   0.04429859708953609
0.09584750922870362   0.022226746831215477   0.04429859708953609
-0.09710270894183354   -0.023540813813221102   -0.017399160862783692
-0.09710270894183354   -0.023540813813221102   -0.017399160862783692
-0.09710270894183354   -0.023540813813221102   -0.017399160862783692
-0.09710270894183354   -0.023540813813221102   -0.017399160862783692
-0.2136051354529685   0.08222352083974155   0.0028849424744493216
-0.2136051354529685   0.08222352083974155   0.0028849424744493216
-0.2136051354529685   0.08222352083974155   0.0028849424744493216
-0.2136051354529685   0.08222352083974155   0.0028849424744493216
-0.6046833238323198   -0.007084827876822991   -0.01658842374024202
-0.6046833238323198   -0.007084827876822991   -0.01658842374024202
-0.6046833238323198   -0.007084827876822991   -0.01658842374024202
-0.6046833238323198   -0.007084827876822991   -0.01658842374024202
-0.6235672423259976   -0.025356610237693394   -0.009897594810798611
-0.6235672423259976   -0.025356610237693394   -0.009897594810798611
-0.6235672423259976   -0.025356610237693394   -0.009897594810798611
-0.6235672423259976   -0.025356610237693394   -0.009897594810798611
-0.23579271596636428   0.048970769179388314   0.01157371412101688
-0.23579271596636428   0.048970769179388314   0.01157371412101688
-0.23579271596636428   0.048970769179388314   0.01157371412101688
-0.23579271596636428   0.048970769179388314   0.01157371412101688
-0.41842093492831806   0.024175389093379032   0.0063803269171317754
-0.41842093492831806   0.024175389093379032   0.0063803269171317754
-0.41842093492831806   0.024175389093379032   0.0063803269171317754
-0.41842093492831806   0.024175389093379032   0.0063803269171317754
-0.23465999922987335   0.056371642283553264   0.009836424699310557
-0.23465999922987335   0.056371642283553264   0.009836424699310557
-0.23465999922987335   0.056371642283553264   0.009836424699310557
-0.23465999922987335   0.056371642283553264   0.009836424699310557
-0.6256094273016051   -0.03366695158097428   -0.011798178345555323
-0.6256094273016051   -0.03366695158097428   -0.011798178345555323
-0.6256094273016051   -0.03366695158097428   -0.011798178345555323
-0.6256094273016051   -0.03366695158097428   -0.011798178345555323
-0.6444493400431657   -0.05095034348567322   -0.0031456250563679823
-0.6444493400431657   -0.05095034348567322   -0.0031456250563679823
-0.6444493400431657   -0.05095034348567322   -0.0031456250563679823
-0.6444493400431657   -0.05095034348567322   -0.0031456250563679823
-0.2579339911958311   0.022279353327721095   0.01643798004481486
-0.2579339911958311   0.022279353327721095   0.01643798004481486
-0.2579339911958311   0.022279353327721095   0.01643798004481486
-0.2579339911958311   0.022279353327721095   0.01643798004481486
-0.44020983239741285   -0.00012816778367490123   -0.004475206782506146
-0.44020983239741285   -0.00012816778367490123   -0.004475206782506146
-0.44020983239741285   -0.00012816778367490123   -0.004475206782506146
-0.44020983239741285   -0.00012816778367490123   -0.004475206782506146
-0.2564153031047387   0.030456453065738416   0.015854320762263226
-0.2564153031047387   0.030456453065738416   0.015854320762263226
-0.2564153031047387   0.030456453065738416   0.015854320762263226
-0.2564153031047387   0.030456453065738416   0.015854320762263226
-0.6472612403596611   -0.06042065544909435   -0.007734814675432234
-0.6472612403596611   -0.06042065544909435   -0.007734814675432234
-0.6472612403596611   -0.06042065544909435   -0.007734814675432234
-0.6472612403596611   -0.06042065544909435   -0.007734814675432234
-0.6649335838611147   -0.07566291782809548   0.0033875878683855554
-0.6649335838611147   -0.07566291782809548   0.0033875878683855554
-0.6649335838611147   -0.07566291782809548   0.0033875878683855554
-0.6649335838611147   -0.07566291782809548   0.0033875878683855554
-0.2796925503012365   -0.0034360138173088056   0.020894448798707055
-0.2796925503012365   -0.0034360138173088056   0.020894448798707055
-0.2796925503012365   -0.0034360138173088056   0.020894448798707055
-0.2796925503012365   -0.0034360138173088056   0.020894448798707055
-0.46313288393259905   -0.024491338420972786   -0.016260233222730312
-0.46313288393259905   -0.024491338420972786   -0.016260233222730312
-0.46313288393259905   -0.024491338420972786   -0.016260233222730312
-0.46313288393259905   -0.024491338420972786   -0.016260233222730312
-0.5741279062195112   0.10336853499078463   0.02573530145619353
-0.5741279062195112   0.10336853499078463   0.02573530145619353
-0.5741279062195112   0.10336853499078463   0.02573530145619353
-0.5741279062195112   0.10336853499078463   0.02573530145619353
-0.9757795755732285   -0.028843799443156543   -0.03790140668280085
-0.9757795755732285   -0.028843799443156543   -0.03790140668280085
-0.9757795755732285   -0.028843799443156543   -0.03790140668280085
-0.9757795755732285   -0.028843799443156543   -0.03790140668280085
-0.9776526195477859   -0.0018084136510631843   0.01594957244027609
-0.9776526195477859   -0.0018084136510631843   0.01594957244027609
-0.9776526195477859   -0.0018084136510631843   0.01594957244027609
-0.9776526195477859   -0.0018084136510631843   0.01594957244027609
-0.6138809823452321   0.025156737268989787   -0.011979642413662332
-0.6138809823452321   0.025156737268989787   -0.011979642413662332
-0.6138809823452321   0.025156737268989787   -0.011979642413662332
-0.6138809823452321   0.025156737268989787   -0.011979642413662332
-0.7813741536976785   0.024426950986264462   0.008416256808765316
-0.7813741536976785   0.024426950986264462   0.008416256808765316
-0.7813741536976785   0.024426950986264462   0.008416256808765316
-0.7813741536976785   0.024426950986264462   0.008416256808765316
-0.5943330827348215   0.07820741483746005   0.0327091780699279
-0.5943330827348215   0.07820741483746005   0.0327091780699279
-0.5943330827348215   0.07820741483746005   0.0327091780699279
-0.5943330827348215   0.07820741483746005   0.0327091780699279
-0.9989481838771744   -0.05660675593851147   -0.0357299069192261
-0.9989481838771744   -0.05660675593851147   -0.0357299069192261
-0.9989481838771744   -0.05660675593851147   -0.0357299069192261
-0.9989481838771744   -0.05660675593851147   -0.0357299069192261
-1.003357128831807   -0.027037355476178915   0.01958840088861949
-1.003357128831807   -0.027037355476178915   0.01958840088861949
-1.003357128831807   -0.027037355476178915   0.01958840088861949
-1.003357128831807   -0.027037355476178915   0.01958840088861949
-0.6348728430672634   0.000586656266622354   -0.00680013992916767
-0.6348728430672634   0.000586656266622354   -0.00680013992916767
-0.6348728430672634   0.000586656266622354   -0.00680013992916767
-0.6348728430672634   0.000586656266622354   -0.00680013992916767
-0.7999049986841316   0.0017695159545030037   -0.002967195689038145
-0.7999049986841316   0.0017695159545030037   -0.002967195689038145
-0.7999049986841316   0.0017695159545030037   -0.002967195689038145
-0.7999049986841316   0.0017695159545030037   -0.002967195689038145
-0.6148048075056494   0.054650639533696005   0.039476054611836536
-0.6148048075056494   0.054650639533696005   0.039476054611836536
-0.6148048075056494   0.054650639533696005   0.039476054611836536
-0.6148048075056494   0.054650639533696005   0.039476054611836536
-1.0245142793904263   -0.08219045374025916   -0.031044253640412495
-1.0245142793904263   -0.08219045374025916   -0.031044253640412495
-1.0245142793904263   -0.08219045374025916   -0.031044253640412495
-1.0245142793904263   -0.08219045374025916   -0.031044253640412495
-1.0255685000606969   -0.05332191126078201   0.026639385903873006
-1.0255685000606969   -0.05332191126078201   0.026639385903873006
-1.0255685000606969   -0.05332191126078201   0.026639385903873006
-1.0255685000606969   -0.05332191126078201   0.026639385903873006
-0.6561256260438197   -0.02567665012567072   -0.0025588907475793815
-0.6561256260438197   -0.02567665012567072   -0.0025588907475793815
-0.6561256260438197   -0.02567665012567072   -0.0025588907475793815
-0.6561256260438197   -0.02567665012567072   -0.0025588907475793815
-0.8274261249318535   -0.022894982284130783   -0.015364727580921805
-0.8274261249318535   -0.022894982284130783   -0.015364727580921805
-0.8274261249318535   -0.022894982284130783   -0.015364727580921805
-0.8274261249318535   -0.022894982284130783   -0.015364727580921805
-0.9329663351403479   0.1017270699887303   0.0455939260497224
-0.9329663351403479   0.1017270699887303   0.0455939260497224
-0.9329663351403479   0.1017270699887303   0.0455939260497224
-0.9329663351403479   0.1017270699887303   0.0455939260497224
-1.312424013805777   -0.06032729895928418   -0.05763382177993795
-1.312424013805777   -0.06032729895928418   -0.05763382177993795
-1.312424013805777   -0.06032729895928418   -0.05763382177993795
-1.312424013805777   -0.06032729895928418   -0.05763382177993795
-1.32207572779903   0.017105417125234335   0.047933197467392746
-1.32207572779903   0.017105417125234335   0.047933197467392746
-1.32207572779903   0.017105417125234335   0.047933197467392746
-1.32207572779903   0.017105417125234335   0.047933197467392746
-0.9881448220423704   -0.0030951313297787886   -0.035224722353953686
-0.9881448220423704   -0.0030951313297787886   -0.035224722353953686
-0.9881448220423704   -0.0030951313297787886   -0.035224722353953686
-0.9881448220423704   -0.0030951313297787886   -0.035224722353953686
-1.0899799186001036   0.024468591336328005   0.026340882016828757
-1.0899799186001036   0.024468591336328005   0.026340882016828757
-1.0899799186001036   0.024468591336328005   0.026340882016828757
-1.0899799186001036   0.024468591336328005   0.026340882016828757
-0.9512006067446455   0.09247837200301057   0.05392285080188927
-0.9512006067446455   0.09247837200301057   0.05392285080188927
-0.9512006067446455   0.09247837200301057   0.05392285080188927
-0.9512006067446455   0.09247837200301057   0.05392285080188927
-1.3608787864155292   -0.08032692952632814   -0.04864974896354135
-1.3608787864155292   -0.08032692952632814   -0.04864974896354135
-1.3608787864155292   -0.08032692952632814   -0.04864974896354135
-1.3608787864155292   -0.08032692952632814   -0.04864974896354135
-1.3620946684612754   0.0029393007033566287   0.06122486122709783
-1.3620946684612754   0.0029393007033566287   0.06122486122709783
-1.3620946684612754   0.0029393007033566287   0.06122486122709783
-1.3620946684612754   0.0029393007033566287   0.06122486122709783
-1.0112754348400819   -0.016805398920703485   -0.030235085708246325
-1.0112754348400819   -0.016805398920703485   -0.030235085708246325
-1.0112754348400819   -0.016805398920703485   -0.030235085708246325
-1.0112754348400819   -0.016805398920703485   -0.030235085708246325
-1.141074439649181   0.007706482537643   0.009423638073485216
-1.141074439649181   0.007706482537643   0.009423638073485216
-1.141074439649181   0.007706482537643   0.009423638073485216
-1.141074439649181   0.007706482537643   0.009423638073485216
-0.9727607281496703   0.08138977190406776   0.06414327691904828
-0.9727607281496703   0.08138977190406776   0.06414327691904828
-0.9727607281496703   0.08138977190406776   0.06414327691904828
-0.9727607281496703   0.08138977190406776   0.06414327691904828
-1.4023708259611514   -0.09701732093087764   -0.04019930463804761
-1.4023708259611514   -0.09701732093087764   -0.04019930463804761
-1.4023708259611514   -0.09701732093087764   -0.04019930463804761
-1.4023708259611514   -0.09701732093087764   -0.04019930463804761
-1.417448235306324   -0.03728062537165261   0.06323395973531709
-1.417448235306324   -0.03728062537165261   0.06323395973531709
-1.417448235306324   -0.03728062537165261   0.06323395973531709
-1.417448235306324   -0.03728062537165261   0.06323395973531709
-1.035140039271752   -0.04817408878631807   -0.02636613262588943
-1.035140039271752   -0.04817408878631807   -0.02636613262588943
-1.035140039271752   -0.04817408878631807   -0.02636613262588943
-1.035140039271752   -0.04817408878631807   -0.02636613262588943
-1.1578141807095794   -0.010103406136105386   -0.0006568993303769644
-1.1578141807095794   -0.010103406136105386   -0.0006568993303769644
-1.1578141807095794   -0.010103406136105386   -0.0006568993303769644
-1.1578141807095794   -0.010103406136105386   -0.0006568993303769644
0.0968737717501328   0.007976437113262753   -0.06645120004254068
0.0968737717501328   0.007976437113262753   -0.06645120004254068
0.0968737717501328   0.007976437113262753   -0.06645120004254068
0.0968737717501328   0.007976437113262753   -0.06645120004254068
-0.10956981183927027   0.049880770453823456   0.03401703484978731
-0.10956981183927027   0.049880770453823456   0.03401703484978731
-0.10956981183927027   0.049880770453823456   0.03401703484978731
-0.10956981183927027   0.049880770453823456   0.03401703484978731
-0.16372075173125922   -0.0639238338330232   -0.053501349695287866
-0.16372075173125922   -0.0639238338330232   -0.053501349695287866
-0.16372075173125922   -0.0639238338330232   -0.053501349695287866
-0.16372075173125922   -0.0639238338330232   -0.053501349695287866
0.0886687308636262   0.0702158159367251   0.04178573235930559
0.0886687308636262   0.0702158159367251   0.04178573235930559
0.0886687308636262   0.0702158159367251   0.04178573235930559
0.0886687308636262   0.0702158159367251   0.04178573235930559
-0.024112760026902248   0.015406157052145797   0.0057862918377805895
-0.024112760026902248   0.015406157052145797   0.0057862918377805895
-0.024112760026902248   0.015406157052145797   0.0057862918377805895
-0.024112760026902248   0.015406157052145797   0.0057862918377805895
0.04991509419343898   -0.022374768100005892   -0.05939186695489951
0.04991509419343898   -0.022374768100005892   -0.05939186695489951
0.04991509419343898   -0.022374768100005892   -0.05939186695489951
0.04991509419343898   -0.022374768100005892   -0.05939186695489951
-0.1272615738205723   0.026372291444207507   0.03849841458091613
-0.1272615738205723   0.026372291444207507   0.03849841458091613
-0.1272615738205723   0.026372291444207507   0.03849841458091613
-0.1272615738205723   0.026372291444207507   0.03849841458091613
-0.18155437441154004   -0.07552526013527258   -0.045337239195416504
-0.18155437441154004   -0.07552526013527258   -0.045337239195416504
-0.18155437441154004   -0.07552526013527258   -0.045337239195416504
-0.18155437441154004   -0.07552526013527258   -0.045337239195416504
0.051932140511586504   0.054452165572959635   0.057292331701818466
0.051932140511586504   0.054452165572959635   0.057292331701818466
0.051932140511586504   0.054452165572959635   0.057292331701818466
0.051932140511586504   0.054452165572959635   0.057292331701818466
-0.053131015570544254   -0.0019730324173600315   -0.007623222931949481
-0.053131015570544254   -0.0019730324173600315   -0.007623222931949481
-0.053131015570544254   -0.0019730324173600315   -0.007623222931949481
-0.053131015570544254   -0.0019730324173600315   -0.007623222931949481
0.012287455223728405   -0.037487693501698394   -0.048991235662814006
0.012287455223728405   -0.037487693501698394   -0.048991235662814006
0.012287455223728405   -0.037487693501698394   -0.048991235662814006
0.012287455223728405   -0.037487693501698394   -0.048991235662814006
-0.1450919424700365   0.013232345593030725   0.04821731478379693
-0.1450919424700365   0.013232345593030725   0.04821731478379693
-0.1450919424700365   0.013232345593030725   0.04821731478379693
-0.1450919424700365   0.013232345593030725   0.04821731478379693
-0.19788952312890126   -0.09338385486982134   -0.03757092972219225
-0.19788952312890126   -0.09338385486982134   -0.03757092972219225
-0.19788952312890126   -0.09338385486982134   -0.03757092972219225
-0.19788952312890126   -0.09338385486982134   -0.03757092972219225
0.0009144129719646735   0.021391717544787   0.06530239589215692
0.0009144129719646735   0.021391717544787   0.06530239589215692
0.0009144129719646735   0.021391717544787   0.06530239589215692
0.0009144129719646735   0.021391717544787   0.06530239589215692
-0.08423441472381722   -0.01948231539522044   -0.023073815381614685
-0.08423441472381722   -0.01948231539522044   -0.023073815381614685
-0.08423441472381722   -0.01948231539522044   -0.023073815381614685
-0.08423441472381722   -0.01948231539522044   -0.023073815381614685
-0.12511809458768922   0.03262703588457106   -0.026470644323055008
-0.12511809458768922   0.03262703588457106   -0.026470644323055008
-0.12511809458768922   0.03262703588457106   -0.026470644323055008
-0.12511809458768922   0.03262703588457106   -0.026470644323055008
-0.31858346379249236   0.013395918128657147   0.008892148624567518
-0.31858346379249236   0.013395918128657147   0.008892148624567518
-0.31858346379249236   0.013395918128657147   0.008892148624567518
-0.31858346379249236   0.013395918128657147   0.008892148624567518
-0.3465037745765223   -0.037226450387893725   -0.027807941514470937
-0.3465037745765223   -0.037226450387893725   -0.027807941514470937
-0.3465037745765223   -0.037226450387893725   -0.027807941514470937
-0.3465037745765223   -0.037226450387893725   -0.027807941514470937
-0.128603676276646   0.03160507156100628   0.026555122183748725
-0.128603676276646   0.03160507156100628   0.026555122183748725
-0.128603676276646   0.03160507156100628   0.026555122183748725
-0.128603676276646   0.03160507156100628   0.026555122183748725
-0.22922705886984615   0.009455323325388038   0.005027287691202588
-0.22922705886984615   0.009455323325388038   0.005027287691202588
-0.22922705886984615   0.009455323325388038   0.005027287691202588
-0.22922705886984615   0.009455323325388038   0.005027287691202588
-0.14367452209948275   0.004551817780435695   -0.02174585314986339
-0.14367452209948275   0.004551817780435695   -0.02174585314986339
-0.14367452209948275   0.004551817780435695   -0.02174585314986339
-0.14367452209948275   0.004551817780435695   -0.02174585314986339
-0.33331415049276747   -0.012054418346405506   0.012968146862811265
-0.33331415049276747   -0.012054418346405506   0.012968146862811265
-0.33331415049276747   -0.012054418346405506   0.012968146862811265
-0.33331415049276747   -0.012054418346405506   0.012968146862811265
-0.3603839695163991   -0.06001373686087048   -0.02051063365701685
-0.3603839695163991   -0.06001373686087048   -0.02051063365701685
-0.3603839695163991   -0.06001373686087048   -0.02051063365701685
-0.3603839695163991   -0.06001373686087048   -0.02051063365701685
-0.15010868003663264   0.006426197912487015   0.029939774631359963
-0.15010868003663264   0.006426197912487015   0.029939774631359963
-0.15010868003663264   0.006426197912487015   0.029939774631359963
-0.15010868003663264   0.006426197912487015   0.029939774631359963
-0.2467623301174622   -0.013403243581561829   -0.006437679070059035
-0.2467623301174622   -0.013403243581561829   -0.006437679070059035
-0.2467623301174622   -0.013403243581561829   -0.006437679070059035
-0.2467623301174622   -0.013403243581561829   -0.006437679070059035
-0.16463293570284726   -0.020010387103506565   -0.016244918683718496
-0.16463293570284726   -0.020010387103506565   -0.016244918683718496
-0.16463293570284726   -0.020010387103506565   -0.016244918683718496
-0.16463293570284726   -0.020010387103506565   -0.016244918683718496
-0.3478785749956821   -0.03559601299037944   0.017598615076077146
-0.3478785749956821   -0.03559601299037944   0.017598615076077146
-0.3478785749956821   -0.03559601299037944   0.017598615076077146
-0.3478785749956821   -0.03559601299037944   0.017598615076077146
-0.3743556918134153   -0.0834831334824676   -0.014047603436760283
-0.3743556918134153   -0.0834831334824676   -0.014047603436760283
-0.3743556918134153   -0.0834831334824676   -0.014047603436760283
-0.3743556918134153   -0.0834831334824676   -0.014047603436760283
-0.1680910506306793   -0.019111205111639183   0.03714878301073438
-0.1680910506306793   -0.019111205111639183   0.03714878301073438
-0.1680910506306793   -0.019111205111639183   0.03714878301073438
-0.1680910506306793   -0.019111205111639183   0.03714878301073438
-0.2642909389481807   -0.03603618221082246   -0.01810393862394696
-0.2642909389481807   -0.03603618221082246   -0.01810393862394696
-0.2642909389481807   -0.03603618221082246   -0.01810393862394696
-0.2642909389481807   -0.03603618221082246   -0.01810393862394696
-0.3127935231823457   0.05404864246834251   -0.002810872664388571
-0.3127935231823457   0.05404864246834251   -0.002810872664388571
-0.3127935231823457   0.05404864246834251   -0.002810872664388571
-0.3127935231823457   0.05404864246834251   -0.002810872664388571
-0.5257811529283002   -0.01797299707015998   -0.014833874499200782
-0.5257811529283002   -0.01797299707015998   -0.014833874499200782
-0.5257811529283002   -0.01797299707015998   -0.014833874499200782
-0.5257811529283002   -0.01797299707015998   -0.014833874499200782
-0.5312923275635681   -0.013065153902584642   -0.0031062896916440284
-0.5312923275635681   -0.013065153902584642   -0.0031062896916440284
-0.5312923275635681   -0.013065153902584642   -0.0031062896916440284
-0.5312923275635681   -0.013065153902584642   -0.0031062896916440284
-0.3320946678509393   0.0029170146153335436   0.004094127110213421
-0.3320946678509393   0.0029170146153335436   0.004094127110213421
-0.3320946678509393   0.0029170146153335436   0.004094127110213421
-0.3320946678509393   0.0029170146153335436   0.004094127110213421
-0.42460377836640895   0.00607126815201868   0.001692305299304666
-0.42460377836640895   0.00607126815201868   0.001692305299304666
-0.42460377836640895   0.00607126815201868   0.001692305299304666
-0.42460377836640895   0.00607126815201868   0.001692305299304666
-0.3268344743381388   0.029258413782283235   0.004053695507265951
-0.3268344743381388   0.029258413782283235   0.004053695507265951
-0.3268344743381388   0.029258413782283235   0.004053695507265951
-0.3268344743381388   0.029258413782283235   0.004053695507265951
-0.5383612583451595   -0.04121529033832515   -0.0103008071638598
-0.5383612583451595   -0.04121529033832515   -0.0103008071638598
-0.5383612583451595   -0.04121529033832515   -0.0103008071638598
-0.5383612583451595   -0.04121529033832515   -0.0103008071638598
-0.5443046338200646   -0.037544934450721684   0.0036871837768037083
-0.5443046338200646   -0.037544934450721684   0.0036871837768037083
-0.5443046338200646   -0.037544934450721684   0.0036871837768037083
-0.5443046338200646   -0.037544934450721684   0.0036871837768037083
-0.3468184197048686   -0.02114566512492249   0.00844904366468764
-0.3468184197048686   -0.02114566512492249   0.00844904366468764
-0.3468184197048686   -0.02114566512492249   0.00844904366468764
-0.3468184197048686   -0.02114566512492249   0.00844904366468764
-0.4387132294646404   -0.0161920771091833   -0.00883798105640549
-0.4387132294646404   -0.0161920771091833   -0.00883798105640549
-0.4387132294646404   -0.0161920771091833   -0.00883798105640549
-0.4387132294646404   -0.0161920771091833   -0.00883798105640549
-0.3413937956863722   0.004320913455921269   0.010105585176326128
-0.3413937956863722   0.004320913455921269   0.010105585176326128
-0.3413937956863722   0.004320913455921269   0.010105585176326128
-0.3413937956863722   0.004320913455921269   0.010105585176326128
-0.5519094501964752   -0.06519170538948096   -0.006690127166498182
-0.5519094501964752   -0.06519170538948096   -0.006690127166498182
-0.5519094501964752   -0.06519170538948096   -0.006690127166498182
-0.5519094501964752   -0.06519170538948096   -0.006690127166498182
-0.5569788138207372   -0.06103228743387085   0.010199344235397645
-0.5569788138207372   -0.06103228743387085   0.010199344235397645
-0.5569788138207372   -0.06103228743387085   0.010199344235397645
-0.5569788138207372   -0.06103228743387085   0.010199344235397645
-0.3609536990457775   -0.04385297162097718   0.013332198539938517
-0.3609536990457775   -0.04385297162097718   0.013332198539938517
-0.3609536990457775   -0.04385297162097718   0.013332198539938517
-0.3609536990457775   -0.04385297162097718   0.013332198539938517
-0.4538962320228876   -0.03859621441725187   -0.020279755273917163
-0.4538962320228876   -0.03859621441725187   -0.020279755273917163
-0.4538962320228876   -0.03859621441725187   -0.020279755273917163
-0.4538962320228876   -0.03859621441725187   -0.020279755273917163
-0.49922819745780417   0.07836528222759113   0.02159262355554393
-0.49922819745780417   0.07836528222759113   0.02159262355554393
-0.49922819745780417   0.07836528222759113   0.02159262355554393
-0.49922819745780417   0.07836528222759113   0.02159262355554393
-0.7247221885774076   -0.02985281790068331   -0.03329432086282808
-0.7247221885774076   -0.02985281790068331   -0.03329432086282808
-0.7247221885774076   -0.02985281790068331   -0.03329432086282808
-0.7247221885774076   -0.02985281790068331   -0.03329432086282808
-0.714958061821677   0.011816230257980648   0.022394902007736854
-0.714958061821677   0.011816230257980648   0.022394902007736854
-0.714958061821677   0.011816230257980648   0.022394902007736854
-0.714958061821677   0.011816230257980648   0.022394902007736854
-0.5331464216633951   -0.010607987717646317   -0.014833926375717024
-0.5331464216633951   -0.010607987717646317   -0.014833926375717024
-0.5331464216633951   -0.010607987717646317   -0.014833926375717024
-0.5331464216633951   -0.010607987717646317   -0.014833926375717024
-0.6158871941276628   0.012521867623831617   0.0029389660835546297
-0.6158871941276628   0.012521867623831617   0.0029389660835546297
-0.6158871941276628   0.012521867623831617   0.0029389660835546297
-0.6158871941276628   0.012521867623831617   0.0029389660835546297
-0.5116239432575445   0.05369847429703145   0.028472003638858344
-0.5116239432575445   0.05369847429703145   0.028472003638858344
-0.5116239432575445   0.05369847429703145   0.028472003638858344
-0.5116239432575445   0.05369847429703145   0.028472003638858344
-0.7391214781505449   -0.05513116967971676   -0.031474779698919444
-0.7391214781505449   -0.05513116967971676   -0.031474779698919444
-0.7391214781505449   -0.05513116967971676   -0.031474779698919444
-0.7391214781505449   -0.05513116967971676   -0.031474779698919444
-0.7324024845266572   -0.01226992417886133   0.026446599302807766
-0.7324024845266572   -0.01226992417886133   0.026446599302807766
-0.7324024845266572   -0.01226992417886133   0.026446599302807766
-0.7324024845266572   -0.01226992417886133   0.026446599302807766
-0.5460466413434393   -0.03247746882911737   -0.010090319461674206
-0.5460466413434393   -0.03247746882911737   -0.010090319461674206
-0.5460466413434393   -0.03247746882911737   -0.010090319461674206
-0.5460466413434393   -0.03247746882911737   -0.010090319461674206
-0.6277398640908124   -0.00893352098599029   -0.008476333892476477
-0.6277398640908124   -0.00893352098599029   -0.008476333892476477
-0.6277398640908124   -0.00893352098599029   -0.008476333892476477
-0.6277398640908124   -0.00893352098599029   -0.008476333892476477
-0.5242804214969139   0.03109819229574269   0.03516511864608446
-0.5242804214969139   0.03109819229574269   0.03516511864608446
-0.5242804214969139   0.03109819229574269   0.03516511864608446
-0.5242804214969139   0.03109819229574269   0.03516511864608446
-0.7562541376882859   -0.07793101861882859   -0.02715057206538366
-0.7562541376882859   -0.07793101861882859   -0.02715057206538366
-0.7562541376882859   -0.07793101861882859   -0.02715057206538366
-0.7562541376882859   -0.07793101861882859   -0.02715057206538366
-0.7465847031955739   -0.03652160097623294   0.03367543215136361
-0.7465847031955739   -0.03652160097623294   0.03367543215136361
-0.7465847031955739   -0.03652160097623294   0.03367543215136361
-0.7465847031955739   -0.03652160097623294   0.03367543215136361
-0.5589924215076835   -0.05486050106863989   -0.006040480564571633
-0.5589924215076835   -0.05486050106863989   -0.006040480564571633
-0.5589924215076835   -0.05486050106863989   -0.006040480564571633
-0.5589924215076835   -0.05486050106863989   -0.006040480564571633
-0.6455696729110283   -0.030801112502810965   -0.020169593927078833
-0.6455696729110283   -0.030801112502810965   -0.020169593927078833
-0.6455696729110283   -0.030801112502810965   -0.020169593927078833
-0.6455696729110283   -0.030801112502810965   -0.020169593927078833
-0.6865731963390221   0.08490766114645298   0.042690161281962305
-0.6865731963390221   0.08490766114645298   0.042690161281962305
-0.6865731963390221   0.08490766114645298   0.042690161281962305
-0.6865731963390221   0.08490766114645298   0.042690161281962305
-0.882895051894748   -0.04410197788065365   -0.05576555701313578
-0.882895051894748   -0.04410197788065365   -0.05576555701313578
-0.882895051894748   -0.04410197788065365   -0.05576555701313578
-0.882895051894748   -0.04410197788065365   -0.05576555701313578
-0.8835653040722029   0.034277492423720884   0.04705887844337711
-0.8835653040722029   0.034277492423720884   0.04705887844337711
-0.8835653040722029   0.034277492423720884   0.04705887844337711
-0.8835653040722029   0.034277492423720884   0.04705887844337711
-0.7336389753421614   -0.025071933917557854   -0.034121501419153974
-0.7336389753421614   -0.025071933917557854   -0.034121501419153974
-0.7336389753421614   -0.025071933917557854   -0.034121501419153974
-0.7336389753421614   -0.025071933917557854   -0.034121501419153974
-0.7644609137212598   0.020207600652898033   0.01472864236140467
-0.7644609137212598   0.020207600652898033   0.01472864236140467
-0.7644609137212598   0.020207600652898033   0.01472864236140467
-0.7644609137212598   0.020207600652898033   0.01472864236140467
-0.697289248473852   0.0721933063797395   0.05036189262508862
-0.697289248473852   0.0721933063797395   0.05036189262508862
-0.697289248473852   0.0721933063797395   0.05036189262508862
-0.697289248473852   0.0721933063797395   0.05036189262508862
-0.9226559512310092   -0.06572866816406689   -0.0483881967628514
-0.9226559512310092   -0.06572866816406689   -0.0483881967628514
-0.9226559512310092   -0.06572866816406689   -0.0483881967628514
-0.9226559512310092   -0.06572866816406689   -0.0483881967628514
-0.9152966947742228   0.020566434675125866   0.060645342205010756
-0.9152966947742228   0.020566434675125866   0.060645342205010756
-0.9152966947742228   0.020566434675125866   0.060645342205010756
-0.9152966947742228   0.020566434675125866   0.060645342205010756
-0.7487465837785529   -0.03764187853912804   -0.02990194259640349
-0.7487465837785529   -0.03764187853912804   -0.02990194259640349
-0.7487465837785529   -0.03764187853912804   -0.02990194259640349
-0.7487465837785529   -0.03764187853912804   -0.02990194259640349
-0.8022069313457181   0.0035289786903791587   -0.0010899420788851102
-0.8022069313457181   0.0035289786903791587   -0.0010899420788851102
-0.8022069313457181   0.0035289786903791587   -0.0010899420788851102
-0.8022069313457181   0.0035289786903791587   -0.0010899420788851102
-0.7108771888975277   0.0614015817194796   0.06040157155011496
-0.7108771888975277   0.0614015817194796   0.06040157155011496
-0.7108771888975277   0.0614015817194796   0.06040157155011496
-0.7108771888975277   0.0614015817194796   0.06040157155011496
-0.9559623319182189   -0.08127326784645525   -0.040843140993373515
-0.9559623319182189   -0.08127326784645525   -0.040843140993373515
-0.9559623319182189   -0.08127326784645525   -0.040843140993373515
-0.9559623319182189   -0.08127326784645525   -0.040843140993373515
-0.9622196956313914   -0.015489496260679275   0.06413648636194402
-0.9622196956313914   -0.015489496260679275   0.06413648636194402
-0.9622196956313914   -0.015489496260679275   0.06413648636194402
-0.9622196956313914   -0.015489496260679275   0.06413648636194402
-0.7639141665821986   -0.06366425969799988   -0.025829226060000453
-0.7639141665821986   -0.06366425969799988   -0.025829226060000453
-0.7639141665821986   -0.06366425969799988   -0.025829226060000453
-0.7639141665821986   -0.06366425969799988   -0.025829226060000453
-0.8167385239519025   -0.012981821542108612   -0.012331656719958006
-0.8167385239519025   -0.012981821542108612   -0.012331656719958006
-0.8167385239519025   -0.012981821542108612   -0.012331656719958006
-0.8167385239519025   -0.012981821542108612   -0.012331656719958006
-0.377928777923741   -0.024697725260552847   -0.07051647763762345
-0.377928777923741   -0.024697725260552847   -0.07051647763762345
-0.377928777923741   -0.024697725260552847   -0.07051647763762345
-0.377928777923741   -0.024697725260552847   -0.07051647763762345
-0.3728535492689441   0.05408514771793438   0.03174255270070497
-0.3728535492689441   0.05408514771793438   0.03174255270070497
-0.3728535492689441   0.05408514771793438   0.03174255270070497
-0.3728535492689441   0.05408514771793438   0.03174255270070497
-0.4193403077619685   -0.04929768952641497   -0.047772756330800026
-0.4193403077619685   -0.04929768952641497   -0.047772756330800026
-0.4193403077619685   -0.04929768952641497   -0.047772756330800026
-0.4193403077619685   -0.04929768952641497   -0.047772756330800026
-0.3856595733956899   0.028062005014516403   0.04775043063159291
-0.3856595733956899   0.028062005014516403   0.04775043063159291
-0.3856595733956899   0.028062005014516403   0.04775043063159291
-0.3856595733956899   0.028062005014516403   0.04775043063159291
-0.3694274144371157   0.009064271516084438   0.03238291592042196
-0.3694274144371157   0.009064271516084438   0.03238291592042196
-0.3694274144371157   0.009064271516084438   0.03238291592042196
-0.3694274144371157   0.009064271516084438   0.03238291592042196
-0.4230966245340578   -0.052307471353186884   -0.05906534869253964
-0.4230966245340578   -0.052307471353186884   -0.05906534869253964
-0.4230966245340578   -0.052307471353186884   -0.05906534869253964
-0.4230966245340578   -0.052307471353186884   -0.05906534869253964
-0.3865666977697661   0.02640834569511831   0.04038925840867871
-0.3865666977697661   0.02640834569511831   0.04038925840867871
-0.3865666977697661   0.02640834569511831   0.04038925840867871
-0.3865666977697661   0.02640834569511831   0.04038925840867871
-0.4332983857226458   -0.06213446586658818   -0.0404102992616577
-0.4332983857226458   -0.06213446586658818   -0.0404102992616577
-0.4332983857226458   -0.06213446586658818   -0.0404102992616577
-0.4332983857226458   -0.06213446586658818   -0.0404102992616577
-0.42172385315474004   0.010573320673246914   0.08870902973698717
-0.42172385315474004   0.010573320673246914   0.08870902973698717
-0.42172385315474004   0.010573320673246914   0.08870902973698717
-0.42172385315474004   0.010573320673246914   0.08870902973698717
-0.40270601267653233   -0.01299486721093264   0.01292117446404199
-0.40270601267653233   -0.01299486721093264   0.01292117446404199
-0.40270601267653233   -0.01299486721093264   0.01292117446404199
-0.40270601267653233   -0.01299486721093264   0.01292117446404199
-0.4646869033411292   -0.06953057470190732   -0.046002325819800606
-0.4646869033411292   -0.06953057470190732   -0.046002325819800606
-0.4646869033411292   -0.06953057470190732   -0.046002325819800606
-0.4646869033411292   -0.06953057470190732   -0.046002325819800606
-0.4013541434274245   0.006950621617403924   0.050225824730456586
-0.4013541434274245   0.006950621617403924   0.050225824730456586
-0.4013541434274245   0.006950621617403924   0.050225824730456586
-0.4013541434274245   0.006950621617403924   0.050225824730456586
-0.44471914753220704   -0.08715249250409104   -0.03178509384806153
-0.44471914753220704   -0.08715249250409104   -0.03178509384806153
-0.44471914753220704   -0.08715249250409104   -0.03178509384806153
-0.44471914753220704   -0.08715249250409104   -0.03178509384806153
-0.47779695109795217   -0.04721955308081357   0.08302799286180325
-0.47779695109795217   -0.04721955308081357   0.08302799286180325
-0.47779695109795217   -0.04721955308081357   0.08302799286180325
-0.47779695109795217   -0.04721955308081357   0.08302799286180325
-0.4314683524522788   -0.03907956005981288   -0.017882086264987322
-0.4314683524522788   -0.03907956005981288   -0.017882086264987322
-0.4314683524522788   -0.03907956005981288   -0.017882086264987322
-0.4314683524522788   -0.03907956005981288   -0.017882086264987322
-0.3996631480893241   -0.011868755993562866   -0.03635153768970072
-0.3996631480893241   -0.011868755993562866   -0.03635153768970072
-0.3996631480893241   -0.011868755993562866   -0.03635153768970072
-0.3996631480893241   -0.011868755993562866   -0.03635153768970072
-0.40418239153616736   -0.04962298056677477   -0.002108987964801858
-0.40418239153616736   -0.04962298056677477   -0.002108987964801858
-0.40418239153616736   -0.04962298056677477   -0.002108987964801858
-0.40418239153616736   -0.04962298056677477   -0.002108987964801858
-0.40705110435900554   -0.033012032411565154   -0.018082969596779578
-0.40705110435900554   -0.033012032411565154   -0.018082969596779578
-0.40705110435900554   -0.033012032411565154   -0.018082969596779578
-0.40705110435900554   -0.033012032411565154   -0.018082969596779578
-0.4136054556864089   -0.06764277279420168   -0.0007534126852152094
-0.4136054556864089   -0.06764277279420168   -0.0007534126852152094
-0.4136054556864089   -0.06764277279420168   -0.0007534126852152094
-0.4136054556864089   -0.06764277279420168   -0.0007534126852152094
-0.40266954078927886   -0.04229503352048576   -0.0014987622068996266
-0.40266954078927886   -0.04229503352048576   -0.0014987622068996266
-0.40266954078927886   -0.04229503352048576   -0.0014987622068996266
-0.40266954078927886   -0.04229503352048576   -0.0014987622068996266
-0.413614950257311   -0.03699744944888014   -0.031446208885049134
-0.413614950257311   -0.03699744944888014   -0.031446208885049134
-0.413614950257311   -0.03699744944888014   -0.031446208885049134
-0.413614950257311   -0.03699744944888014   -0.031446208885049134
-0.4096363138900795   -0.06625205985886369   0.0022310101951453533
-0.4096363138900795   -0.06625205985886369   0.0022310101951453533
-0.4096363138900795   -0.06625205985886369   0.0022310101951453533
-0.4096363138900795   -0.06625205985886369   0.0022310101951453533
-0.41381320274939876   -0.054632101604352966   -0.011647200240104487
-0.41381320274939876   -0.054632101604352966   -0.011647200240104487
-0.41381320274939876   -0.054632101604352966   -0.011647200240104487
-0.41381320274939876   -0.054632101604352966   -0.011647200240104487
-0.42849644586690333   -0.08771392124980129   0.009178855400267345
-0.42849644586690333   -0.08771392124980129   0.009178855400267345
-0.42849644586690333   -0.08771392124980129   0.009178855400267345
-0.42849644586690333   -0.08771392124980129   0.009178855400267345
-0.41184548328941734   -0.059749417959211196   -0.01149529497823176
-0.41184548328941734   -0.059749417959211196   -0.01149529497823176
-0.41184548328941734   -0.059749417959211196   -0.01149529497823176
-0.41184548328941734   -0.059749417959211196   -0.01149529497823176
-0.4294745882320129   -0.06010007848989783   -0.023325699185183967
-0.4294745882320129   -0.06010007848989783   -0.023325699185183967
-0.4294745882320129   -0.06010007848989783   -0.023325699185183967
-0.4294745882320129   -0.06010007848989783   -0.023325699185183967
-0.4161543353437534   -0.08556521932372642   0.0075802545074917915
-0.4161543353437534   -0.08556521932372642   0.0075802545074917915
-0.4161543353437534   -0.08556521932372642   0.0075802545074917915
-0.4161543353437534   -0.08556521932372642   0.0075802545074917915
-0.4198744409043589   -0.07795199048962972   -0.005271753605508073
-0.4198744409043589   -0.07795199048962972   -0.005271753605508073
-0.4198744409043589   -0.07795199048962972   -0.005271753605508073
-0.4198744409043589   -0.07795199048962972   -0.005271753605508073
-0.4398822944161123   -0.11323615915076608   0.01848283837908501
-0.4398822944161123   -0.11323615915076608   0.01848283837908501
-0.4398822944161123   -0.11323615915076608   0.01848283837908501
-0.4398822944161123   -0.11323615915076608   0.01848283837908501
-0.42450153679280805   -0.08086511262190588   -0.024224339538482645
-0.42450153679280805   -0.08086511262190588   -0.024224339538482645
-0.42450153679280805   -0.08086511262190588   -0.024224339538482645
-0.42450153679280805   -0.08086511262190588   -0.024224339538482645
-0.3931289792074284   0.010192692663560682   -0.006657599551438593
-0.3931289792074284   0.010192692663560682   -0.006657599551438593
-0.3931289792074284   0.010192692663560682   -0.006657599551438593
-0.3931289792074284   0.010192692663560682   -0.006657599551438593
-0.4440271149836282   -0.08428852076446443   -0.021262025721439443
-0.4440271149836282   -0.08428852076446443   -0.021262025721439443
-0.4440271149836282   -0.08428852076446443   -0.021262025721439443
-0.4440271149836282   -0.08428852076446443   -0.021262025721439443
-0.4258302089848952   -0.01551951697166444   0.00564701030917952
-0.4258302089848952   -0.01551951697166444   0.00564701030917952
-0.4258302089848952   -0.01551951697166444   0.00564701030917952
-0.4258302089848952   -0.01551951697166444   0.00564701030917952
-0.41772212659421565   -0.0912981452677856   -0.013151967916613534
-0.41772212659421565   -0.0912981452677856   -0.013151967916613534
-0.41772212659421565   -0.0912981452677856   -0.013151967916613534
-0.41772212659421565   -0.0912981452677856   -0.013151967916613534
-0.4198840089614251   -0.046658227595035344   -0.009541775249290311
-0.4198840089614251   -0.046658227595035344   -0.009541775249290311
-0.4198840089614251   -0.046658227595035344   -0.009541775249290311
-0.4198840089614251   -0.046658227595035344   -0.009541775249290311
-0.39910262012089665   -0.011311597853555705   -4.0982964244613146e-05
-0.39910262012089665   -0.011311597853555705   -4.0982964244613146e-05
-0.39910262012089665   -0.011311597853555705   -4.0982964244613146e-05
-0.39910262012089665   -0.011311597853555705   -4.0982964244613146e-05
-0.44680407074533557   -0.09786041967302149   -0.016881395791673092
-0.44680407074533557   -0.09786041967302149   -0.016881395791673092
-0.44680407074533557   -0.09786041967302149   -0.016881395791673092
-0.44680407074533557   -0.09786041967302149   -0.016881395791673092
-0.43067198611915075   -0.03719808965720311   0.012040487417566718
-0.43067198611915075   -0.03719808965720311   0.012040487417566718
-0.43067198611915075   -0.03719808965720311   0.012040487417566718
-0.43067198611915075   -0.03719808965720311   0.012040487417566718
-0.42405071801431177   -0.10838784959257822   -0.009079028576444097
-0.42405071801431177   -0.10838784959257822   -0.009079028576444097
-0.42405071801431177   -0.10838784959257822   -0.009079028576444097
-0.42405071801431177   -0.10838784959257822   -0.009079028576444097
-0.42503306958914444   -0.06317740748994173   -0.01811326287063234
-0.42503306958914444   -0.06317740748994173   -0.01811326287063234
-0.42503306958914444   -0.06317740748994173   -0.01811326287063234
-0.42503306958914444   -0.06317740748994173   -0.01811326287063234
-0.4059465629904515   -0.03337526927076739   0.006429166221046055
-0.4059465629904515   -0.03337526927076739   0.006429166221046055
-0.4059465629904515   -0.03337526927076739   0.006429166221046055
-0.4059465629904515   -0.03337526927076739   0.006429166221046055
-0.4514060404607097   -0.1148405692967139   -0.013987304650724598
-0.4514060404607097   -0.1148405692967139   -0.013987304650724598
-0.4514060404607097   -0.1148405692967139   -0.013987304650724598
-0.4514060404607097   -0.1148405692967139   -0.013987304650724598
-0.4346033172606495   -0.05759109049190271   0.018291222400182775
-0.4346033172606495   -0.05759109049190271   0.018291222400182775
-0.4346033172606495   -0.05759109049190271   0.018291222400182775
-0.4346033172606495   -0.05759109049190271   0.018291222400182775
-0.4287460084977476   -0.12479712150293291   -0.0027844605591482927
-0.4287460084977476   -0.12479712150293291   -0.0027844605591482927
-0.4287460084977476   -0.12479712150293291   -0.0027844605591482927
-0.4287460084977476   -0.12479712150293291   -0.0027844605591482927
-0.4311777842136152   -0.08045670233791903   -0.02753188353698267
-0.4311777842136152   -0.08045670233791903   -0.02753188353698267
-0.4311777842136152   -0.08045670233791903   -0.02753188353698267
-0.4311777842136152   -0.08045670233791903   -0.02753188353698267
-0.4100001620160929   0.043889412712083076   0.02069480563968929
-0.4100001620160929   0.043889412712083076   0.02069480563968929
-0.4100001620160929   0.043889412712083076   0.02069480563968929
-0.4100001620160929   0.043889412712083076   0.02069480563968929
-0.4839434835931095   -0.06278701178764753   -0.029600224917894907
-0.4839434835931095   -0.06278701178764753   -0.029600224917894907
-0.4839434835931095   -0.06278701178764753   -0.029600224917894907
-0.4839434835931095   -0.06278701178764753   -0.029600224917894907
-0.4577518399656171   0.013178933734360437   0.028706099186538755
-0.4577518399656171   0.013178933734360437   0.028706099186538755
-0.4577518399656171   0.013178933734360437   0.028706099186538755
-0.4577518399656171   0.013178933734360437   0.028706099186538755
-0.4414976501221346   -0.07025940312702814   -0.017950309221653665
-0.4414976501221346   -0.07025940312702814   -0.017950309221653665
-0.4414976501221346   -0.07025940312702814   -0.017950309221653665
-0.4414976501221346   -0.07025940312702814   -0.017950309221653665
-0.44827079221564287   -0.01852001080381814   -0.005699514511657993
-0.44827079221564287   -0.01852001080381814   -0.005699514511657993
-0.44827079221564287   -0.01852001080381814   -0.005699514511657993
-0.44827079221564287   -0.01852001080381814   -0.005699514511657993
-0.41411673504071655   0.02158642291142869   0.027108440146979537
-0.41411673504071655   0.02158642291142869   0.027108440146979537
-0.41411673504071655   0.02158642291142869   0.027108440146979537
-0.41411673504071655   0.02158642291142869   0.027108440146979537
-0.4882572430438065   -0.08179138030086786   -0.028850602169180242
-0.4882572430438065   -0.08179138030086786   -0.028850602169180242
-0.4882572430438065   -0.08179138030086786   -0.028850602169180242
-0.4882572430438065   -0.08179138030086786   -0.028850602169180242
-0.4661882195019223   -0.007979270182432913   0.03254225193026182
-0.4661882195019223   -0.007979270182432913   0.03254225193026182
-0.4661882195019223   -0.007979270182432913   0.03254225193026182
-0.4661882195019223   -0.007979270182432913   0.03254225193026182
-0.4457044742041754   -0.08602554176327545   -0.014294500901491853
-0.4457044742041754   -0.08602554176327545   -0.014294500901491853
-0.4457044742041754   -0.08602554176327545   -0.014294500901491853
-0.4457044742041754   -0.08602554176327545   -0.014294500901491853
-0.45250353420353073   -0.03642015619995263   -0.015750170382650964
-0.45250353420353073   -0.03642015619995263   -0.015750170382650964
-0.45250353420353073   -0.03642015619995263   -0.015750170382650964
-0.45250353420353073   -0.03642015619995263   -0.015750170382650964
-0.4186338431673044   0.001691481001969669   0.0333416315176261
-0.4186338431673044   0.001691481001969669   0.0333416315176261
-0.4186338431673044   0.001691481001969669   0.0333416315176261
-0.4186338431673044   0.001691481001969669   0.0333416315176261
-0.49596675531377   -0.09840419772264825   -0.02592549958876124
-0.49596675531377   -0.09840419772264825   -0.02592549958876124
-0.49596675531377   -0.09840419772264825   -0.02592549958876124
-0.49596675531377   -0.09840419772264825   -0.02592549958876124
-0.4717544109648908   -0.02826842442348812   0.03968189211836382
-0.4717544109648908   -0.02826842442348812   0.03968189211836382
-0.4717544109648908   -0.02826842442348812   0.03968189211836382
-0.4717544109648908   -0.02826842442348812   0.03968189211836382
-0.4493096829847643   -0.10185981451341775   -0.01097188219887629
-0.4493096829847643   -0.10185981451341775   -0.01097188219887629
-0.4493096829847643   -0.10185981451341775   -0.01097188219887629
-0.4493096829847643   -0.10185981451341775   -0.01097188219887629
-0.4599425306237191   -0.05328167863765614   -0.025484502749186948
-0.4599425306237191   -0.05328167863765614   -0.025484502749186948
-0.4599425306237191   -0.05328167863765614   -0.025484502749186948
-0.4599425306237191   -0.05328167863765614   -0.025484502749186948
-0.4446148112984141   0.06296533882901628   0.04129078593891051
-0.4446148112984141   0.06296533882901628   0.04129078593891051
-0.4446148112984141   0.06296533882901628   0.04129078593891051
-0.4446148112984141   0.06296533882901628   0.04129078593891051
-0.4744327517632751   -0.03784008919615506   -0.0429197598019979
-0.4744327517632751   -0.03784008919615506   -0.0429197598019979
-0.4744327517632751   -0.03784008919615506   -0.0429197598019979
-0.4744327517632751   -0.03784008919615506   -0.0429197598019979
-0.46367888190623363   0.044920832880831235   0.04588223913686372
-0.46367888190623363   0.044920832880831235   0.04588223913686372
-0.46367888190623363   0.044920832880831235   0.04588223913686372
-0.46367888190623363   0.044920832880831235   0.04588223913686372
-0.4811285371618429   -0.04876551648843753   -0.02623293657179978
-0.4811285371618429   -0.04876551648843753   -0.02623293657179978
-0.4811285371618429   -0.04876551648843753   -0.02623293657179978
-0.4811285371618429   -0.04876551648843753   -0.02623293657179978
-0.45014323103676845   0.011296450403632724   0.001687454460540777
-0.45014323103676845   0.011296450403632724   0.001687454460540777
-0.45014323103676845   0.011296450403632724   0.001687454460540777
-0.45014323103676845   0.011296450403632724   0.001687454460540777
-0.4468498541381493   0.04865765251559996   0.047737309542622994
-0.4468498541381493   0.04865765251559996   0.047737309542622994
-0.4468498541381493   0.04865765251559996   0.047737309542622994
-0.4468498541381493   0.04865765251559996   0.047737309542622994
-0.5004991581034915   -0.055043929296771855   -0.038254379671822734
-0.5004991581034915   -0.055043929296771855   -0.038254379671822734
-0.5004991581034915   -0.055043929296771855   -0.038254379671822734
-0.5004991581034915   -0.055043929296771855   -0.038254379671822734
-0.4841031383606007   0.03308418640890809   0.05908493672582508
-0.4841031383606007   0.03308418640890809   0.05908493672582508
-0.4841031383606007   0.03308418640890809   0.05908493672582508
-0.4841031383606007   0.03308418640890809   0.05908493672582508
-0.4874981014413701   -0.05803827513408177   -0.023948152815335744
-0.4874981014413701   -0.05803827513408177   -0.023948152815335744
-0.4874981014413701   -0.05803827513408177   -0.023948152815335744
-0.4874981014413701   -0.05803827513408177   -0.023948152815335744
-0.47213381611705957   -0.0030516979548947526   -0.010155159939641962
-0.47213381611705957   -0.0030516979548947526   -0.010155159939641962
-0.47213381611705957   -0.0030516979548947526   -0.010155159939641962
-0.47213381611705957   -0.0030516979548947526   -0.010155159939641962
-0.4518413826316806   0.039149152857772485   0.057148013241257616
-0.4518413826316806   0.039149152857772485   0.057148013241257616
-0.4518413826316806   0.039149152857772485   0.057148013241257616
-0.4518413826316806   0.039149152857772485   0.057148013241257616
-0.5230764037548219   -0.06741978816748043   -0.03527741566887714
-0.5230764037548219   -0.06741978816748043   -0.03527741566887714
-0.5230764037548219   -0.06741978816748043   -0.03527741566887714
-0.5230764037548219   -0.06741978816748043   -0.03527741566887714
-0.5201950003119079   0.002873348486973182   0.06313964859457416
-0.5201950003119079   0.002873348486973182   0.06313964859457416
-0.5201950003119079   0.002873348486973182   0.06313964859457416
-0.5201950003119079   0.002873348486973182   0.06313964859457416
-0.49330381616557745   -0.07551790507831006   -0.02081565323025508
-0.49330381616557745   -0.07551790507831006   -0.02081565323025508
-0.49330381616557745   -0.07551790507831006   -0.02081565323025508
-0.49330381616557745   -0.07551790507831006   -0.02081565323025508
-0.48256624351933536   -0.01624270535069787   -0.02084963075140567
-0.48256624351933536   -0.01624270535069787   -0.02084963075140567
-0.48256624351933536   -0.01624270535069787   -0.02084963075140567
-0.48256624351933536   -0.01624270535069787   -0.02084963075140567
-0.9594384275643382   -0.08760821533572236   -0.09013938427218463
-0.9594384275643382   -0.08760821533572236   -0.09013938427218463
-0.9594384275643382   -0.08760821533572236   -0.09013938427218463
-0.9594384275643382   -0.08760821533572236   -0.09013938427218463
-0.607777675579512   0.05221104318289452   0.021276627738618742
-0.607777675579512   0.05221104318289452   0.021276627738618742
-0.607777675579512   0.05221104318289452   0.021276627738618742
-0.607777675579512   0.05221104318289452   0.021276627738618742
-0.638115686928722   -0.04000487988893346   -0.0401278803526242
-0.638115686928722   -0.04000487988893346   -0.0401278803526242
-0.638115686928722   -0.04000487988893346   -0.0401278803526242
-0.638115686928722   -0.04000487988893346   -0.0401278803526242
-1.0195848450065796   -0.11435768861933485   0.10121854031331476
-1.0195848450065796   -0.11435768861933485   0.10121854031331476
-1.0195848450065796   -0.11435768861933485   0.10121854031331476
-1.0195848450065796   -0.11435768861933485   0.10121854031331476
-0.7412825609442804   -0.028045161273489216   0.0980588477881378
-0.7412825609442804   -0.028045161273489216   0.0980588477881378
-0.7412825609442804   -0.028045161273489216   0.0980588477881378
-0.7412825609442804   -0.028045161273489216   0.0980588477881378
-1.0559014143280236   -0.12873404023409332   -0.06598795467913732
-1.0559014143280236   -0.12873404023409332   -0.06598795467913732
-1.0559014143280236   -0.12873404023409332   -0.06598795467913732
-1.0559014143280236   -0.12873404023409332   -0.06598795467913732
-0.62732718223156   -0.05115659289845273   0.024966356142705683
-0.62732718223156   -0.05115659289845273   0.024966356142705683
-0.62732718223156   -0.05115659289845273   0.024966356142705683
-0.62732718223156   -0.05115659289845273   0.024966356142705683
-0.6477234675738268   -0.05811787614187419   -0.028747339919531698
-0.6477234675738268   -0.05811787614187419   -0.028747339919531698
-0.6477234675738268   -0.05811787614187419   -0.028747339919531698
-0.6477234675738268   -0.05811787614187419   -0.028747339919531698
-1.0517763782391274   -0.15985898236356222   0.002638661529404618
-1.0517763782391274   -0.15985898236356222   0.002638661529404618
-1.0517763782391274   -0.15985898236356222   0.002638661529404618
-1.0517763782391274   -0.15985898236356222   0.002638661529404618
-0.820362932717714   -0.09646444801518309   0.022608399761406807
-0.820362932717714   -0.09646444801518309   0.022608399761406807
-0.820362932717714   -0.09646444801518309   0.022608399761406807
-0.820362932717714   -0.09646444801518309   0.022608399761406807
-1.0600337992318989   -0.14544329970765307   -0.05306412609035391
-1.0600337992318989   -0.14544329970765307   -0.05306412609035391
-1.0600337992318989   -0.14544329970765307   -0.05306412609035391
-1.0600337992318989   -0.14544329970765307   -0.05306412609035391
-0.6472175314369844   -0.08028504365371211   -0.00405049172348787
-0.6472175314369844   -0.08028504365371211   -0.00405049172348787
-0.6472175314369844   -0.08028504365371211   -0.00405049172348787
-0.6472175314369844   -0.08028504365371211   -0.00405049172348787
-0.6479887883267739   -0.10204350501408055   -0.020899929575709957
-0.6479887883267739   -0.10204350501408055   -0.020899929575709957
-0.6479887883267739   -0.10204350501408055   -0.020899929575709957
-0.6479887883267739   -0.10204350501408055   -0.020899929575709957
-1.0766270454365463   -0.24425053022789983   0.016232448132250187
-1.0766270454365463   -0.24425053022789983   0.016232448132250187
-1.0766270454365463   -0.24425053022789983   0.016232448132250187
-1.0766270454365463   -0.24425053022789983   0.016232448132250187
-0.8192700525569616   -0.13264706681601637   0.0016377792927189053
-0.8192700525569616   -0.13264706681601637   0.0016377792927189053
-0.8192700525569616   -0.13264706681601637   0.0016377792927189053
-0.8192700525569616   -0.13264706681601637   0.0016377792927189053
-0.6563248085308168   -0.1112327209497902   -0.05801527288521429
-0.6563248085308168   -0.1112327209497902   -0.05801527288521429
-0.6563248085308168   -0.1112327209497902   -0.05801527288521429
-0.6563248085308168   -0.1112327209497902   -0.05801527288521429
-0.4502906820855958   -0.290289410674144   -0.05445918211985728
-0.4502906820855958   -0.290289410674144   -0.05445918211985728
-0.4502906820855958   -0.290289410674144   -0.05445918211985728
-0.4502906820855958   -0.290289410674144   -0.05445918211985728
-0.3955574276749523   -0.06455662965699077   -0.003370725010601887
-0.3955574276749523   -0.06455662965699077   -0.003370725010601887
-0.3955574276749523   -0.06455662965699077   -0.003370725010601887
-0.3955574276749523   -0.06455662965699077   -0.003370725010601887
-0.6974535834652885   -0.3081012337077286   -0.06872100921666119
-0.6974535834652885   -0.3081012337077286   -0.06872100921666119
-0.6974535834652885   -0.3081012337077286   -0.06872100921666119
-0.6974535834652885   -0.3081012337077286   -0.06872100921666119
-0.5435100671372207   -0.2054602463323797   -0.01582380592254111
-0.5435100671372207   -0.2054602463323797   -0.01582380592254111
-0.5435100671372207   -0.2054602463323797   -0.01582380592254111
-0.5435100671372207   -0.2054602463323797   -0.01582380592254111
-0.6557518360605318   -0.12465338959342276   -0.04366011630718242
-0.6557518360605318   -0.12465338959342276   -0.04366011630718242
-0.6557518360605318   -0.12465338959342276   -0.04366011630718242
-0.6557518360605318   -0.12465338959342276   -0.04366011630718242
-0.4399212532965   -0.25066655198808807   -0.03907993078724704
-0.4399212532965   -0.25066655198808807   -0.03907993078724704
-0.4399212532965   -0.25066655198808807   -0.03907993078724704
-0.4399212532965   -0.25066655198808807   -0.03907993078724704
-0.3998687645543177   -0.08368455172971204   0.000698021688127949
-0.3998687645543177   -0.08368455172971204   0.000698021688127949
-0.3998687645543177   -0.08368455172971204   0.000698021688127949
-0.3998687645543177   -0.08368455172971204   0.000698021688127949
-0.6997704881378048   -0.3065077770187081   -0.040592541862594395
-0.6997704881378048   -0.3065077770187081   -0.040592541862594395
-0.6997704881378048   -0.3065077770187081   -0.040592541862594395
-0.6997704881378048   -0.3065077770187081   -0.040592541862594395
-0.537346754361653   -0.1925938262310371   -0.016809600137384063
-0.537346754361653   -0.1925938262310371   -0.016809600137384063
-0.537346754361653   -0.1925938262310371   -0.016809600137384063
-0.537346754361653   -0.1925938262310371   -0.016809600137384063
-0.6655959920861654   -0.14351264108193917   -0.03271519754115999
-0.6655959920861654   -0.14351264108193917   -0.03271519754115999
-0.6655959920861654   -0.14351264108193917   -0.03271519754115999
-0.6655959920861654   -0.14351264108193917   -0.03271519754115999
-0.4395405807479318   -0.2521770078084552   -0.02916860320120304
-0.4395405807479318   -0.2521770078084552   -0.02916860320120304
-0.4395405807479318   -0.2521770078084552   -0.02916860320120304
-0.4395405807479318   -0.2521770078084552   -0.02916860320120304
-0.3994969942474067   -0.10755282653597985   0.0065142012843104995
-0.3994969942474067   -0.10755282653597985   0.0065142012843104995
-0.3994969942474067   -0.10755282653597985   0.0065142012843104995
-0.3994969942474067   -0.10755282653597985   0.0065142012843104995
-0.6978285673141792   -0.3116888661322015   -0.060453463394624714
-0.6978285673141792   -0.3116888661322015   -0.060453463394624714
-0.6978285673141792   -0.3116888661322015   -0.060453463394624714
-0.6978285673141792   -0.3116888661322015   -0.060453463394624714
-0.5452405919608365   -0.20720262253594207   -0.031205303173755226
-0.5452405919608365   -0.20720262253594207   -0.031205303173755226
-0.5452405919608365   -0.20720262253594207   -0.031205303173755226
-0.5452405919608365   -0.20720262253594207   -0.031205303173755226
-0.39665068340967946   -0.07155879099022562   -0.004989808424194113
-0.39665068340967946   -0.07155879099022562   -0.004989808424194113
-0.39665068340967946   -0.07155879099022562   -0.004989808424194113
-0.39665068340967946   -0.07155879099022562   -0.004989808424194113
-0.3319888633113228   -0.22195369259811676   -0.03831724109841765
-0.3319888633113228   -0.22195369259811676   -0.03831724109841765
-0.3319888633113228   -0.22195369259811676   -0.03831724109841765
-0.3319888633113228   -0.22195369259811676   -0.03831724109841765
-0.28606848459305456   -0.05927035664824696   0.015333333179918572
-0.28606848459305456   -0.05927035664824696   0.015333333179918572
-0.28606848459305456   -0.05927035664824696   0.015333333179918572
-0.28606848459305456   -0.05927035664824696   0.015333333179918572
-0.43874385319874504   -0.24147295673241806   -0.042386525554142206
-0.43874385319874504   -0.24147295673241806   -0.042386525554142206
-0.43874385319874504   -0.24147295673241806   -0.042386525554142206
-0.43874385319874504   -0.24147295673241806   -0.042386525554142206
-0.36175205444649144   -0.15066585841553215   -0.017692037398118098
-0.36175205444649144   -0.15066585841553215   -0.017692037398118098
-0.36175205444649144   -0.15066585841553215   -0.017692037398118098
-0.36175205444649144   -0.15066585841553215   -0.017692037398118098
-0.39877846344067164   -0.08473793812749393   0.0007054046313007844
-0.39877846344067164   -0.08473793812749393   0.0007054046313007844
-0.39877846344067164   -0.08473793812749393   0.0007054046313007844
-0.39877846344067164   -0.08473793812749393   0.0007054046313007844
-0.3283874484196598   -0.21835894932170286   -0.037172893279643834
-0.3283874484196598   -0.21835894932170286   -0.037172893279643834
-0.3283874484196598   -0.21835894932170286   -0.037172893279643834
-0.3283874484196598   -0.21835894932170286   -0.037172893279643834
-0.28597900576263385   -0.07498600124902031   0.019858500889667584
-0.28597900576263385   -0.07498600124902031   0.019858500889667584
-0.28597900576263385   -0.07498600124902031   0.019858500889667584
-0.28597900576263385   -0.07498600124902031   0.019858500889667584
-0.439934107682604   -0.24530337868014096   -0.0380098670028785
-0.439934107682604   -0.24530337868014096   -0.0380098670028785
-0.439934107682604   -0.24530337868014096   -0.0380098670028785
-0.439934107682604   -0.24530337868014096   -0.0380098670028785
-0.36094239062150707   -0.156602398542325   -0.022953845981833185
-0.36094239062150707   -0.156602398542325   -0.022953845981833185
-0.36094239062150707   -0.156602398542325   -0.022953845981833185
-0.36094239062150707   -0.156602398542325   -0.022953845981833185
-0.40192321361595545   -0.10066524838964458   0.00740647303986782
-0.40192321361595545   -0.10066524838964458   0.00740647303986782
-0.40192321361595545   -0.10066524838964458   0.00740647303986782
-0.40192321361595545   -0.10066524838964458   0.00740647303986782
-0.3252814283982603   -0.22091566010849326   -0.030723953428983673
-0.3252814283982603   -0.22091566010849326   -0.030723953428983673
-0.3252814283982603   -0.22091566010849326   -0.030723953428983673
-0.3252814283982603   -0.22091566010849326   -0.030723953428983673
-0.28239507293119664   -0.09001400180717593   0.02478020235308561
-0.28239507293119664   -0.09001400180717593   0.02478020235308561
-0.28239507293119664   -0.09001400180717593   0.02478020235308561
-0.28239507293119664   -0.09001400180717593   0.02478020235308561
-0.43446648345301925   -0.24847307424933882   -0.027412997030397353
-0.43446648345301925   -0.24847307424933882   -0.027412997030397353
-0.43446648345301925   -0.24847307424933882   -0.027412997030397353
-0.43446648345301925   -0.24847307424933882   -0.027412997030397353
-0.35964899961916275   -0.1643926573591817   -0.0265779709688928
-0.35964899961916275   -0.1643926573591817   -0.0265779709688928
-0.35964899961916275   -0.1643926573591817   -0.0265779709688928
-0.35964899961916275   -0.1643926573591817   -0.0265779709688928
-0.2765044097070348   -0.009957404301561674   0.02710873862645978
-0.2765044097070348   -0.009957404301561674   0.02710873862645978
-0.2765044097070348   -0.009957404301561674   0.02710873862645978
-0.2765044097070348   -0.009957404301561674   0.02710873862645978
-0.2607114891012797   -0.11733945944194318   -0.02287024322284875
-0.2607114891012797   -0.11733945944194318   -0.02287024322284875
-0.2607114891012797   -0.11733945944194318   -0.02287024322284875
-0.2607114891012797   -0.11733945944194318   -0.02287024322284875
-0.2246139548434027   -0.01700831832191238   0.031421419525193284
-0.2246139548434027   -0.01700831832191238   0.031421419525193284
-0.2246139548434027   -0.01700831832191238   0.031421419525193284
-0.2246139548434027   -0.01700831832191238   0.031421419525193284
-0.30768788263966496   -0.1358064227140977   -0.01622759098728249
-0.30768788263966496   -0.1358064227140977   -0.01622759098728249
-0.30768788263966496   -0.1358064227140977   -0.01622759098728249
-0.30768788263966496   -0.1358064227140977   -0.01622759098728249
-0.2682778303640154   -0.06939307954268684   -0.009587867135462908
-0.2682778303640154   -0.06939307954268684   -0.009587867135462908
-0.2682778303640154   -0.06939307954268684   -0.009587867135462908
-0.2682778303640154   -0.06939307954268684   -0.009587867135462908
-0.27651184126772993   -0.02741911740013126   0.03126531055842609
-0.27651184126772993   -0.02741911740013126   0.03126531055842609
-0.27651184126772993   -0.02741911740013126   0.03126531055842609
-0.27651184126772993   -0.02741911740013126   0.03126531055842609
-0.2582857974170609   -0.12789142483760207   -0.026054686827408257
-0.2582857974170609   -0.12789142483760207   -0.026054686827408257
-0.2582857974170609   -0.12789142483760207   -0.026054686827408257
-0.2582857974170609   -0.12789142483760207   -0.026054686827408257
-0.22475724286149548   -0.032224646384322854   0.03376274465059115
-0.22475724286149548   -0.032224646384322854   0.03376274465059115
-0.22475724286149548   -0.032224646384322854   0.03376274465059115
-0.22475724286149548   -0.032224646384322854   0.03376274465059115
-0.3073911473858156   -0.14407197105560543   -0.01811623741965561
-0.3073911473858156   -0.14407197105560543   -0.01811623741965561
-0.3073911473858156   -0.14407197105560543   -0.01811623741965561
-0.3073911473858156   -0.14407197105560543   -0.01811623741965561
-0.2669350490337283   -0.08162765677234676   -0.01625866847843944
-0.2669350490337283   -0.08162765677234676   -0.01625866847843944
-0.2669350490337283   -0.08162765677234676   -0.01625866847843944
-0.2669350490337283   -0.08162765677234676   -0.01625866847843944
-0.27627159783456534   -0.042165132044047544   0.03557467132503754
-0.27627159783456534   -0.042165132044047544   0.03557467132503754
-0.27627159783456534   -0.042165132044047544   0.03557467132503754
-0.27627159783456534   -0.042165132044047544   0.03557467132503754
-0.25738737552365715   -0.13564206850679222   -0.025970496537747828
-0.25738737552365715   -0.13564206850679222   -0.025970496537747828
-0.25738737552365715   -0.13564206850679222   -0.025970496537747828
-0.25738737552365715   -0.13564206850679222   -0.025970496537747828
-0.22263689204657236   -0.046506893087669324   0.039119933991673884
-0.22263689204657236   -0.046506893087669324   0.039119933991673884
-0.22263689204657236   -0.046506893087669324   0.039119933991673884
-0.22263689204657236   -0.046506893087669324   0.039119933991673884
-0.30230158528730405   -0.15235125704127817   -0.012415104193349603
-0.30230158528730405   -0.15235125704127817   -0.012415104193349603
-0.30230158528730405   -0.15235125704127817   -0.012415104193349603
-0.30230158528730405   -0.15235125704127817   -0.012415104193349603
-0.2659225937830195   -0.09212057120751525   -0.020873809914972036
-0.2659225937830195   -0.09212057120751525   -0.020873809914972036
-0.2659225937830195   -0.09212057120751525   -0.020873809914972036
-0.2659225937830195   -0.09212057120751525   -0.020873809914972036
-0.21813941861059238   0.030443882793755796   0.04220676699488898
-0.21813941861059238   0.030443882793755796   0.04220676699488898
-0.21813941861059238   0.030443882793755796   0.04220676699488898
-0.21813941861059238   0.030443882793755796   0.04220676699488898
-0.14393907513717477   -0.038476941079754044   -0.014016913402878872
-0.14393907513717477   -0.038476941079754044   -0.014016913402878872
-0.14393907513717477   -0.038476941079754044   -0.014016913402878872
-0.14393907513717477   -0.038476941079754044   -0.014016913402878872
-0.12535713727835018   0.03596669478069227   0.041656719890356554
-0.12535713727835018   0.03596669478069227   0.041656719890356554
-0.12535713727835018   0.03596669478069227   0.041656719890356554
-0.12535713727835018   0.03596669478069227   0.041656719890356554
-0.2407789217754195   -0.05916324632292904   -0.007248487133874059
-0.2407789217754195   -0.05916324632292904   -0.007248487133874059
-0.2407789217754195   -0.05916324632292904   -0.007248487133874059
-0.2407789217754195   -0.05916324632292904   -0.007248487133874059
-0.1795957557168662   -0.003742648628413142   -0.007681719239290504
-0.1795957557168662   -0.003742648628413142   -0.007681719239290504
-0.1795957557168662   -0.003742648628413142   -0.007681719239290504
-0.1795957557168662   -0.003742648628413142   -0.007681719239290504
-0.2144778887717194   0.019024905680238867   0.04606852588145872
-0.2144778887717194   0.019024905680238867   0.04606852588145872
-0.2144778887717194   0.019024905680238867   0.04606852588145872
-0.2144778887717194   0.019024905680238867   0.04606852588145872
-0.15190059599534345   -0.042463882935768756   -0.012629995978148702
-0.15190059599534345   -0.042463882935768756   -0.012629995978148702
-0.15190059599534345   -0.042463882935768756   -0.012629995978148702
-0.15190059599534345   -0.042463882935768756   -0.012629995978148702
-0.1307674759345313   0.02858086359856029   0.05241691534103574
-0.1307674759345313   0.02858086359856029   0.05241691534103574
-0.1307674759345313   0.02858086359856029   0.05241691534103574
-0.1307674759345313   0.02858086359856029   0.05241691534103574
-0.23951884598662454   -0.06295575482131367   -0.00931416253806339
-0.23951884598662454   -0.06295575482131367   -0.00931416253806339
-0.23951884598662454   -0.06295575482131367   -0.00931416253806339
-0.23951884598662454   -0.06295575482131367   -0.00931416253806339
-0.1847700931752235   -0.011812986069186533   -0.010767020503044452
-0.1847700931752235   -0.011812986069186533   -0.010767020503044452
-0.1847700931752235   -0.011812986069186533   -0.010767020503044452
-0.1847700931752235   -0.011812986069186533   -0.010767020503044452
-0.21196105092311612   0.012468814270221784   0.05305024368794336
-0.21196105092311612   0.012468814270221784   0.05305024368794336
-0.21196105092311612   0.012468814270221784   0.05305024368794336
-0.21196105092311612   0.012468814270221784   0.05305024368794336
-0.16021177652326946   -0.04873021101820743   -0.01749351298588727
-0.16021177652326946   -0.04873021101820743   -0.01749351298588727
-0.16021177652326946   -0.04873021101820743   -0.01749351298588727
-0.16021177652326946   -0.04873021101820743   -0.01749351298588727
-0.14967789421943045   0.008278811178447698   0.054542006107386784
-0.14967789421943045   0.008278811178447698   0.054542006107386784
-0.14967789421943045   0.008278811178447698   0.054542006107386784
-0.14967789421943045   0.008278811178447698   0.054542006107386784
-0.23598619880755237   -0.06630970450643899   -0.007823788394456414
-0.23598619880755237   -0.06630970450643899   -0.007823788394456414
-0.23598619880755237   -0.06630970450643899   -0.007823788394456414
-0.23598619880755237   -0.06630970450643899   -0.007823788394456414
-0.18720155098661317   -0.017625264076466106   -0.015811477612190192
-0.18720155098661317   -0.017625264076466106   -0.015811477612190192
-0.18720155098661317   -0.017625264076466106   -0.015811477612190192
-0.18720155098661317   -0.017625264076466106   -0.015811477612190192
-2.2585716282831396   -0.3197338839887297   -0.18765405541587502
-2.2585716282831396   -0.3197338839887297   -0.18765405541587502
-2.2585716282831396   -0.3197338839887297   -0.18765405541587502
-2.2585716282831396   -0.3197338839887297   -0.18765405541587502
-0.7834054323150181   -1.2295733402432487   -0.1469426597936016
-0.7834054323150181   -1.2295733402432487   -0.1469426597936016
-0.7834054323150181   -1.2295733402432487   -0.1469426597936016
-0.7834054323150181   -1.2295733402432487   -0.1469426597936016
-0.6058631991548818   -0.051680838160692744   0.0008811467548274568
-0.6058631991548818   -0.051680838160692744   0.0008811467548274568
-0.6058631991548818   -0.051680838160692744   0.0008811467548274568
-0.6058631991548818   -0.051680838160692744   0.0008811467548274568
-2.4107687099652777   -1.4458864907780975   -0.771331040148675
-2.4107687099652777   -1.4458864907780975   -0.771331040148675
-2.4107687099652777   -1.4458864907780975   -0.771331040148675
-2.4107687099652777   -1.4458864907780975   -0.771331040148675
-1.4768083943642634   -0.7193881197010558   -0.10481467046738466
-1.4768083943642634   -0.7193881197010558   -0.10481467046738466
-1.4768083943642634   -0.7193881197010558   -0.10481467046738466
-1.4768083943642634   -0.7193881197010558   -0.10481467046738466
-2.0986165303195605   -0.40141588357019575   -0.25504074912800834
-2.0986165303195605   -0.40141588357019575   -0.25504074912800834
-2.0986165303195605   -0.40141588357019575   -0.25504074912800834
-2.0986165303195605   -0.40141588357019575   -0.25504074912800834
-0.8458766022782133   -1.0240126688462108   -0.22685403817630584
-0.8458766022782133   -1.0240126688462108   -0.22685403817630584
-0.8458766022782133   -1.0240126688462108   -0.22685403817630584
-0.8458766022782133   -1.0240126688462108   -0.22685403817630584
-0.6179732963876859   -0.06897125825095737   0.023274200240979603
-0.6179732963876859   -0.06897125825095737   0.023274200240979603
-0.6179732963876859   -0.06897125825095737   0.023274200240979603
-0.6179732963876859   -0.06897125825095737   0.023274200240979603
-2.255857083841165   -1.2894659073426098   -0.7090645982367549
-2.255857083841165   -1.2894659073426098   -0.7090645982367549
-2.255857083841165   -1.2894659073426098   -0.7090645982367549
-2.255857083841165   -1.2894659073426098   -0.7090645982367549
-1.3909055093521812   -0.648598467174494   0.056373634780633786
-1.3909055093521812   -0.648598467174494   0.056373634780633786
-1.3909055093521812   -0.648598467174494   0.056373634780633786
-1.3909055093521812   -0.648598467174494   0.056373634780633786
-1.9706187240715642   -0.3821857709851704   -0.19015293574620715
-1.9706187240715642   -0.3821857709851704   -0.19015293574620715
-1.9706187240715642   -0.3821857709851704   -0.19015293574620715
-1.9706187240715642   -0.3821857709851704   -0.19015293574620715
-0.8230639663345523   -0.8961037047856638   -0.17504670295863747
-0.8230639663345523   -0.8961037047856638   -0.17504670295863747
-0.8230639663345523   -0.8961037047856638   -0.17504670295863747
-0.8230639663345523   -0.8961037047856638   -0.17504670295863747
-0.7098862291674971   -0.1815148969878209   -0.036830201936411955
-0.7098862291674971   -0.1815148969878209   -0.036830201936411955
-0.7098862291674971   -0.1815148969878209   -0.036830201936411955
-0.7098862291674971   -0.1815148969878209   -0.036830201936411955
-2.0560009167044178   -1.0833489969860208   -0.6278699827380877
-2.0560009167044178   -1.0833489969860208   -0.6278699827380877
-2.0560009167044178   -1.0833489969860208   -0.6278699827380877
-2.0560009167044178   -1.0833489969860208   -0.6278699827380877
-1.2883283361260722   -0.56224121924007   0.23842636069365886
-1.2883283361260722   -0.56224121924007   0.23842636069365886
-1.2883283361260722   -0.56224121924007   0.23842636069365886
-1.2883283361260722   -0.56224121924007   0.23842636069365886
-0.5803773369015834   -0.31474167483942184   -0.04663384813025869
-0.5803773369015834   -0.31474167483942184   -0.04663384813025869
-0.5803773369015834   -0.31474167483942184   -0.04663384813025869
-0.5803773369015834   -0.31474167483942184   -0.04663384813025869
-0.26800539496742015   -0.3874068862653773   -0.0662034059684519
-0.26800539496742015   -0.3874068862653773   -0.0662034059684519
-0.26800539496742015   -0.3874068862653773   -0.0662034059684519
-0.26800539496742015   -0.3874068862653773   -0.0662034059684519
-0.236607618081881   -0.20095914190059422   0.006143484435595446
-0.236607618081881   -0.20095914190059422   0.006143484435595446
-0.236607618081881   -0.20095914190059422   0.006143484435595446
-0.236607618081881   -0.20095914190059422   0.006143484435595446
-0.7092761148825375   -0.5680517848214016   0.00018751477726390575
-0.7092761148825375   -0.5680517848214016   0.00018751477726390575
-0.7092761148825375   -0.5680517848214016   0.00018751477726390575
-0.7092761148825375   -0.5680517848214016   0.00018751477726390575
-0.3811290142731459   -0.27558286124766884   0.12199562453642629
-0.3811290142731459   -0.27558286124766884   0.12199562453642629
-0.3811290142731459   -0.27558286124766884   0.12199562453642629
-0.3811290142731459   -0.27558286124766884   0.12199562453642629
-0.6602822909715172   -0.2929181695528746   -0.029976980936170107
-0.6602822909715172   -0.2929181695528746   -0.029976980936170107
-0.6602822909715172   -0.2929181695528746   -0.029976980936170107
-0.6602822909715172   -0.2929181695528746   -0.029976980936170107
-0.30558311358827417   -0.496074428764495   -0.04361870623246601
-0.30558311358827417   -0.496074428764495   -0.04361870623246601
-0.30558311358827417   -0.496074428764495   -0.04361870623246601
-0.30558311358827417   -0.496074428764495   -0.04361870623246601
-0.25545294783837236   -0.20826703379781775   0.0062936339424325485
-0.25545294783837236   -0.20826703379781775   0.0062936339424325485
-0.25545294783837236   -0.20826703379781775   0.0062936339424325485
-0.25545294783837236   -0.20826703379781775   0.0062936339424325485
-0.7437104205813918   -0.5606370090923336   -0.11374566988616594
-0.7437104205813918   -0.5606370090923336   -0.11374566988616594
-0.7437104205813918   -0.5606370090923336   -0.11374566988616594
-0.7437104205813918   -0.5606370090923336   -0.11374566988616594
-0.454255760087725   -0.3536420205459092   0.05579143464218966
-0.454255760087725   -0.3536420205459092   0.05579143464218966
-0.454255760087725   -0.3536420205459092   0.05579143464218966
-0.454255760087725   -0.3536420205459092   0.05579143464218966
-0.6812001907963166   -0.30586792932376605   -0.05596360072936489
-0.6812001907963166   -0.30586792932376605   -0.05596360072936489
-0.6812001907963166   -0.30586792932376605   -0.05596360072936489
-0.6812001907963166   -0.30586792932376605   -0.05596360072936489
-0.31609377064282396   -0.46116670658576225   -0.04401080729187698
-0.31609377064282396   -0.46116670658576225   -0.04401080729187698
-0.31609377064282396   -0.46116670658576225   -0.04401080729187698
-0.31609377064282396   -0.46116670658576225   -0.04401080729187698
-0.28448041338357954   -0.2150758086463384   0.009263670104090953
-0.28448041338357954   -0.2150758086463384   0.009263670104090953
-0.28448041338357954   -0.2150758086463384   0.009263670104090953
-0.28448041338357954   -0.2150758086463384   0.009263670104090953
-0.7949741043922658   -0.5446470711958561   -0.09913740385221839
-0.7949741043922658   -0.5446470711958561   -0.09913740385221839
-0.7949741043922658   -0.5446470711958561   -0.09913740385221839
-0.7949741043922658   -0.5446470711958561   -0.09913740385221839
-0.47514581348414076   -0.3332833480820163   0.05905009102080633
-0.47514581348414076   -0.3332833480820163   0.05905009102080633
-0.47514581348414076   -0.3332833480820163   0.05905009102080633
-0.47514581348414076   -0.3332833480820163   0.05905009102080633
-0.2120469392685265   -0.1875545519314551   0.01373653819209436
-0.2120469392685265   -0.1875545519314551   0.01373653819209436
-0.2120469392685265   -0.1875545519314551   0.01373653819209436
-0.2120469392685265   -0.1875545519314551   0.01373653819209436
-0.12923154990312802   -0.12021339885757652   -0.03228838028905862
-0.12923154990312802   -0.12021339885757652   -0.03228838028905862
-0.12923154990312802   -0.12021339885757652   -0.03228838028905862
-0.12923154990312802   -0.12021339885757652   -0.03228838028905862
-0.1254316275464991   -0.1675585599753207   0.013873232579106262
-0.1254316275464991   -0.1675585599753207   0.013873232579106262
-0.1254316275464991   -0.1675585599753207   0.013873232579106262
-0.1254316275464991   -0.1675585599753207   0.013873232579106262
-0.23369743964438028   -0.16533693968893587   -0.01492782558855553
-0.23369743964438028   -0.16533693968893587   -0.01492782558855553
-0.23369743964438028   -0.16533693968893587   -0.01492782558855553
-0.23369743964438028   -0.16533693968893587   -0.01492782558855553
-0.14791540853004564   -0.13514585347489733   0.06114935042962817
-0.14791540853004564   -0.13514585347489733   0.06114935042962817
-0.14791540853004564   -0.13514585347489733   0.06114935042962817
-0.14791540853004564   -0.13514585347489733   0.06114935042962817
-0.23244088807435975   -0.18877621673515924   0.014794209307766613
-0.23244088807435975   -0.18877621673515924   0.014794209307766613
-0.23244088807435975   -0.18877621673515924   0.014794209307766613
-0.23244088807435975   -0.18877621673515924   0.014794209307766613
-0.12869141680974575   -0.1461225206223228   -0.023861753090124765
-0.12869141680974575   -0.1461225206223228   -0.023861753090124765
-0.12869141680974575   -0.1461225206223228   -0.023861753090124765
-0.12869141680974575   -0.1461225206223228   -0.023861753090124765
-0.12671372195229927   -0.1725943747477818   0.012314766928612615
-0.12671372195229927   -0.1725943747477818   0.012314766928612615
-0.12671372195229927   -0.1725943747477818   0.012314766928612615
-0.12671372195229927   -0.1725943747477818   0.012314766928612615
-0.2479582153797949   -0.19301741393718594   0.02851767637469188
-0.2479582153797949   -0.19301741393718594   0.02851767637469188
-0.2479582153797949   -0.19301741393718594   0.02851767637469188
-0.2479582153797949   -0.19301741393718594   0.02851767637469188
-0.16063081112614508   -0.15054465706253212   0.051920681345072266
-0.16063081112614508   -0.15054465706253212   0.051920681345072266
-0.16063081112614508   -0.15054465706253212   0.051920681345072266
-0.16063081112614508   -0.15054465706253212   0.051920681345072266
-0.2502146501950421   -0.1957615800914997   0.01997966845276597
-0.2502146501950421   -0.1957615800914997   0.01997966845276597
-0.2502146501950421   -0.1957615800914997   0.01997966845276597
-0.2502146501950421   -0.1957615800914997   0.01997966845276597
-0.13517006844999874   -0.18056298990641534   -0.02199835040125133
-0.13517006844999874   -0.18056298990641534   -0.02199835040125133
-0.13517006844999874   -0.18056298990641534   -0.02199835040125133
-0.13517006844999874   -0.18056298990641534   -0.02199835040125133
-0.12793083342760556   -0.1782265472091744   0.017283988145010983
-0.12793083342760556   -0.1782265472091744   0.017283988145010983
-0.12793083342760556   -0.1782265472091744   0.017283988145010983
-0.12793083342760556   -0.1782265472091744   0.017283988145010983
-0.2896787436405961   -0.23775777437754275   0.0059539845502126765
-0.2896787436405961   -0.23775777437754275   0.0059539845502126765
-0.2896787436405961   -0.23775777437754275   0.0059539845502126765
-0.2896787436405961   -0.23775777437754275   0.0059539845502126765
-0.1791392048969801   -0.1717267048930713   0.02469958666149214
-0.1791392048969801   -0.1717267048930713   0.02469958666149214
-0.1791392048969801   -0.1717267048930713   0.02469958666149214
-0.1791392048969801   -0.1717267048930713   0.02469958666149214
-0.10641017199690357   -0.0746534377496686   0.03625854813415576
-0.10641017199690357   -0.0746534377496686   0.03625854813415576
-0.10641017199690357   -0.0746534377496686   0.03625854813415576
-0.10641017199690357   -0.0746534377496686   0.03625854813415576
-0.07424280663331405   0.0007181701115483441   -0.007225516159165735
-0.07424280663331405   0.0007181701115483441   -0.007225516159165735
-0.07424280663331405   0.0007181701115483441   -0.007225516159165735
-0.07424280663331405   0.0007181701115483441   -0.007225516159165735
-0.0704839743367311   -0.08061613805454641   0.02251992400754024
-0.0704839743367311   -0.08061613805454641   0.02251992400754024
-0.0704839743367311   -0.08061613805454641   0.02251992400754024
-0.0704839743367311   -0.08061613805454641   0.02251992400754024
-0.0983193899974604   -0.013384059262175894   -0.004740080388844971
-0.0983193899974604   -0.013384059262175894   -0.004740080388844971
-0.0983193899974604   -0.013384059262175894   -0.004740080388844971
-0.0983193899974604   -0.013384059262175894   -0.004740080388844971
-0.08080184546859917   -0.04047504916880587   0.01798726980126985
-0.08080184546859917   -0.04047504916880587   0.01798726980126985
-0.08080184546859917   -0.04047504916880587   0.01798726980126985
-0.08080184546859917   -0.04047504916880587   0.01798726980126985
-0.10489588610808458   -0.08516985770929458   0.03416323750515285
-0.10489588610808458   -0.08516985770929458   0.03416323750515285
-0.10489588610808458   -0.08516985770929458   0.03416323750515285
-0.10489588610808458   -0.08516985770929458   0.03416323750515285
-0.0620391653297232   -0.006962026711043987   -0.008910142300922647
-0.0620391653297232   -0.006962026711043987   -0.008910142300922647
-0.0620391653297232   -0.006962026711043987   -0.008910142300922647
-0.0620391653297232   -0.006962026711043987   -0.008910142300922647
-0.06446873237457885   -0.08771545660385965   0.020743919827836646
-0.06446873237457885   -0.08771545660385965   0.020743919827836646
-0.06446873237457885   -0.08771545660385965   0.020743919827836646
-0.06446873237457885   -0.08771545660385965   0.020743919827836646
-0.09888156595194378   -0.02703629085274336   0.00591746303535157
-0.09888156595194378   -0.02703629085274336   0.00591746303535157
-0.09888156595194378   -0.02703629085274336   0.00591746303535157
-0.09888156595194378   -0.02703629085274336   0.00591746303535157
-0.07398225879398448   -0.046361890379995906   0.021536782107445578
-0.07398225879398448   -0.046361890379995906   0.021536782107445578
-0.07398225879398448   -0.046361890379995906   0.021536782107445578
-0.07398225879398448   -0.046361890379995906   0.021536782107445578
-0.10530173093777943   -0.0922289756928176   0.03900932294624754
-0.10530173093777943   -0.0922289756928176   0.03900932294624754
-0.10530173093777943   -0.0922289756928176   0.03900932294624754
-0.10530173093777943   -0.0922289756928176   0.03900932294624754
-0.05857927564081927   -0.0230534800158615   -0.014470773091363631
-0.05857927564081927   -0.0230534800158615   -0.014470773091363631
-0.05857927564081927   -0.0230534800158615   -0.014470773091363631
-0.05857927564081927   -0.0230534800158615   -0.014470773091363631
-0.05367624589809315   -0.0955866038614806   0.022782822316427198
-0.05367624589809315   -0.0955866038614806   0.022782822316427198
-0.05367624589809315   -0.0955866038614806   0.022782822316427198
-0.05367624589809315   -0.0955866038614806   0.022782822316427198
-0.1062925422152358   -0.06053404652441579   0.007782943522101196
-0.1062925422152358   -0.06053404652441579   0.007782943522101196
-0.1062925422152358   -0.06053404652441579   0.007782943522101196
-0.1062925422152358   -0.06053404652441579   0.007782943522101196
-0.0709698920922605   -0.058572454402245386   0.018741867789603576
-0.0709698920922605   -0.058572454402245386   0.018741867789603576
-0.0709698920922605   -0.058572454402245386   0.018741867789603576
-0.0709698920922605   -0.058572454402245386   0.018741867789603576
-0.06830865182808564   -0.013262323451378295   0.03642575142990306
-0.06830865182808564   -0.013262323451378295   0.03642575142990306
-0.06830865182808564   -0.013262323451378295   0.03642575142990306
-0.06830865182808564   -0.013262323451378295   0.03642575142990306
-0.011693417145759357   0.008118530735203112   -0.0007352769508015178
-0.011693417145759357   0.008118530735203112   -0.0007352769508015178
-0.011693417145759357   0.008118530735203112   -0.0007352769508015178
-0.011693417145759357   0.008118530735203112   -0.0007352769508015178
0.004327334734929886   -0.004193693996443515   0.022493017988204165
0.004327334734929886   -0.004193693996443515   0.022493017988204165
0.004327334734929886   -0.004193693996443515   0.022493017988204165
0.004327334734929886   -0.004193693996443515   0.022493017988204165
-0.05821404401025965   0.006180696035179702   -0.002927258449828582
-0.05821404401025965   0.006180696035179702   -0.002927258449828582
-0.05821404401025965   0.006180696035179702   -0.002927258449828582
-0.05821404401025965   0.006180696035179702   -0.002927258449828582
-0.03405595419849952   -0.0025271246765851754   -0.0028557651930207904
-0.03405595419849952   -0.0025271246765851754   -0.0028557651930207904
-0.03405595419849952   -0.0025271246765851754   -0.0028557651930207904
-0.03405595419849952   -0.0025271246765851754   -0.0028557651930207904
-0.05384331472968486   -0.012754175574468563   0.037861259562693664
-0.05384331472968486   -0.012754175574468563   0.037861259562693664
-0.05384331472968486   -0.012754175574468563   0.037861259562693664
-0.05384331472968486   -0.012754175574468563   0.037861259562693664
0.0020042162672408957   0.016788788426090558   -0.010105056772774856
0.0020042162672408957   0.016788788426090558   -0.010105056772774856
0.0020042162672408957   0.016788788426090558   -0.010105056772774856
0.0020042162672408957   0.016788788426090558   -0.010105056772774856
0.012498139475021194   -0.005146895500787802   0.027713148602920224
0.012498139475021194   -0.005146895500787802   0.027713148602920224
0.012498139475021194   -0.005146895500787802   0.027713148602920224
0.012498139475021194   -0.005146895500787802   0.027713148602920224
-0.05096602486022645   0.004870924717127835   -0.004328923921388836
-0.05096602486022645   0.004870924717127835   -0.004328923921388836
-0.05096602486022645   0.004870924717127835   -0.004328923921388836
-0.05096602486022645   0.004870924717127835   -0.004328923921388836
-0.022097646590430568   -0.0005099120931776474   0.003625038308468864
-0.022097646590430568   -0.0005099120931776474   0.003625038308468864
-0.022097646590430568   -0.0005099120931776474   0.003625038308468864
-0.022097646590430568   -0.0005099120931776474   0.003625038308468864
-0.0457920724793142   -0.014221012560149068   0.0406327752604493
-0.0457920724793142   -0.014221012560149068   0.0406327752604493
-0.0457920724793142   -0.014221012560149068   0.0406327752604493
-0.0457920724793142   -0.014221012560149068   0.0406327752604493
0.009180904202069507   0.01580175888444966   -0.009821682147075673
0.009180904202069507   0.01580175888444966   -0.009821682147075673
0.009180904202069507   0.01580175888444966   -0.009821682147075673
0.009180904202069507   0.01580175888444966   -0.009821682147075673
0.02091422112005034   -0.007988871971609439   0.026879954352096287
0.02091422112005034   -0.007988871971609439   0.026879954352096287
0.02091422112005034   -0.007988871971609439   0.026879954352096287
0.02091422112005034   -0.007988871971609439   0.026879954352096287
-0.03906234676665418   0.005185337854583132   -0.004919623742441686
-0.03906234676665418   0.005185337854583132   -0.004919623742441686
-0.03906234676665418   0.005185337854583132   -0.004919623742441686
-0.03906234676665418   0.005185337854583132   -0.004919623742441686
-0.011388003339338393   0.0007913978667163394   0.009369319744995148
-0.011388003339338393   0.0007913978667163394   0.009369319744995148
-0.011388003339338393   0.0007913978667163394   0.009369319744995148
-0.011388003339338393   0.0007913978667163394   0.009369319744995148
              </DataArray>   
             <DataArray type="Float64" NumberOfComponents="3" Name="Displacements" format="ascii">   
0.0   0.0   0.0
-0.006283313862668945   -0.004119436492682925   -0.002104658905570014
0.0   0.0   0.0
0.0   0.0   0.0
-0.006283313862668945   -0.004119436492682925   -0.002104658905570014
-0.003998621041039022   -0.003701450665894425   -0.001546269582769288
0.0   0.0   0.0
-0.003919847921212228   -0.0038873672626568625   -0.0012953571749368836
0.0   0.0   0.0
0.0   0.0   0.0
-0.003919847921212228   -0.0038873672626568625   -0.0012953571749368836
0.0   0.0   0.0
0.0   0.0   0.0
-0.003919847921212228   -0.0038873672626568625   -0.0012953571749368836
-0.006576164546350419   -0.004388807695126567   -0.001689617827534086
-0.006283313862668945   -0.004119436492682925   -0.002104658905570014
0.0   0.0   0.0
-0.003919847921212228   -0.0038873672626568625   -0.0012953571749368836
-0.006283313862668945   -0.004119436492682925   -0.002104658905570014
0.0   0.0   0.0
0.0   0.0   0.0
-0.006576164546350419   -0.004388807695126567   -0.001689617827534086
0.0   0.0   0.0
0.0   0.0   0.0
-0.006576164546350419   -0.004388807695126567   -0.001689617827534086
-0.003919847921212228   -0.0038873672626568625   -0.0012953571749368836
0.0   0.0   0.0
-0.003931234190646496   -0.003982605609615047   -0.0010447683963700652
0.0   0.0   0.0
0.0   0.0   0.0
-0.003931234190646496   -0.003982605609615047   -0.0010447683963700652
0.0   0.0   0.0
0.0   0.0   0.0
-0.003931234190646496   -0.003982605609615047   -0.0010447683963700652
-0.006781982945178445   -0.004519778807406594   -0.0012918721919030474
-0.006576164546350419   -0.004388807695126567   -0.001689617827534086
0.0   0.0   0.0
-0.003931234190646496   -0.003982605609615047   -0.0010447683963700652
-0.006576164546350419   -0.004388807695126567   -0.001689617827534086
0.0   0.0   0.0
0.0   0.0   0.0
-0.006781982945178445   -0.004519778807406594   -0.0012918721919030474
0.0   0.0   0.0
0.0   0.0   0.0
-0.006781982945178445   -0.004519778807406594   -0.0012918721919030474
-0.003931234190646496   -0.003982605609615047   -0.0010447683963700652
0.0   0.0   0.0
-0.003929541658195242   -0.004007025775844101   -0.0007856091420166405
0.0   0.0   0.0
0.0   0.0   0.0
-0.003929541658195242   -0.004007025775844101   -0.0007856091420166405
0.0   0.0   0.0
0.0   0.0   0.0
-0.003929541658195242   -0.004007025775844101   -0.0007856091420166405
-0.007225043396320249   -0.004618836715819646   -0.0008303839878927138
-0.006781982945178445   -0.004519778807406594   -0.0012918721919030474
0.0   0.0   0.0
-0.003929541658195242   -0.004007025775844101   -0.0007856091420166405
-0.006781982945178445   -0.004519778807406594   -0.0012918721919030474
0.0   0.0   0.0
0.0   0.0   0.0
-0.003998621041039022   -0.003701450665894425   -0.001546269582769288
0.0   0.0   0.0
0.0   0.0   0.0
-0.003998621041039022   -0.003701450665894425   -0.001546269582769288
-0.001820610168357179   -0.0035480836406445735   -0.001175982278690628
0.0   0.0   0.0
-0.0017513602979145804   -0.0036691332569494988   -0.0010575689211672467
0.0   0.0   0.0
0.0   0.0   0.0
-0.0017513602979145804   -0.0036691332569494988   -0.0010575689211672467
0.0   0.0   0.0
0.0   0.0   0.0
-0.0017513602979145804   -0.0036691332569494988   -0.0010575689211672467
-0.003919847921212228   -0.0038873672626568625   -0.0012953571749368836
-0.003998621041039022   -0.003701450665894425   -0.001546269582769288
0.0   0.0   0.0
-0.0017513602979145804   -0.0036691332569494988   -0.0010575689211672467
-0.003998621041039022   -0.003701450665894425   -0.001546269582769288
0.0   0.0   0.0
0.0   0.0   0.0
-0.003919847921212228   -0.0038873672626568625   -0.0012953571749368836
0.0   0.0   0.0
0.0   0.0   0.0
-0.003919847921212228   -0.0038873672626568625   -0.0012953571749368836
-0.0017513602979145804   -0.0036691332569494988   -0.0010575689211672467
0.0   0.0   0.0
-0.0017126029901398943   -0.0037152593544682636   -0.0009422106242232944
0.0   0.0   0.0
0.0   0.0   0.0
-0.0017126029901398943   -0.0037152593544682636   -0.0009422106242232944
0.0   0.0   0.0
0.0   0.0   0.0
-0.0017126029901398943   -0.0037152593544682636   -0.0009422106242232944
-0.003931234190646496   -0.003982605609615047   -0.0010447683963700652
-0.003919847921212228   -0.0038873672626568625   -0.0012953571749368836
0.0   0.0   0.0
-0.0017126029901398943   -0.0037152593544682636   -0.0009422106242232944
-0.003919847921212228   -0.0038873672626568625   -0.0012953571749368836
0.0   0.0   0.0
0.0   0.0   0.0
-0.003931234190646496   -0.003982605609615047   -0.0010447683963700652
0.0   0.0   0.0
0.0   0.0   0.0
-0.003931234190646496   -0.003982605609615047   -0.0010447683963700652
-0.0017126029901398943   -0.0037152593544682636   -0.0009422106242232944
0.0   0.0   0.0
-0.001677366204845801   -0.003695984399620285   -0.0008229122367394051
0.0   0.0   0.0
0.0   0.0   0.0
-0.001677366204845801   -0.003695984399620285   -0.0008229122367394051
0.0   0.0   0.0
0.0   0.0   0.0
-0.001677366204845801   -0.003695984399620285   -0.0008229122367394051
-0.003929541658195242   -0.004007025775844101   -0.0007856091420166405
-0.003931234190646496   -0.003982605609615047   -0.0010447683963700652
0.0   0.0   0.0
-0.001677366204845801   -0.003695984399620285   -0.0008229122367394051
-0.003931234190646496   -0.003982605609615047   -0.0010447683963700652
0.0   0.0   0.0
0.0   0.0   0.0
-0.001820610168357179   -0.0035480836406445735   -0.001175982278690628
0.0   0.0   0.0
0.0   0.0   0.0
-0.001820610168357179   -0.0035480836406445735   -0.001175982278690628
0.00023748435499704453   -0.003567682339639791   -0.0009399425342336673
0.0   0.0   0.0
0.000281532715796245   -0.0036304653700203102   -0.000956422958036773
0.0   0.0   0.0
0.0   0.0   0.0
0.000281532715796245   -0.0036304653700203102   -0.000956422958036773
0.0   0.0   0.0
0.0   0.0   0.0
0.000281532715796245   -0.0036304653700203102   -0.000956422958036773
-0.0017513602979145804   -0.0036691332569494988   -0.0010575689211672467
-0.001820610168357179   -0.0035480836406445735   -0.001175982278690628
0.0   0.0   0.0
0.000281532715796245   -0.0036304653700203102   -0.000956422958036773
-0.001820610168357179   -0.0035480836406445735   -0.001175982278690628
0.0   0.0   0.0
0.0   0.0   0.0
-0.0017513602979145804   -0.0036691332569494988   -0.0010575689211672467
0.0   0.0   0.0
0.0   0.0   0.0
-0.0017513602979145804   -0.0036691332569494988   -0.0010575689211672467
0.000281532715796245   -0.0036304653700203102   -0.000956422958036773
0.0   0.0   0.0
0.0003162546446430925   -0.003625296906741521   -0.000971277498196806
0.0   0.0   0.0
0.0   0.0   0.0
0.0003162546446430925   -0.003625296906741521   -0.000971277498196806
0.0   0.0   0.0
0.0   0.0   0.0
0.0003162546446430925   -0.003625296906741521   -0.000971277498196806
-0.0017126029901398943   -0.0037152593544682636   -0.0009422106242232944
-0.0017513602979145804   -0.0036691332569494988   -0.0010575689211672467
0.0   0.0   0.0
0.0003162546446430925   -0.003625296906741521   -0.000971277498196806
-0.0017513602979145804   -0.0036691332569494988   -0.0010575689211672467
0.0   0.0   0.0
0.0   0.0   0.0
-0.0017126029901398943   -0.0037152593544682636   -0.0009422106242232944
0.0   0.0   0.0
0.0   0.0   0.0
-0.0017126029901398943   -0.0037152593544682636   -0.0009422106242232944
0.0003162546446430925   -0.003625296906741521   -0.000971277498196806
0.0   0.0   0.0
0.00036308324399051686   -0.003546597947900925   -0.0009865057932117946
0.0   0.0   0.0
0.0   0.0   0.0
0.00036308324399051686   -0.003546597947900925   -0.0009865057932117946
0.0   0.0   0.0
0.0   0.0   0.0
0.00036308324399051686   -0.003546597947900925   -0.0009865057932117946
-0.001677366204845801   -0.003695984399620285   -0.0008229122367394051
-0.0017126029901398943   -0.0037152593544682636   -0.0009422106242232944
0.0   0.0   0.0
0.00036308324399051686   -0.003546597947900925   -0.0009865057932117946
-0.0017126029901398943   -0.0037152593544682636   -0.0009422106242232944
0.0   0.0   0.0
0.0   0.0   0.0
0.00023748435499704453   -0.003567682339639791   -0.0009399425342336673
0.0   0.0   0.0
0.0   0.0   0.0
0.00023748435499704453   -0.003567682339639791   -0.0009399425342336673
0.00247123269848822   -0.0037415915038022615   -0.0008231076275052153
0.0   0.0   0.0
0.002475172640719042   -0.003761625947849198   -0.000981523497775758
0.0   0.0   0.0
0.0   0.0   0.0
0.002475172640719042   -0.003761625947849198   -0.000981523497775758
0.0   0.0   0.0
0.0   0.0   0.0
0.002475172640719042   -0.003761625947849198   -0.000981523497775758
0.000281532715796245   -0.0036304653700203102   -0.000956422958036773
0.00023748435499704453   -0.003567682339639791   -0.0009399425342336673
0.0   0.0   0.0
0.002475172640719042   -0.003761625947849198   -0.000981523497775758
0.00023748435499704453   -0.003567682339639791   -0.0009399425342336673
0.0   0.0   0.0
0.0   0.0   0.0
0.000281532715796245   -0.0036304653700203102   -0.000956422958036773
0.0   0.0   0.0
0.0   0.0   0.0
0.000281532715796245   -0.0036304653700203102   -0.000956422958036773
0.002475172640719042   -0.003761625947849198   -0.000981523497775758
0.0   0.0   0.0
0.0024641803063741967   -0.0037079080947296406   -0.0011334550364601513
0.0   0.0   0.0
0.0   0.0   0.0
0.0024641803063741967   -0.0037079080947296406   -0.0011334550364601513
0.0   0.0   0.0
0.0   0.0   0.0
0.0024641803063741967   -0.0037079080947296406   -0.0011334550364601513
0.0003162546446430925   -0.003625296906741521   -0.000971277498196806
0.000281532715796245   -0.0036304653700203102   -0.000956422958036773
0.0   0.0   0.0
0.0024641803063741967   -0.0037079080947296406   -0.0011334550364601513
0.000281532715796245   -0.0036304653700203102   -0.000956422958036773
0.0   0.0   0.0
0.0   0.0   0.0
0.0003162546446430925   -0.003625296906741521   -0.000971277498196806
0.0   0.0   0.0
0.0   0.0   0.0
0.0003162546446430925   -0.003625296906741521   -0.000971277498196806
0.0024641803063741967   -0.0037079080947296406   -0.0011334550364601513
0.0   0.0   0.0
0.0025115278568158365   -0.0035639552806199545   -0.001282461922776784
0.0   0.0   0.0
0.0   0.0   0.0
0.0025115278568158365   -0.0035639552806199545   -0.001282461922776784
0.0   0.0   0.0
0.0   0.0   0.0
0.0025115278568158365   -0.0035639552806199545   -0.001282461922776784
0.00036308324399051686   -0.003546597947900925   -0.0009865057932117946
0.0003162546446430925   -0.003625296906741521   -0.000971277498196806
0.0   0.0   0.0
0.0025115278568158365   -0.0035639552806199545   -0.001282461922776784
0.0003162546446430925   -0.003625296906741521   -0.000971277498196806
0.0   0.0   0.0
0.0   0.0   0.0
0.00247123269848822   -0.0037415915038022615   -0.0008231076275052153
0.0   0.0   0.0
0.0   0.0   0.0
0.00247123269848822   -0.0037415915038022615   -0.0008231076275052153
0.005576758508882749   -0.004182267046973139   -0.0007763962944614146
0.0   0.0   0.0
0.005236886073537221   -0.00413671468942808   -0.0011354401688838714
0.0   0.0   0.0
0.0   0.0   0.0
0.005236886073537221   -0.00413671468942808   -0.0011354401688838714
0.0   0.0   0.0
0.0   0.0   0.0
0.005236886073537221   -0.00413671468942808   -0.0011354401688838714
0.002475172640719042   -0.003761625947849198   -0.000981523497775758
0.00247123269848822   -0.0037415915038022615   -0.0008231076275052153
0.0   0.0   0.0
0.005236886073537221   -0.00413671468942808   -0.0011354401688838714
0.00247123269848822   -0.0037415915038022615   -0.0008231076275052153
0.0   0.0   0.0
0.0   0.0   0.0
0.002475172640719042   -0.003761625947849198   -0.000981523497775758
0.0   0.0   0.0
0.0   0.0   0.0
0.002475172640719042   -0.003761625947849198   -0.000981523497775758
0.005236886073537221   -0.00413671468942808   -0.0011354401688838714
0.0   0.0   0.0
0.005079980454314966   -0.004050705835233944   -0.0014390263842116848
0.0   0.0   0.0
0.0   0.0   0.0
0.005079980454314966   -0.004050705835233944   -0.0014390263842116848
0.0   0.0   0.0
0.0   0.0   0.0
0.005079980454314966   -0.004050705835233944   -0.0014390263842116848
0.0024641803063741967   -0.0037079080947296406   -0.0011334550364601513
0.002475172640719042   -0.003761625947849198   -0.000981523497775758
0.0   0.0   0.0
0.005079980454314966   -0.004050705835233944   -0.0014390263842116848
0.002475172640719042   -0.003761625947849198   -0.000981523497775758
0.0   0.0   0.0
0.0   0.0   0.0
0.0024641803063741967   -0.0037079080947296406   -0.0011334550364601513
0.0   0.0   0.0
0.0   0.0   0.0
0.0024641803063741967   -0.0037079080947296406   -0.0011334550364601513
0.005079980454314966   -0.004050705835233944   -0.0014390263842116848
0.0   0.0   0.0
0.00484666577833789   -0.0038305551769417835   -0.0017602173512788013
0.0   0.0   0.0
0.0   0.0   0.0
0.00484666577833789   -0.0038305551769417835   -0.0017602173512788013
0.0   0.0   0.0
0.0   0.0   0.0
0.00484666577833789   -0.0038305551769417835   -0.0017602173512788013
0.0025115278568158365   -0.0035639552806199545   -0.001282461922776784
0.0024641803063741967   -0.0037079080947296406   -0.0011334550364601513
0.0   0.0   0.0
0.00484666577833789   -0.0038305551769417835   -0.0017602173512788013
0.0024641803063741967   -0.0037079080947296406   -0.0011334550364601513
0.0   0.0   0.0
-0.006283313862668945   -0.004119436492682925   -0.002104658905570014
-0.011738174951866428   -0.011503482726856935   -0.0028354177589981107
-0.003998621041039022   -0.003701450665894425   -0.001546269582769288
-0.006576164546350419   -0.004388807695126567   -0.001689617827534086
-0.011738174951866428   -0.011503482726856935   -0.0028354177589981107
-0.007492127915141283   -0.011127479239735153   -0.0023336471756334925
-0.003998621041039022   -0.003701450665894425   -0.001546269582769288
-0.007501444880027895   -0.0113177438604661   -0.002101518541774199
-0.006576164546350419   -0.004388807695126567   -0.001689617827534086
-0.003919847921212228   -0.0038873672626568625   -0.0012953571749368836
-0.007501444880027895   -0.0113177438604661   -0.002101518541774199
-0.003998621041039022   -0.003701450665894425   -0.001546269582769288
-0.006576164546350419   -0.004388807695126567   -0.001689617827534086
-0.007501444880027895   -0.0113177438604661   -0.002101518541774199
-0.012090477128264993   -0.011768927961810938   -0.002458408196649644
-0.011738174951866428   -0.011503482726856935   -0.0028354177589981107
-0.006576164546350419   -0.004388807695126567   -0.001689617827534086
-0.007501444880027895   -0.0113177438604661   -0.002101518541774199
-0.011738174951866428   -0.011503482726856935   -0.0028354177589981107
-0.003998621041039022   -0.003701450665894425   -0.001546269582769288
-0.006576164546350419   -0.004388807695126567   -0.001689617827534086
-0.012090477128264993   -0.011768927961810938   -0.002458408196649644
-0.003919847921212228   -0.0038873672626568625   -0.0012953571749368836
-0.006781982945178445   -0.004519778807406594   -0.0012918721919030474
-0.012090477128264993   -0.011768927961810938   -0.002458408196649644
-0.007501444880027895   -0.0113177438604661   -0.002101518541774199
-0.003919847921212228   -0.0038873672626568625   -0.0012953571749368836
-0.007531488929063312   -0.011433688536513284   -0.0018784223020602085
-0.006781982945178445   -0.004519778807406594   -0.0012918721919030474
-0.003931234190646496   -0.003982605609615047   -0.0010447683963700652
-0.007531488929063312   -0.011433688536513284   -0.0018784223020602085
-0.003919847921212228   -0.0038873672626568625   -0.0012953571749368836
-0.006781982945178445   -0.004519778807406594   -0.0012918721919030474
-0.007531488929063312   -0.011433688536513284   -0.0018784223020602085
-0.012335450401938071   -0.011918799628590706   -0.002089209821620832
-0.012090477128264993   -0.011768927961810938   -0.002458408196649644
-0.006781982945178445   -0.004519778807406594   -0.0012918721919030474
-0.007531488929063312   -0.011433688536513284   -0.0018784223020602085
-0.012090477128264993   -0.011768927961810938   -0.002458408196649644
-0.003919847921212228   -0.0038873672626568625   -0.0012953571749368836
-0.006781982945178445   -0.004519778807406594   -0.0012918721919030474
-0.012335450401938071   -0.011918799628590706   -0.002089209821620832
-0.003931234190646496   -0.003982605609615047   -0.0010447683963700652
-0.007225043396320249   -0.004618836715819646   -0.0008303839878927138
-0.012335450401938071   -0.011918799628590706   -0.002089209821620832
-0.007531488929063312   -0.011433688536513284   -0.0018784223020602085
-0.003931234190646496   -0.003982605609615047   -0.0010447683963700652
-0.007509569581949431   -0.011493786076910466   -0.0016695665301958945
-0.007225043396320249   -0.004618836715819646   -0.0008303839878927138
-0.003929541658195242   -0.004007025775844101   -0.0007856091420166405
-0.007509569581949431   -0.011493786076910466   -0.0016695665301958945
-0.003931234190646496   -0.003982605609615047   -0.0010447683963700652
-0.007225043396320249   -0.004618836715819646   -0.0008303839878927138
-0.007509569581949431   -0.011493786076910466   -0.0016695665301958945
-0.012625020389782539   -0.012005818285153872   -0.0017532411588709286
-0.012335450401938071   -0.011918799628590706   -0.002089209821620832
-0.007225043396320249   -0.004618836715819646   -0.0008303839878927138
-0.007509569581949431   -0.011493786076910466   -0.0016695665301958945
-0.012335450401938071   -0.011918799628590706   -0.002089209821620832
-0.003931234190646496   -0.003982605609615047   -0.0010447683963700652
-0.003998621041039022   -0.003701450665894425   -0.001546269582769288
-0.007492127915141283   -0.011127479239735153   -0.0023336471756334925
-0.001820610168357179   -0.0035480836406445735   -0.001175982278690628
-0.003919847921212228   -0.0038873672626568625   -0.0012953571749368836
-0.007492127915141283   -0.011127479239735153   -0.0023336471756334925
-0.0034755193648461167   -0.010952522666221787   -0.0019910804079239885
-0.001820610168357179   -0.0035480836406445735   -0.001175982278690628
-0.0034460129258849764   -0.01107365134648678   -0.0018721703820611458
-0.003919847921212228   -0.0038873672626568625   -0.0012953571749368836
-0.0017513602979145804   -0.0036691332569494988   -0.0010575689211672467
-0.0034460129258849764   -0.01107365134648678   -0.0018721703820611458
-0.001820610168357179   -0.0035480836406445735   -0.001175982278690628
-0.003919847921212228   -0.0038873672626568625   -0.0012953571749368836
-0.0034460129258849764   -0.01107365134648678   -0.0018721703820611458
-0.007501444880027895   -0.0113177438604661   -0.002101518541774199
-0.007492127915141283   -0.011127479239735153   -0.0023336471756334925
-0.003919847921212228   -0.0038873672626568625   -0.0012953571749368836
-0.0034460129258849764   -0.01107365134648678   -0.0018721703820611458
-0.007492127915141283   -0.011127479239735153   -0.0023336471756334925
-0.001820610168357179   -0.0035480836406445735   -0.001175982278690628
-0.003919847921212228   -0.0038873672626568625   -0.0012953571749368836
-0.007501444880027895   -0.0113177438604661   -0.002101518541774199
-0.0017513602979145804   -0.0036691332569494988   -0.0010575689211672467
-0.003931234190646496   -0.003982605609615047   -0.0010447683963700652
-0.007501444880027895   -0.0113177438604661   -0.002101518541774199
-0.0034460129258849764   -0.01107365134648678   -0.0018721703820611458
-0.0017513602979145804   -0.0036691332569494988   -0.0010575689211672467
-0.003419919302754065   -0.011132383235493428   -0.0017643561464994366
-0.003931234190646496   -0.003982605609615047   -0.0010447683963700652
-0.0017126029901398943   -0.0037152593544682636   -0.0009422106242232944
-0.003419919302754065   -0.011132383235493428   -0.0017643561464994366
-0.0017513602979145804   -0.0036691332569494988   -0.0010575689211672467
-0.003931234190646496   -0.003982605609615047   -0.0010447683963700652
-0.003419919302754065   -0.011132383235493428   -0.0017643561464994366
-0.007531488929063312   -0.011433688536513284   -0.0018784223020602085
-0.007501444880027895   -0.0113177438604661   -0.002101518541774199
-0.003931234190646496   -0.003982605609615047   -0.0010447683963700652
-0.003419919302754065   -0.011132383235493428   -0.0017643561464994366
-0.007501444880027895   -0.0113177438604661   -0.002101518541774199
-0.0017513602979145804   -0.0036691332569494988   -0.0010575689211672467
-0.003931234190646496   -0.003982605609615047   -0.0010447683963700652
-0.007531488929063312   -0.011433688536513284   -0.0018784223020602085
-0.0017126029901398943   -0.0037152593544682636   -0.0009422106242232944
-0.003929541658195242   -0.004007025775844101   -0.0007856091420166405
-0.007531488929063312   -0.011433688536513284   -0.0018784223020602085
-0.003419919302754065   -0.011132383235493428   -0.0017643561464994366
-0.0017126029901398943   -0.0037152593544682636   -0.0009422106242232944
-0.003380756804644613   -0.011130933408956817   -0.001670467492252612
-0.003929541658195242   -0.004007025775844101   -0.0007856091420166405
-0.001677366204845801   -0.003695984399620285   -0.0008229122367394051
-0.003380756804644613   -0.011130933408956817   -0.001670467492252612
-0.0017126029901398943   -0.0037152593544682636   -0.0009422106242232944
-0.003929541658195242   -0.004007025775844101   -0.0007856091420166405
-0.003380756804644613   -0.011130933408956817   -0.001670467492252612
-0.007509569581949431   -0.011493786076910466   -0.0016695665301958945
-0.007531488929063312   -0.011433688536513284   -0.0018784223020602085
-0.003929541658195242   -0.004007025775844101   -0.0007856091420166405
-0.003380756804644613   -0.011130933408956817   -0.001670467492252612
-0.007531488929063312   -0.011433688536513284   -0.0018784223020602085
-0.0017126029901398943   -0.0037152593544682636   -0.0009422106242232944
-0.001820610168357179   -0.0035480836406445735   -0.001175982278690628
-0.0034755193648461167   -0.010952522666221787   -0.0019910804079239885
0.00023748435499704453   -0.003567682339639791   -0.0009399425342336673
-0.0017513602979145804   -0.0036691332569494988   -0.0010575689211672467
-0.0034755193648461167   -0.010952522666221787   -0.0019910804079239885
0.00039801525240985115   -0.010957703114181674   -0.00177441665263044
0.00023748435499704453   -0.003567682339639791   -0.0009399425342336673
0.00043436594412150307   -0.011015138996180809   -0.0017666314908517655
-0.0017513602979145804   -0.0036691332569494988   -0.0010575689211672467
0.000281532715796245   -0.0036304653700203102   -0.000956422958036773
0.00043436594412150307   -0.011015138996180809   -0.0017666314908517655
0.00023748435499704453   -0.003567682339639791   -0.0009399425342336673
-0.0017513602979145804   -0.0036691332569494988   -0.0010575689211672467
0.00043436594412150307   -0.011015138996180809   -0.0017666314908517655
-0.0034460129258849764   -0.01107365134648678   -0.0018721703820611458
-0.0034755193648461167   -0.010952522666221787   -0.0019910804079239885
-0.0017513602979145804   -0.0036691332569494988   -0.0010575689211672467
0.00043436594412150307   -0.011015138996180809   -0.0017666314908517655
-0.0034755193648461167   -0.010952522666221787   -0.0019910804079239885
0.00023748435499704453   -0.003567682339639791   -0.0009399425342336673
-0.0017513602979145804   -0.0036691332569494988   -0.0010575689211672467
-0.0034460129258849764   -0.01107365134648678   -0.0018721703820611458
0.000281532715796245   -0.0036304653700203102   -0.000956422958036773
-0.0017126029901398943   -0.0037152593544682636   -0.0009422106242232944
-0.0034460129258849764   -0.01107365134648678   -0.0018721703820611458
0.00043436594412150307   -0.011015138996180809   -0.0017666314908517655
0.000281532715796245   -0.0036304653700203102   -0.000956422958036773
0.00045867284454680557   -0.011011642433771958   -0.0017714416935147032
-0.0017126029901398943   -0.0037152593544682636   -0.0009422106242232944
0.0003162546446430925   -0.003625296906741521   -0.000971277498196806
0.00045867284454680557   -0.011011642433771958   -0.0017714416935147032
0.000281532715796245   -0.0036304653700203102   -0.000956422958036773
-0.0017126029901398943   -0.0037152593544682636   -0.0009422106242232944
0.00045867284454680557   -0.011011642433771958   -0.0017714416935147032
-0.003419919302754065   -0.011132383235493428   -0.0017643561464994366
-0.0034460129258849764   -0.01107365134648678   -0.0018721703820611458
-0.0017126029901398943   -0.0037152593544682636   -0.0009422106242232944
0.00045867284454680557   -0.011011642433771958   -0.0017714416935147032
-0.0034460129258849764   -0.01107365134648678   -0.0018721703820611458
0.000281532715796245   -0.0036304653700203102   -0.000956422958036773
-0.0017126029901398943   -0.0037152593544682636   -0.0009422106242232944
-0.003419919302754065   -0.011132383235493428   -0.0017643561464994366
0.0003162546446430925   -0.003625296906741521   -0.000971277498196806
-0.001677366204845801   -0.003695984399620285   -0.0008229122367394051
-0.003419919302754065   -0.011132383235493428   -0.0017643561464994366
0.00045867284454680557   -0.011011642433771958   -0.0017714416935147032
0.0003162546446430925   -0.003625296906741521   -0.000971277498196806
0.00048478615223923073   -0.010945351721983155   -0.0017890470233930232
-0.001677366204845801   -0.003695984399620285   -0.0008229122367394051
0.00036308324399051686   -0.003546597947900925   -0.0009865057932117946
0.00048478615223923073   -0.010945351721983155   -0.0017890470233930232
0.0003162546446430925   -0.003625296906741521   -0.000971277498196806
-0.001677366204845801   -0.003695984399620285   -0.0008229122367394051
0.00048478615223923073   -0.010945351721983155   -0.0017890470233930232
-0.003380756804644613   -0.011130933408956817   -0.001670467492252612
-0.003419919302754065   -0.011132383235493428   -0.0017643561464994366
-0.001677366204845801   -0.003695984399620285   -0.0008229122367394051
0.00048478615223923073   -0.010945351721983155   -0.0017890470233930232
-0.003419919302754065   -0.011132383235493428   -0.0017643561464994366
0.0003162546446430925   -0.003625296906741521   -0.000971277498196806
0.00023748435499704453   -0.003567682339639791   -0.0009399425342336673
0.00039801525240985115   -0.010957703114181674   -0.00177441665263044
0.00247123269848822   -0.0037415915038022615   -0.0008231076275052153
0.000281532715796245   -0.0036304653700203102   -0.000956422958036773
0.00039801525240985115   -0.010957703114181674   -0.00177441665263044
0.004502612190269276   -0.011136509061786471   -0.001673220517240825
0.00247123269848822   -0.0037415915038022615   -0.0008231076275052153
0.004522927611294623   -0.011136094056628697   -0.001780167137740131
0.000281532715796245   -0.0036304653700203102   -0.000956422958036773
0.002475172640719042   -0.003761625947849198   -0.000981523497775758
0.004522927611294623   -0.011136094056628697   -0.001780167137740131
0.00247123269848822   -0.0037415915038022615   -0.0008231076275052153
0.000281532715796245   -0.0036304653700203102   -0.000956422958036773
0.004522927611294623   -0.011136094056628697   -0.001780167137740131
0.00043436594412150307   -0.011015138996180809   -0.0017666314908517655
0.00039801525240985115   -0.010957703114181674   -0.00177441665263044
0.000281532715796245   -0.0036304653700203102   -0.000956422958036773
0.004522927611294623   -0.011136094056628697   -0.001780167137740131
0.00039801525240985115   -0.010957703114181674   -0.00177441665263044
0.00247123269848822   -0.0037415915038022615   -0.0008231076275052153
0.000281532715796245   -0.0036304653700203102   -0.000956422958036773
0.00043436594412150307   -0.011015138996180809   -0.0017666314908517655
0.002475172640719042   -0.003761625947849198   -0.000981523497775758
0.0003162546446430925   -0.003625296906741521   -0.000971277498196806
0.00043436594412150307   -0.011015138996180809   -0.0017666314908517655
0.004522927611294623   -0.011136094056628697   -0.001780167137740131
0.002475172640719042   -0.003761625947849198   -0.000981523497775758
0.004501523036459065   -0.011075916989475345   -0.0019013644223090543
0.0003162546446430925   -0.003625296906741521   -0.000971277498196806
0.0024641803063741967   -0.0037079080947296406   -0.0011334550364601513
0.004501523036459065   -0.011075916989475345   -0.0019013644223090543
0.002475172640719042   -0.003761625947849198   -0.000981523497775758
0.0003162546446430925   -0.003625296906741521   -0.000971277498196806
0.004501523036459065   -0.011075916989475345   -0.0019013644223090543
0.00045867284454680557   -0.011011642433771958   -0.0017714416935147032
0.00043436594412150307   -0.011015138996180809   -0.0017666314908517655
0.0003162546446430925   -0.003625296906741521   -0.000971277498196806
0.004501523036459065   -0.011075916989475345   -0.0019013644223090543
0.00043436594412150307   -0.011015138996180809   -0.0017666314908517655
0.002475172640719042   -0.003761625947849198   -0.000981523497775758
0.0003162546446430925   -0.003625296906741521   -0.000971277498196806
0.00045867284454680557   -0.011011642433771958   -0.0017714416935147032
0.0024641803063741967   -0.0037079080947296406   -0.0011334550364601513
0.00036308324399051686   -0.003546597947900925   -0.0009865057932117946
0.00045867284454680557   -0.011011642433771958   -0.0017714416935147032
0.004501523036459065   -0.011075916989475345   -0.0019013644223090543
0.0024641803063741967   -0.0037079080947296406   -0.0011334550364601513
0.004489074005990657   -0.01093950360982662   -0.002032329994670795
0.00036308324399051686   -0.003546597947900925   -0.0009865057932117946
0.0025115278568158365   -0.0035639552806199545   -0.001282461922776784
0.004489074005990657   -0.01093950360982662   -0.002032329994670795
0.0024641803063741967   -0.0037079080947296406   -0.0011334550364601513
0.00036308324399051686   -0.003546597947900925   -0.0009865057932117946
0.004489074005990657   -0.01093950360982662   -0.002032329994670795
0.00048478615223923073   -0.010945351721983155   -0.0017890470233930232
0.00045867284454680557   -0.011011642433771958   -0.0017714416935147032
0.00036308324399051686   -0.003546597947900925   -0.0009865057932117946
0.004489074005990657   -0.01093950360982662   -0.002032329994670795
0.00045867284454680557   -0.011011642433771958   -0.0017714416935147032
0.0024641803063741967   -0.0037079080947296406   -0.0011334550364601513
0.00247123269848822   -0.0037415915038022615   -0.0008231076275052153
0.004502612190269276   -0.011136509061786471   -0.001673220517240825
0.005576758508882749   -0.004182267046973139   -0.0007763962944614146
0.002475172640719042   -0.003761625947849198   -0.000981523497775758
0.004502612190269276   -0.011136509061786471   -0.001673220517240825
0.009455037094239924   -0.011468953909542282   -0.0016457685221538914
0.005576758508882749   -0.004182267046973139   -0.0007763962944614146
0.009261952664164307   -0.011437792522107729   -0.001886304428725097
0.002475172640719042   -0.003761625947849198   -0.000981523497775758
0.005236886073537221   -0.00413671468942808   -0.0011354401688838714
0.009261952664164307   -0.011437792522107729   -0.001886304428725097
0.005576758508882749   -0.004182267046973139   -0.0007763962944614146
0.002475172640719042   -0.003761625947849198   -0.000981523497775758
0.009261952664164307   -0.011437792522107729   -0.001886304428725097
0.004522927611294623   -0.011136094056628697   -0.001780167137740131
0.004502612190269276   -0.011136509061786471   -0.001673220517240825
0.002475172640719042   -0.003761625947849198   -0.000981523497775758
0.009261952664164307   -0.011437792522107729   -0.001886304428725097
0.004502612190269276   -0.011136509061786471   -0.001673220517240825
0.005576758508882749   -0.004182267046973139   -0.0007763962944614146
0.002475172640719042   -0.003761625947849198   -0.000981523497775758
0.004522927611294623   -0.011136094056628697   -0.001780167137740131
0.005236886073537221   -0.00413671468942808   -0.0011354401688838714
0.0024641803063741967   -0.0037079080947296406   -0.0011334550364601513
0.004522927611294623   -0.011136094056628697   -0.001780167137740131
0.009261952664164307   -0.011437792522107729   -0.001886304428725097
0.005236886073537221   -0.00413671468942808   -0.0011354401688838714
0.009089458358342193   -0.01134499439507983   -0.00215683049316465
0.0024641803063741967   -0.0037079080947296406   -0.0011334550364601513
0.005079980454314966   -0.004050705835233944   -0.0014390263842116848
0.009089458358342193   -0.01134499439507983   -0.00215683049316465
0.005236886073537221   -0.00413671468942808   -0.0011354401688838714
0.0024641803063741967   -0.0037079080947296406   -0.0011334550364601513
0.009089458358342193   -0.01134499439507983   -0.00215683049316465
0.004501523036459065   -0.011075916989475345   -0.0019013644223090543
0.004522927611294623   -0.011136094056628697   -0.001780167137740131
0.0024641803063741967   -0.0037079080947296406   -0.0011334550364601513
0.009089458358342193   -0.01134499439507983   -0.00215683049316465
0.004522927611294623   -0.011136094056628697   -0.001780167137740131
0.005236886073537221   -0.00413671468942808   -0.0011354401688838714
0.0024641803063741967   -0.0037079080947296406   -0.0011334550364601513
0.004501523036459065   -0.011075916989475345   -0.0019013644223090543
0.005079980454314966   -0.004050705835233944   -0.0014390263842116848
0.0025115278568158365   -0.0035639552806199545   -0.001282461922776784
0.004501523036459065   -0.011075916989475345   -0.0019013644223090543
0.009089458358342193   -0.01134499439507983   -0.00215683049316465
0.005079980454314966   -0.004050705835233944   -0.0014390263842116848
0.008831290254140188   -0.011138372183827978   -0.002438394555981405
0.0025115278568158365   -0.0035639552806199545   -0.001282461922776784
0.00484666577833789   -0.0038305551769417835   -0.0017602173512788013
0.008831290254140188   -0.011138372183827978   -0.002438394555981405
0.005079980454314966   -0.004050705835233944   -0.0014390263842116848
0.0025115278568158365   -0.0035639552806199545   -0.001282461922776784
0.008831290254140188   -0.011138372183827978   -0.002438394555981405
0.004489074005990657   -0.01093950360982662   -0.002032329994670795
0.004501523036459065   -0.011075916989475345   -0.0019013644223090543
0.0025115278568158365   -0.0035639552806199545   -0.001282461922776784
0.008831290254140188   -0.011138372183827978   -0.002438394555981405
0.004501523036459065   -0.011075916989475345   -0.0019013644223090543
0.005079980454314966   -0.004050705835233944   -0.0014390263842116848
-0.011738174951866428   -0.011503482726856935   -0.0028354177589981107
-0.01608609271907834   -0.021579351437397424   -0.0032292131560500473
-0.007492127915141283   -0.011127479239735153   -0.0023336471756334925
-0.012090477128264993   -0.011768927961810938   -0.002458408196649644
-0.01608609271907834   -0.021579351437397424   -0.0032292131560500473
-0.010341950933057583   -0.021291910589726643   -0.0028220807679452693
-0.007492127915141283   -0.011127479239735153   -0.0023336471756334925
-0.010365172899553276   -0.021456193287789298   -0.002641927073122213
-0.012090477128264993   -0.011768927961810938   -0.002458408196649644
-0.007501444880027895   -0.0113177438604661   -0.002101518541774199
-0.010365172899553276   -0.021456193287789298   -0.002641927073122213
-0.007492127915141283   -0.011127479239735153   -0.0023336471756334925
-0.012090477128264993   -0.011768927961810938   -0.002458408196649644
-0.010365172899553276   -0.021456193287789298   -0.002641927073122213
-0.016372886730327198   -0.02180384055326883   -0.0029479189023981643
-0.01608609271907834   -0.021579351437397424   -0.0032292131560500473
-0.012090477128264993   -0.011768927961810938   -0.002458408196649644
-0.010365172899553276   -0.021456193287789298   -0.002641927073122213
-0.01608609271907834   -0.021579351437397424   -0.0032292131560500473
-0.007492127915141283   -0.011127479239735153   -0.0023336471756334925
-0.012090477128264993   -0.011768927961810938   -0.002458408196649644
-0.016372886730327198   -0.02180384055326883   -0.0029479189023981643
-0.007501444880027895   -0.0113177438604661   -0.002101518541774199
-0.012335450401938071   -0.011918799628590706   -0.002089209821620832
-0.016372886730327198   -0.02180384055326883   -0.0029479189023981643
-0.010365172899553276   -0.021456193287789298   -0.002641927073122213
-0.007501444880027895   -0.0113177438604661   -0.002101518541774199
-0.01039245193760898   -0.02157048297401253   -0.002474791682597753
-0.012335450401938071   -0.011918799628590706   -0.002089209821620832
-0.007531488929063312   -0.011433688536513284   -0.0018784223020602085
-0.01039245193760898   -0.02157048297401253   -0.002474791682597753
-0.007501444880027895   -0.0113177438604661   -0.002101518541774199
-0.012335450401938071   -0.011918799628590706   -0.002089209821620832
-0.01039245193760898   -0.02157048297401253   -0.002474791682597753
-0.016553935928780347   -0.021944569728210725   -0.0026857095241367064
-0.016372886730327198   -0.02180384055326883   -0.0029479189023981643
-0.012335450401938071   -0.011918799628590706   -0.002089209821620832
-0.01039245193760898   -0.02157048297401253   -0.002474791682597753
-0.016372886730327198   -0.02180384055326883   -0.0029479189023981643
-0.007501444880027895   -0.0113177438604661   -0.002101518541774199
-0.012335450401938071   -0.011918799628590706   -0.002089209821620832
-0.016553935928780347   -0.021944569728210725   -0.0026857095241367064
-0.007531488929063312   -0.011433688536513284   -0.0018784223020602085
-0.012625020389782539   -0.012005818285153872   -0.0017532411588709286
-0.016553935928780347   -0.021944569728210725   -0.0026857095241367064
-0.01039245193760898   -0.02157048297401253   -0.002474791682597753
-0.007531488929063312   -0.011433688536513284   -0.0018784223020602085
-0.010373548824629828   -0.021645618932041533   -0.0023179024202042947
-0.012625020389782539   -0.012005818285153872   -0.0017532411588709286
-0.007509569581949431   -0.011493786076910466   -0.0016695665301958945
-0.010373548824629828   -0.021645618932041533   -0.0023179024202042947
-0.007531488929063312   -0.011433688536513284   -0.0018784223020602085
-0.012625020389782539   -0.012005818285153872   -0.0017532411588709286
-0.010373548824629828   -0.021645618932041533   -0.0023179024202042947
-0.01675993365417333   -0.02204568854138605   -0.0024443693125239955
-0.016553935928780347   -0.021944569728210725   -0.0026857095241367064
-0.012625020389782539   -0.012005818285153872   -0.0017532411588709286
-0.010373548824629828   -0.021645618932041533   -0.0023179024202042947
-0.016553935928780347   -0.021944569728210725   -0.0026857095241367064
-0.007531488929063312   -0.011433688536513284   -0.0018784223020602085
-0.007492127915141283   -0.011127479239735153   -0.0023336471756334925
-0.010341950933057583   -0.021291910589726643   -0.0028220807679452693
-0.0034755193648461167   -0.010952522666221787   -0.0019910804079239885
-0.007501444880027895   -0.0113177438604661   -0.002101518541774199
-0.010341950933057583   -0.021291910589726643   -0.0028220807679452693
-0.004925287601805756   -0.02114863513339612   -0.002539202622978751
-0.0034755193648461167   -0.010952522666221787   -0.0019910804079239885
-0.004913498836423421   -0.0212537162455674   -0.0024374372628489646
-0.007501444880027895   -0.0113177438604661   -0.002101518541774199
-0.0034460129258849764   -0.01107365134648678   -0.0018721703820611458
-0.004913498836423421   -0.0212537162455674   -0.0024374372628489646
-0.0034755193648461167   -0.010952522666221787   -0.0019910804079239885
-0.007501444880027895   -0.0113177438604661   -0.002101518541774199
-0.004913498836423421   -0.0212537162455674   -0.0024374372628489646
-0.010365172899553276   -0.021456193287789298   -0.002641927073122213
-0.010341950933057583   -0.021291910589726643   -0.0028220807679452693
-0.007501444880027895   -0.0113177438604661   -0.002101518541774199
-0.004913498836423421   -0.0212537162455674   -0.0024374372628489646
-0.010341950933057583   -0.021291910589726643   -0.0028220807679452693
-0.0034755193648461167   -0.010952522666221787   -0.0019910804079239885
-0.007501444880027895   -0.0113177438604661   -0.002101518541774199
-0.010365172899553276   -0.021456193287789298   -0.002641927073122213
-0.0034460129258849764   -0.01107365134648678   -0.0018721703820611458
-0.007531488929063312   -0.011433688536513284   -0.0018784223020602085
-0.010365172899553276   -0.021456193287789298   -0.002641927073122213
-0.004913498836423421   -0.0212537162455674   -0.0024374372628489646
-0.0034460129258849764   -0.01107365134648678   -0.0018721703820611458
-0.004898932418926434   -0.021315426208607626   -0.002348071545751474
-0.007531488929063312   -0.011433688536513284   -0.0018784223020602085
-0.003419919302754065   -0.011132383235493428   -0.0017643561464994366
-0.004898932418926434   -0.021315426208607626   -0.002348071545751474
-0.0034460129258849764   -0.01107365134648678   -0.0018721703820611458
-0.007531488929063312   -0.011433688536513284   -0.0018784223020602085
-0.004898932418926434   -0.021315426208607626   -0.002348071545751474
-0.01039245193760898   -0.02157048297401253   -0.002474791682597753
-0.010365172899553276   -0.021456193287789298   -0.002641927073122213
-0.007531488929063312   -0.011433688536513284   -0.0018784223020602085
-0.004898932418926434   -0.021315426208607626   -0.002348071545751474
-0.010365172899553276   -0.021456193287789298   -0.002641927073122213
-0.0034460129258849764   -0.01107365134648678   -0.0018721703820611458
-0.007531488929063312   -0.011433688536513284   -0.0018784223020602085
-0.01039245193760898   -0.02157048297401253   -0.002474791682597753
-0.003419919302754065   -0.011132383235493428   -0.0017643561464994366
-0.007509569581949431   -0.011493786076910466   -0.0016695665301958945
-0.01039245193760898   -0.02157048297401253   -0.002474791682597753
-0.004898932418926434   -0.021315426208607626   -0.002348071545751474
-0.003419919302754065   -0.011132383235493428   -0.0017643561464994366
-0.004874645492486318   -0.02133464733694192   -0.0022710670403818045
-0.007509569581949431   -0.011493786076910466   -0.0016695665301958945
-0.003380756804644613   -0.011130933408956817   -0.001670467492252612
-0.004874645492486318   -0.02133464733694192   -0.0022710670403818045
-0.003419919302754065   -0.011132383235493428   -0.0017643561464994366
-0.007509569581949431   -0.011493786076910466   -0.0016695665301958945
-0.004874645492486318   -0.02133464733694192   -0.0022710670403818045
-0.010373548824629828   -0.021645618932041533   -0.0023179024202042947
-0.01039245193760898   -0.02157048297401253   -0.002474791682597753
-0.007509569581949431   -0.011493786076910466   -0.0016695665301958945
-0.004874645492486318   -0.02133464733694192   -0.0022710670403818045
-0.01039245193760898   -0.02157048297401253   -0.002474791682597753
-0.003419919302754065   -0.011132383235493428   -0.0017643561464994366
-0.0034755193648461167   -0.010952522666221787   -0.0019910804079239885
-0.004925287601805756   -0.02114863513339612   -0.002539202622978751
0.00039801525240985115   -0.010957703114181674   -0.00177441665263044
-0.0034460129258849764   -0.01107365134648678   -0.0018721703820611458
-0.004925287601805756   -0.02114863513339612   -0.002539202622978751
0.0003325226859603665   -0.021141017213872737   -0.0023637306239580637
0.00039801525240985115   -0.010957703114181674   -0.00177441665263044
0.00035464350756965766   -0.021187837516883343   -0.002339930266019237
-0.0034460129258849764   -0.01107365134648678   -0.0018721703820611458
0.00043436594412150307   -0.011015138996180809   -0.0017666314908517655
0.00035464350756965766   -0.021187837516883343   -0.002339930266019237
0.00039801525240985115   -0.010957703114181674   -0.00177441665263044
-0.0034460129258849764   -0.01107365134648678   -0.0018721703820611458
0.00035464350756965766   -0.021187837516883343   -0.002339930266019237
-0.004913498836423421   -0.0212537162455674   -0.0024374372628489646
-0.004925287601805756   -0.02114863513339612   -0.002539202622978751
-0.0034460129258849764   -0.01107365134648678   -0.0018721703820611458
0.00035464350756965766   -0.021187837516883343   -0.002339930266019237
-0.004925287601805756   -0.02114863513339612   -0.002539202622978751
0.00039801525240985115   -0.010957703114181674   -0.00177441665263044
-0.0034460129258849764   -0.01107365134648678   -0.0018721703820611458
-0.004913498836423421   -0.0212537162455674   -0.0024374372628489646
0.00043436594412150307   -0.011015138996180809   -0.0017666314908517655
-0.003419919302754065   -0.011132383235493428   -0.0017643561464994366
-0.004913498836423421   -0.0212537162455674   -0.0024374372628489646
0.00035464350756965766   -0.021187837516883343   -0.002339930266019237
0.00043436594412150307   -0.011015138996180809   -0.0017666314908517655
0.00036863012965340444   -0.02119146179062186   -0.0023282038809395948
-0.003419919302754065   -0.011132383235493428   -0.0017643561464994366
0.00045867284454680557   -0.011011642433771958   -0.0017714416935147032
0.00036863012965340444   -0.02119146179062186   -0.0023282038809395948
0.00043436594412150307   -0.011015138996180809   -0.0017666314908517655
-0.003419919302754065   -0.011132383235493428   -0.0017643561464994366
0.00036863012965340444   -0.02119146179062186   -0.0023282038809395948
-0.004898932418926434   -0.021315426208607626   -0.002348071545751474
-0.004913498836423421   -0.0212537162455674   -0.0024374372628489646
-0.003419919302754065   -0.011132383235493428   -0.0017643561464994366
0.00036863012965340444   -0.02119146179062186   -0.0023282038809395948
-0.004913498836423421   -0.0212537162455674   -0.0024374372628489646
0.00043436594412150307   -0.011015138996180809   -0.0017666314908517655
-0.003419919302754065   -0.011132383235493428   -0.0017643561464994366
-0.004898932418926434   -0.021315426208607626   -0.002348071545751474
0.00045867284454680557   -0.011011642433771958   -0.0017714416935147032
-0.003380756804644613   -0.011130933408956817   -0.001670467492252612
-0.004898932418926434   -0.021315426208607626   -0.002348071545751474
0.00036863012965340444   -0.02119146179062186   -0.0023282038809395948
0.00045867284454680557   -0.011011642433771958   -0.0017714416935147032
0.00037859041997582895   -0.021151245319944747   -0.0023292872051909413
-0.003380756804644613   -0.011130933408956817   -0.001670467492252612
0.00048478615223923073   -0.010945351721983155   -0.0017890470233930232
0.00037859041997582895   -0.021151245319944747   -0.0023292872051909413
0.00045867284454680557   -0.011011642433771958   -0.0017714416935147032
-0.003380756804644613   -0.011130933408956817   -0.001670467492252612
0.00037859041997582895   -0.021151245319944747   -0.0023292872051909413
-0.004874645492486318   -0.02133464733694192   -0.0022710670403818045
-0.004898932418926434   -0.021315426208607626   -0.002348071545751474
-0.003380756804644613   -0.011130933408956817   -0.001670467492252612
0.00037859041997582895   -0.021151245319944747   -0.0023292872051909413
-0.004898932418926434   -0.021315426208607626   -0.002348071545751474
0.00045867284454680557   -0.011011642433771958   -0.0017714416935147032
0.00039801525240985115   -0.010957703114181674   -0.00177441665263044
0.0003325226859603665   -0.021141017213872737   -0.0023637306239580637
0.004502612190269276   -0.011136509061786471   -0.001673220517240825
0.00043436594412150307   -0.011015138996180809   -0.0017666314908517655
0.0003325226859603665   -0.021141017213872737   -0.0023637306239580637
0.0058145889105679395   -0.02126099779984622   -0.0022926515667833045
0.004502612190269276   -0.011136509061786471   -0.001673220517240825
0.005833789072641828   -0.021254434862754086   -0.0023484395351752742
0.00043436594412150307   -0.011015138996180809   -0.0017666314908517655
0.004522927611294623   -0.011136094056628697   -0.001780167137740131
0.005833789072641828   -0.021254434862754086   -0.0023484395351752742
0.004502612190269276   -0.011136509061786471   -0.001673220517240825
0.00043436594412150307   -0.011015138996180809   -0.0017666314908517655
0.005833789072641828   -0.021254434862754086   -0.0023484395351752742
0.00035464350756965766   -0.021187837516883343   -0.002339930266019237
0.0003325226859603665   -0.021141017213872737   -0.0023637306239580637
0.00043436594412150307   -0.011015138996180809   -0.0017666314908517655
0.005833789072641828   -0.021254434862754086   -0.0023484395351752742
0.0003325226859603665   -0.021141017213872737   -0.0023637306239580637
0.004502612190269276   -0.011136509061786471   -0.001673220517240825
0.00043436594412150307   -0.011015138996180809   -0.0017666314908517655
0.00035464350756965766   -0.021187837516883343   -0.002339930266019237
0.004522927611294623   -0.011136094056628697   -0.001780167137740131
0.00045867284454680557   -0.011011642433771958   -0.0017714416935147032
0.00035464350756965766   -0.021187837516883343   -0.002339930266019237
0.005833789072641828   -0.021254434862754086   -0.0023484395351752742
0.004522927611294623   -0.011136094056628697   -0.001780167137740131
0.005818425318661605   -0.02120558609014034   -0.002415414279724966
0.00045867284454680557   -0.011011642433771958   -0.0017714416935147032
0.004501523036459065   -0.011075916989475345   -0.0019013644223090543
0.005818425318661605   -0.02120558609014034   -0.002415414279724966
0.004522927611294623   -0.011136094056628697   -0.001780167137740131
0.00045867284454680557   -0.011011642433771958   -0.0017714416935147032
0.005818425318661605   -0.02120558609014034   -0.002415414279724966
0.00036863012965340444   -0.02119146179062186   -0.0023282038809395948
0.00035464350756965766   -0.021187837516883343   -0.002339930266019237
0.00045867284454680557   -0.011011642433771958   -0.0017714416935147032
0.005818425318661605   -0.02120558609014034   -0.002415414279724966
0.00035464350756965766   -0.021187837516883343   -0.002339930266019237
0.004522927611294623   -0.011136094056628697   -0.001780167137740131
0.00045867284454680557   -0.011011642433771958   -0.0017714416935147032
0.00036863012965340444   -0.02119146179062186   -0.0023282038809395948
0.004501523036459065   -0.011075916989475345   -0.0019013644223090543
0.00048478615223923073   -0.010945351721983155   -0.0017890470233930232
0.00036863012965340444   -0.02119146179062186   -0.0023282038809395948
0.005818425318661605   -0.02120558609014034   -0.002415414279724966
0.004501523036459065   -0.011075916989475345   -0.0019013644223090543
0.005795741982312448   -0.021103998736348252   -0.0024948995994505153
0.00048478615223923073   -0.010945351721983155   -0.0017890470233930232
0.004489074005990657   -0.01093950360982662   -0.002032329994670795
0.005795741982312448   -0.021103998736348252   -0.0024948995994505153
0.004501523036459065   -0.011075916989475345   -0.0019013644223090543
0.00048478615223923073   -0.010945351721983155   -0.0017890470233930232
0.005795741982312448   -0.021103998736348252   -0.0024948995994505153
0.00037859041997582895   -0.021151245319944747   -0.0023292872051909413
0.00036863012965340444   -0.02119146179062186   -0.0023282038809395948
0.00048478615223923073   -0.010945351721983155   -0.0017890470233930232
0.005795741982312448   -0.021103998736348252   -0.0024948995994505153
0.00036863012965340444   -0.02119146179062186   -0.0023282038809395948
0.004501523036459065   -0.011075916989475345   -0.0019013644223090543
0.004502612190269276   -0.011136509061786471   -0.001673220517240825
0.0058145889105679395   -0.02126099779984622   -0.0022926515667833045
0.009455037094239924   -0.011468953909542282   -0.0016457685221538914
0.004522927611294623   -0.011136094056628697   -0.001780167137740131
0.0058145889105679395   -0.02126099779984622   -0.0022926515667833045
0.012057536517446827   -0.021478729588410912   -0.0022937140321161315
0.009455037094239924   -0.011468953909542282   -0.0016457685221538914
0.011951826821837878   -0.02144143538757882   -0.002439386595245387
0.004522927611294623   -0.011136094056628697   -0.001780167137740131
0.009261952664164307   -0.011437792522107729   -0.001886304428725097
0.011951826821837878   -0.02144143538757882   -0.002439386595245387
0.009455037094239924   -0.011468953909542282   -0.0016457685221538914
0.004522927611294623   -0.011136094056628697   -0.001780167137740131
0.011951826821837878   -0.02144143538757882   -0.002439386595245387
0.005833789072641828   -0.021254434862754086   -0.0023484395351752742
0.0058145889105679395   -0.02126099779984622   -0.0022926515667833045
0.004522927611294623   -0.011136094056628697   -0.001780167137740131
0.011951826821837878   -0.02144143538757882   -0.002439386595245387
0.0058145889105679395   -0.02126099779984622   -0.0022926515667833045
0.009455037094239924   -0.011468953909542282   -0.0016457685221538914
0.004522927611294623   -0.011136094056628697   -0.001780167137740131
0.005833789072641828   -0.021254434862754086   -0.0023484395351752742
0.009261952664164307   -0.011437792522107729   -0.001886304428725097
0.004501523036459065   -0.011075916989475345   -0.0019013644223090543
0.005833789072641828   -0.021254434862754086   -0.0023484395351752742
0.011951826821837878   -0.02144143538757882   -0.002439386595245387
0.009261952664164307   -0.011437792522107729   -0.001886304428725097
0.011846421421258807   -0.021366194741373207   -0.0026052312964334147
0.004501523036459065   -0.011075916989475345   -0.0019013644223090543
0.009089458358342193   -0.01134499439507983   -0.00215683049316465
0.011846421421258807   -0.021366194741373207   -0.0026052312964334147
0.009261952664164307   -0.011437792522107729   -0.001886304428725097
0.004501523036459065   -0.011075916989475345   -0.0019013644223090543
0.011846421421258807   -0.021366194741373207   -0.0026052312964334147
0.005818425318661605   -0.02120558609014034   -0.002415414279724966
0.005833789072641828   -0.021254434862754086   -0.0023484395351752742
0.004501523036459065   -0.011075916989475345   -0.0019013644223090543
0.011846421421258807   -0.021366194741373207   -0.0026052312964334147
0.005833789072641828   -0.021254434862754086   -0.0023484395351752742
0.009261952664164307   -0.011437792522107729   -0.001886304428725097
0.004501523036459065   -0.011075916989475345   -0.0019013644223090543
0.005818425318661605   -0.02120558609014034   -0.002415414279724966
0.009089458358342193   -0.01134499439507983   -0.00215683049316465
0.004489074005990657   -0.01093950360982662   -0.002032329994670795
0.005818425318661605   -0.02120558609014034   -0.002415414279724966
0.011846421421258807   -0.021366194741373207   -0.0026052312964334147
0.009089458358342193   -0.01134499439507983   -0.00215683049316465
0.011659687416017332   -0.02120820192815466   -0.0027912694000124766
0.004489074005990657   -0.01093950360982662   -0.002032329994670795
0.008831290254140188   -0.011138372183827978   -0.002438394555981405
0.011659687416017332   -0.02120820192815466   -0.0027912694000124766
0.009089458358342193   -0.01134499439507983   -0.00215683049316465
0.004489074005990657   -0.01093950360982662   -0.002032329994670795
0.011659687416017332   -0.02120820192815466   -0.0027912694000124766
0.005795741982312448   -0.021103998736348252   -0.0024948995994505153
0.005818425318661605   -0.02120558609014034   -0.002415414279724966
0.004489074005990657   -0.01093950360982662   -0.002032329994670795
0.011659687416017332   -0.02120820192815466   -0.0027912694000124766
0.005818425318661605   -0.02120558609014034   -0.002415414279724966
0.009089458358342193   -0.01134499439507983   -0.00215683049316465
-0.01608609271907834   -0.021579351437397424   -0.0032292131560500473
-0.01921271151358173   -0.033530251675637696   -0.0034434476913511552
-0.010341950933057583   -0.021291910589726643   -0.0028220807679452693
-0.016372886730327198   -0.02180384055326883   -0.0029479189023981643
-0.01921271151358173   -0.033530251675637696   -0.0034434476913511552
-0.012470042383608644   -0.03334727754843128   -0.0031113573937233603
-0.010341950933057583   -0.021291910589726643   -0.0028220807679452693
-0.01248553401212402   -0.03348865046668355   -0.0029823639022094903
-0.016372886730327198   -0.02180384055326883   -0.0029479189023981643
-0.010365172899553276   -0.021456193287789298   -0.002641927073122213
-0.01248553401212402   -0.03348865046668355   -0.0029823639022094903
-0.010341950933057583   -0.021291910589726643   -0.0028220807679452693
-0.016372886730327198   -0.02180384055326883   -0.0029479189023981643
-0.01248553401212402   -0.03348865046668355   -0.0029823639022094903
-0.019406183272878384   -0.03372148724000611   -0.00325655434554623
-0.01921271151358173   -0.033530251675637696   -0.0034434476913511552
-0.016372886730327198   -0.02180384055326883   -0.0029479189023981643
-0.01248553401212402   -0.03348865046668355   -0.0029823639022094903
-0.01921271151358173   -0.033530251675637696   -0.0034434476913511552
-0.010341950933057583   -0.021291910589726643   -0.0028220807679452693
-0.016372886730327198   -0.02180384055326883   -0.0029479189023981643
-0.019406183272878384   -0.03372148724000611   -0.00325655434554623
-0.010365172899553276   -0.021456193287789298   -0.002641927073122213
-0.016553935928780347   -0.021944569728210725   -0.0026857095241367064
-0.019406183272878384   -0.03372148724000611   -0.00325655434554623
-0.01248553401212402   -0.03348865046668355   -0.0029823639022094903
-0.010365172899553276   -0.021456193287789298   -0.002641927073122213
-0.012496743549194179   -0.033600692486285735   -0.002866216153064752
-0.016553935928780347   -0.021944569728210725   -0.0026857095241367064
-0.01039245193760898   -0.02157048297401253   -0.002474791682597753
-0.012496743549194179   -0.033600692486285735   -0.002866216153064752
-0.010365172899553276   -0.021456193287789298   -0.002641927073122213
-0.016553935928780347   -0.021944569728210725   -0.0026857095241367064
-0.012496743549194179   -0.033600692486285735   -0.002866216153064752
-0.019517437923713184   -0.03385674584693652   -0.003087574190937052
-0.019406183272878384   -0.03372148724000611   -0.00325655434554623
-0.016553935928780347   -0.021944569728210725   -0.0026857095241367064
-0.012496743549194179   -0.033600692486285735   -0.002866216153064752
-0.019406183272878384   -0.03372148724000611   -0.00325655434554623
-0.010365172899553276   -0.021456193287789298   -0.002641927073122213
-0.016553935928780347   -0.021944569728210725   -0.0026857095241367064
-0.019517437923713184   -0.03385674584693652   -0.003087574190937052
-0.01039245193760898   -0.02157048297401253   -0.002474791682597753
-0.01675993365417333   -0.02204568854138605   -0.0024443693125239955
-0.019517437923713184   -0.03385674584693652   -0.003087574190937052
-0.012496743549194179   -0.033600692486285735   -0.002866216153064752
-0.01039245193760898   -0.02157048297401253   -0.002474791682597753
-0.012471385787322996   -0.03369269115663247   -0.0027612095907348496
-0.01675993365417333   -0.02204568854138605   -0.0024443693125239955
-0.010373548824629828   -0.021645618932041533   -0.0023179024202042947
-0.012471385787322996   -0.03369269115663247   -0.0027612095907348496
-0.01039245193760898   -0.02157048297401253   -0.002474791682597753
-0.01675993365417333   -0.02204568854138605   -0.0024443693125239955
-0.012471385787322996   -0.03369269115663247   -0.0027612095907348496
-0.01963207615883198   -0.03397791484190144   -0.002938633708741434
-0.019517437923713184   -0.03385674584693652   -0.003087574190937052
-0.01675993365417333   -0.02204568854138605   -0.0024443693125239955
-0.012471385787322996   -0.03369269115663247   -0.0027612095907348496
-0.019517437923713184   -0.03385674584693652   -0.003087574190937052
-0.01039245193760898   -0.02157048297401253   -0.002474791682597753
-0.010341950933057583   -0.021291910589726643   -0.0028220807679452693
-0.012470042383608644   -0.03334727754843128   -0.0031113573937233603
-0.004925287601805756   -0.02114863513339612   -0.002539202622978751
-0.010365172899553276   -0.021456193287789298   -0.002641927073122213
-0.012470042383608644   -0.03334727754843128   -0.0031113573937233603
-0.006148559162412714   -0.03325275850458081   -0.0028813896980020948
-0.004925287601805756   -0.02114863513339612   -0.002539202622978751
-0.006137356768132708   -0.033341500798659426   -0.0027962782137171283
-0.010365172899553276   -0.021456193287789298   -0.002641927073122213
-0.004913498836423421   -0.0212537162455674   -0.0024374372628489646
-0.006137356768132708   -0.033341500798659426   -0.0027962782137171283
-0.004925287601805756   -0.02114863513339612   -0.002539202622978751
-0.010365172899553276   -0.021456193287789298   -0.002641927073122213
-0.006137356768132708   -0.033341500798659426   -0.0027962782137171283
-0.01248553401212402   -0.03348865046668355   -0.0029823639022094903
-0.012470042383608644   -0.03334727754843128   -0.0031113573937233603
-0.010365172899553276   -0.021456193287789298   -0.002641927073122213
-0.006137356768132708   -0.033341500798659426   -0.0027962782137171283
-0.012470042383608644   -0.03334727754843128   -0.0031113573937233603
-0.004925287601805756   -0.02114863513339612   -0.002539202622978751
-0.010365172899553276   -0.021456193287789298   -0.002641927073122213
-0.01248553401212402   -0.03348865046668355   -0.0029823639022094903
-0.004913498836423421   -0.0212537162455674   -0.0024374372628489646
-0.01039245193760898   -0.02157048297401253   -0.002474791682597753
-0.01248553401212402   -0.03348865046668355   -0.0029823639022094903
-0.006137356768132708   -0.033341500798659426   -0.0027962782137171283
-0.004913498836423421   -0.0212537162455674   -0.0024374372628489646
-0.006121872571554499   -0.03340566817638458   -0.0027238217809617943
-0.01039245193760898   -0.02157048297401253   -0.002474791682597753
-0.004898932418926434   -0.021315426208607626   -0.002348071545751474
-0.006121872571554499   -0.03340566817638458   -0.0027238217809617943
-0.004913498836423421   -0.0212537162455674   -0.0024374372628489646
-0.01039245193760898   -0.02157048297401253   -0.002474791682597753
-0.006121872571554499   -0.03340566817638458   -0.0027238217809617943
-0.012496743549194179   -0.033600692486285735   -0.002866216153064752
-0.01248553401212402   -0.03348865046668355   -0.0029823639022094903
-0.01039245193760898   -0.02157048297401253   -0.002474791682597753
-0.006121872571554499   -0.03340566817638458   -0.0027238217809617943
-0.01248553401212402   -0.03348865046668355   -0.0029823639022094903
-0.004913498836423421   -0.0212537162455674   -0.0024374372628489646
-0.01039245193760898   -0.02157048297401253   -0.002474791682597753
-0.012496743549194179   -0.033600692486285735   -0.002866216153064752
-0.004898932418926434   -0.021315426208607626   -0.002348071545751474
-0.010373548824629828   -0.021645618932041533   -0.0023179024202042947
-0.012496743549194179   -0.033600692486285735   -0.002866216153064752
-0.006121872571554499   -0.03340566817638458   -0.0027238217809617943
-0.004898932418926434   -0.021315426208607626   -0.002348071545751474
-0.006098544904471828   -0.03344568075873117   -0.002664228378138467
-0.010373548824629828   -0.021645618932041533   -0.0023179024202042947
-0.004874645492486318   -0.02133464733694192   -0.0022710670403818045
-0.006098544904471828   -0.03344568075873117   -0.002664228378138467
-0.004898932418926434   -0.021315426208607626   -0.002348071545751474
-0.010373548824629828   -0.021645618932041533   -0.0023179024202042947
-0.006098544904471828   -0.03344568075873117   -0.002664228378138467
-0.012471385787322996   -0.03369269115663247   -0.0027612095907348496
-0.012496743549194179   -0.033600692486285735   -0.002866216153064752
-0.010373548824629828   -0.021645618932041533   -0.0023179024202042947
-0.006098544904471828   -0.03344568075873117   -0.002664228378138467
-0.012496743549194179   -0.033600692486285735   -0.002866216153064752
-0.004898932418926434   -0.021315426208607626   -0.002348071545751474
-0.004925287601805756   -0.02114863513339612   -0.002539202622978751
-0.006148559162412714   -0.03325275850458081   -0.0028813896980020948
0.0003325226859603665   -0.021141017213872737   -0.0023637306239580637
-0.004913498836423421   -0.0212537162455674   -0.0024374372628489646
-0.006148559162412714   -0.03325275850458081   -0.0028813896980020948
1.377240339695395e-06   -0.033236534966408784   -0.002747368705702091
0.0003325226859603665   -0.021141017213872737   -0.0023637306239580637
2.288261072192239e-05   -0.03327237747165426   -0.0027064746200876418
-0.004913498836423421   -0.0212537162455674   -0.0024374372628489646
0.00035464350756965766   -0.021187837516883343   -0.002339930266019237
2.288261072192239e-05   -0.03327237747165426   -0.0027064746200876418
0.0003325226859603665   -0.021141017213872737   -0.0023637306239580637
-0.004913498836423421   -0.0212537162455674   -0.0024374372628489646
2.288261072192239e-05   -0.03327237747165426   -0.0027064746200876418
-0.006137356768132708   -0.033341500798659426   -0.0027962782137171283
-0.006148559162412714   -0.03325275850458081   -0.0028813896980020948
-0.004913498836423421   -0.0212537162455674   -0.0024374372628489646
2.288261072192239e-05   -0.03327237747165426   -0.0027064746200876418
-0.006148559162412714   -0.03325275850458081   -0.0028813896980020948
0.0003325226859603665   -0.021141017213872737   -0.0023637306239580637
-0.004913498836423421   -0.0212537162455674   -0.0024374372628489646
-0.006137356768132708   -0.033341500798659426   -0.0027962782137171283
0.00035464350756965766   -0.021187837516883343   -0.002339930266019237
-0.004898932418926434   -0.021315426208607626   -0.002348071545751474
-0.006137356768132708   -0.033341500798659426   -0.0027962782137171283
2.288261072192239e-05   -0.03327237747165426   -0.0027064746200876418
0.00035464350756965766   -0.021187837516883343   -0.002339930266019237
3.805319588350555e-05   -0.03328347620564842   -0.0026780735228694274
-0.004898932418926434   -0.021315426208607626   -0.002348071545751474
0.00036863012965340444   -0.02119146179062186   -0.0023282038809395948
3.805319588350555e-05   -0.03328347620564842   -0.0026780735228694274
0.00035464350756965766   -0.021187837516883343   -0.002339930266019237
-0.004898932418926434   -0.021315426208607626   -0.002348071545751474
3.805319588350555e-05   -0.03328347620564842   -0.0026780735228694274
-0.006121872571554499   -0.03340566817638458   -0.0027238217809617943
-0.006137356768132708   -0.033341500798659426   -0.0027962782137171283
-0.004898932418926434   -0.021315426208607626   -0.002348071545751474
3.805319588350555e-05   -0.03328347620564842   -0.0026780735228694274
-0.006137356768132708   -0.033341500798659426   -0.0027962782137171283
0.00035464350756965766   -0.021187837516883343   -0.002339930266019237
-0.004898932418926434   -0.021315426208607626   -0.002348071545751474
-0.006121872571554499   -0.03340566817638458   -0.0027238217809617943
0.00036863012965340444   -0.02119146179062186   -0.0023282038809395948
-0.004874645492486318   -0.02133464733694192   -0.0022710670403818045
-0.006121872571554499   -0.03340566817638458   -0.0027238217809617943
3.805319588350555e-05   -0.03328347620564842   -0.0026780735228694274
0.00036863012965340444   -0.02119146179062186   -0.0023282038809395948
4.749955155617548e-05   -0.03326949228246132   -0.0026627196675683175
-0.004874645492486318   -0.02133464733694192   -0.0022710670403818045
0.00037859041997582895   -0.021151245319944747   -0.0023292872051909413
4.749955155617548e-05   -0.03326949228246132   -0.0026627196675683175
0.00036863012965340444   -0.02119146179062186   -0.0023282038809395948
-0.004874645492486318   -0.02133464733694192   -0.0022710670403818045
4.749955155617548e-05   -0.03326949228246132   -0.0026627196675683175
-0.006098544904471828   -0.03344568075873117   -0.002664228378138467
-0.006121872571554499   -0.03340566817638458   -0.0027238217809617943
-0.004874645492486318   -0.02133464733694192   -0.0022710670403818045
4.749955155617548e-05   -0.03326949228246132   -0.0026627196675683175
-0.006121872571554499   -0.03340566817638458   -0.0027238217809617943
0.00036863012965340444   -0.02119146179062186   -0.0023282038809395948
0.0003325226859603665   -0.021141017213872737   -0.0023637306239580637
1.377240339695395e-06   -0.033236534966408784   -0.002747368705702091
0.0058145889105679395   -0.02126099779984622   -0.0022926515667833045
0.00035464350756965766   -0.021187837516883343   -0.002339930266019237
1.377240339695395e-06   -0.033236534966408784   -0.002747368705702091
0.006362770168692549   -0.033291930026432916   -0.0027087362372294563
0.0058145889105679395   -0.02126099779984622   -0.0022926515667833045
0.006389156583850653   -0.033277962889703444   -0.0027129952551416393
0.00035464350756965766   -0.021187837516883343   -0.002339930266019237
0.005833789072641828   -0.021254434862754086   -0.0023484395351752742
0.006389156583850653   -0.033277962889703444   -0.0027129952551416393
0.0058145889105679395   -0.02126099779984622   -0.0022926515667833045
0.00035464350756965766   -0.021187837516883343   -0.002339930266019237
0.006389156583850653   -0.033277962889703444   -0.0027129952551416393
2.288261072192239e-05   -0.03327237747165426   -0.0027064746200876418
1.377240339695395e-06   -0.033236534966408784   -0.002747368705702091
0.00035464350756965766   -0.021187837516883343   -0.002339930266019237
0.006389156583850653   -0.033277962889703444   -0.0027129952551416393
1.377240339695395e-06   -0.033236534966408784   -0.002747368705702091
0.0058145889105679395   -0.02126099779984622   -0.0022926515667833045
0.00035464350756965766   -0.021187837516883343   -0.002339930266019237
2.288261072192239e-05   -0.03327237747165426   -0.0027064746200876418
0.005833789072641828   -0.021254434862754086   -0.0023484395351752742
0.00036863012965340444   -0.02119146179062186   -0.0023282038809395948
2.288261072192239e-05   -0.03327237747165426   -0.0027064746200876418
0.006389156583850653   -0.033277962889703444   -0.0027129952551416393
0.005833789072641828   -0.021254434862754086   -0.0023484395351752742
0.006390683979897963   -0.03324112756393614   -0.0027290759848643763
0.00036863012965340444   -0.02119146179062186   -0.0023282038809395948
0.005818425318661605   -0.02120558609014034   -0.002415414279724966
0.006390683979897963   -0.03324112756393614   -0.0027290759848643763
0.005833789072641828   -0.021254434862754086   -0.0023484395351752742
0.00036863012965340444   -0.02119146179062186   -0.0023282038809395948
0.006390683979897963   -0.03324112756393614   -0.0027290759848643763
3.805319588350555e-05   -0.03328347620564842   -0.0026780735228694274
2.288261072192239e-05   -0.03327237747165426   -0.0027064746200876418
0.00036863012965340444   -0.02119146179062186   -0.0023282038809395948
0.006390683979897963   -0.03324112756393614   -0.0027290759848643763
2.288261072192239e-05   -0.03327237747165426   -0.0027064746200876418
0.005833789072641828   -0.021254434862754086   -0.0023484395351752742
0.00036863012965340444   -0.02119146179062186   -0.0023282038809395948
3.805319588350555e-05   -0.03328347620564842   -0.0026780735228694274
0.005818425318661605   -0.02120558609014034   -0.002415414279724966
0.00037859041997582895   -0.021151245319944747   -0.0023292872051909413
3.805319588350555e-05   -0.03328347620564842   -0.0026780735228694274
0.006390683979897963   -0.03324112756393614   -0.0027290759848643763
0.005818425318661605   -0.02120558609014034   -0.002415414279724966
0.006376255856727134   -0.033172187224079365   -0.0027574269810780754
0.00037859041997582895   -0.021151245319944747   -0.0023292872051909413
0.005795741982312448   -0.021103998736348252   -0.0024948995994505153
0.006376255856727134   -0.033172187224079365   -0.0027574269810780754
0.005818425318661605   -0.02120558609014034   -0.002415414279724966
0.00037859041997582895   -0.021151245319944747   -0.0023292872051909413
0.006376255856727134   -0.033172187224079365   -0.0027574269810780754
4.749955155617548e-05   -0.03326949228246132   -0.0026627196675683175
3.805319588350555e-05   -0.03328347620564842   -0.0026780735228694274
0.00037859041997582895   -0.021151245319944747   -0.0023292872051909413
0.006376255856727134   -0.033172187224079365   -0.0027574269810780754
3.805319588350555e-05   -0.03328347620564842   -0.0026780735228694274
0.005818425318661605   -0.02120558609014034   -0.002415414279724966
0.0058145889105679395   -0.02126099779984622   -0.0022926515667833045
0.006362770168692549   -0.033291930026432916   -0.0027087362372294563
0.012057536517446827   -0.021478729588410912   -0.0022937140321161315
0.005833789072641828   -0.021254434862754086   -0.0023484395351752742
0.006362770168692549   -0.033291930026432916   -0.0027087362372294563
0.013387363724102822   -0.0333938175999527   -0.002744576109455407
0.012057536517446827   -0.021478729588410912   -0.0022937140321161315
0.013374252631417026   -0.03334613491219054   -0.0027976105033442862
0.005833789072641828   -0.021254434862754086   -0.0023484395351752742
0.011951826821837878   -0.02144143538757882   -0.002439386595245387
0.013374252631417026   -0.03334613491219054   -0.0027976105033442862
0.012057536517446827   -0.021478729588410912   -0.0022937140321161315
0.005833789072641828   -0.021254434862754086   -0.0023484395351752742
0.013374252631417026   -0.03334613491219054   -0.0027976105033442862
0.006389156583850653   -0.033277962889703444   -0.0027129952551416393
0.006362770168692549   -0.033291930026432916   -0.0027087362372294563
0.005833789072641828   -0.021254434862754086   -0.0023484395351752742
0.013374252631417026   -0.03334613491219054   -0.0027976105033442862
0.006362770168692549   -0.033291930026432916   -0.0027087362372294563
0.012057536517446827   -0.021478729588410912   -0.0022937140321161315
0.005833789072641828   -0.021254434862754086   -0.0023484395351752742
0.006389156583850653   -0.033277962889703444   -0.0027129952551416393
0.011951826821837878   -0.02144143538757882   -0.002439386595245387
0.005818425318661605   -0.02120558609014034   -0.002415414279724966
0.006389156583850653   -0.033277962889703444   -0.0027129952551416393
0.013374252631417026   -0.03334613491219054   -0.0027976105033442862
0.011951826821837878   -0.02144143538757882   -0.002439386595245387
0.013340093989983714   -0.03328600419623219   -0.0028698214280334718
0.005818425318661605   -0.02120558609014034   -0.002415414279724966
0.011846421421258807   -0.021366194741373207   -0.0026052312964334147
0.013340093989983714   -0.03328600419623219   -0.0028698214280334718
0.011951826821837878   -0.02144143538757882   -0.002439386595245387
0.005818425318661605   -0.02120558609014034   -0.002415414279724966
0.013340093989983714   -0.03328600419623219   -0.0028698214280334718
0.006390683979897963   -0.03324112756393614   -0.0027290759848643763
0.006389156583850653   -0.033277962889703444   -0.0027129952551416393
0.005818425318661605   -0.02120558609014034   -0.002415414279724966
0.013340093989983714   -0.03328600419623219   -0.0028698214280334718
0.006389156583850653   -0.033277962889703444   -0.0027129952551416393
0.011951826821837878   -0.02144143538757882   -0.002439386595245387
0.005818425318661605   -0.02120558609014034   -0.002415414279724966
0.006390683979897963   -0.03324112756393614   -0.0027290759848643763
0.011846421421258807   -0.021366194741373207   -0.0026052312964334147
0.005795741982312448   -0.021103998736348252   -0.0024948995994505153
0.006390683979897963   -0.03324112756393614   -0.0027290759848643763
0.013340093989983714   -0.03328600419623219   -0.0028698214280334718
0.011846421421258807   -0.021366194741373207   -0.0026052312964334147
0.013248003640493672   -0.03317123211923652   -0.0029610699047457776
0.005795741982312448   -0.021103998736348252   -0.0024948995994505153
0.011659687416017332   -0.02120820192815466   -0.0027912694000124766
0.013248003640493672   -0.03317123211923652   -0.0029610699047457776
0.011846421421258807   -0.021366194741373207   -0.0026052312964334147
0.005795741982312448   -0.021103998736348252   -0.0024948995994505153
0.013248003640493672   -0.03317123211923652   -0.0029610699047457776
0.006376255856727134   -0.033172187224079365   -0.0027574269810780754
0.006390683979897963   -0.03324112756393614   -0.0027290759848643763
0.005795741982312448   -0.021103998736348252   -0.0024948995994505153
0.013248003640493672   -0.03317123211923652   -0.0029610699047457776
0.006390683979897963   -0.03324112756393614   -0.0027290759848643763
0.011846421421258807   -0.021366194741373207   -0.0026052312964334147
-0.01921271151358173   -0.033530251675637696   -0.0034434476913511552
-0.02110711978636088   -0.0465422257578836   -0.00350604277569699
-0.012470042383608644   -0.03334727754843128   -0.0031113573937233603
-0.019406183272878384   -0.03372148724000611   -0.00325655434554623
-0.02110711978636088   -0.0465422257578836   -0.00350604277569699
-0.013867884583605229   -0.04646758089846009   -0.003241395640813706
-0.012470042383608644   -0.03334727754843128   -0.0031113573937233603
-0.013862764179851961   -0.04658821796662712   -0.0031622478239978244
-0.019406183272878384   -0.03372148724000611   -0.00325655434554623
-0.01248553401212402   -0.03348865046668355   -0.0029823639022094903
-0.013862764179851961   -0.04658821796662712   -0.0031622478239978244
-0.012470042383608644   -0.03334727754843128   -0.0031113573937233603
-0.019406183272878384   -0.03372148724000611   -0.00325655434554623
-0.013862764179851961   -0.04658821796662712   -0.0031622478239978244
-0.021197771947691933   -0.04670437407578066   -0.003409572627954026
-0.02110711978636088   -0.0465422257578836   -0.00350604277569699
-0.019406183272878384   -0.03372148724000611   -0.00325655434554623
-0.013862764179851961   -0.04658821796662712   -0.0031622478239978244
-0.02110711978636088   -0.0465422257578836   -0.00350604277569699
-0.012470042383608644   -0.03334727754843128   -0.0031113573937233603
-0.019406183272878384   -0.03372148724000611   -0.00325655434554623
-0.021197771947691933   -0.04670437407578066   -0.003409572627954026
-0.01248553401212402   -0.03348865046668355   -0.0029823639022094903
-0.019517437923713184   -0.03385674584693652   -0.003087574190937052
-0.021197771947691933   -0.04670437407578066   -0.003409572627954026
-0.013862764179851961   -0.04658821796662712   -0.0031622478239978244
-0.01248553401212402   -0.03348865046668355   -0.0029823639022094903
-0.013844571669197244   -0.04669946790484653   -0.0030962409698233185
-0.019517437923713184   -0.03385674584693652   -0.003087574190937052
-0.012496743549194179   -0.033600692486285735   -0.002866216153064752
-0.013844571669197244   -0.04669946790484653   -0.0030962409698233185
-0.01248553401212402   -0.03348865046668355   -0.0029823639022094903
-0.019517437923713184   -0.03385674584693652   -0.003087574190937052
-0.013844571669197244   -0.04669946790484653   -0.0030962409698233185
-0.021226964078382513   -0.04683658024707815   -0.0033320177949272413
-0.021197771947691933   -0.04670437407578066   -0.003409572627954026
-0.019517437923713184   -0.03385674584693652   -0.003087574190937052
-0.013844571669197244   -0.04669946790484653   -0.0030962409698233185
-0.021197771947691933   -0.04670437407578066   -0.003409572627954026
-0.01248553401212402   -0.03348865046668355   -0.0029823639022094903
-0.019517437923713184   -0.03385674584693652   -0.003087574190937052
-0.021226964078382513   -0.04683658024707815   -0.0033320177949272413
-0.012496743549194179   -0.033600692486285735   -0.002866216153064752
-0.01963207615883198   -0.03397791484190144   -0.002938633708741434
-0.021226964078382513   -0.04683658024707815   -0.0033320177949272413
-0.013844571669197244   -0.04669946790484653   -0.0030962409698233185
-0.012496743549194179   -0.033600692486285735   -0.002866216153064752
-0.013799140459816953   -0.046809807291493144   -0.0030424574923277902
-0.01963207615883198   -0.03397791484190144   -0.002938633708741434
-0.012471385787322996   -0.03369269115663247   -0.0027612095907348496
-0.013799140459816953   -0.046809807291493144   -0.0030424574923277902
-0.012496743549194179   -0.033600692486285735   -0.002866216153064752
-0.01963207615883198   -0.03397791484190144   -0.002938633708741434
-0.013799140459816953   -0.046809807291493144   -0.0030424574923277902
-0.021237096000232294   -0.046980106733903355   -0.0032749992906285557
-0.021226964078382513   -0.04683658024707815   -0.0033320177949272413
-0.01963207615883198   -0.03397791484190144   -0.002938633708741434
-0.013799140459816953   -0.046809807291493144   -0.0030424574923277902
-0.021226964078382513   -0.04683658024707815   -0.0033320177949272413
-0.012496743549194179   -0.033600692486285735   -0.002866216153064752
-0.012470042383608644   -0.03334727754843128   -0.0031113573937233603
-0.013867884583605229   -0.04646758089846009   -0.003241395640813706
-0.006148559162412714   -0.03325275850458081   -0.0028813896980020948
-0.01248553401212402   -0.03348865046668355   -0.0029823639022094903
-0.013867884583605229   -0.04646758089846009   -0.003241395640813706
-0.0071430493914002744   -0.04642481955274881   -0.003061213209334138
-0.006148559162412714   -0.03325275850458081   -0.0028813896980020948
-0.007118315074426739   -0.046497866989863045   -0.0029922664523061747
-0.01248553401212402   -0.03348865046668355   -0.0029823639022094903
-0.006137356768132708   -0.033341500798659426   -0.0027962782137171283
-0.007118315074426739   -0.046497866989863045   -0.0029922664523061747
-0.006148559162412714   -0.03325275850458081   -0.0028813896980020948
-0.01248553401212402   -0.03348865046668355   -0.0029823639022094903
-0.007118315074426739   -0.046497866989863045   -0.0029922664523061747
-0.013862764179851961   -0.04658821796662712   -0.0031622478239978244
-0.013867884583605229   -0.04646758089846009   -0.003241395640813706
-0.01248553401212402   -0.03348865046668355   -0.0029823639022094903
-0.007118315074426739   -0.046497866989863045   -0.0029922664523061747
-0.013867884583605229   -0.04646758089846009   -0.003241395640813706
-0.006148559162412714   -0.03325275850458081   -0.0028813896980020948
-0.01248553401212402   -0.03348865046668355   -0.0029823639022094903
-0.013862764179851961   -0.04658821796662712   -0.0031622478239978244
-0.006137356768132708   -0.033341500798659426   -0.0027962782137171283
-0.012496743549194179   -0.033600692486285735   -0.002866216153064752
-0.013862764179851961   -0.04658821796662712   -0.0031622478239978244
-0.007118315074426739   -0.046497866989863045   -0.0029922664523061747
-0.006137356768132708   -0.033341500798659426   -0.0027962782137171283
-0.007087891014548158   -0.04656488061101747   -0.002936473295003342
-0.012496743549194179   -0.033600692486285735   -0.002866216153064752
-0.006121872571554499   -0.03340566817638458   -0.0027238217809617943
-0.007087891014548158   -0.04656488061101747   -0.002936473295003342
-0.006137356768132708   -0.033341500798659426   -0.0027962782137171283
-0.012496743549194179   -0.033600692486285735   -0.002866216153064752
-0.007087891014548158   -0.04656488061101747   -0.002936473295003342
-0.013844571669197244   -0.04669946790484653   -0.0030962409698233185
-0.013862764179851961   -0.04658821796662712   -0.0031622478239978244
-0.012496743549194179   -0.033600692486285735   -0.002866216153064752
-0.007087891014548158   -0.04656488061101747   -0.002936473295003342
-0.013862764179851961   -0.04658821796662712   -0.0031622478239978244
-0.006137356768132708   -0.033341500798659426   -0.0027962782137171283
-0.012496743549194179   -0.033600692486285735   -0.002866216153064752
-0.013844571669197244   -0.04669946790484653   -0.0030962409698233185
-0.006121872571554499   -0.03340566817638458   -0.0027238217809617943
-0.012471385787322996   -0.03369269115663247   -0.0027612095907348496
-0.013844571669197244   -0.04669946790484653   -0.0030962409698233185
-0.007087891014548158   -0.04656488061101747   -0.002936473295003342
-0.006121872571554499   -0.03340566817638458   -0.0027238217809617943
-0.007051263079708044   -0.04662608010195272   -0.002894148207563489
-0.012471385787322996   -0.03369269115663247   -0.0027612095907348496
-0.006098544904471828   -0.03344568075873117   -0.002664228378138467
-0.007051263079708044   -0.04662608010195272   -0.002894148207563489
-0.006121872571554499   -0.03340566817638458   -0.0027238217809617943
-0.012471385787322996   -0.03369269115663247   -0.0027612095907348496
-0.007051263079708044   -0.04662608010195272   -0.002894148207563489
-0.013799140459816953   -0.046809807291493144   -0.0030424574923277902
-0.013844571669197244   -0.04669946790484653   -0.0030962409698233185
-0.012471385787322996   -0.03369269115663247   -0.0027612095907348496
-0.007051263079708044   -0.04662608010195272   -0.002894148207563489
-0.013844571669197244   -0.04669946790484653   -0.0030962409698233185
-0.006121872571554499   -0.03340566817638458   -0.0027238217809617943
-0.006148559162412714   -0.03325275850458081   -0.0028813896980020948
-0.0071430493914002744   -0.04642481955274881   -0.003061213209334138
1.377240339695395e-06   -0.033236534966408784   -0.002747368705702091
-0.006137356768132708   -0.033341500798659426   -0.0027962782137171283
-0.0071430493914002744   -0.04642481955274881   -0.003061213209334138
-0.0006001628599427058   -0.04640037415696496   -0.002967923358567337
1.377240339695395e-06   -0.033236534966408784   -0.002747368705702091
-0.000565461102226521   -0.04642496703517311   -0.002909862544145563
-0.006137356768132708   -0.033341500798659426   -0.0027962782137171283
2.288261072192239e-05   -0.03327237747165426   -0.0027064746200876418
-0.000565461102226521   -0.04642496703517311   -0.002909862544145563
1.377240339695395e-06   -0.033236534966408784   -0.002747368705702091
-0.006137356768132708   -0.033341500798659426   -0.0027962782137171283
-0.000565461102226521   -0.04642496703517311   -0.002909862544145563
-0.007118315074426739   -0.046497866989863045   -0.0029922664523061747
-0.0071430493914002744   -0.04642481955274881   -0.003061213209334138
-0.006137356768132708   -0.033341500798659426   -0.0027962782137171283
-0.000565461102226521   -0.04642496703517311   -0.002909862544145563
-0.0071430493914002744   -0.04642481955274881   -0.003061213209334138
1.377240339695395e-06   -0.033236534966408784   -0.002747368705702091
-0.006137356768132708   -0.033341500798659426   -0.0027962782137171283
-0.007118315074426739   -0.046497866989863045   -0.0029922664523061747
2.288261072192239e-05   -0.03327237747165426   -0.0027064746200876418
-0.006121872571554499   -0.03340566817638458   -0.0027238217809617943
-0.007118315074426739   -0.046497866989863045   -0.0029922664523061747
-0.000565461102226521   -0.04642496703517311   -0.002909862544145563
2.288261072192239e-05   -0.03327237747165426   -0.0027064746200876418
-0.000535458696887357   -0.04644310086463426   -0.002864840370090281
-0.006121872571554499   -0.03340566817638458   -0.0027238217809617943
3.805319588350555e-05   -0.03328347620564842   -0.0026780735228694274
-0.000535458696887357   -0.04644310086463426   -0.002864840370090281
2.288261072192239e-05   -0.03327237747165426   -0.0027064746200876418
-0.006121872571554499   -0.03340566817638458   -0.0027238217809617943
-0.000535458696887357   -0.04644310086463426   -0.002864840370090281
-0.007087891014548158   -0.04656488061101747   -0.002936473295003342
-0.007118315074426739   -0.046497866989863045   -0.0029922664523061747
-0.006121872571554499   -0.03340566817638458   -0.0027238217809617943
-0.000535458696887357   -0.04644310086463426   -0.002864840370090281
-0.007118315074426739   -0.046497866989863045   -0.0029922664523061747
2.288261072192239e-05   -0.03327237747165426   -0.0027064746200876418
-0.006121872571554499   -0.03340566817638458   -0.0027238217809617943
-0.007087891014548158   -0.04656488061101747   -0.002936473295003342
3.805319588350555e-05   -0.03328347620564842   -0.0026780735228694274
-0.006098544904471828   -0.03344568075873117   -0.002664228378138467
-0.007087891014548158   -0.04656488061101747   -0.002936473295003342
-0.000535458696887357   -0.04644310086463426   -0.002864840370090281
3.805319588350555e-05   -0.03328347620564842   -0.0026780735228694274
-0.000512682727720832   -0.04645468375802251   -0.002833333157522402
-0.006098544904471828   -0.03344568075873117   -0.002664228378138467
4.749955155617548e-05   -0.03326949228246132   -0.0026627196675683175
-0.000512682727720832   -0.04645468375802251   -0.002833333157522402
3.805319588350555e-05   -0.03328347620564842   -0.0026780735228694274
-0.006098544904471828   -0.03344568075873117   -0.002664228378138467
-0.000512682727720832   -0.04645468375802251   -0.002833333157522402
-0.007051263079708044   -0.04662608010195272   -0.002894148207563489
-0.007087891014548158   -0.04656488061101747   -0.002936473295003342
-0.006098544904471828   -0.03344568075873117   -0.002664228378138467
-0.000512682727720832   -0.04645468375802251   -0.002833333157522402
-0.007087891014548158   -0.04656488061101747   -0.002936473295003342
3.805319588350555e-05   -0.03328347620564842   -0.0026780735228694274
1.377240339695395e-06   -0.033236534966408784   -0.002747368705702091
-0.0006001628599427058   -0.04640037415696496   -0.002967923358567337
0.006362770168692549   -0.033291930026432916   -0.0027087362372294563
2.288261072192239e-05   -0.03327237747165426   -0.0027064746200876418
-0.0006001628599427058   -0.04640037415696496   -0.002967923358567337
0.006142501436150435   -0.046390036274599485   -0.002962330057141049
0.006362770168692549   -0.033291930026432916   -0.0027087362372294563
0.0061885689698555155   -0.046367705636521636   -0.0029157029724122866
2.288261072192239e-05   -0.03327237747165426   -0.0027064746200876418
0.006389156583850653   -0.033277962889703444   -0.0027129952551416393
0.0061885689698555155   -0.046367705636521636   -0.0029157029724122866
0.006362770168692549   -0.033291930026432916   -0.0027087362372294563
2.288261072192239e-05   -0.03327237747165426   -0.0027064746200876418
0.0061885689698555155   -0.046367705636521636   -0.0029157029724122866
-0.000565461102226521   -0.04642496703517311   -0.002909862544145563
-0.0006001628599427058   -0.04640037415696496   -0.002967923358567337
2.288261072192239e-05   -0.03327237747165426   -0.0027064746200876418
0.0061885689698555155   -0.046367705636521636   -0.0029157029724122866
-0.0006001628599427058   -0.04640037415696496   -0.002967923358567337
0.006362770168692549   -0.033291930026432916   -0.0027087362372294563
2.288261072192239e-05   -0.03327237747165426   -0.0027064746200876418
-0.000565461102226521   -0.04642496703517311   -0.002909862544145563
0.006389156583850653   -0.033277962889703444   -0.0027129952551416393
3.805319588350555e-05   -0.03328347620564842   -0.0026780735228694274
-0.000565461102226521   -0.04642496703517311   -0.002909862544145563
0.0061885689698555155   -0.046367705636521636   -0.0029157029724122866
0.006389156583850653   -0.033277962889703444   -0.0027129952551416393
0.006219258627381172   -0.046341608498371066   -0.0028817420163495338
3.805319588350555e-05   -0.03328347620564842   -0.0026780735228694274
0.006390683979897963   -0.03324112756393614   -0.0027290759848643763
0.006219258627381172   -0.046341608498371066   -0.0028817420163495338
0.006389156583850653   -0.033277962889703444   -0.0027129952551416393
3.805319588350555e-05   -0.03328347620564842   -0.0026780735228694274
0.006219258627381172   -0.046341608498371066   -0.0028817420163495338
-0.000535458696887357   -0.04644310086463426   -0.002864840370090281
-0.000565461102226521   -0.04642496703517311   -0.002909862544145563
3.805319588350555e-05   -0.03328347620564842   -0.0026780735228694274
0.006219258627381172   -0.046341608498371066   -0.0028817420163495338
-0.000565461102226521   -0.04642496703517311   -0.002909862544145563
0.006389156583850653   -0.033277962889703444   -0.0027129952551416393
3.805319588350555e-05   -0.03328347620564842   -0.0026780735228694274
-0.000535458696887357   -0.04644310086463426   -0.002864840370090281
0.006390683979897963   -0.03324112756393614   -0.0027290759848643763
4.749955155617548e-05   -0.03326949228246132   -0.0026627196675683175
-0.000535458696887357   -0.04644310086463426   -0.002864840370090281
0.006219258627381172   -0.046341608498371066   -0.0028817420163495338
0.006390683979897963   -0.03324112756393614   -0.0027290759848643763
0.006225201493899336   -0.046303161875941294   -0.0028601865549579856
4.749955155617548e-05   -0.03326949228246132   -0.0026627196675683175
0.006376255856727134   -0.033172187224079365   -0.0027574269810780754
0.006225201493899336   -0.046303161875941294   -0.0028601865549579856
0.006390683979897963   -0.03324112756393614   -0.0027290759848643763
4.749955155617548e-05   -0.03326949228246132   -0.0026627196675683175
0.006225201493899336   -0.046303161875941294   -0.0028601865549579856
-0.000512682727720832   -0.04645468375802251   -0.002833333157522402
-0.000535458696887357   -0.04644310086463426   -0.002864840370090281
4.749955155617548e-05   -0.03326949228246132   -0.0026627196675683175
0.006225201493899336   -0.046303161875941294   -0.0028601865549579856
-0.000535458696887357   -0.04644310086463426   -0.002864840370090281
0.006390683979897963   -0.03324112756393614   -0.0027290759848643763
0.006362770168692549   -0.033291930026432916   -0.0027087362372294563
0.006142501436150435   -0.046390036274599485   -0.002962330057141049
0.013387363724102822   -0.0333938175999527   -0.002744576109455407
0.006389156583850653   -0.033277962889703444   -0.0027129952551416393
0.006142501436150435   -0.046390036274599485   -0.002962330057141049
0.013449860831173322   -0.046375825076560726   -0.0030355774009632377
0.013387363724102822   -0.0333938175999527   -0.002744576109455407
0.01354021734108719   -0.04631642251484988   -0.0029975083130517662
0.006389156583850653   -0.033277962889703444   -0.0027129952551416393
0.013374252631417026   -0.03334613491219054   -0.0027976105033442862
0.01354021734108719   -0.04631642251484988   -0.0029975083130517662
0.013387363724102822   -0.0333938175999527   -0.002744576109455407
0.006389156583850653   -0.033277962889703444   -0.0027129952551416393
0.01354021734108719   -0.04631642251484988   -0.0029975083130517662
0.0061885689698555155   -0.046367705636521636   -0.0029157029724122866
0.006142501436150435   -0.046390036274599485   -0.002962330057141049
0.006389156583850653   -0.033277962889703444   -0.0027129952551416393
0.01354021734108719   -0.04631642251484988   -0.0029975083130517662
0.006142501436150435   -0.046390036274599485   -0.002962330057141049
0.013387363724102822   -0.0333938175999527   -0.002744576109455407
0.006389156583850653   -0.033277962889703444   -0.0027129952551416393
0.0061885689698555155   -0.046367705636521636   -0.0029157029724122866
0.013374252631417026   -0.03334613491219054   -0.0027976105033442862
0.006390683979897963   -0.03324112756393614   -0.0027290759848643763
0.0061885689698555155   -0.046367705636521636   -0.0029157029724122866
0.01354021734108719   -0.04631642251484988   -0.0029975083130517662
0.013374252631417026   -0.03334613491219054   -0.0027976105033442862
0.01358774757708624   -0.04626946773651755   -0.0029786802636511357
0.006390683979897963   -0.03324112756393614   -0.0027290759848643763
0.013340093989983714   -0.03328600419623219   -0.0028698214280334718
0.01358774757708624   -0.04626946773651755   -0.0029786802636511357
0.013374252631417026   -0.03334613491219054   -0.0027976105033442862
0.006390683979897963   -0.03324112756393614   -0.0027290759848643763
0.01358774757708624   -0.04626946773651755   -0.0029786802636511357
0.006219258627381172   -0.046341608498371066   -0.0028817420163495338
0.0061885689698555155   -0.046367705636521636   -0.0029157029724122866
0.006390683979897963   -0.03324112756393614   -0.0027290759848643763
0.01358774757708624   -0.04626946773651755   -0.0029786802636511357
0.0061885689698555155   -0.046367705636521636   -0.0029157029724122866
0.013374252631417026   -0.03334613491219054   -0.0027976105033442862
0.006390683979897963   -0.03324112756393614   -0.0027290759848643763
0.006219258627381172   -0.046341608498371066   -0.0028817420163495338
0.013340093989983714   -0.03328600419623219   -0.0028698214280334718
0.006376255856727134   -0.033172187224079365   -0.0027574269810780754
0.006219258627381172   -0.046341608498371066   -0.0028817420163495338
0.01358774757708624   -0.04626946773651755   -0.0029786802636511357
0.013340093989983714   -0.03328600419623219   -0.0028698214280334718
0.013598678122097986   -0.046193993216210594   -0.002979420919005533
0.006376255856727134   -0.033172187224079365   -0.0027574269810780754
0.013248003640493672   -0.03317123211923652   -0.0029610699047457776
0.013598678122097986   -0.046193993216210594   -0.002979420919005533
0.013340093989983714   -0.03328600419623219   -0.0028698214280334718
0.006376255856727134   -0.033172187224079365   -0.0027574269810780754
0.013598678122097986   -0.046193993216210594   -0.002979420919005533
0.006225201493899336   -0.046303161875941294   -0.0028601865549579856
0.006219258627381172   -0.046341608498371066   -0.0028817420163495338
0.006376255856727134   -0.033172187224079365   -0.0027574269810780754
0.013598678122097986   -0.046193993216210594   -0.002979420919005533
0.006219258627381172   -0.046341608498371066   -0.0028817420163495338
0.013340093989983714   -0.03328600419623219   -0.0028698214280334718
-0.02110711978636088   -0.0465422257578836   -0.00350604277569699
-0.02176887030418395   -0.05979157488067091   -0.0034463883710190418
-0.013867884583605229   -0.04646758089846009   -0.003241395640813706
-0.021197771947691933   -0.04670437407578066   -0.003409572627954026
-0.02176887030418395   -0.05979157488067091   -0.0034463883710190418
-0.01453681879477587   -0.05982613548109308   -0.003250600290324403
-0.013867884583605229   -0.04646758089846009   -0.003241395640813706
-0.014498092979481358   -0.05992560280050896   -0.003220565496522675
-0.021197771947691933   -0.04670437407578066   -0.003409572627954026
-0.013862764179851961   -0.04658821796662712   -0.0031622478239978244
-0.014498092979481358   -0.05992560280050896   -0.003220565496522675
-0.013867884583605229   -0.04646758089846009   -0.003241395640813706
-0.021197771947691933   -0.04670437407578066   -0.003409572627954026
-0.014498092979481358   -0.05992560280050896   -0.003220565496522675
-0.021744218103497373   -0.05992464335924036   -0.003440013256417555
-0.02176887030418395   -0.05979157488067091   -0.0034463883710190418
-0.021197771947691933   -0.04670437407578066   -0.003409572627954026
-0.014498092979481358   -0.05992560280050896   -0.003220565496522675
-0.02176887030418395   -0.05979157488067091   -0.0034463883710190418
-0.013867884583605229   -0.04646758089846009   -0.003241395640813706
-0.021197771947691933   -0.04670437407578066   -0.003409572627954026
-0.021744218103497373   -0.05992464335924036   -0.003440013256417555
-0.013862764179851961   -0.04658821796662712   -0.0031622478239978244
-0.021226964078382513   -0.04683658024707815   -0.0033320177949272413
-0.021744218103497373   -0.05992464335924036   -0.003440013256417555
-0.014498092979481358   -0.05992560280050896   -0.003220565496522675
-0.013862764179851961   -0.04658821796662712   -0.0031622478239978244
-0.014437529824938112   -0.060035760221253336   -0.00320408589368035
-0.021226964078382513   -0.04683658024707815   -0.0033320177949272413
-0.013844571669197244   -0.04669946790484653   -0.0030962409698233185
-0.014437529824938112   -0.060035760221253336   -0.00320408589368035
-0.013862764179851961   -0.04658821796662712   -0.0031622478239978244
-0.021226964078382513   -0.04683658024707815   -0.0033320177949272413
-0.014437529824938112   -0.060035760221253336   -0.00320408589368035
-0.021678001706838188   -0.06005378851092228   -0.0034538960168215005
-0.021744218103497373   -0.05992464335924036   -0.003440013256417555
-0.021226964078382513   -0.04683658024707815   -0.0033320177949272413
-0.014437529824938112   -0.060035760221253336   -0.00320408589368035
-0.021744218103497373   -0.05992464335924036   -0.003440013256417555
-0.013862764179851961   -0.04658821796662712   -0.0031622478239978244
-0.021226964078382513   -0.04683658024707815   -0.0033320177949272413
-0.021678001706838188   -0.06005378851092228   -0.0034538960168215005
-0.013844571669197244   -0.04669946790484653   -0.0030962409698233185
-0.021237096000232294   -0.046980106733903355   -0.0032749992906285557
-0.021678001706838188   -0.06005378851092228   -0.0034538960168215005
-0.014437529824938112   -0.060035760221253336   -0.00320408589368035
-0.013844571669197244   -0.04669946790484653   -0.0030962409698233185
-0.014359003162981701   -0.06016418926688345   -0.00320094517322201
-0.021237096000232294   -0.046980106733903355   -0.0032749992906285557
-0.013799140459816953   -0.046809807291493144   -0.0030424574923277902
-0.014359003162981701   -0.06016418926688345   -0.00320094517322201
-0.013844571669197244   -0.04669946790484653   -0.0030962409698233185
-0.021237096000232294   -0.046980106733903355   -0.0032749992906285557
-0.014359003162981701   -0.06016418926688345   -0.00320094517322201
-0.021570334817759447   -0.06022009427435724   -0.0034890563605576453
-0.021678001706838188   -0.06005378851092228   -0.0034538960168215005
-0.021237096000232294   -0.046980106733903355   -0.0032749992906285557
-0.014359003162981701   -0.06016418926688345   -0.00320094517322201
-0.021678001706838188   -0.06005378851092228   -0.0034538960168215005
-0.013844571669197244   -0.04669946790484653   -0.0030962409698233185
-0.013867884583605229   -0.04646758089846009   -0.003241395640813706
-0.01453681879477587   -0.05982613548109308   -0.003250600290324403
-0.0071430493914002744   -0.04642481955274881   -0.003061213209334138
-0.013862764179851961   -0.04658821796662712   -0.0031622478239978244
-0.01453681879477587   -0.05982613548109308   -0.003250600290324403
-0.007912472627860141   -0.05983368747841067   -0.003120452823981402
-0.0071430493914002744   -0.04642481955274881   -0.003061213209334138
-0.007860548462065669   -0.05989077167990231   -0.0030672069264504457
-0.013862764179851961   -0.04658821796662712   -0.0031622478239978244
-0.007118315074426739   -0.046497866989863045   -0.0029922664523061747
-0.007860548462065669   -0.05989077167990231   -0.0030672069264504457
-0.0071430493914002744   -0.04642481955274881   -0.003061213209334138
-0.013862764179851961   -0.04658821796662712   -0.0031622478239978244
-0.007860548462065669   -0.05989077167990231   -0.0030672069264504457
-0.014498092979481358   -0.05992560280050896   -0.003220565496522675
-0.01453681879477587   -0.05982613548109308   -0.003250600290324403
-0.013862764179851961   -0.04658821796662712   -0.0031622478239978244
-0.007860548462065669   -0.05989077167990231   -0.0030672069264504457
-0.01453681879477587   -0.05982613548109308   -0.003250600290324403
-0.0071430493914002744   -0.04642481955274881   -0.003061213209334138
-0.013862764179851961   -0.04658821796662712   -0.0031622478239978244
-0.014498092979481358   -0.05992560280050896   -0.003220565496522675
-0.007118315074426739   -0.046497866989863045   -0.0029922664523061747
-0.013844571669197244   -0.04669946790484653   -0.0030962409698233185
-0.014498092979481358   -0.05992560280050896   -0.003220565496522675
-0.007860548462065669   -0.05989077167990231   -0.0030672069264504457
-0.007118315074426739   -0.046497866989863045   -0.0029922664523061747
-0.0078018490246480054   -0.05996013681281684   -0.003027568821872538
-0.013844571669197244   -0.04669946790484653   -0.0030962409698233185
-0.007087891014548158   -0.04656488061101747   -0.002936473295003342
-0.0078018490246480054   -0.05996013681281684   -0.003027568821872538
-0.007118315074426739   -0.046497866989863045   -0.0029922664523061747
-0.013844571669197244   -0.04669946790484653   -0.0030962409698233185
-0.0078018490246480054   -0.05996013681281684   -0.003027568821872538
-0.014437529824938112   -0.060035760221253336   -0.00320408589368035
-0.014498092979481358   -0.05992560280050896   -0.003220565496522675
-0.013844571669197244   -0.04669946790484653   -0.0030962409698233185
-0.0078018490246480054   -0.05996013681281684   -0.003027568821872538
-0.014498092979481358   -0.05992560280050896   -0.003220565496522675
-0.007118315074426739   -0.046497866989863045   -0.0029922664523061747
-0.013844571669197244   -0.04669946790484653   -0.0030962409698233185
-0.014437529824938112   -0.060035760221253336   -0.00320408589368035
-0.007087891014548158   -0.04656488061101747   -0.002936473295003342
-0.013799140459816953   -0.046809807291493144   -0.0030424574923277902
-0.014437529824938112   -0.060035760221253336   -0.00320408589368035
-0.0078018490246480054   -0.05996013681281684   -0.003027568821872538
-0.007087891014548158   -0.04656488061101747   -0.002936473295003342
-0.0077385777482788425   -0.060041999026836074   -0.003001978004942023
-0.013799140459816953   -0.046809807291493144   -0.0030424574923277902
-0.007051263079708044   -0.04662608010195272   -0.002894148207563489
-0.0077385777482788425   -0.060041999026836074   -0.003001978004942023
-0.007087891014548158   -0.04656488061101747   -0.002936473295003342
-0.013799140459816953   -0.046809807291493144   -0.0030424574923277902
-0.0077385777482788425   -0.060041999026836074   -0.003001978004942023
-0.014359003162981701   -0.06016418926688345   -0.00320094517322201
-0.014437529824938112   -0.060035760221253336   -0.00320408589368035
-0.013799140459816953   -0.046809807291493144   -0.0030424574923277902
-0.0077385777482788425   -0.060041999026836074   -0.003001978004942023
-0.014437529824938112   -0.060035760221253336   -0.00320408589368035
-0.007087891014548158   -0.04656488061101747   -0.002936473295003342
-0.0071430493914002744   -0.04642481955274881   -0.003061213209334138
-0.007912472627860141   -0.05983368747841067   -0.003120452823981402
-0.0006001628599427058   -0.04640037415696496   -0.002967923358567337
-0.007118315074426739   -0.046497866989863045   -0.0029922664523061747
-0.007912472627860141   -0.05983368747841067   -0.003120452823981402
-0.0014755820769347494   -0.05979863063341053   -0.0030671443977546104
-0.0006001628599427058   -0.04640037415696496   -0.002967923358567337
-0.001414150385309551   -0.05981192540797362   -0.0029918420289529973
-0.007118315074426739   -0.046497866989863045   -0.0029922664523061747
-0.000565461102226521   -0.04642496703517311   -0.002909862544145563
-0.001414150385309551   -0.05981192540797362   -0.0029918420289529973
-0.0006001628599427058   -0.04640037415696496   -0.002967923358567337
-0.007118315074426739   -0.046497866989863045   -0.0029922664523061747
-0.001414150385309551   -0.05981192540797362   -0.0029918420289529973
-0.007860548462065669   -0.05989077167990231   -0.0030672069264504457
-0.007912472627860141   -0.05983368747841067   -0.003120452823981402
-0.007118315074426739   -0.046497866989863045   -0.0029922664523061747
-0.001414150385309551   -0.05981192540797362   -0.0029918420289529973
-0.007912472627860141   -0.05983368747841067   -0.003120452823981402
-0.0006001628599427058   -0.04640037415696496   -0.002967923358567337
-0.007118315074426739   -0.046497866989863045   -0.0029922664523061747
-0.007860548462065669   -0.05989077167990231   -0.0030672069264504457
-0.000565461102226521   -0.04642496703517311   -0.002909862544145563
-0.007087891014548158   -0.04656488061101747   -0.002936473295003342
-0.007860548462065669   -0.05989077167990231   -0.0030672069264504457
-0.001414150385309551   -0.05981192540797362   -0.0029918420289529973
-0.000565461102226521   -0.04642496703517311   -0.002909862544145563
-0.001356047268472898   -0.059836535783590536   -0.0029300497889309792
-0.007087891014548158   -0.04656488061101747   -0.002936473295003342
-0.000535458696887357   -0.04644310086463426   -0.002864840370090281
-0.001356047268472898   -0.059836535783590536   -0.0029300497889309792
-0.000565461102226521   -0.04642496703517311   -0.002909862544145563
-0.007087891014548158   -0.04656488061101747   -0.002936473295003342
-0.001356047268472898   -0.059836535783590536   -0.0029300497889309792
-0.0078018490246480054   -0.05996013681281684   -0.003027568821872538
-0.007860548462065669   -0.05989077167990231   -0.0030672069264504457
-0.007087891014548158   -0.04656488061101747   -0.002936473295003342
-0.001356047268472898   -0.059836535783590536   -0.0029300497889309792
-0.007860548462065669   -0.05989077167990231   -0.0030672069264504457
-0.000565461102226521   -0.04642496703517311   -0.002909862544145563
-0.007087891014548158   -0.04656488061101747   -0.002936473295003342
-0.0078018490246480054   -0.05996013681281684   -0.003027568821872538
-0.000535458696887357   -0.04644310086463426   -0.002864840370090281
-0.007051263079708044   -0.04662608010195272   -0.002894148207563489
-0.0078018490246480054   -0.05996013681281684   -0.003027568821872538
-0.001356047268472898   -0.059836535783590536   -0.0029300497889309792
-0.000535458696887357   -0.04644310086463426   -0.002864840370090281
-0.0013067650866953428   -0.05987302516570627   -0.00288224030024917
-0.007051263079708044   -0.04662608010195272   -0.002894148207563489
-0.000512682727720832   -0.04645468375802251   -0.002833333157522402
-0.0013067650866953428   -0.05987302516570627   -0.00288224030024917
-0.000535458696887357   -0.04644310086463426   -0.002864840370090281
-0.007051263079708044   -0.04662608010195272   -0.002894148207563489
-0.0013067650866953428   -0.05987302516570627   -0.00288224030024917
-0.0077385777482788425   -0.060041999026836074   -0.003001978004942023
-0.0078018490246480054   -0.05996013681281684   -0.003027568821872538
-0.007051263079708044   -0.04662608010195272   -0.002894148207563489
-0.0013067650866953428   -0.05987302516570627   -0.00288224030024917
-0.0078018490246480054   -0.05996013681281684   -0.003027568821872538
-0.000535458696887357   -0.04644310086463426   -0.002864840370090281
-0.0006001628599427058   -0.04640037415696496   -0.002967923358567337
-0.0014755820769347494   -0.05979863063341053   -0.0030671443977546104
0.006142501436150435   -0.046390036274599485   -0.002962330057141049
-0.000565461102226521   -0.04642496703517311   -0.002909862544145563
-0.0014755820769347494   -0.05979863063341053   -0.0030671443977546104
0.005155282683449555   -0.05972067610547125   -0.0030932053342129563
0.006142501436150435   -0.046390036274599485   -0.002962330057141049
0.00523366727193154   -0.05969004263099408   -0.0029962432276811287
-0.000565461102226521   -0.04642496703517311   -0.002909862544145563
0.0061885689698555155   -0.046367705636521636   -0.0029157029724122866
0.00523366727193154   -0.05969004263099408   -0.0029962432276811287
0.006142501436150435   -0.046390036274599485   -0.002962330057141049
-0.000565461102226521   -0.04642496703517311   -0.002909862544145563
0.00523366727193154   -0.05969004263099408   -0.0029962432276811287
-0.001414150385309551   -0.05981192540797362   -0.0029918420289529973
-0.0014755820769347494   -0.05979863063341053   -0.0030671443977546104
-0.000565461102226521   -0.04642496703517311   -0.002909862544145563
0.00523366727193154   -0.05969004263099408   -0.0029962432276811287
-0.0014755820769347494   -0.05979863063341053   -0.0030671443977546104
0.006142501436150435   -0.046390036274599485   -0.002962330057141049
-0.000565461102226521   -0.04642496703517311   -0.002909862544145563
-0.001414150385309551   -0.05981192540797362   -0.0029918420289529973
0.0061885689698555155   -0.046367705636521636   -0.0029157029724122866
-0.000535458696887357   -0.04644310086463426   -0.002864840370090281
-0.001414150385309551   -0.05981192540797362   -0.0029918420289529973
0.00523366727193154   -0.05969004263099408   -0.0029962432276811287
0.0061885689698555155   -0.046367705636521636   -0.0029157029724122866
0.005306061885182856   -0.05967411752865301   -0.0029127517092491515
-0.000535458696887357   -0.04644310086463426   -0.002864840370090281
0.006219258627381172   -0.046341608498371066   -0.0028817420163495338
0.005306061885182856   -0.05967411752865301   -0.0029127517092491515
0.0061885689698555155   -0.046367705636521636   -0.0029157029724122866
-0.000535458696887357   -0.04644310086463426   -0.002864840370090281
0.005306061885182856   -0.05967411752865301   -0.0029127517092491515
-0.001356047268472898   -0.059836535783590536   -0.0029300497889309792
-0.001414150385309551   -0.05981192540797362   -0.0029918420289529973
-0.000535458696887357   -0.04644310086463426   -0.002864840370090281
0.005306061885182856   -0.05967411752865301   -0.0029127517092491515
-0.001414150385309551   -0.05981192540797362   -0.0029918420289529973
0.0061885689698555155   -0.046367705636521636   -0.0029157029724122866
-0.000535458696887357   -0.04644310086463426   -0.002864840370090281
-0.001356047268472898   -0.059836535783590536   -0.0029300497889309792
0.006219258627381172   -0.046341608498371066   -0.0028817420163495338
-0.000512682727720832   -0.04645468375802251   -0.002833333157522402
-0.001356047268472898   -0.059836535783590536   -0.0029300497889309792
0.005306061885182856   -0.05967411752865301   -0.0029127517092491515
0.006219258627381172   -0.046341608498371066   -0.0028817420163495338
0.005344782734855186   -0.059665161816701805   -0.0028418513745367066
-0.000512682727720832   -0.04645468375802251   -0.002833333157522402
0.006225201493899336   -0.046303161875941294   -0.0028601865549579856
0.005344782734855186   -0.059665161816701805   -0.0028418513745367066
0.006219258627381172   -0.046341608498371066   -0.0028817420163495338
-0.000512682727720832   -0.04645468375802251   -0.002833333157522402
0.005344782734855186   -0.059665161816701805   -0.0028418513745367066
-0.0013067650866953428   -0.05987302516570627   -0.00288224030024917
-0.001356047268472898   -0.059836535783590536   -0.0029300497889309792
-0.000512682727720832   -0.04645468375802251   -0.002833333157522402
0.005344782734855186   -0.059665161816701805   -0.0028418513745367066
-0.001356047268472898   -0.059836535783590536   -0.0029300497889309792
0.006219258627381172   -0.046341608498371066   -0.0028817420163495338
0.006142501436150435   -0.046390036274599485   -0.002962330057141049
0.005155282683449555   -0.05972067610547125   -0.0030932053342129563
0.013449860831173322   -0.046375825076560726   -0.0030355774009632377
0.0061885689698555155   -0.046367705636521636   -0.0029157029724122866
0.005155282683449555   -0.05972067610547125   -0.0030932053342129563
0.012255328534352034   -0.05958974644320871   -0.003202747390913036
0.013449860831173322   -0.046375825076560726   -0.0030355774009632377
0.012460090587094021   -0.05951930302195101   -0.003075536428985951
0.0061885689698555155   -0.046367705636521636   -0.0029157029724122866
0.01354021734108719   -0.04631642251484988   -0.0029975083130517662
0.012460090587094021   -0.05951930302195101   -0.003075536428985951
0.013449860831173322   -0.046375825076560726   -0.0030355774009632377
0.0061885689698555155   -0.046367705636521636   -0.0029157029724122866
0.012460090587094021   -0.05951930302195101   -0.003075536428985951
0.00523366727193154   -0.05969004263099408   -0.0029962432276811287
0.005155282683449555   -0.05972067610547125   -0.0030932053342129563
0.0061885689698555155   -0.046367705636521636   -0.0029157029724122866
0.012460090587094021   -0.05951930302195101   -0.003075536428985951
0.005155282683449555   -0.05972067610547125   -0.0030932053342129563
0.013449860831173322   -0.046375825076560726   -0.0030355774009632377
0.0061885689698555155   -0.046367705636521636   -0.0029157029724122866
0.00523366727193154   -0.05969004263099408   -0.0029962432276811287
0.01354021734108719   -0.04631642251484988   -0.0029975083130517662
0.006219258627381172   -0.046341608498371066   -0.0028817420163495338
0.00523366727193154   -0.05969004263099408   -0.0029962432276811287
0.012460090587094021   -0.05951930302195101   -0.003075536428985951
0.01354021734108719   -0.04631642251484988   -0.0029975083130517662
0.0126006737678378   -0.05948514871356258   -0.002967504697957094
0.006219258627381172   -0.046341608498371066   -0.0028817420163495338
0.01358774757708624   -0.04626946773651755   -0.0029786802636511357
0.0126006737678378   -0.05948514871356258   -0.002967504697957094
0.01354021734108719   -0.04631642251484988   -0.0029975083130517662
0.006219258627381172   -0.046341608498371066   -0.0028817420163495338
0.0126006737678378   -0.05948514871356258   -0.002967504697957094
0.005306061885182856   -0.05967411752865301   -0.0029127517092491515
0.00523366727193154   -0.05969004263099408   -0.0029962432276811287
0.006219258627381172   -0.046341608498371066   -0.0028817420163495338
0.0126006737678378   -0.05948514871356258   -0.002967504697957094
0.00523366727193154   -0.05969004263099408   -0.0029962432276811287
0.01354021734108719   -0.04631642251484988   -0.0029975083130517662
0.006219258627381172   -0.046341608498371066   -0.0028817420163495338
0.005306061885182856   -0.05967411752865301   -0.0029127517092491515
0.01358774757708624   -0.04626946773651755   -0.0029786802636511357
0.006225201493899336   -0.046303161875941294   -0.0028601865549579856
0.005306061885182856   -0.05967411752865301   -0.0029127517092491515
0.0126006737678378   -0.05948514871356258   -0.002967504697957094
0.01358774757708624   -0.04626946773651755   -0.0029786802636511357
0.012725349882244934   -0.05944790429950495   -0.002879447235817328
0.006225201493899336   -0.046303161875941294   -0.0028601865549579856
0.013598678122097986   -0.046193993216210594   -0.002979420919005533
0.012725349882244934   -0.05944790429950495   -0.002879447235817328
0.01358774757708624   -0.04626946773651755   -0.0029786802636511357
0.006225201493899336   -0.046303161875941294   -0.0028601865549579856
0.012725349882244934   -0.05944790429950495   -0.002879447235817328
0.005344782734855186   -0.059665161816701805   -0.0028418513745367066
0.005306061885182856   -0.05967411752865301   -0.0029127517092491515
0.006225201493899336   -0.046303161875941294   -0.0028601865549579856
0.012725349882244934   -0.05944790429950495   -0.002879447235817328
0.005306061885182856   -0.05967411752865301   -0.0029127517092491515
0.01358774757708624   -0.04626946773651755   -0.0029786802636511357
-0.02176887030418395   -0.05979157488067091   -0.0034463883710190418
-0.021186980969429826   -0.07244605024793051   -0.0032947178123410074
-0.01453681879477587   -0.05982613548109308   -0.003250600290324403
-0.021744218103497373   -0.05992464335924036   -0.003440013256417555
-0.021186980969429826   -0.07244605024793051   -0.0032947178123410074
-0.014477429967499147   -0.07259185735039107   -0.003176710859832045
-0.01453681879477587   -0.05982613548109308   -0.003250600290324403
-0.014392608345314849   -0.07266614393120095   -0.003194512699212872
-0.021744218103497373   -0.05992464335924036   -0.003440013256417555
-0.014498092979481358   -0.05992560280050896   -0.003220565496522675
-0.014392608345314849   -0.07266614393120095   -0.003194512699212872
-0.01453681879477587   -0.05982613548109308   -0.003250600290324403
-0.021744218103497373   -0.05992464335924036   -0.003440013256417555
-0.014392608345314849   -0.07266614393120095   -0.003194512699212872
-0.021033881263561486   -0.07254634717712126   -0.003378686828791538
-0.021186980969429826   -0.07244605024793051   -0.0032947178123410074
-0.021744218103497373   -0.05992464335924036   -0.003440013256417555
-0.014392608345314849   -0.07266614393120095   -0.003194512699212872
-0.021186980969429826   -0.07244605024793051   -0.0032947178123410074
-0.01453681879477587   -0.05982613548109308   -0.003250600290324403
-0.021744218103497373   -0.05992464335924036   -0.003440013256417555
-0.021033881263561486   -0.07254634717712126   -0.003378686828791538
-0.014498092979481358   -0.05992560280050896   -0.003220565496522675
-0.021678001706838188   -0.06005378851092228   -0.0034538960168215005
-0.021033881263561486   -0.07254634717712126   -0.003378686828791538
-0.014392608345314849   -0.07266614393120095   -0.003194512699212872
-0.014498092979481358   -0.05992560280050896   -0.003220565496522675
-0.014277723960191531   -0.07277184015389614   -0.0032262231701292187
-0.021678001706838188   -0.06005378851092228   -0.0034538960168215005
-0.014437529824938112   -0.060035760221253336   -0.00320408589368035
-0.014277723960191531   -0.07277184015389614   -0.0032262231701292187
-0.014498092979481358   -0.05992560280050896   -0.003220565496522675
-0.021678001706838188   -0.06005378851092228   -0.0034538960168215005
-0.014277723960191531   -0.07277184015389614   -0.0032262231701292187
-0.020859033259486782   -0.07266936046523075   -0.0034845320524715126
-0.021033881263561486   -0.07254634717712126   -0.003378686828791538
-0.021678001706838188   -0.06005378851092228   -0.0034538960168215005
-0.014277723960191531   -0.07277184015389614   -0.0032262231701292187
-0.021033881263561486   -0.07254634717712126   -0.003378686828791538
-0.014498092979481358   -0.05992560280050896   -0.003220565496522675
-0.021678001706838188   -0.06005378851092228   -0.0034538960168215005
-0.020859033259486782   -0.07266936046523075   -0.0034845320524715126
-0.014437529824938112   -0.060035760221253336   -0.00320408589368035
-0.021570334817759447   -0.06022009427435724   -0.0034890563605576453
-0.020859033259486782   -0.07266936046523075   -0.0034845320524715126
-0.014277723960191531   -0.07277184015389614   -0.0032262231701292187
-0.014437529824938112   -0.060035760221253336   -0.00320408589368035
-0.01415443409910583   -0.07291539049314451   -0.0032722555808797076
-0.021570334817759447   -0.06022009427435724   -0.0034890563605576453
-0.014359003162981701   -0.06016418926688345   -0.00320094517322201
-0.01415443409910583   -0.07291539049314451   -0.0032722555808797076
-0.014437529824938112   -0.060035760221253336   -0.00320408589368035
-0.021570334817759447   -0.06022009427435724   -0.0034890563605576453
-0.01415443409910583   -0.07291539049314451   -0.0032722555808797076
-0.02062087769822571   -0.07285656849633436   -0.0036126524161221264
-0.020859033259486782   -0.07266936046523075   -0.0034845320524715126
-0.021570334817759447   -0.06022009427435724   -0.0034890563605576453
-0.01415443409910583   -0.07291539049314451   -0.0032722555808797076
-0.020859033259486782   -0.07266936046523075   -0.0034845320524715126
-0.014437529824938112   -0.060035760221253336   -0.00320408589368035
-0.01453681879477587   -0.05982613548109308   -0.003250600290324403
-0.014477429967499147   -0.07259185735039107   -0.003176710859832045
-0.007912472627860141   -0.05983368747841067   -0.003120452823981402
-0.014498092979481358   -0.05992560280050896   -0.003220565496522675
-0.014477429967499147   -0.07259185735039107   -0.003176710859832045
-0.008463570761704385   -0.07264962826309049   -0.003101162066187275
-0.007912472627860141   -0.05983368747841067   -0.003120452823981402
-0.008371178142431684   -0.07268827973307616   -0.0030623955296979794
-0.014498092979481358   -0.05992560280050896   -0.003220565496522675
-0.007860548462065669   -0.05989077167990231   -0.0030672069264504457
-0.008371178142431684   -0.07268827973307616   -0.0030623955296979794
-0.007912472627860141   -0.05983368747841067   -0.003120452823981402
-0.014498092979481358   -0.05992560280050896   -0.003220565496522675
-0.008371178142431684   -0.07268827973307616   -0.0030623955296979794
-0.014392608345314849   -0.07266614393120095   -0.003194512699212872
-0.014477429967499147   -0.07259185735039107   -0.003176710859832045
-0.014498092979481358   -0.05992560280050896   -0.003220565496522675
-0.008371178142431684   -0.07268827973307616   -0.0030623955296979794
-0.014477429967499147   -0.07259185735039107   -0.003176710859832045
-0.007912472627860141   -0.05983368747841067   -0.003120452823981402
-0.014498092979481358   -0.05992560280050896   -0.003220565496522675
-0.014392608345314849   -0.07266614393120095   -0.003194512699212872
-0.007860548462065669   -0.05989077167990231   -0.0030672069264504457
-0.014437529824938112   -0.060035760221253336   -0.00320408589368035
-0.014392608345314849   -0.07266614393120095   -0.003194512699212872
-0.008371178142431684   -0.07268827973307616   -0.0030623955296979794
-0.007860548462065669   -0.05989077167990231   -0.0030672069264504457
-0.00827178088423769   -0.07275713674542175   -0.0030373687510272785
-0.014437529824938112   -0.060035760221253336   -0.00320408589368035
-0.0078018490246480054   -0.05996013681281684   -0.003027568821872538
-0.00827178088423769   -0.07275713674542175   -0.0030373687510272785
-0.007860548462065669   -0.05989077167990231   -0.0030672069264504457
-0.014437529824938112   -0.060035760221253336   -0.00320408589368035
-0.00827178088423769   -0.07275713674542175   -0.0030373687510272785
-0.014277723960191531   -0.07277184015389614   -0.0032262231701292187
-0.014392608345314849   -0.07266614393120095   -0.003194512699212872
-0.014437529824938112   -0.060035760221253336   -0.00320408589368035
-0.00827178088423769   -0.07275713674542175   -0.0030373687510272785
-0.014392608345314849   -0.07266614393120095   -0.003194512699212872
-0.007860548462065669   -0.05989077167990231   -0.0030672069264504457
-0.014437529824938112   -0.060035760221253336   -0.00320408589368035
-0.014277723960191531   -0.07277184015389614   -0.0032262231701292187
-0.0078018490246480054   -0.05996013681281684   -0.003027568821872538
-0.014359003162981701   -0.06016418926688345   -0.00320094517322201
-0.014277723960191531   -0.07277184015389614   -0.0032262231701292187
-0.00827178088423769   -0.07275713674542175   -0.0030373687510272785
-0.0078018490246480054   -0.05996013681281684   -0.003027568821872538
-0.00816961179506192   -0.07285707282860313   -0.0030267517743525364
-0.014359003162981701   -0.06016418926688345   -0.00320094517322201
-0.0077385777482788425   -0.060041999026836074   -0.003001978004942023
-0.00816961179506192   -0.07285707282860313   -0.0030267517743525364
-0.0078018490246480054   -0.05996013681281684   -0.003027568821872538
-0.014359003162981701   -0.06016418926688345   -0.00320094517322201
-0.00816961179506192   -0.07285707282860313   -0.0030267517743525364
-0.01415443409910583   -0.07291539049314451   -0.0032722555808797076
-0.014277723960191531   -0.07277184015389614   -0.0032262231701292187
-0.014359003162981701   -0.06016418926688345   -0.00320094517322201
-0.00816961179506192   -0.07285707282860313   -0.0030267517743525364
-0.014277723960191531   -0.07277184015389614   -0.0032262231701292187
-0.0078018490246480054   -0.05996013681281684   -0.003027568821872538
-0.007912472627860141   -0.05983368747841067   -0.003120452823981402
-0.008463570761704385   -0.07264962826309049   -0.003101162066187275
-0.0014755820769347494   -0.05979863063341053   -0.0030671443977546104
-0.007860548462065669   -0.05989077167990231   -0.0030672069264504457
-0.008463570761704385   -0.07264962826309049   -0.003101162066187275
-0.002631929346099836   -0.07260543053747359   -0.0030885226641398237
-0.0014755820769347494   -0.05979863063341053   -0.0030671443977546104
-0.002529734037514464   -0.07260639586009218   -0.002995128118006216
-0.007860548462065669   -0.05989077167990231   -0.0030672069264504457
-0.001414150385309551   -0.05981192540797362   -0.0029918420289529973
-0.002529734037514464   -0.07260639586009218   -0.002995128118006216
-0.0014755820769347494   -0.05979863063341053   -0.0030671443977546104
-0.007860548462065669   -0.05989077167990231   -0.0030672069264504457
-0.002529734037514464   -0.07260639586009218   -0.002995128118006216
-0.008371178142431684   -0.07268827973307616   -0.0030623955296979794
-0.008463570761704385   -0.07264962826309049   -0.003101162066187275
-0.007860548462065669   -0.05989077167990231   -0.0030672069264504457
-0.002529734037514464   -0.07260639586009218   -0.002995128118006216
-0.008463570761704385   -0.07264962826309049   -0.003101162066187275
-0.0014755820769347494   -0.05979863063341053   -0.0030671443977546104
-0.007860548462065669   -0.05989077167990231   -0.0030672069264504457
-0.008371178142431684   -0.07268827973307616   -0.0030623955296979794
-0.001414150385309551   -0.05981192540797362   -0.0029918420289529973
-0.0078018490246480054   -0.05996013681281684   -0.003027568821872538
-0.008371178142431684   -0.07268827973307616   -0.0030623955296979794
-0.002529734037514464   -0.07260639586009218   -0.002995128118006216
-0.001414150385309551   -0.05981192540797362   -0.0029918420289529973
-0.0024302231140906293   -0.07263534610321427   -0.0029155060357938865
-0.0078018490246480054   -0.05996013681281684   -0.003027568821872538
-0.001356047268472898   -0.059836535783590536   -0.0029300497889309792
-0.0024302231140906293   -0.07263534610321427   -0.0029155060357938865
-0.001414150385309551   -0.05981192540797362   -0.0029918420289529973
-0.0078018490246480054   -0.05996013681281684   -0.003027568821872538
-0.0024302231140906293   -0.07263534610321427   -0.0029155060357938865
-0.00827178088423769   -0.07275713674542175   -0.0030373687510272785
-0.008371178142431684   -0.07268827973307616   -0.0030623955296979794
-0.0078018490246480054   -0.05996013681281684   -0.003027568821872538
-0.0024302231140906293   -0.07263534610321427   -0.0029155060357938865
-0.008371178142431684   -0.07268827973307616   -0.0030623955296979794
-0.001414150385309551   -0.05981192540797362   -0.0029918420289529973
-0.0078018490246480054   -0.05996013681281684   -0.003027568821872538
-0.00827178088423769   -0.07275713674542175   -0.0030373687510272785
-0.001356047268472898   -0.059836535783590536   -0.0029300497889309792
-0.0077385777482788425   -0.060041999026836074   -0.003001978004942023
-0.00827178088423769   -0.07275713674542175   -0.0030373687510272785
-0.0024302231140906293   -0.07263534610321427   -0.0029155060357938865
-0.001356047268472898   -0.059836535783590536   -0.0029300497889309792
-0.002341454070866153   -0.07269468649137371   -0.00285013579066996
-0.0077385777482788425   -0.060041999026836074   -0.003001978004942023
-0.0013067650866953428   -0.05987302516570627   -0.00288224030024917
-0.002341454070866153   -0.07269468649137371   -0.00285013579066996
-0.001356047268472898   -0.059836535783590536   -0.0029300497889309792
-0.0077385777482788425   -0.060041999026836074   -0.003001978004942023
-0.002341454070866153   -0.07269468649137371   -0.00285013579066996
-0.00816961179506192   -0.07285707282860313   -0.0030267517743525364
-0.00827178088423769   -0.07275713674542175   -0.0030373687510272785
-0.0077385777482788425   -0.060041999026836074   -0.003001978004942023
-0.002341454070866153   -0.07269468649137371   -0.00285013579066996
-0.00827178088423769   -0.07275713674542175   -0.0030373687510272785
-0.001356047268472898   -0.059836535783590536   -0.0029300497889309792
-0.0014755820769347494   -0.05979863063341053   -0.0030671443977546104
-0.002631929346099836   -0.07260543053747359   -0.0030885226641398237
0.005155282683449555   -0.05972067610547125   -0.0030932053342129563
-0.001414150385309551   -0.05981192540797362   -0.0029918420289529973
-0.002631929346099836   -0.07260543053747359   -0.0030885226641398237
0.003401130719147908   -0.07246230504301446   -0.003143733545517686
0.005155282683449555   -0.05972067610547125   -0.0030932053342129563
0.0035260729444591666   -0.07242304538200345   -0.0029962328120015464
-0.001414150385309551   -0.05981192540797362   -0.0029918420289529973
0.00523366727193154   -0.05969004263099408   -0.0029962432276811287
0.0035260729444591666   -0.07242304538200345   -0.0029962328120015464
0.005155282683449555   -0.05972067610547125   -0.0030932053342129563
-0.001414150385309551   -0.05981192540797362   -0.0029918420289529973
0.0035260729444591666   -0.07242304538200345   -0.0029962328120015464
-0.002529734037514464   -0.07260639586009218   -0.002995128118006216
-0.002631929346099836   -0.07260543053747359   -0.0030885226641398237
-0.001414150385309551   -0.05981192540797362   -0.0029918420289529973
0.0035260729444591666   -0.07242304538200345   -0.0029962328120015464
-0.002631929346099836   -0.07260543053747359   -0.0030885226641398237
0.005155282683449555   -0.05972067610547125   -0.0030932053342129563
-0.001414150385309551   -0.05981192540797362   -0.0029918420289529973
-0.002529734037514464   -0.07260639586009218   -0.002995128118006216
0.00523366727193154   -0.05969004263099408   -0.0029962432276811287
-0.001356047268472898   -0.059836535783590536   -0.0029300497889309792
-0.002529734037514464   -0.07260639586009218   -0.002995128118006216
0.0035260729444591666   -0.07242304538200345   -0.0029962328120015464
0.00523366727193154   -0.05969004263099408   -0.0029962432276811287
0.0036541586044455026   -0.07241575387672868   -0.0028633885936736455
-0.001356047268472898   -0.059836535783590536   -0.0029300497889309792
0.005306061885182856   -0.05967411752865301   -0.0029127517092491515
0.0036541586044455026   -0.07241575387672868   -0.0028633885936736455
0.00523366727193154   -0.05969004263099408   -0.0029962432276811287
-0.001356047268472898   -0.059836535783590536   -0.0029300497889309792
0.0036541586044455026   -0.07241575387672868   -0.0028633885936736455
-0.0024302231140906293   -0.07263534610321427   -0.0029155060357938865
-0.002529734037514464   -0.07260639586009218   -0.002995128118006216
-0.001356047268472898   -0.059836535783590536   -0.0029300497889309792
0.0036541586044455026   -0.07241575387672868   -0.0028633885936736455
-0.002529734037514464   -0.07260639586009218   -0.002995128118006216
0.00523366727193154   -0.05969004263099408   -0.0029962432276811287
-0.001356047268472898   -0.059836535783590536   -0.0029300497889309792
-0.0024302231140906293   -0.07263534610321427   -0.0029155060357938865
0.005306061885182856   -0.05967411752865301   -0.0029127517092491515
-0.0013067650866953428   -0.05987302516570627   -0.00288224030024917
-0.0024302231140906293   -0.07263534610321427   -0.0029155060357938865
0.0036541586044455026   -0.07241575387672868   -0.0028633885936736455
0.005306061885182856   -0.05967411752865301   -0.0029127517092491515
0.0037392907109620537   -0.07243452601109933   -0.0027432687361047883
-0.0013067650866953428   -0.05987302516570627   -0.00288224030024917
0.005344782734855186   -0.059665161816701805   -0.0028418513745367066
0.0037392907109620537   -0.07243452601109933   -0.0027432687361047883
0.005306061885182856   -0.05967411752865301   -0.0029127517092491515
-0.0013067650866953428   -0.05987302516570627   -0.00288224030024917
0.0037392907109620537   -0.07243452601109933   -0.0027432687361047883
-0.002341454070866153   -0.07269468649137371   -0.00285013579066996
-0.0024302231140906293   -0.07263534610321427   -0.0029155060357938865
-0.0013067650866953428   -0.05987302516570627   -0.00288224030024917
0.0037392907109620537   -0.07243452601109933   -0.0027432687361047883
-0.0024302231140906293   -0.07263534610321427   -0.0029155060357938865
0.005306061885182856   -0.05967411752865301   -0.0029127517092491515
0.005155282683449555   -0.05972067610547125   -0.0030932053342129563
0.003401130719147908   -0.07246230504301446   -0.003143733545517686
0.012255328534352034   -0.05958974644320871   -0.003202747390913036
0.00523366727193154   -0.05969004263099408   -0.0029962432276811287
0.003401130719147908   -0.07246230504301446   -0.003143733545517686
0.009820122919980167   -0.07221626489148739   -0.00328650493436354
0.012255328534352034   -0.05958974644320871   -0.003202747390913036
0.010152503409970117   -0.07213525881951521   -0.003071921871616476
0.00523366727193154   -0.05969004263099408   -0.0029962432276811287
0.012460090587094021   -0.05951930302195101   -0.003075536428985951
0.010152503409970117   -0.07213525881951521   -0.003071921871616476
0.012255328534352034   -0.05958974644320871   -0.003202747390913036
0.00523366727193154   -0.05969004263099408   -0.0029962432276811287
0.010152503409970117   -0.07213525881951521   -0.003071921871616476
0.0035260729444591666   -0.07242304538200345   -0.0029962328120015464
0.003401130719147908   -0.07246230504301446   -0.003143733545517686
0.00523366727193154   -0.05969004263099408   -0.0029962432276811287
0.010152503409970117   -0.07213525881951521   -0.003071921871616476
0.003401130719147908   -0.07246230504301446   -0.003143733545517686
0.012255328534352034   -0.05958974644320871   -0.003202747390913036
0.00523366727193154   -0.05969004263099408   -0.0029962432276811287
0.0035260729444591666   -0.07242304538200345   -0.0029962328120015464
0.012460090587094021   -0.05951930302195101   -0.003075536428985951
0.005306061885182856   -0.05967411752865301   -0.0029127517092491515
0.0035260729444591666   -0.07242304538200345   -0.0029962328120015464
0.010152503409970117   -0.07213525881951521   -0.003071921871616476
0.012460090587094021   -0.05951930302195101   -0.003075536428985951
0.010398566507013712   -0.07211301425072332   -0.002876825781656589
0.005306061885182856   -0.05967411752865301   -0.0029127517092491515
0.0126006737678378   -0.05948514871356258   -0.002967504697957094
0.010398566507013712   -0.07211301425072332   -0.002876825781656589
0.012460090587094021   -0.05951930302195101   -0.003075536428985951
0.005306061885182856   -0.05967411752865301   -0.0029127517092491515
0.010398566507013712   -0.07211301425072332   -0.002876825781656589
0.0036541586044455026   -0.07241575387672868   -0.0028633885936736455
0.0035260729444591666   -0.07242304538200345   -0.0029962328120015464
0.005306061885182856   -0.05967411752865301   -0.0029127517092491515
0.010398566507013712   -0.07211301425072332   -0.002876825781656589
0.0035260729444591666   -0.07242304538200345   -0.0029962328120015464
0.012460090587094021   -0.05951930302195101   -0.003075536428985951
0.005306061885182856   -0.05967411752865301   -0.0029127517092491515
0.0036541586044455026   -0.07241575387672868   -0.0028633885936736455
0.0126006737678378   -0.05948514871356258   -0.002967504697957094
0.005344782734855186   -0.059665161816701805   -0.0028418513745367066
0.0036541586044455026   -0.07241575387672868   -0.0028633885936736455
0.010398566507013712   -0.07211301425072332   -0.002876825781656589
0.0126006737678378   -0.05948514871356258   -0.002967504697957094
0.010647914716064072   -0.07211277732513834   -0.002702101541484499
0.005344782734855186   -0.059665161816701805   -0.0028418513745367066
0.012725349882244934   -0.05944790429950495   -0.002879447235817328
0.010647914716064072   -0.07211277732513834   -0.002702101541484499
0.0126006737678378   -0.05948514871356258   -0.002967504697957094
0.005344782734855186   -0.059665161816701805   -0.0028418513745367066
0.010647914716064072   -0.07211277732513834   -0.002702101541484499
0.0037392907109620537   -0.07243452601109933   -0.0027432687361047883
0.0036541586044455026   -0.07241575387672868   -0.0028633885936736455
0.005344782734855186   -0.059665161816701805   -0.0028418513745367066
0.010647914716064072   -0.07211277732513834   -0.002702101541484499
0.0036541586044455026   -0.07241575387672868   -0.0028633885936736455
0.0126006737678378   -0.05948514871356258   -0.002967504697957094
-0.021186980969429826   -0.07244605024793051   -0.0032947178123410074
-0.019335285125662686   -0.08364545638091177   -0.003072175066556331
-0.014477429967499147   -0.07259185735039107   -0.003176710859832045
-0.021033881263561486   -0.07254634717712126   -0.003378686828791538
-0.019335285125662686   -0.08364545638091177   -0.003072175066556331
-0.013687774018713695   -0.08390869994709792   -0.003053085813106243
-0.014477429967499147   -0.07259185735039107   -0.003176710859832045
-0.013546712029690674   -0.0839467885107216   -0.003115304807455047
-0.021033881263561486   -0.07254634717712126   -0.003378686828791538
-0.014392608345314849   -0.07266614393120095   -0.003194512699212872
-0.013546712029690674   -0.0839467885107216   -0.003115304807455047
-0.014477429967499147   -0.07259185735039107   -0.003176710859832045
-0.021033881263561486   -0.07254634717712126   -0.003378686828791538
-0.013546712029690674   -0.0839467885107216   -0.003115304807455047
-0.019041625863507168   -0.0837019969461256   -0.0032462885898750173
-0.019335285125662686   -0.08364545638091177   -0.003072175066556331
-0.021033881263561486   -0.07254634717712126   -0.003378686828791538
-0.013546712029690674   -0.0839467885107216   -0.003115304807455047
-0.019335285125662686   -0.08364545638091177   -0.003072175066556331
-0.014477429967499147   -0.07259185735039107   -0.003176710859832045
-0.021033881263561486   -0.07254634717712126   -0.003378686828791538
-0.019041625863507168   -0.0837019969461256   -0.0032462885898750173
-0.014392608345314849   -0.07266614393120095   -0.003194512699212872
-0.020859033259486782   -0.07266936046523075   -0.0034845320524715126
-0.019041625863507168   -0.0837019969461256   -0.0032462885898750173
-0.013546712029690674   -0.0839467885107216   -0.003115304807455047
-0.014392608345314849   -0.07266614393120095   -0.003194512699212872
-0.01336954096847158   -0.08403797311497199   -0.0031916488541805497
-0.020859033259486782   -0.07266936046523075   -0.0034845320524715126
-0.014277723960191531   -0.07277184015389614   -0.0032262231701292187
-0.01336954096847158   -0.08403797311497199   -0.0031916488541805497
-0.014392608345314849   -0.07266614393120095   -0.003194512699212872
-0.020859033259486782   -0.07266936046523075   -0.0034845320524715126
-0.01336954096847158   -0.08403797311497199   -0.0031916488541805497
-0.018748636926365917   -0.08380900547386191   -0.003443402868787733
-0.019041625863507168   -0.0837019969461256   -0.0032462885898750173
-0.020859033259486782   -0.07266936046523075   -0.0034845320524715126
-0.01336954096847158   -0.08403797311497199   -0.0031916488541805497
-0.019041625863507168   -0.0837019969461256   -0.0032462885898750173
-0.014392608345314849   -0.07266614393120095   -0.003194512699212872
-0.020859033259486782   -0.07266936046523075   -0.0034845320524715126
-0.018748636926365917   -0.08380900547386191   -0.003443402868787733
-0.014277723960191531   -0.07277184015389614   -0.0032262231701292187
-0.02062087769822571   -0.07285656849633436   -0.0036126524161221264
-0.018748636926365917   -0.08380900547386191   -0.003443402868787733
-0.01336954096847158   -0.08403797311497199   -0.0031916488541805497
-0.014277723960191531   -0.07277184015389614   -0.0032262231701292187
-0.013194715160822894   -0.08418743160333009   -0.003281985558945147
-0.02062087769822571   -0.07285656849633436   -0.0036126524161221264
-0.01415443409910583   -0.07291539049314451   -0.0032722555808797076
-0.013194715160822894   -0.08418743160333009   -0.003281985558945147
-0.014277723960191531   -0.07277184015389614   -0.0032262231701292187
-0.02062087769822571   -0.07285656849633436   -0.0036126524161221264
-0.013194715160822894   -0.08418743160333009   -0.003281985558945147
-0.01837331548837915   -0.08400854382110964   -0.0036630880233315846
-0.018748636926365917   -0.08380900547386191   -0.003443402868787733
-0.02062087769822571   -0.07285656849633436   -0.0036126524161221264
-0.013194715160822894   -0.08418743160333009   -0.003281985558945147
-0.018748636926365917   -0.08380900547386191   -0.003443402868787733
-0.014277723960191531   -0.07277184015389614   -0.0032262231701292187
-0.014477429967499147   -0.07259185735039107   -0.003176710859832045
-0.013687774018713695   -0.08390869994709792   -0.003053085813106243
-0.008463570761704385   -0.07264962826309049   -0.003101162066187275
-0.014392608345314849   -0.07266614393120095   -0.003194512699212872
-0.013687774018713695   -0.08390869994709792   -0.003053085813106243
-0.008798669638733604   -0.08403215530779759   -0.003045466429367596
-0.008463570761704385   -0.07264962826309049   -0.003101162066187275
-0.008653914500985245   -0.08404466847154102   -0.0030176600077634194
-0.014392608345314849   -0.07266614393120095   -0.003194512699212872
-0.008371178142431684   -0.07268827973307616   -0.0030623955296979794
-0.008653914500985245   -0.08404466847154102   -0.0030176600077634194
-0.008463570761704385   -0.07264962826309049   -0.003101162066187275
-0.014392608345314849   -0.07266614393120095   -0.003194512699212872
-0.008653914500985245   -0.08404466847154102   -0.0030176600077634194
-0.013546712029690674   -0.0839467885107216   -0.003115304807455047
-0.013687774018713695   -0.08390869994709792   -0.003053085813106243
-0.014392608345314849   -0.07266614393120095   -0.003194512699212872
-0.008653914500985245   -0.08404466847154102   -0.0030176600077634194
-0.013687774018713695   -0.08390869994709792   -0.003053085813106243
-0.008463570761704385   -0.07264962826309049   -0.003101162066187275
-0.014392608345314849   -0.07266614393120095   -0.003194512699212872
-0.013546712029690674   -0.0839467885107216   -0.003115304807455047
-0.008371178142431684   -0.07268827973307616   -0.0030623955296979794
-0.014277723960191531   -0.07277184015389614   -0.0032262231701292187
-0.013546712029690674   -0.0839467885107216   -0.003115304807455047
-0.008653914500985245   -0.08404466847154102   -0.0030176600077634194
-0.008371178142431684   -0.07268827973307616   -0.0030623955296979794
-0.008504520567829096   -0.08410458565729653   -0.003003560591159525
-0.014277723960191531   -0.07277184015389614   -0.0032262231701292187
-0.00827178088423769   -0.07275713674542175   -0.0030373687510272785
-0.008504520567829096   -0.08410458565729653   -0.003003560591159525
-0.008371178142431684   -0.07268827973307616   -0.0030623955296979794
-0.014277723960191531   -0.07277184015389614   -0.0032262231701292187
-0.008504520567829096   -0.08410458565729653   -0.003003560591159525
-0.01336954096847158   -0.08403797311497199   -0.0031916488541805497
-0.013546712029690674   -0.0839467885107216   -0.003115304807455047
-0.014277723960191531   -0.07277184015389614   -0.0032262231701292187
-0.008504520567829096   -0.08410458565729653   -0.003003560591159525
-0.013546712029690674   -0.0839467885107216   -0.003115304807455047
-0.008371178142431684   -0.07268827973307616   -0.0030623955296979794
-0.014277723960191531   -0.07277184015389614   -0.0032262231701292187
-0.01336954096847158   -0.08403797311497199   -0.0031916488541805497
-0.00827178088423769   -0.07275713674542175   -0.0030373687510272785
-0.01415443409910583   -0.07291539049314451   -0.0032722555808797076
-0.01336954096847158   -0.08403797311497199   -0.0031916488541805497
-0.008504520567829096   -0.08410458565729653   -0.003003560591159525
-0.00827178088423769   -0.07275713674542175   -0.0030373687510272785
-0.008355376706371176   -0.08421471406533675   -0.003002988021399822
-0.01415443409910583   -0.07291539049314451   -0.0032722555808797076
-0.00816961179506192   -0.07285707282860313   -0.0030267517743525364
-0.008355376706371176   -0.08421471406533675   -0.003002988021399822
-0.00827178088423769   -0.07275713674542175   -0.0030373687510272785
-0.01415443409910583   -0.07291539049314451   -0.0032722555808797076
-0.008355376706371176   -0.08421471406533675   -0.003002988021399822
-0.013194715160822894   -0.08418743160333009   -0.003281985558945147
-0.01336954096847158   -0.08403797311497199   -0.0031916488541805497
-0.01415443409910583   -0.07291539049314451   -0.0032722555808797076
-0.008355376706371176   -0.08421471406533675   -0.003002988021399822
-0.01336954096847158   -0.08403797311497199   -0.0031916488541805497
-0.00827178088423769   -0.07275713674542175   -0.0030373687510272785
-0.008463570761704385   -0.07264962826309049   -0.003101162066187275
-0.008798669638733604   -0.08403215530779759   -0.003045466429367596
-0.002631929346099836   -0.07260543053747359   -0.0030885226641398237
-0.008371178142431684   -0.07268827973307616   -0.0030623955296979794
-0.008798669638733604   -0.08403215530779759   -0.003045466429367596
-0.004071974102933723   -0.0840100333278742   -0.0030804233017283763
-0.002631929346099836   -0.07260543053747359   -0.0030885226641398237
-0.0039134138377345615   -0.08399383388264953   -0.0029657531348613424
-0.008371178142431684   -0.07268827973307616   -0.0030623955296979794
-0.002529734037514464   -0.07260639586009218   -0.002995128118006216
-0.0039134138377345615   -0.08399383388264953   -0.0029657531348613424
-0.002631929346099836   -0.07260543053747359   -0.0030885226641398237
-0.008371178142431684   -0.07268827973307616   -0.0030623955296979794
-0.0039134138377345615   -0.08399383388264953   -0.0029657531348613424
-0.008653914500985245   -0.08404466847154102   -0.0030176600077634194
-0.008798669638733604   -0.08403215530779759   -0.003045466429367596
-0.008371178142431684   -0.07268827973307616   -0.0030623955296979794
-0.0039134138377345615   -0.08399383388264953   -0.0029657531348613424
-0.008798669638733604   -0.08403215530779759   -0.003045466429367596
-0.002631929346099836   -0.07260543053747359   -0.0030885226641398237
-0.008371178142431684   -0.07268827973307616   -0.0030623955296979794
-0.008653914500985245   -0.08404466847154102   -0.0030176600077634194
-0.002529734037514464   -0.07260639586009218   -0.002995128118006216
-0.00827178088423769   -0.07275713674542175   -0.0030373687510272785
-0.008653914500985245   -0.08404466847154102   -0.0030176600077634194
-0.0039134138377345615   -0.08399383388264953   -0.0029657531348613424
-0.002529734037514464   -0.07260639586009218   -0.002995128118006216
-0.0037595454237809626   -0.08402048311910028   -0.0028656933581587343
-0.00827178088423769   -0.07275713674542175   -0.0030373687510272785
-0.0024302231140906293   -0.07263534610321427   -0.0029155060357938865
-0.0037595454237809626   -0.08402048311910028   -0.0028656933581587343
-0.002529734037514464   -0.07260639586009218   -0.002995128118006216
-0.00827178088423769   -0.07275713674542175   -0.0030373687510272785
-0.0037595454237809626   -0.08402048311910028   -0.0028656933581587343
-0.008504520567829096   -0.08410458565729653   -0.003003560591159525
-0.008653914500985245   -0.08404466847154102   -0.0030176600077634194
-0.00827178088423769   -0.07275713674542175   -0.0030373687510272785
-0.0037595454237809626   -0.08402048311910028   -0.0028656933581587343
-0.008653914500985245   -0.08404466847154102   -0.0030176600077634194
-0.002529734037514464   -0.07260639586009218   -0.002995128118006216
-0.00827178088423769   -0.07275713674542175   -0.0030373687510272785
-0.008504520567829096   -0.08410458565729653   -0.003003560591159525
-0.0024302231140906293   -0.07263534610321427   -0.0029155060357938865
-0.00816961179506192   -0.07285707282860313   -0.0030267517743525364
-0.008504520567829096   -0.08410458565729653   -0.003003560591159525
-0.0037595454237809626   -0.08402048311910028   -0.0028656933581587343
-0.0024302231140906293   -0.07263534610321427   -0.0029155060357938865
-0.00362054584192625   -0.0840962267631189   -0.0027789763880192104
-0.00816961179506192   -0.07285707282860313   -0.0030267517743525364
-0.002341454070866153   -0.07269468649137371   -0.00285013579066996
-0.00362054584192625   -0.0840962267631189   -0.0027789763880192104
-0.0024302231140906293   -0.07263534610321427   -0.0029155060357938865
-0.00816961179506192   -0.07285707282860313   -0.0030267517743525364
-0.00362054584192625   -0.0840962267631189   -0.0027789763880192104
-0.008355376706371176   -0.08421471406533675   -0.003002988021399822
-0.008504520567829096   -0.08410458565729653   -0.003003560591159525
-0.00816961179506192   -0.07285707282860313   -0.0030267517743525364
-0.00362054584192625   -0.0840962267631189   -0.0027789763880192104
-0.008504520567829096   -0.08410458565729653   -0.003003560591159525
-0.0024302231140906293   -0.07263534610321427   -0.0029155060357938865
-0.002631929346099836   -0.07260543053747359   -0.0030885226641398237
-0.004071974102933723   -0.0840100333278742   -0.0030804233017283763
0.003401130719147908   -0.07246230504301446   -0.003143733545517686
-0.002529734037514464   -0.07260639586009218   -0.002995128118006216
-0.004071974102933723   -0.0840100333278742   -0.0030804233017283763
0.0008769380350043234   -0.0838371319875318   -0.003165676133484437
0.003401130719147908   -0.07246230504301446   -0.003143733545517686
0.0010697968969301164   -0.08378444794733209   -0.002964449129402561
-0.002529734037514464   -0.07260639586009218   -0.002995128118006216
0.0035260729444591666   -0.07242304538200345   -0.0029962328120015464
0.0010697968969301164   -0.08378444794733209   -0.002964449129402561
0.003401130719147908   -0.07246230504301446   -0.003143733545517686
-0.002529734037514464   -0.07260639586009218   -0.002995128118006216
0.0010697968969301164   -0.08378444794733209   -0.002964449129402561
-0.0039134138377345615   -0.08399383388264953   -0.0029657531348613424
-0.004071974102933723   -0.0840100333278742   -0.0030804233017283763
-0.002529734037514464   -0.07260639586009218   -0.002995128118006216
0.0010697968969301164   -0.08378444794733209   -0.002964449129402561
-0.004071974102933723   -0.0840100333278742   -0.0030804233017283763
0.003401130719147908   -0.07246230504301446   -0.003143733545517686
-0.002529734037514464   -0.07260639586009218   -0.002995128118006216
-0.0039134138377345615   -0.08399383388264953   -0.0029657531348613424
0.0035260729444591666   -0.07242304538200345   -0.0029962328120015464
-0.0024302231140906293   -0.07263534610321427   -0.0029155060357938865
-0.0039134138377345615   -0.08399383388264953   -0.0029657531348613424
0.0010697968969301164   -0.08378444794733209   -0.002964449129402561
0.0035260729444591666   -0.07242304538200345   -0.0029962328120015464
0.0012729896771141054   -0.0837796732341886   -0.0027817467618646416
-0.0024302231140906293   -0.07263534610321427   -0.0029155060357938865
0.0036541586044455026   -0.07241575387672868   -0.0028633885936736455
0.0012729896771141054   -0.0837796732341886   -0.0027817467618646416
0.0035260729444591666   -0.07242304538200345   -0.0029962328120015464
-0.0024302231140906293   -0.07263534610321427   -0.0029155060357938865
0.0012729896771141054   -0.0837796732341886   -0.0027817467618646416
-0.0037595454237809626   -0.08402048311910028   -0.0028656933581587343
-0.0039134138377345615   -0.08399383388264953   -0.0029657531348613424
-0.0024302231140906293   -0.07263534610321427   -0.0029155060357938865
0.0012729896771141054   -0.0837796732341886   -0.0027817467618646416
-0.0039134138377345615   -0.08399383388264953   -0.0029657531348613424
0.0035260729444591666   -0.07242304538200345   -0.0029962328120015464
-0.0024302231140906293   -0.07263534610321427   -0.0029155060357938865
-0.0037595454237809626   -0.08402048311910028   -0.0028656933581587343
0.0036541586044455026   -0.07241575387672868   -0.0028633885936736455
-0.002341454070866153   -0.07269468649137371   -0.00285013579066996
-0.0037595454237809626   -0.08402048311910028   -0.0028656933581587343
0.0012729896771141054   -0.0837796732341886   -0.0027817467618646416
0.0036541586044455026   -0.07241575387672868   -0.0028633885936736455
0.001421599209139271   -0.08382063516865064   -0.0026118015380427783
-0.002341454070866153   -0.07269468649137371   -0.00285013579066996
0.0037392907109620537   -0.07243452601109933   -0.0027432687361047883
0.001421599209139271   -0.08382063516865064   -0.0026118015380427783
0.0036541586044455026   -0.07241575387672868   -0.0028633885936736455
-0.002341454070866153   -0.07269468649137371   -0.00285013579066996
0.001421599209139271   -0.08382063516865064   -0.0026118015380427783
-0.00362054584192625   -0.0840962267631189   -0.0027789763880192104
-0.0037595454237809626   -0.08402048311910028   -0.0028656933581587343
-0.002341454070866153   -0.07269468649137371   -0.00285013579066996
0.001421599209139271   -0.08382063516865064   -0.0026118015380427783
-0.0037595454237809626   -0.08402048311910028   -0.0028656933581587343
0.0036541586044455026   -0.07241575387672868   -0.0028633885936736455
0.003401130719147908   -0.07246230504301446   -0.003143733545517686
0.0008769380350043234   -0.0838371319875318   -0.003165676133484437
0.009820122919980167   -0.07221626489148739   -0.00328650493436354
0.0035260729444591666   -0.07242304538200345   -0.0029962328120015464
0.0008769380350043234   -0.0838371319875318   -0.003165676133484437
0.006154429664492332   -0.08349703522620225   -0.003348198456117767
0.009820122919980167   -0.07221626489148739   -0.00328650493436354
0.00664248743663339   -0.08339587828847335   -0.0030402498333883606
0.0035260729444591666   -0.07242304538200345   -0.0029962328120015464
0.010152503409970117   -0.07213525881951521   -0.003071921871616476
0.00664248743663339   -0.08339587828847335   -0.0030402498333883606
0.009820122919980167   -0.07221626489148739   -0.00328650493436354
0.0035260729444591666   -0.07242304538200345   -0.0029962328120015464
0.00664248743663339   -0.08339587828847335   -0.0030402498333883606
0.0010697968969301164   -0.08378444794733209   -0.002964449129402561
0.0008769380350043234   -0.0838371319875318   -0.003165676133484437
0.0035260729444591666   -0.07242304538200345   -0.0029962328120015464
0.00664248743663339   -0.08339587828847335   -0.0030402498333883606
0.0008769380350043234   -0.0838371319875318   -0.003165676133484437
0.009820122919980167   -0.07221626489148739   -0.00328650493436354
0.0035260729444591666   -0.07242304538200345   -0.0029962328120015464
0.0010697968969301164   -0.08378444794733209   -0.002964449129402561
0.010152503409970117   -0.07213525881951521   -0.003071921871616476
0.0036541586044455026   -0.07241575387672868   -0.0028633885936736455
0.0010697968969301164   -0.08378444794733209   -0.002964449129402561
0.00664248743663339   -0.08339587828847335   -0.0030402498333883606
0.010152503409970117   -0.07213525881951521   -0.003071921871616476
0.007016662414420791   -0.08337836391654785   -0.0027552717929767608
0.0036541586044455026   -0.07241575387672868   -0.0028633885936736455
0.010398566507013712   -0.07211301425072332   -0.002876825781656589
0.007016662414420791   -0.08337836391654785   -0.0027552717929767608
0.010152503409970117   -0.07213525881951521   -0.003071921871616476
0.0036541586044455026   -0.07241575387672868   -0.0028633885936736455
0.007016662414420791   -0.08337836391654785   -0.0027552717929767608
0.0012729896771141054   -0.0837796732341886   -0.0027817467618646416
0.0010697968969301164   -0.08378444794733209   -0.002964449129402561
0.0036541586044455026   -0.07241575387672868   -0.0028633885936736455
0.007016662414420791   -0.08337836391654785   -0.0027552717929767608
0.0010697968969301164   -0.08378444794733209   -0.002964449129402561
0.010152503409970117   -0.07213525881951521   -0.003071921871616476
0.0036541586044455026   -0.07241575387672868   -0.0028633885936736455
0.0012729896771141054   -0.0837796732341886   -0.0027817467618646416
0.010398566507013712   -0.07211301425072332   -0.002876825781656589
0.0037392907109620537   -0.07243452601109933   -0.0027432687361047883
0.0012729896771141054   -0.0837796732341886   -0.0027817467618646416
0.007016662414420791   -0.08337836391654785   -0.0027552717929767608
0.010398566507013712   -0.07211301425072332   -0.002876825781656589
0.007404141870180438   -0.0834082968910288   -0.0024955959361109095
0.0037392907109620537   -0.07243452601109933   -0.0027432687361047883
0.010647914716064072   -0.07211277732513834   -0.002702101541484499
0.007404141870180438   -0.0834082968910288   -0.0024955959361109095
0.010398566507013712   -0.07211301425072332   -0.002876825781656589
0.0037392907109620537   -0.07243452601109933   -0.0027432687361047883
0.007404141870180438   -0.0834082968910288   -0.0024955959361109095
0.001421599209139271   -0.08382063516865064   -0.0026118015380427783
0.0012729896771141054   -0.0837796732341886   -0.0027817467618646416
0.0037392907109620537   -0.07243452601109933   -0.0027432687361047883
0.007404141870180438   -0.0834082968910288   -0.0024955959361109095
0.0012729896771141054   -0.0837796732341886   -0.0027817467618646416
0.010398566507013712   -0.07211301425072332   -0.002876825781656589
-0.019335285125662686   -0.08364545638091177   -0.003072175066556331
-0.016190107825314628   -0.0924373443936512   -0.0027870809140198476
-0.013687774018713695   -0.08390869994709792   -0.003053085813106243
-0.019041625863507168   -0.0837019969461256   -0.0032462885898750173
-0.016190107825314628   -0.0924373443936512   -0.0027870809140198476
-0.012171411643820232   -0.09282739660734574   -0.002904125279922543
-0.013687774018713695   -0.08390869994709792   -0.003053085813106243
-0.011968002797389158   -0.09280722265282976   -0.002999891733351992
-0.019041625863507168   -0.0837019969461256   -0.0032462885898750173
-0.013546712029690674   -0.0839467885107216   -0.003115304807455047
-0.011968002797389158   -0.09280722265282976   -0.002999891733351992
-0.013687774018713695   -0.08390869994709792   -0.003053085813106243
-0.019041625863507168   -0.0837019969461256   -0.0032462885898750173
-0.011968002797389158   -0.09280722265282976   -0.002999891733351992
-0.01575196728463511   -0.09242631090023087   -0.0030453060868434506
-0.016190107825314628   -0.0924373443936512   -0.0027870809140198476
-0.019041625863507168   -0.0837019969461256   -0.0032462885898750173
-0.011968002797389158   -0.09280722265282976   -0.002999891733351992
-0.016190107825314628   -0.0924373443936512   -0.0027870809140198476
-0.013687774018713695   -0.08390869994709792   -0.003053085813106243
-0.019041625863507168   -0.0837019969461256   -0.0032462885898750173
-0.01575196728463511   -0.09242631090023087   -0.0030453060868434506
-0.013546712029690674   -0.0839467885107216   -0.003115304807455047
-0.018748636926365917   -0.08380900547386191   -0.003443402868787733
-0.01575196728463511   -0.09242631090023087   -0.0030453060868434506
-0.011968002797389158   -0.09280722265282976   -0.002999891733351992
-0.013546712029690674   -0.0839467885107216   -0.003115304807455047
-0.011728817220175412   -0.09286321845070954   -0.0031100998027096772
-0.018748636926365917   -0.08380900547386191   -0.003443402868787733
-0.01336954096847158   -0.08403797311497199   -0.0031916488541805497
-0.011728817220175412   -0.09286321845070954   -0.0031100998027096772
-0.013546712029690674   -0.0839467885107216   -0.003115304807455047
-0.018748636926365917   -0.08380900547386191   -0.003443402868787733
-0.011728817220175412   -0.09286321845070954   -0.0031100998027096772
-0.015348037815989138   -0.0924955203141903   -0.0033238661138925794
-0.01575196728463511   -0.09242631090023087   -0.0030453060868434506
-0.018748636926365917   -0.08380900547386191   -0.003443402868787733
-0.011728817220175412   -0.09286321845070954   -0.0031100998027096772
-0.01575196728463511   -0.09242631090023087   -0.0030453060868434506
-0.013546712029690674   -0.0839467885107216   -0.003115304807455047
-0.018748636926365917   -0.08380900547386191   -0.003443402868787733
-0.015348037815989138   -0.0924955203141903   -0.0033238661138925794
-0.01336954096847158   -0.08403797311497199   -0.0031916488541805497
-0.01837331548837915   -0.08400854382110964   -0.0036630880233315846
-0.015348037815989138   -0.0924955203141903   -0.0033238661138925794
-0.011728817220175412   -0.09286321845070954   -0.0031100998027096772
-0.01336954096847158   -0.08403797311497199   -0.0031916488541805497
-0.011511825941902927   -0.09299665147652407   -0.003233824651894193
-0.01837331548837915   -0.08400854382110964   -0.0036630880233315846
-0.013194715160822894   -0.08418743160333009   -0.003281985558945147
-0.011511825941902927   -0.09299665147652407   -0.003233824651894193
-0.01336954096847158   -0.08403797311497199   -0.0031916488541805497
-0.01837331548837915   -0.08400854382110964   -0.0036630880233315846
-0.011511825941902927   -0.09299665147652407   -0.003233824651894193
-0.014855418826751164   -0.09268053097613045   -0.0036215567146988497
-0.015348037815989138   -0.0924955203141903   -0.0033238661138925794
-0.01837331548837915   -0.08400854382110964   -0.0036630880233315846
-0.011511825941902927   -0.09299665147652407   -0.003233824651894193
-0.015348037815989138   -0.0924955203141903   -0.0033238661138925794
-0.01336954096847158   -0.08403797311497199   -0.0031916488541805497
-0.013687774018713695   -0.08390869994709792   -0.003053085813106243
-0.012171411643820232   -0.09282739660734574   -0.002904125279922543
-0.008798669638733604   -0.08403215530779759   -0.003045466429367596
-0.013546712029690674   -0.0839467885107216   -0.003115304807455047
-0.012171411643820232   -0.09282739660734574   -0.002904125279922543
-0.008889230640868055   -0.09308061303707788   -0.002995710253673483
-0.008798669638733604   -0.08403215530779759   -0.003045466429367596
-0.00868045030684993   -0.09304837882564707   -0.00296640611464023
-0.013546712029690674   -0.0839467885107216   -0.003115304807455047
-0.008653914500985245   -0.08404466847154102   -0.0030176600077634194
-0.00868045030684993   -0.09304837882564707   -0.00296640611464023
-0.008798669638733604   -0.08403215530779759   -0.003045466429367596
-0.013546712029690674   -0.0839467885107216   -0.003115304807455047
-0.00868045030684993   -0.09304837882564707   -0.00296640611464023
-0.011968002797389158   -0.09280722265282976   -0.002999891733351992
-0.012171411643820232   -0.09282739660734574   -0.002904125279922543
-0.013546712029690674   -0.0839467885107216   -0.003115304807455047
-0.00868045030684993   -0.09304837882564707   -0.00296640611464023
-0.012171411643820232   -0.09282739660734574   -0.002904125279922543
-0.008798669638733604   -0.08403215530779759   -0.003045466429367596
-0.013546712029690674   -0.0839467885107216   -0.003115304807455047
-0.011968002797389158   -0.09280722265282976   -0.002999891733351992
-0.008653914500985245   -0.08404466847154102   -0.0030176600077634194
-0.01336954096847158   -0.08403797311497199   -0.0031916488541805497
-0.011968002797389158   -0.09280722265282976   -0.002999891733351992
-0.00868045030684993   -0.09304837882564707   -0.00296640611464023
-0.008653914500985245   -0.08404466847154102   -0.0030176600077634194
-0.008474638776525928   -0.09308187537029859   -0.0029511248845272477
-0.01336954096847158   -0.08403797311497199   -0.0031916488541805497
-0.008504520567829096   -0.08410458565729653   -0.003003560591159525
-0.008474638776525928   -0.09308187537029859   -0.0029511248845272477
-0.008653914500985245   -0.08404466847154102   -0.0030176600077634194
-0.01336954096847158   -0.08403797311497199   -0.0031916488541805497
-0.008474638776525928   -0.09308187537029859   -0.0029511248845272477
-0.011728817220175412   -0.09286321845070954   -0.0031100998027096772
-0.011968002797389158   -0.09280722265282976   -0.002999891733351992
-0.01336954096847158   -0.08403797311497199   -0.0031916488541805497
-0.008474638776525928   -0.09308187537029859   -0.0029511248845272477
-0.011968002797389158   -0.09280722265282976   -0.002999891733351992
-0.008653914500985245   -0.08404466847154102   -0.0030176600077634194
-0.01336954096847158   -0.08403797311497199   -0.0031916488541805497
-0.011728817220175412   -0.09286321845070954   -0.0031100998027096772
-0.008504520567829096   -0.08410458565729653   -0.003003560591159525
-0.013194715160822894   -0.08418743160333009   -0.003281985558945147
-0.011728817220175412   -0.09286321845070954   -0.0031100998027096772
-0.008474638776525928   -0.09308187537029859   -0.0029511248845272477
-0.008504520567829096   -0.08410458565729653   -0.003003560591159525
-0.008285302043856158   -0.09318330060206324   -0.0029528098662264823
-0.013194715160822894   -0.08418743160333009   -0.003281985558945147
-0.008355376706371176   -0.08421471406533675   -0.003002988021399822
-0.008285302043856158   -0.09318330060206324   -0.0029528098662264823
-0.008504520567829096   -0.08410458565729653   -0.003003560591159525
-0.013194715160822894   -0.08418743160333009   -0.003281985558945147
-0.008285302043856158   -0.09318330060206324   -0.0029528098662264823
-0.011511825941902927   -0.09299665147652407   -0.003233824651894193
-0.011728817220175412   -0.09286321845070954   -0.0031100998027096772
-0.013194715160822894   -0.08418743160333009   -0.003281985558945147
-0.008285302043856158   -0.09318330060206324   -0.0029528098662264823
-0.011728817220175412   -0.09286321845070954   -0.0031100998027096772
-0.008504520567829096   -0.08410458565729653   -0.003003560591159525
-0.008798669638733604   -0.08403215530779759   -0.003045466429367596
-0.008889230640868055   -0.09308061303707788   -0.002995710253673483
-0.004071974102933723   -0.0840100333278742   -0.0030804233017283763
-0.008653914500985245   -0.08404466847154102   -0.0030176600077634194
-0.008889230640868055   -0.09308061303707788   -0.002995710253673483
-0.005745716925322078   -0.09321427344380669   -0.003103799468446831
-0.004071974102933723   -0.0840100333278742   -0.0030804233017283763
-0.005510348412429592   -0.09316784876927296   -0.0029565699489421025
-0.008653914500985245   -0.08404466847154102   -0.0030176600077634194
-0.0039134138377345615   -0.08399383388264953   -0.0029657531348613424
-0.005510348412429592   -0.09316784876927296   -0.0029565699489421025
-0.004071974102933723   -0.0840100333278742   -0.0030804233017283763
-0.008653914500985245   -0.08404466847154102   -0.0030176600077634194
-0.005510348412429592   -0.09316784876927296   -0.0029565699489421025
-0.00868045030684993   -0.09304837882564707   -0.00296640611464023
-0.008889230640868055   -0.09308061303707788   -0.002995710253673483
-0.008653914500985245   -0.08404466847154102   -0.0030176600077634194
-0.005510348412429592   -0.09316784876927296   -0.0029565699489421025
-0.008889230640868055   -0.09308061303707788   -0.002995710253673483
-0.004071974102933723   -0.0840100333278742   -0.0030804233017283763
-0.008653914500985245   -0.08404466847154102   -0.0030176600077634194
-0.00868045030684993   -0.09304837882564707   -0.00296640611464023
-0.0039134138377345615   -0.08399383388264953   -0.0029657531348613424
-0.008504520567829096   -0.08410458565729653   -0.003003560591159525
-0.00868045030684993   -0.09304837882564707   -0.00296640611464023
-0.005510348412429592   -0.09316784876927296   -0.0029565699489421025
-0.0039134138377345615   -0.08399383388264953   -0.0029657531348613424
-0.005286011148789315   -0.09317918830632853   -0.002821720923394765
-0.008504520567829096   -0.08410458565729653   -0.003003560591159525
-0.0037595454237809626   -0.08402048311910028   -0.0028656933581587343
-0.005286011148789315   -0.09317918830632853   -0.002821720923394765
-0.0039134138377345615   -0.08399383388264953   -0.0029657531348613424
-0.008504520567829096   -0.08410458565729653   -0.003003560591159525
-0.005286011148789315   -0.09317918830632853   -0.002821720923394765
-0.008474638776525928   -0.09308187537029859   -0.0029511248845272477
-0.00868045030684993   -0.09304837882564707   -0.00296640611464023
-0.008504520567829096   -0.08410458565729653   -0.003003560591159525
-0.005286011148789315   -0.09317918830632853   -0.002821720923394765
-0.00868045030684993   -0.09304837882564707   -0.00296640611464023
-0.0039134138377345615   -0.08399383388264953   -0.0029657531348613424
-0.008504520567829096   -0.08410458565729653   -0.003003560591159525
-0.008474638776525928   -0.09308187537029859   -0.0029511248845272477
-0.0037595454237809626   -0.08402048311910028   -0.0028656933581587343
-0.008355376706371176   -0.08421471406533675   -0.003002988021399822
-0.008474638776525928   -0.09308187537029859   -0.0029511248845272477
-0.005286011148789315   -0.09317918830632853   -0.002821720923394765
-0.0037595454237809626   -0.08402048311910028   -0.0028656933581587343
-0.0050994883175168254   -0.09325961154504792   -0.002707022327430754
-0.008355376706371176   -0.08421471406533675   -0.003002988021399822
-0.00362054584192625   -0.0840962267631189   -0.0027789763880192104
-0.0050994883175168254   -0.09325961154504792   -0.002707022327430754
-0.0037595454237809626   -0.08402048311910028   -0.0028656933581587343
-0.008355376706371176   -0.08421471406533675   -0.003002988021399822
-0.0050994883175168254   -0.09325961154504792   -0.002707022327430754
-0.008285302043856158   -0.09318330060206324   -0.0029528098662264823
-0.008474638776525928   -0.09308187537029859   -0.0029511248845272477
-0.008355376706371176   -0.08421471406533675   -0.003002988021399822
-0.0050994883175168254   -0.09325961154504792   -0.002707022327430754
-0.008474638776525928   -0.09308187537029859   -0.0029511248845272477
-0.0037595454237809626   -0.08402048311910028   -0.0028656933581587343
-0.004071974102933723   -0.0840100333278742   -0.0030804233017283763
-0.005745716925322078   -0.09321427344380669   -0.003103799468446831
0.0008769380350043234   -0.0838371319875318   -0.003165676133484437
-0.0039134138377345615   -0.08399383388264953   -0.0029657531348613424
-0.005745716925322078   -0.09321427344380669   -0.003103799468446831
-0.002401907242896507   -0.09318184354529158   -0.003231005367513191
0.0008769380350043234   -0.0838371319875318   -0.003165676133484437
-0.002099715516002326   -0.09310908577423196   -0.0029709942162900837
-0.0039134138377345615   -0.08399383388264953   -0.0029657531348613424
0.0010697968969301164   -0.08378444794733209   -0.002964449129402561
-0.002099715516002326   -0.09310908577423196   -0.0029709942162900837
0.0008769380350043234   -0.0838371319875318   -0.003165676133484437
-0.0039134138377345615   -0.08399383388264953   -0.0029657531348613424
-0.002099715516002326   -0.09310908577423196   -0.0029709942162900837
-0.005510348412429592   -0.09316784876927296   -0.0029565699489421025
-0.005745716925322078   -0.09321427344380669   -0.003103799468446831
-0.0039134138377345615   -0.08399383388264953   -0.0029657531348613424
-0.002099715516002326   -0.09310908577423196   -0.0029709942162900837
-0.005745716925322078   -0.09321427344380669   -0.003103799468446831
0.0008769380350043234   -0.0838371319875318   -0.003165676133484437
-0.0039134138377345615   -0.08399383388264953   -0.0029657531348613424
-0.005510348412429592   -0.09316784876927296   -0.0029565699489421025
0.0010697968969301164   -0.08378444794733209   -0.002964449129402561
-0.0037595454237809626   -0.08402048311910028   -0.0028656933581587343
-0.005510348412429592   -0.09316784876927296   -0.0029565699489421025
-0.002099715516002326   -0.09310908577423196   -0.0029709942162900837
0.0010697968969301164   -0.08378444794733209   -0.002964449129402561
-0.001790883236986423   -0.09309617423139613   -0.0027242362637797395
-0.0037595454237809626   -0.08402048311910028   -0.0028656933581587343
0.0012729896771141054   -0.0837796732341886   -0.0027817467618646416
-0.001790883236986423   -0.09309617423139613   -0.0027242362637797395
0.0010697968969301164   -0.08378444794733209   -0.002964449129402561
-0.0037595454237809626   -0.08402048311910028   -0.0028656933581587343
-0.001790883236986423   -0.09309617423139613   -0.0027242362637797395
-0.005286011148789315   -0.09317918830632853   -0.002821720923394765
-0.005510348412429592   -0.09316784876927296   -0.0029565699489421025
-0.0037595454237809626   -0.08402048311910028   -0.0028656933581587343
-0.001790883236986423   -0.09309617423139613   -0.0027242362637797395
-0.005510348412429592   -0.09316784876927296   -0.0029565699489421025
0.0010697968969301164   -0.08378444794733209   -0.002964449129402561
-0.0037595454237809626   -0.08402048311910028   -0.0028656933581587343
-0.005286011148789315   -0.09317918830632853   -0.002821720923394765
0.0012729896771141054   -0.0837796732341886   -0.0027817467618646416
-0.00362054584192625   -0.0840962267631189   -0.0027789763880192104
-0.005286011148789315   -0.09317918830632853   -0.002821720923394765
-0.001790883236986423   -0.09309617423139613   -0.0027242362637797395
0.0012729896771141054   -0.0837796732341886   -0.0027817467618646416
-0.0015620632390251769   -0.09315606260918767   -0.0025001906855473513
-0.00362054584192625   -0.0840962267631189   -0.0027789763880192104
0.001421599209139271   -0.08382063516865064   -0.0026118015380427783
-0.0015620632390251769   -0.09315606260918767   -0.0025001906855473513
0.0012729896771141054   -0.0837796732341886   -0.0027817467618646416
-0.00362054584192625   -0.0840962267631189   -0.0027789763880192104
-0.0015620632390251769   -0.09315606260918767   -0.0025001906855473513
-0.0050994883175168254   -0.09325961154504792   -0.002707022327430754
-0.005286011148789315   -0.09317918830632853   -0.002821720923394765
-0.00362054584192625   -0.0840962267631189   -0.0027789763880192104
-0.0015620632390251769   -0.09315606260918767   -0.0025001906855473513
-0.005286011148789315   -0.09317918830632853   -0.002821720923394765
0.0012729896771141054   -0.0837796732341886   -0.0027817467618646416
0.0008769380350043234   -0.0838371319875318   -0.003165676133484437
-0.002401907242896507   -0.09318184354529158   -0.003231005367513191
0.006154429664492332   -0.08349703522620225   -0.003348198456117767
0.0010697968969301164   -0.08378444794733209   -0.002964449129402561
-0.002401907242896507   -0.09318184354529158   -0.003231005367513191
0.0011990403978715059   -0.09286105525001488   -0.003492094275268626
0.006154429664492332   -0.08349703522620225   -0.003348198456117767
0.0019023710642234967   -0.09270259841844776   -0.003066702290765231
0.0010697968969301164   -0.08378444794733209   -0.002964449129402561
0.00664248743663339   -0.08339587828847335   -0.0030402498333883606
0.0019023710642234967   -0.09270259841844776   -0.003066702290765231
0.006154429664492332   -0.08349703522620225   -0.003348198456117767
0.0010697968969301164   -0.08378444794733209   -0.002964449129402561
0.0019023710642234967   -0.09270259841844776   -0.003066702290765231
-0.002099715516002326   -0.09310908577423196   -0.0029709942162900837
-0.002401907242896507   -0.09318184354529158   -0.003231005367513191
0.0010697968969301164   -0.08378444794733209   -0.002964449129402561
0.0019023710642234967   -0.09270259841844776   -0.003066702290765231
-0.002401907242896507   -0.09318184354529158   -0.003231005367513191
0.006154429664492332   -0.08349703522620225   -0.003348198456117767
0.0010697968969301164   -0.08378444794733209   -0.002964449129402561
-0.002099715516002326   -0.09310908577423196   -0.0029709942162900837
0.00664248743663339   -0.08339587828847335   -0.0030402498333883606
0.0012729896771141054   -0.0837796732341886   -0.0027817467618646416
-0.002099715516002326   -0.09310908577423196   -0.0029709942162900837
0.0019023710642234967   -0.09270259841844776   -0.003066702290765231
0.00664248743663339   -0.08339587828847335   -0.0030402498333883606
0.0024551544044214735   -0.09267044466620847   -0.0026673669794622414
0.0012729896771141054   -0.0837796732341886   -0.0027817467618646416
0.007016662414420791   -0.08337836391654785   -0.0027552717929767608
0.0024551544044214735   -0.09267044466620847   -0.0026673669794622414
0.00664248743663339   -0.08339587828847335   -0.0030402498333883606
0.0012729896771141054   -0.0837796732341886   -0.0027817467618646416
0.0024551544044214735   -0.09267044466620847   -0.0026673669794622414
-0.001790883236986423   -0.09309617423139613   -0.0027242362637797395
-0.002099715516002326   -0.09310908577423196   -0.0029709942162900837
0.0012729896771141054   -0.0837796732341886   -0.0027817467618646416
0.0024551544044214735   -0.09267044466620847   -0.0026673669794622414
-0.002099715516002326   -0.09310908577423196   -0.0029709942162900837
0.00664248743663339   -0.08339587828847335   -0.0030402498333883606
0.0012729896771141054   -0.0837796732341886   -0.0027817467618646416
-0.001790883236986423   -0.09309617423139613   -0.0027242362637797395
0.007016662414420791   -0.08337836391654785   -0.0027552717929767608
0.001421599209139271   -0.08382063516865064   -0.0026118015380427783
-0.001790883236986423   -0.09309617423139613   -0.0027242362637797395
0.0024551544044214735   -0.09267044466620847   -0.0026673669794622414
0.007016662414420791   -0.08337836391654785   -0.0027552717929767608
0.003029366353290021   -0.09269716834758895   -0.0023027613176235195
0.001421599209139271   -0.08382063516865064   -0.0026118015380427783
0.007404141870180438   -0.0834082968910288   -0.0024955959361109095
0.003029366353290021   -0.09269716834758895   -0.0023027613176235195
0.007016662414420791   -0.08337836391654785   -0.0027552717929767608
0.001421599209139271   -0.08382063516865064   -0.0026118015380427783
0.003029366353290021   -0.09269716834758895   -0.0023027613176235195
-0.0015620632390251769   -0.09315606260918767   -0.0025001906855473513
-0.001790883236986423   -0.09309617423139613   -0.0027242362637797395
0.001421599209139271   -0.08382063516865064   -0.0026118015380427783
0.003029366353290021   -0.09269716834758895   -0.0023027613176235195
-0.001790883236986423   -0.09309617423139613   -0.0027242362637797395
0.007016662414420791   -0.08337836391654785   -0.0027552717929767608
-0.016190107825314628   -0.0924373443936512   -0.0027870809140198476
-0.01186405459466893   -0.09766165523468609   -0.0024523619442780283
-0.012171411643820232   -0.09282739660734574   -0.002904125279922543
-0.01575196728463511   -0.09242631090023087   -0.0030453060868434506
-0.01186405459466893   -0.09766165523468609   -0.0024523619442780283
-0.009996166096146909   -0.09815514762451352   -0.002749184146058482
-0.012171411643820232   -0.09282739660734574   -0.002904125279922543
-0.009739372447410138   -0.09805744129336065   -0.002851014013842828
-0.01575196728463511   -0.09242631090023087   -0.0030453060868434506
-0.011968002797389158   -0.09280722265282976   -0.002999891733351992
-0.009739372447410138   -0.09805744129336065   -0.002851014013842828
-0.012171411643820232   -0.09282739660734574   -0.002904125279922543
-0.01575196728463511   -0.09242631090023087   -0.0030453060868434506
-0.009739372447410138   -0.09805744129336065   -0.002851014013842828
-0.011317806460287107   -0.09755160511406603   -0.0027622096849618315
-0.01186405459466893   -0.09766165523468609   -0.0024523619442780283
-0.01575196728463511   -0.09242631090023087   -0.0030453060868434506
-0.009739372447410138   -0.09805744129336065   -0.002851014013842828
-0.01186405459466893   -0.09766165523468609   -0.0024523619442780283
-0.012171411643820232   -0.09282739660734574   -0.002904125279922543
-0.01575196728463511   -0.09242631090023087   -0.0030453060868434506
-0.011317806460287107   -0.09755160511406603   -0.0027622096849618315
-0.011968002797389158   -0.09280722265282976   -0.002999891733351992
-0.015348037815989138   -0.0924955203141903   -0.0033238661138925794
-0.011317806460287107   -0.09755160511406603   -0.0027622096849618315
-0.009739372447410138   -0.09805744129336065   -0.002851014013842828
-0.011968002797389158   -0.09280722265282976   -0.002999891733351992
-0.009455057978239088   -0.09806201258209804   -0.002953871437282995
-0.015348037815989138   -0.0924955203141903   -0.0033238661138925794
-0.011728817220175412   -0.09286321845070954   -0.0031100998027096772
-0.009455057978239088   -0.09806201258209804   -0.002953871437282995
-0.011968002797389158   -0.09280722265282976   -0.002999891733351992
-0.015348037815989138   -0.0924955203141903   -0.0033238661138925794
-0.009455057978239088   -0.09806201258209804   -0.002953871437282995
-0.010846479111713887   -0.09756073122009074   -0.0030708414266852895
-0.011317806460287107   -0.09755160511406603   -0.0027622096849618315
-0.015348037815989138   -0.0924955203141903   -0.0033238661138925794
-0.009455057978239088   -0.09806201258209804   -0.002953871437282995
-0.011317806460287107   -0.09755160511406603   -0.0027622096849618315
-0.011968002797389158   -0.09280722265282976   -0.002999891733351992
-0.015348037815989138   -0.0924955203141903   -0.0033238661138925794
-0.010846479111713887   -0.09756073122009074   -0.0030708414266852895
-0.011728817220175412   -0.09286321845070954   -0.0031100998027096772
-0.014855418826751164   -0.09268053097613045   -0.0036215567146988497
-0.010846479111713887   -0.09756073122009074   -0.0030708414266852895
-0.009455057978239088   -0.09806201258209804   -0.002953871437282995
-0.011728817220175412   -0.09286321845070954   -0.0031100998027096772
-0.009190882532605705   -0.09816932444578168   -0.003058187682233413
-0.014855418826751164   -0.09268053097613045   -0.0036215567146988497
-0.011511825941902927   -0.09299665147652407   -0.003233824651894193
-0.009190882532605705   -0.09816932444578168   -0.003058187682233413
-0.011728817220175412   -0.09286321845070954   -0.0031100998027096772
-0.014855418826751164   -0.09268053097613045   -0.0036215567146988497
-0.009190882532605705   -0.09816932444578168   -0.003058187682233413
-0.01028749925001365   -0.09769584912527544   -0.0033861281910323037
-0.010846479111713887   -0.09756073122009074   -0.0030708414266852895
-0.014855418826751164   -0.09268053097613045   -0.0036215567146988497
-0.009190882532605705   -0.09816932444578168   -0.003058187682233413
-0.010846479111713887   -0.09756073122009074   -0.0030708414266852895
-0.011728817220175412   -0.09286321845070954   -0.0031100998027096772
-0.012171411643820232   -0.09282739660734574   -0.002904125279922543
-0.009996166096146909   -0.09815514762451352   -0.002749184146058482
-0.008889230640868055   -0.09308061303707788   -0.002995710253673483
-0.011968002797389158   -0.09280722265282976   -0.002999891733351992
-0.009996166096146909   -0.09815514762451352   -0.002749184146058482
-0.008629211159268792   -0.09865133089382688   -0.003011579694647626
-0.008889230640868055   -0.09308061303707788   -0.002995710253673483
-0.008358188260114892   -0.09855112906452258   -0.0029399721406841825
-0.011968002797389158   -0.09280722265282976   -0.002999891733351992
-0.00868045030684993   -0.09304837882564707   -0.00296640611464023
-0.008358188260114892   -0.09855112906452258   -0.0029399721406841825
-0.008889230640868055   -0.09308061303707788   -0.002995710253673483
-0.011968002797389158   -0.09280722265282976   -0.002999891733351992
-0.008358188260114892   -0.09855112906452258   -0.0029399721406841825
-0.009739372447410138   -0.09805744129336065   -0.002851014013842828
-0.009996166096146909   -0.09815514762451352   -0.002749184146058482
-0.011968002797389158   -0.09280722265282976   -0.002999891733351992
-0.008358188260114892   -0.09855112906452258   -0.0029399721406841825
-0.009996166096146909   -0.09815514762451352   -0.002749184146058482
-0.008889230640868055   -0.09308061303707788   -0.002995710253673483
-0.011968002797389158   -0.09280722265282976   -0.002999891733351992
-0.009739372447410138   -0.09805744129336065   -0.002851014013842828
-0.00868045030684993   -0.09304837882564707   -0.00296640611464023
-0.011728817220175412   -0.09286321845070954   -0.0031100998027096772
-0.009739372447410138   -0.09805744129336065   -0.002851014013842828
-0.008358188260114892   -0.09855112906452258   -0.0029399721406841825
-0.00868045030684993   -0.09304837882564707   -0.00296640611464023
-0.008096189687345426   -0.09854914079806468   -0.0028674679319603295
-0.011728817220175412   -0.09286321845070954   -0.0031100998027096772
-0.008474638776525928   -0.09308187537029859   -0.0029511248845272477
-0.008096189687345426   -0.09854914079806468   -0.0028674679319603295
-0.00868045030684993   -0.09304837882564707   -0.00296640611464023
-0.011728817220175412   -0.09286321845070954   -0.0031100998027096772
-0.008096189687345426   -0.09854914079806468   -0.0028674679319603295
-0.009455057978239088   -0.09806201258209804   -0.002953871437282995
-0.009739372447410138   -0.09805744129336065   -0.002851014013842828
-0.011728817220175412   -0.09286321845070954   -0.0031100998027096772
-0.008096189687345426   -0.09854914079806468   -0.0028674679319603295
-0.009739372447410138   -0.09805744129336065   -0.002851014013842828
-0.00868045030684993   -0.09304837882564707   -0.00296640611464023
-0.011728817220175412   -0.09286321845070954   -0.0031100998027096772
-0.009455057978239088   -0.09806201258209804   -0.002953871437282995
-0.008474638776525928   -0.09308187537029859   -0.0029511248845272477
-0.011511825941902927   -0.09299665147652407   -0.003233824651894193
-0.009455057978239088   -0.09806201258209804   -0.002953871437282995
-0.008096189687345426   -0.09854914079806468   -0.0028674679319603295
-0.008474638776525928   -0.09308187537029859   -0.0029511248845272477
-0.007823014465195306   -0.09864330409499704   -0.0027978120086625687
-0.011511825941902927   -0.09299665147652407   -0.003233824651894193
-0.008285302043856158   -0.09318330060206324   -0.0029528098662264823
-0.007823014465195306   -0.09864330409499704   -0.0027978120086625687
-0.008474638776525928   -0.09308187537029859   -0.0029511248845272477
-0.011511825941902927   -0.09299665147652407   -0.003233824651894193
-0.007823014465195306   -0.09864330409499704   -0.0027978120086625687
-0.009190882532605705   -0.09816932444578168   -0.003058187682233413
-0.009455057978239088   -0.09806201258209804   -0.002953871437282995
-0.011511825941902927   -0.09299665147652407   -0.003233824651894193
-0.007823014465195306   -0.09864330409499704   -0.0027978120086625687
-0.009455057978239088   -0.09806201258209804   -0.002953871437282995
-0.008474638776525928   -0.09308187537029859   -0.0029511248845272477
-0.008889230640868055   -0.09308061303707788   -0.002995710253673483
-0.008629211159268792   -0.09865133089382688   -0.003011579694647626
-0.005745716925322078   -0.09321427344380669   -0.003103799468446831
-0.00868045030684993   -0.09304837882564707   -0.00296640611464023
-0.008629211159268792   -0.09865133089382688   -0.003011579694647626
-0.007381200624275433   -0.09925107163766211   -0.003300405265809134
-0.005745716925322078   -0.09321427344380669   -0.003103799468446831
-0.0070488982870958086   -0.09916421278507413   -0.0030456121193749982
-0.00868045030684993   -0.09304837882564707   -0.00296640611464023
-0.005510348412429592   -0.09316784876927296   -0.0029565699489421025
-0.0070488982870958086   -0.09916421278507413   -0.0030456121193749982
-0.005745716925322078   -0.09321427344380669   -0.003103799468446831
-0.00868045030684993   -0.09304837882564707   -0.00296640611464023
-0.0070488982870958086   -0.09916421278507413   -0.0030456121193749982
-0.008358188260114892   -0.09855112906452258   -0.0029399721406841825
-0.008629211159268792   -0.09865133089382688   -0.003011579694647626
-0.00868045030684993   -0.09304837882564707   -0.00296640611464023
-0.0070488982870958086   -0.09916421278507413   -0.0030456121193749982
-0.008629211159268792   -0.09865133089382688   -0.003011579694647626
-0.005745716925322078   -0.09321427344380669   -0.003103799468446831
-0.00868045030684993   -0.09304837882564707   -0.00296640611464023
-0.008358188260114892   -0.09855112906452258   -0.0029399721406841825
-0.005510348412429592   -0.09316784876927296   -0.0029565699489421025
-0.008474638776525928   -0.09308187537029859   -0.0029511248845272477
-0.008358188260114892   -0.09855112906452258   -0.0029399721406841825
-0.0070488982870958086   -0.09916421278507413   -0.0030456121193749982
-0.005510348412429592   -0.09316784876927296   -0.0029565699489421025
-0.0067410549220908765   -0.09915945234461453   -0.0027917183684437485
-0.008474638776525928   -0.09308187537029859   -0.0029511248845272477
-0.005286011148789315   -0.09317918830632853   -0.002821720923394765
-0.0067410549220908765   -0.09915945234461453   -0.0027917183684437485
-0.005510348412429592   -0.09316784876927296   -0.0029565699489421025
-0.008474638776525928   -0.09308187537029859   -0.0029511248845272477
-0.0067410549220908765   -0.09915945234461453   -0.0027917183684437485
-0.008096189687345426   -0.09854914079806468   -0.0028674679319603295
-0.008358188260114892   -0.09855112906452258   -0.0029399721406841825
-0.008474638776525928   -0.09308187537029859   -0.0029511248845272477
-0.0067410549220908765   -0.09915945234461453   -0.0027917183684437485
-0.008358188260114892   -0.09855112906452258   -0.0029399721406841825
-0.005510348412429592   -0.09316784876927296   -0.0029565699489421025
-0.008474638776525928   -0.09308187537029859   -0.0029511248845272477
-0.008096189687345426   -0.09854914079806468   -0.0028674679319603295
-0.005286011148789315   -0.09317918830632853   -0.002821720923394765
-0.008285302043856158   -0.09318330060206324   -0.0029528098662264823
-0.008096189687345426   -0.09854914079806468   -0.0028674679319603295
-0.0067410549220908765   -0.09915945234461453   -0.0027917183684437485
-0.005286011148789315   -0.09317918830632853   -0.002821720923394765
-0.006410468414820069   -0.09923232726953371   -0.002537193682084256
-0.008285302043856158   -0.09318330060206324   -0.0029528098662264823
-0.0050994883175168254   -0.09325961154504792   -0.002707022327430754
-0.006410468414820069   -0.09923232726953371   -0.002537193682084256
-0.005286011148789315   -0.09317918830632853   -0.002821720923394765
-0.008285302043856158   -0.09318330060206324   -0.0029528098662264823
-0.006410468414820069   -0.09923232726953371   -0.002537193682084256
-0.007823014465195306   -0.09864330409499704   -0.0027978120086625687
-0.008096189687345426   -0.09854914079806468   -0.0028674679319603295
-0.008285302043856158   -0.09318330060206324   -0.0029528098662264823
-0.006410468414820069   -0.09923232726953371   -0.002537193682084256
-0.008096189687345426   -0.09854914079806468   -0.0028674679319603295
-0.005286011148789315   -0.09317918830632853   -0.002821720923394765
-0.005745716925322078   -0.09321427344380669   -0.003103799468446831
-0.007381200624275433   -0.09925107163766211   -0.003300405265809134
-0.002401907242896507   -0.09318184354529158   -0.003231005367513191
-0.005510348412429592   -0.09316784876927296   -0.0029565699489421025
-0.007381200624275433   -0.09925107163766211   -0.003300405265809134
-0.006152941450582231   -0.1   -0.0035217850809932667
-0.002401907242896507   -0.09318184354529158   -0.003231005367513191
-0.005735135306632424   -0.1   -0.0031352001257388025
-0.005510348412429592   -0.09316784876927296   -0.0029565699489421025
-0.002099715516002326   -0.09310908577423196   -0.0029709942162900837
-0.005735135306632424   -0.1   -0.0031352001257388025
-0.002401907242896507   -0.09318184354529158   -0.003231005367513191
-0.005510348412429592   -0.09316784876927296   -0.0029565699489421025
-0.005735135306632424   -0.1   -0.0031352001257388025
-0.0070488982870958086   -0.09916421278507413   -0.0030456121193749982
-0.007381200624275433   -0.09925107163766211   -0.003300405265809134
-0.005510348412429592   -0.09316784876927296   -0.0029565699489421025
-0.005735135306632424   -0.1   -0.0031352001257388025
-0.007381200624275433   -0.09925107163766211   -0.003300405265809134
-0.002401907242896507   -0.09318184354529158   -0.003231005367513191
-0.005510348412429592   -0.09316784876927296   -0.0029565699489421025
-0.0070488982870958086   -0.09916421278507413   -0.0030456121193749982
-0.002099715516002326   -0.09310908577423196   -0.0029709942162900837
-0.005286011148789315   -0.09317918830632853   -0.002821720923394765
-0.0070488982870958086   -0.09916421278507413   -0.0030456121193749982
-0.005735135306632424   -0.1   -0.0031352001257388025
-0.002099715516002326   -0.09310908577423196   -0.0029709942162900837
-0.005315459444772929   -0.1   -0.002744026640940951
-0.005286011148789315   -0.09317918830632853   -0.002821720923394765
-0.001790883236986423   -0.09309617423139613   -0.0027242362637797395
-0.005315459444772929   -0.1   -0.002744026640940951
-0.002099715516002326   -0.09310908577423196   -0.0029709942162900837
-0.005286011148789315   -0.09317918830632853   -0.002821720923394765
-0.005315459444772929   -0.1   -0.002744026640940951
-0.0067410549220908765   -0.09915945234461453   -0.0027917183684437485
-0.0070488982870958086   -0.09916421278507413   -0.0030456121193749982
-0.005286011148789315   -0.09317918830632853   -0.002821720923394765
-0.005315459444772929   -0.1   -0.002744026640940951
-0.0070488982870958086   -0.09916421278507413   -0.0030456121193749982
-0.002099715516002326   -0.09310908577423196   -0.0029709942162900837
-0.005286011148789315   -0.09317918830632853   -0.002821720923394765
-0.0067410549220908765   -0.09915945234461453   -0.0027917183684437485
-0.001790883236986423   -0.09309617423139613   -0.0027242362637797395
-0.0050994883175168254   -0.09325961154504792   -0.002707022327430754
-0.0067410549220908765   -0.09915945234461453   -0.0027917183684437485
-0.005315459444772929   -0.1   -0.002744026640940951
-0.001790883236986423   -0.09309617423139613   -0.0027242362637797395
-0.004905070664007854   -0.1   -0.0023580146329789603
-0.0050994883175168254   -0.09325961154504792   -0.002707022327430754
-0.0015620632390251769   -0.09315606260918767   -0.0025001906855473513
-0.004905070664007854   -0.1   -0.0023580146329789603
-0.001790883236986423   -0.09309617423139613   -0.0027242362637797395
-0.0050994883175168254   -0.09325961154504792   -0.002707022327430754
-0.004905070664007854   -0.1   -0.0023580146329789603
-0.006410468414820069   -0.09923232726953371   -0.002537193682084256
-0.0067410549220908765   -0.09915945234461453   -0.0027917183684437485
-0.0050994883175168254   -0.09325961154504792   -0.002707022327430754
-0.004905070664007854   -0.1   -0.0023580146329789603
-0.0067410549220908765   -0.09915945234461453   -0.0027917183684437485
-0.001790883236986423   -0.09309617423139613   -0.0027242362637797395
-0.002401907242896507   -0.09318184354529158   -0.003231005367513191
-0.006152941450582231   -0.1   -0.0035217850809932667
0.0011990403978715059   -0.09286105525001488   -0.003492094275268626
-0.002099715516002326   -0.09310908577423196   -0.0029709942162900837
-0.006152941450582231   -0.1   -0.0035217850809932667
-0.005263253417689692   -0.1   -0.00378990169573115
0.0011990403978715059   -0.09286105525001488   -0.003492094275268626
-0.004390626558328284   -0.1   -0.0032308427643977246
-0.002099715516002326   -0.09310908577423196   -0.0029709942162900837
0.0019023710642234967   -0.09270259841844776   -0.003066702290765231
-0.004390626558328284   -0.1   -0.0032308427643977246
0.0011990403978715059   -0.09286105525001488   -0.003492094275268626
-0.002099715516002326   -0.09310908577423196   -0.0029709942162900837
-0.004390626558328284   -0.1   -0.0032308427643977246
-0.005735135306632424   -0.1   -0.0031352001257388025
-0.006152941450582231   -0.1   -0.0035217850809932667
-0.002099715516002326   -0.09310908577423196   -0.0029709942162900837
-0.004390626558328284   -0.1   -0.0032308427643977246
-0.006152941450582231   -0.1   -0.0035217850809932667
0.0011990403978715059   -0.09286105525001488   -0.003492094275268626
-0.002099715516002326   -0.09310908577423196   -0.0029709942162900837
-0.005735135306632424   -0.1   -0.0031352001257388025
0.0019023710642234967   -0.09270259841844776   -0.003066702290765231
-0.001790883236986423   -0.09309617423139613   -0.0027242362637797395
-0.005735135306632424   -0.1   -0.0031352001257388025
-0.004390626558328284   -0.1   -0.0032308427643977246
0.0019023710642234967   -0.09270259841844776   -0.003066702290765231
-0.003694709934139187   -0.1   -0.0026960209898405866
-0.001790883236986423   -0.09309617423139613   -0.0027242362637797395
0.0024551544044214735   -0.09267044466620847   -0.0026673669794622414
-0.003694709934139187   -0.1   -0.0026960209898405866
0.0019023710642234967   -0.09270259841844776   -0.003066702290765231
-0.001790883236986423   -0.09309617423139613   -0.0027242362637797395
-0.003694709934139187   -0.1   -0.0026960209898405866
-0.005315459444772929   -0.1   -0.002744026640940951
-0.005735135306632424   -0.1   -0.0031352001257388025
-0.001790883236986423   -0.09309617423139613   -0.0027242362637797395
-0.003694709934139187   -0.1   -0.0026960209898405866
-0.005735135306632424   -0.1   -0.0031352001257388025
0.0019023710642234967   -0.09270259841844776   -0.003066702290765231
-0.001790883236986423   -0.09309617423139613   -0.0027242362637797395
-0.005315459444772929   -0.1   -0.002744026640940951
0.0024551544044214735   -0.09267044466620847   -0.0026673669794622414
-0.0015620632390251769   -0.09315606260918767   -0.0025001906855473513
-0.005315459444772929   -0.1   -0.002744026640940951
-0.003694709934139187   -0.1   -0.0026960209898405866
0.0024551544044214735   -0.09267044466620847   -0.0026673669794622414
-0.0028350025280998886   -0.1   -0.0021408264538204103
-0.0015620632390251769   -0.09315606260918767   -0.0025001906855473513
0.003029366353290021   -0.09269716834758895   -0.0023027613176235195
-0.0028350025280998886   -0.1   -0.0021408264538204103
0.0024551544044214735   -0.09267044466620847   -0.0026673669794622414
-0.0015620632390251769   -0.09315606260918767   -0.0025001906855473513
-0.0028350025280998886   -0.1   -0.0021408264538204103
-0.004905070664007854   -0.1   -0.0023580146329789603
-0.005315459444772929   -0.1   -0.002744026640940951
-0.0015620632390251769   -0.09315606260918767   -0.0025001906855473513
-0.0028350025280998886   -0.1   -0.0021408264538204103
-0.005315459444772929   -0.1   -0.002744026640940951
0.0024551544044214735   -0.09267044466620847   -0.0026673669794622414
-0.01186405459466893   -0.09766165523468609   -0.0024523619442780283
-0.007077913418855816   -0.09791667929618798   -0.0020988234396041934
-0.009996166096146909   -0.09815514762451352   -0.002749184146058482
-0.011317806460287107   -0.09755160511406603   -0.0027622096849618315
-0.007077913418855816   -0.09791667929618798   -0.0020988234396041934
-0.007512160621322597   -0.0982965904705923   -0.0024809798642935325
-0.009996166096146909   -0.09815514762451352   -0.002749184146058482
-0.007318020083042106   -0.09816320430582037   -0.0026200482157982667
-0.011317806460287107   -0.09755160511406603   -0.0027622096849618315
-0.009739372447410138   -0.09805744129336065   -0.002851014013842828
-0.007318020083042106   -0.09816320430582037   -0.0026200482157982667
-0.009996166096146909   -0.09815514762451352   -0.002749184146058482
-0.011317806460287107   -0.09755160511406603   -0.0027622096849618315
-0.007318020083042106   -0.09816320430582037   -0.0026200482157982667
-0.0065830784867417225   -0.09774543792917312   -0.0024243434306024272
-0.007077913418855816   -0.09791667929618798   -0.0020988234396041934
-0.011317806460287107   -0.09755160511406603   -0.0027622096849618315
-0.007318020083042106   -0.09816320430582037   -0.0026200482157982667
-0.007077913418855816   -0.09791667929618798   -0.0020988234396041934
-0.009996166096146909   -0.09815514762451352   -0.002749184146058482
-0.011317806460287107   -0.09755160511406603   -0.0027622096849618315
-0.0065830784867417225   -0.09774543792917312   -0.0024243434306024272
-0.009739372447410138   -0.09805744129336065   -0.002851014013842828
-0.010846479111713887   -0.09756073122009074   -0.0030708414266852895
-0.0065830784867417225   -0.09774543792917312   -0.0024243434306024272
-0.007318020083042106   -0.09816320430582037   -0.0026200482157982667
-0.009739372447410138   -0.09805744129336065   -0.002851014013842828
-0.007090368122631424   -0.09811370203689448   -0.0027483091995181047
-0.010846479111713887   -0.09756073122009074   -0.0030708414266852895
-0.009455057978239088   -0.09806201258209804   -0.002953871437282995
-0.007090368122631424   -0.09811370203689448   -0.0027483091995181047
-0.009739372447410138   -0.09805744129336065   -0.002851014013842828
-0.010846479111713887   -0.09756073122009074   -0.0030708414266852895
-0.007090368122631424   -0.09811370203689448   -0.0027483091995181047
-0.006171154308592475   -0.09769242563551964   -0.0027364497221163383
-0.0065830784867417225   -0.09774543792917312   -0.0024243434306024272
-0.010846479111713887   -0.09756073122009074   -0.0030708414266852895
-0.007090368122631424   -0.09811370203689448   -0.0027483091995181047
-0.0065830784867417225   -0.09774543792917312   -0.0024243434306024272
-0.009739372447410138   -0.09805744129336065   -0.002851014013842828
-0.010846479111713887   -0.09756073122009074   -0.0030708414266852895
-0.006171154308592475   -0.09769242563551964   -0.0027364497221163383
-0.009455057978239088   -0.09806201258209804   -0.002953871437282995
-0.01028749925001365   -0.09769584912527544   -0.0033861281910323037
-0.006171154308592475   -0.09769242563551964   -0.0027364497221163383
-0.007090368122631424   -0.09811370203689448   -0.0027483091995181047
-0.009455057978239088   -0.09806201258209804   -0.002953871437282995
-0.006895314357908496   -0.09814878727001107   -0.002865087265389083
-0.01028749925001365   -0.09769584912527544   -0.0033861281910323037
-0.009190882532605705   -0.09816932444578168   -0.003058187682233413
-0.006895314357908496   -0.09814878727001107   -0.002865087265389083
-0.009455057978239088   -0.09806201258209804   -0.002953871437282995
-0.01028749925001365   -0.09769584912527544   -0.0033861281910323037
-0.006895314357908496   -0.09814878727001107   -0.002865087265389083
-0.005705243428106338   -0.09773621031133968   -0.003033745862765981
-0.006171154308592475   -0.09769242563551964   -0.0027364497221163383
-0.01028749925001365   -0.09769584912527544   -0.0033861281910323037
-0.006895314357908496   -0.09814878727001107   -0.002865087265389083
-0.006171154308592475   -0.09769242563551964   -0.0027364497221163383
-0.009455057978239088   -0.09806201258209804   -0.002953871437282995
-0.009996166096146909   -0.09815514762451352   -0.002749184146058482
-0.007512160621322597   -0.0982965904705923   -0.0024809798642935325
-0.008629211159268792   -0.09865133089382688   -0.003011579694647626
-0.009739372447410138   -0.09805744129336065   -0.002851014013842828
-0.007512160621322597   -0.0982965904705923   -0.0024809798642935325
-0.008097873422648984   -0.09853191452942894   -0.0027866009930151868
-0.008629211159268792   -0.09865133089382688   -0.003011579694647626
-0.00792601117007463   -0.09841282748357649   -0.0027903063637870007
-0.009739372447410138   -0.09805744129336065   -0.002851014013842828
-0.008358188260114892   -0.09855112906452258   -0.0029399721406841825
-0.00792601117007463   -0.09841282748357649   -0.0027903063637870007
-0.008629211159268792   -0.09865133089382688   -0.003011579694647626
-0.009739372447410138   -0.09805744129336065   -0.002851014013842828
-0.00792601117007463   -0.09841282748357649   -0.0027903063637870007
-0.007318020083042106   -0.09816320430582037   -0.0026200482157982667
-0.007512160621322597   -0.0982965904705923   -0.0024809798642935325
-0.009739372447410138   -0.09805744129336065   -0.002851014013842828
-0.00792601117007463   -0.09841282748357649   -0.0027903063637870007
-0.007512160621322597   -0.0982965904705923   -0.0024809798642935325
-0.008629211159268792   -0.09865133089382688   -0.003011579694647626
-0.009739372447410138   -0.09805744129336065   -0.002851014013842828
-0.007318020083042106   -0.09816320430582037   -0.0026200482157982667
-0.008358188260114892   -0.09855112906452258   -0.0029399721406841825
-0.009455057978239088   -0.09806201258209804   -0.002953871437282995
-0.007318020083042106   -0.09816320430582037   -0.0026200482157982667
-0.00792601117007463   -0.09841282748357649   -0.0027903063637870007
-0.008358188260114892   -0.09855112906452258   -0.0029399721406841825
-0.007734700701021493   -0.09836971847455404   -0.002779999648258007
-0.009455057978239088   -0.09806201258209804   -0.002953871437282995
-0.008096189687345426   -0.09854914079806468   -0.0028674679319603295
-0.007734700701021493   -0.09836971847455404   -0.002779999648258007
-0.008358188260114892   -0.09855112906452258   -0.0029399721406841825
-0.009455057978239088   -0.09806201258209804   -0.002953871437282995
-0.007734700701021493   -0.09836971847455404   -0.002779999648258007
-0.007090368122631424   -0.09811370203689448   -0.0027483091995181047
-0.007318020083042106   -0.09816320430582037   -0.0026200482157982667
-0.009455057978239088   -0.09806201258209804   -0.002953871437282995
-0.007734700701021493   -0.09836971847455404   -0.002779999648258007
-0.007318020083042106   -0.09816320430582037   -0.0026200482157982667
-0.008358188260114892   -0.09855112906452258   -0.0029399721406841825
-0.009455057978239088   -0.09806201258209804   -0.002953871437282995
-0.007090368122631424   -0.09811370203689448   -0.0027483091995181047
-0.008096189687345426   -0.09854914079806468   -0.0028674679319603295
-0.009190882532605705   -0.09816932444578168   -0.003058187682233413
-0.007090368122631424   -0.09811370203689448   -0.0027483091995181047
-0.007734700701021493   -0.09836971847455404   -0.002779999648258007
-0.008096189687345426   -0.09854914079806468   -0.0028674679319603295
-0.007540169252931694   -0.09839909304456342   -0.0027586988252858674
-0.009190882532605705   -0.09816932444578168   -0.003058187682233413
-0.007823014465195306   -0.09864330409499704   -0.0027978120086625687
-0.007540169252931694   -0.09839909304456342   -0.0027586988252858674
-0.008096189687345426   -0.09854914079806468   -0.0028674679319603295
-0.009190882532605705   -0.09816932444578168   -0.003058187682233413
-0.007540169252931694   -0.09839909304456342   -0.0027586988252858674
-0.006895314357908496   -0.09814878727001107   -0.002865087265389083
-0.007090368122631424   -0.09811370203689448   -0.0027483091995181047
-0.009190882532605705   -0.09816932444578168   -0.003058187682233413
-0.007540169252931694   -0.09839909304456342   -0.0027586988252858674
-0.007090368122631424   -0.09811370203689448   -0.0027483091995181047
-0.008096189687345426   -0.09854914079806468   -0.0028674679319603295
-0.008629211159268792   -0.09865133089382688   -0.003011579694647626
-0.008097873422648984   -0.09853191452942894   -0.0027866009930151868
-0.007381200624275433   -0.09925107163766211   -0.003300405265809134
-0.008358188260114892   -0.09855112906452258   -0.0029399721406841825
-0.008097873422648984   -0.09853191452942894   -0.0027866009930151868
-0.00872548678954016   -0.09863151148539188   -0.0030873306983741676
-0.007381200624275433   -0.09925107163766211   -0.003300405265809134
-0.008547458752190363   -0.09851801685253657   -0.002960882053025663
-0.008358188260114892   -0.09855112906452258   -0.0029399721406841825
-0.0070488982870958086   -0.09916421278507413   -0.0030456121193749982
-0.008547458752190363   -0.09851801685253657   -0.002960882053025663
-0.007381200624275433   -0.09925107163766211   -0.003300405265809134
-0.008358188260114892   -0.09855112906452258   -0.0029399721406841825
-0.008547458752190363   -0.09851801685253657   -0.002960882053025663
-0.00792601117007463   -0.09841282748357649   -0.0027903063637870007
-0.008097873422648984   -0.09853191452942894   -0.0027866009930151868
-0.008358188260114892   -0.09855112906452258   -0.0029399721406841825
-0.008547458752190363   -0.09851801685253657   -0.002960882053025663
-0.008097873422648984   -0.09853191452942894   -0.0027866009930151868
-0.007381200624275433   -0.09925107163766211   -0.003300405265809134
-0.008358188260114892   -0.09855112906452258   -0.0029399721406841825
-0.00792601117007463   -0.09841282748357649   -0.0027903063637870007
-0.0070488982870958086   -0.09916421278507413   -0.0030456121193749982
-0.008096189687345426   -0.09854914079806468   -0.0028674679319603295
-0.00792601117007463   -0.09841282748357649   -0.0027903063637870007
-0.008547458752190363   -0.09851801685253657   -0.002960882053025663
-0.0070488982870958086   -0.09916421278507413   -0.0030456121193749982
-0.008333868591791825   -0.09848174808838986   -0.0028173697210272003
-0.008096189687345426   -0.09854914079806468   -0.0028674679319603295
-0.0067410549220908765   -0.09915945234461453   -0.0027917183684437485
-0.008333868591791825   -0.09848174808838986   -0.0028173697210272003
-0.0070488982870958086   -0.09916421278507413   -0.0030456121193749982
-0.008096189687345426   -0.09854914079806468   -0.0028674679319603295
-0.008333868591791825   -0.09848174808838986   -0.0028173697210272003
-0.007734700701021493   -0.09836971847455404   -0.002779999648258007
-0.00792601117007463   -0.09841282748357649   -0.0027903063637870007
-0.008096189687345426   -0.09854914079806468   -0.0028674679319603295
-0.008333868591791825   -0.09848174808838986   -0.0028173697210272003
-0.00792601117007463   -0.09841282748357649   -0.0027903063637870007
-0.0070488982870958086   -0.09916421278507413   -0.0030456121193749982
-0.008096189687345426   -0.09854914079806468   -0.0028674679319603295
-0.007734700701021493   -0.09836971847455404   -0.002779999648258007
-0.0067410549220908765   -0.09915945234461453   -0.0027917183684437485
-0.007823014465195306   -0.09864330409499704   -0.0027978120086625687
-0.007734700701021493   -0.09836971847455404   -0.002779999648258007
-0.008333868591791825   -0.09848174808838986   -0.0028173697210272003
-0.0067410549220908765   -0.09915945234461453   -0.0027917183684437485
-0.008114184854989036   -0.09851051222098468   -0.002664481205314011
-0.007823014465195306   -0.09864330409499704   -0.0027978120086625687
-0.006410468414820069   -0.09923232726953371   -0.002537193682084256
-0.008114184854989036   -0.09851051222098468   -0.002664481205314011
-0.0067410549220908765   -0.09915945234461453   -0.0027917183684437485
-0.007823014465195306   -0.09864330409499704   -0.0027978120086625687
-0.008114184854989036   -0.09851051222098468   -0.002664481205314011
-0.007540169252931694   -0.09839909304456342   -0.0027586988252858674
-0.007734700701021493   -0.09836971847455404   -0.002779999648258007
-0.007823014465195306   -0.09864330409499704   -0.0027978120086625687
-0.008114184854989036   -0.09851051222098468   -0.002664481205314011
-0.007734700701021493   -0.09836971847455404   -0.002779999648258007
-0.0067410549220908765   -0.09915945234461453   -0.0027917183684437485
-0.007381200624275433   -0.09925107163766211   -0.003300405265809134
-0.00872548678954016   -0.09863151148539188   -0.0030873306983741676
-0.006152941450582231   -0.1   -0.0035217850809932667
-0.0070488982870958086   -0.09916421278507413   -0.0030456121193749982
-0.00872548678954016   -0.09863151148539188   -0.0030873306983741676
-0.00963425779873025   -0.09852624403985971   -0.0033728637586480726
-0.006152941450582231   -0.1   -0.0035217850809932667
-0.009401691761894782   -0.09841920127021016   -0.003122541508892704
-0.0070488982870958086   -0.09916421278507413   -0.0030456121193749982
-0.005735135306632424   -0.1   -0.0031352001257388025
-0.009401691761894782   -0.09841920127021016   -0.003122541508892704
-0.006152941450582231   -0.1   -0.0035217850809932667
-0.0070488982870958086   -0.09916421278507413   -0.0030456121193749982
-0.009401691761894782   -0.09841920127021016   -0.003122541508892704
-0.008547458752190363   -0.09851801685253657   -0.002960882053025663
-0.00872548678954016   -0.09863151148539188   -0.0030873306983741676
-0.0070488982870958086   -0.09916421278507413   -0.0030456121193749982
-0.009401691761894782   -0.09841920127021016   -0.003122541508892704
-0.00872548678954016   -0.09863151148539188   -0.0030873306983741676
-0.006152941450582231   -0.1   -0.0035217850809932667
-0.0070488982870958086   -0.09916421278507413   -0.0030456121193749982
-0.008547458752190363   -0.09851801685253657   -0.002960882053025663
-0.005735135306632424   -0.1   -0.0031352001257388025
-0.0067410549220908765   -0.09915945234461453   -0.0027917183684437485
-0.008547458752190363   -0.09851801685253657   -0.002960882053025663
-0.009401691761894782   -0.09841920127021016   -0.003122541508892704
-0.005735135306632424   -0.1   -0.0031352001257388025
-0.00909495143555175   -0.09839470974126742   -0.0028532364973915406
-0.0067410549220908765   -0.09915945234461453   -0.0027917183684437485
-0.005315459444772929   -0.1   -0.002744026640940951
-0.00909495143555175   -0.09839470974126742   -0.0028532364973915406
-0.005735135306632424   -0.1   -0.0031352001257388025
-0.0067410549220908765   -0.09915945234461453   -0.0027917183684437485
-0.00909495143555175   -0.09839470974126742   -0.0028532364973915406
-0.008333868591791825   -0.09848174808838986   -0.0028173697210272003
-0.008547458752190363   -0.09851801685253657   -0.002960882053025663
-0.0067410549220908765   -0.09915945234461453   -0.0027917183684437485
-0.00909495143555175   -0.09839470974126742   -0.0028532364973915406
-0.008547458752190363   -0.09851801685253657   -0.002960882053025663
-0.005735135306632424   -0.1   -0.0031352001257388025
-0.0067410549220908765   -0.09915945234461453   -0.0027917183684437485
-0.008333868591791825   -0.09848174808838986   -0.0028173697210272003
-0.005315459444772929   -0.1   -0.002744026640940951
-0.006410468414820069   -0.09923232726953371   -0.002537193682084256
-0.008333868591791825   -0.09848174808838986   -0.0028173697210272003
-0.00909495143555175   -0.09839470974126742   -0.0028532364973915406
-0.005315459444772929   -0.1   -0.002744026640940951
-0.008806211367015277   -0.09843679327209374   -0.002573491702979814
-0.006410468414820069   -0.09923232726953371   -0.002537193682084256
-0.004905070664007854   -0.1   -0.0023580146329789603
-0.008806211367015277   -0.09843679327209374   -0.002573491702979814
-0.005315459444772929   -0.1   -0.002744026640940951
-0.006410468414820069   -0.09923232726953371   -0.002537193682084256
-0.008806211367015277   -0.09843679327209374   -0.002573491702979814
-0.008114184854989036   -0.09851051222098468   -0.002664481205314011
-0.008333868591791825   -0.09848174808838986   -0.0028173697210272003
-0.006410468414820069   -0.09923232726953371   -0.002537193682084256
-0.008806211367015277   -0.09843679327209374   -0.002573491702979814
-0.008333868591791825   -0.09848174808838986   -0.0028173697210272003
-0.005315459444772929   -0.1   -0.002744026640940951
-0.006152941450582231   -0.1   -0.0035217850809932667
-0.00963425779873025   -0.09852624403985971   -0.0033728637586480726
-0.005263253417689692   -0.1   -0.00378990169573115
-0.005735135306632424   -0.1   -0.0031352001257388025
-0.00963425779873025   -0.09852624403985971   -0.0033728637586480726
-0.011398168059914128   -0.0980438431290564   -0.0036752643351288046
-0.005263253417689692   -0.1   -0.00378990169573115
-0.010781288631802504   -0.09795380723450783   -0.0032645498773056928
-0.005735135306632424   -0.1   -0.0031352001257388025
-0.004390626558328284   -0.1   -0.0032308427643977246
-0.010781288631802504   -0.09795380723450783   -0.0032645498773056928
-0.005263253417689692   -0.1   -0.00378990169573115
-0.005735135306632424   -0.1   -0.0031352001257388025
-0.010781288631802504   -0.09795380723450783   -0.0032645498773056928
-0.009401691761894782   -0.09841920127021016   -0.003122541508892704
-0.00963425779873025   -0.09852624403985971   -0.0033728637586480726
-0.005735135306632424   -0.1   -0.0031352001257388025
-0.010781288631802504   -0.09795380723450783   -0.0032645498773056928
-0.00963425779873025   -0.09852624403985971   -0.0033728637586480726
-0.005263253417689692   -0.1   -0.00378990169573115
-0.005735135306632424   -0.1   -0.0031352001257388025
-0.009401691761894782   -0.09841920127021016   -0.003122541508892704
-0.004390626558328284   -0.1   -0.0032308427643977246
-0.005315459444772929   -0.1   -0.002744026640940951
-0.009401691761894782   -0.09841920127021016   -0.003122541508892704
-0.010781288631802504   -0.09795380723450783   -0.0032645498773056928
-0.004390626558328284   -0.1   -0.0032308427643977246
-0.010214209248772008   -0.09794132496481366   -0.0028260270162680104
-0.005315459444772929   -0.1   -0.002744026640940951
-0.003694709934139187   -0.1   -0.0026960209898405866
-0.010214209248772008   -0.09794132496481366   -0.0028260270162680104
-0.004390626558328284   -0.1   -0.0032308427643977246
-0.005315459444772929   -0.1   -0.002744026640940951
-0.010214209248772008   -0.09794132496481366   -0.0028260270162680104
-0.00909495143555175   -0.09839470974126742   -0.0028532364973915406
-0.009401691761894782   -0.09841920127021016   -0.003122541508892704
-0.005315459444772929   -0.1   -0.002744026640940951
-0.010214209248772008   -0.09794132496481366   -0.0028260270162680104
-0.009401691761894782   -0.09841920127021016   -0.003122541508892704
-0.004390626558328284   -0.1   -0.0032308427643977246
-0.005315459444772929   -0.1   -0.002744026640940951
-0.00909495143555175   -0.09839470974126742   -0.0028532364973915406
-0.003694709934139187   -0.1   -0.0026960209898405866
-0.004905070664007854   -0.1   -0.0023580146329789603
-0.00909495143555175   -0.09839470974126742   -0.0028532364973915406
-0.010214209248772008   -0.09794132496481366   -0.0028260270162680104
-0.003694709934139187   -0.1   -0.0026960209898405866
-0.009498102817817908   -0.09805953786087254   -0.002367285543259101
-0.004905070664007854   -0.1   -0.0023580146329789603
-0.0028350025280998886   -0.1   -0.0021408264538204103
-0.009498102817817908   -0.09805953786087254   -0.002367285543259101
-0.003694709934139187   -0.1   -0.0026960209898405866
-0.004905070664007854   -0.1   -0.0023580146329789603
-0.009498102817817908   -0.09805953786087254   -0.002367285543259101
-0.008806211367015277   -0.09843679327209374   -0.002573491702979814
-0.00909495143555175   -0.09839470974126742   -0.0028532364973915406
-0.004905070664007854   -0.1   -0.0023580146329789603
-0.009498102817817908   -0.09805953786087254   -0.002367285543259101
-0.00909495143555175   -0.09839470974126742   -0.0028532364973915406
-0.003694709934139187   -0.1   -0.0026960209898405866
-0.007077913418855816   -0.09791667929618798   -0.0020988234396041934
-0.0028708924129765986   -0.09420380920993146   -0.0018140319654872828
-0.007512160621322597   -0.0982965904705923   -0.0024809798642935325
-0.0065830784867417225   -0.09774543792917312   -0.0024243434306024272
-0.0028708924129765986   -0.09420380920993146   -0.0018140319654872828
-0.005383870419799248   -0.0944900405524152   -0.0022198545487459574
-0.007512160621322597   -0.0982965904705923   -0.0024809798642935325
-0.005246049526402212   -0.09432866234869156   -0.0023437631028860005
-0.0065830784867417225   -0.09774543792917312   -0.0024243434306024272
-0.007318020083042106   -0.09816320430582037   -0.0026200482157982667
-0.005246049526402212   -0.09432866234869156   -0.0023437631028860005
-0.007512160621322597   -0.0982965904705923   -0.0024809798642935325
-0.0065830784867417225   -0.09774543792917312   -0.0024243434306024272
-0.005246049526402212   -0.09432866234869156   -0.0023437631028860005
-0.002476675963107935   -0.09400417227263184   -0.0020951415383926647
-0.0028708924129765986   -0.09420380920993146   -0.0018140319654872828
-0.0065830784867417225   -0.09774543792917312   -0.0024243434306024272
-0.005246049526402212   -0.09432866234869156   -0.0023437631028860005
-0.0028708924129765986   -0.09420380920993146   -0.0018140319654872828
-0.007512160621322597   -0.0982965904705923   -0.0024809798642935325
-0.0065830784867417225   -0.09774543792917312   -0.0024243434306024272
-0.002476675963107935   -0.09400417227263184   -0.0020951415383926647
-0.007318020083042106   -0.09816320430582037   -0.0026200482157982667
-0.006171154308592475   -0.09769242563551964   -0.0027364497221163383
-0.002476675963107935   -0.09400417227263184   -0.0020951415383926647
-0.005246049526402212   -0.09432866234869156   -0.0023437631028860005
-0.007318020083042106   -0.09816320430582037   -0.0026200482157982667
-0.005090971859788965   -0.09423895539756541   -0.00245645657944084
-0.006171154308592475   -0.09769242563551964   -0.0027364497221163383
-0.007090368122631424   -0.09811370203689448   -0.0027483091995181047
-0.005090971859788965   -0.09423895539756541   -0.00245645657944084
-0.007318020083042106   -0.09816320430582037   -0.0026200482157982667
-0.006171154308592475   -0.09769242563551964   -0.0027364497221163383
-0.005090971859788965   -0.09423895539756541   -0.00245645657944084
-0.0021664823679426724   -0.09390875894673695   -0.002359624725432609
-0.002476675963107935   -0.09400417227263184   -0.0020951415383926647
-0.006171154308592475   -0.09769242563551964   -0.0027364497221163383
-0.005090971859788965   -0.09423895539756541   -0.00245645657944084
-0.002476675963107935   -0.09400417227263184   -0.0020951415383926647
-0.007318020083042106   -0.09816320430582037   -0.0026200482157982667
-0.006171154308592475   -0.09769242563551964   -0.0027364497221163383
-0.0021664823679426724   -0.09390875894673695   -0.002359624725432609
-0.007090368122631424   -0.09811370203689448   -0.0027483091995181047
-0.005705243428106338   -0.09773621031133968   -0.003033745862765981
-0.0021664823679426724   -0.09390875894673695   -0.002359624725432609
-0.005090971859788965   -0.09423895539756541   -0.00245645657944084
-0.007090368122631424   -0.09811370203689448   -0.0027483091995181047
-0.0049720497060792   -0.09421841734335187   -0.0025582904737947026
-0.005705243428106338   -0.09773621031133968   -0.003033745862765981
-0.006895314357908496   -0.09814878727001107   -0.002865087265389083
-0.0049720497060792   -0.09421841734335187   -0.0025582904737947026
-0.007090368122631424   -0.09811370203689448   -0.0027483091995181047
-0.005705243428106338   -0.09773621031133968   -0.003033745862765981
-0.0049720497060792   -0.09421841734335187   -0.0025582904737947026
-0.0018279066895877537   -0.09389022240718975   -0.0026067751315401147
-0.0021664823679426724   -0.09390875894673695   -0.002359624725432609
-0.005705243428106338   -0.09773621031133968   -0.003033745862765981
-0.0049720497060792   -0.09421841734335187   -0.0025582904737947026
-0.0021664823679426724   -0.09390875894673695   -0.002359624725432609
-0.007090368122631424   -0.09811370203689448   -0.0027483091995181047
-0.007512160621322597   -0.0982965904705923   -0.0024809798642935325
-0.005383870419799248   -0.0944900405524152   -0.0022198545487459574
-0.008097873422648984   -0.09853191452942894   -0.0027866009930151868
-0.007318020083042106   -0.09816320430582037   -0.0026200482157982667
-0.005383870419799248   -0.0944900405524152   -0.0022198545487459574
-0.007863201693642593   -0.09459113923842806   -0.0025509995089264786
-0.008097873422648984   -0.09853191452942894   -0.0027866009930151868
-0.007747270891140954   -0.09445033884042481   -0.0025578964251297778
-0.007318020083042106   -0.09816320430582037   -0.0026200482157982667
-0.00792601117007463   -0.09841282748357649   -0.0027903063637870007
-0.007747270891140954   -0.09445033884042481   -0.0025578964251297778
-0.008097873422648984   -0.09853191452942894   -0.0027866009930151868
-0.007318020083042106   -0.09816320430582037   -0.0026200482157982667
-0.007747270891140954   -0.09445033884042481   -0.0025578964251297778
-0.005246049526402212   -0.09432866234869156   -0.0023437631028860005
-0.005383870419799248   -0.0944900405524152   -0.0022198545487459574
-0.007318020083042106   -0.09816320430582037   -0.0026200482157982667
-0.007747270891140954   -0.09445033884042481   -0.0025578964251297778
-0.005383870419799248   -0.0944900405524152   -0.0022198545487459574
-0.008097873422648984   -0.09853191452942894   -0.0027866009930151868
-0.007318020083042106   -0.09816320430582037   -0.0026200482157982667
-0.005246049526402212   -0.09432866234869156   -0.0023437631028860005
-0.00792601117007463   -0.09841282748357649   -0.0027903063637870007
-0.007090368122631424   -0.09811370203689448   -0.0027483091995181047
-0.005246049526402212   -0.09432866234869156   -0.0023437631028860005
-0.007747270891140954   -0.09445033884042481   -0.0025578964251297778
-0.00792601117007463   -0.09841282748357649   -0.0027903063637870007
-0.007627375529172657   -0.09437415109546696   -0.00255440809049914
-0.007090368122631424   -0.09811370203689448   -0.0027483091995181047
-0.007734700701021493   -0.09836971847455404   -0.002779999648258007
-0.007627375529172657   -0.09437415109546696   -0.00255440809049914
-0.00792601117007463   -0.09841282748357649   -0.0027903063637870007
-0.007090368122631424   -0.09811370203689448   -0.0027483091995181047
-0.007627375529172657   -0.09437415109546696   -0.00255440809049914
-0.005090971859788965   -0.09423895539756541   -0.00245645657944084
-0.005246049526402212   -0.09432866234869156   -0.0023437631028860005
-0.007090368122631424   -0.09811370203689448   -0.0027483091995181047
-0.007627375529172657   -0.09437415109546696   -0.00255440809049914
-0.005246049526402212   -0.09432866234869156   -0.0023437631028860005
-0.00792601117007463   -0.09841282748357649   -0.0027903063637870007
-0.007090368122631424   -0.09811370203689448   -0.0027483091995181047
-0.005090971859788965   -0.09423895539756541   -0.00245645657944084
-0.007734700701021493   -0.09836971847455404   -0.002779999648258007
-0.006895314357908496   -0.09814878727001107   -0.002865087265389083
-0.005090971859788965   -0.09423895539756541   -0.00245645657944084
-0.007627375529172657   -0.09437415109546696   -0.00255440809049914
-0.007734700701021493   -0.09836971847455404   -0.002779999648258007
-0.007511737326985521   -0.09435944195955522   -0.002540431571378223
-0.006895314357908496   -0.09814878727001107   -0.002865087265389083
-0.007540169252931694   -0.09839909304456342   -0.0027586988252858674
-0.007511737326985521   -0.09435944195955522   -0.002540431571378223
-0.007734700701021493   -0.09836971847455404   -0.002779999648258007
-0.006895314357908496   -0.09814878727001107   -0.002865087265389083
-0.007511737326985521   -0.09435944195955522   -0.002540431571378223
-0.0049720497060792   -0.09421841734335187   -0.0025582904737947026
-0.005090971859788965   -0.09423895539756541   -0.00245645657944084
-0.006895314357908496   -0.09814878727001107   -0.002865087265389083
-0.007511737326985521   -0.09435944195955522   -0.002540431571378223
-0.005090971859788965   -0.09423895539756541   -0.00245645657944084
-0.007734700701021493   -0.09836971847455404   -0.002779999648258007
-0.008097873422648984   -0.09853191452942894   -0.0027866009930151868
-0.007863201693642593   -0.09459113923842806   -0.0025509995089264786
-0.00872548678954016   -0.09863151148539188   -0.0030873306983741676
-0.00792601117007463   -0.09841282748357649   -0.0027903063637870007
-0.007863201693642593   -0.09459113923842806   -0.0025509995089264786
-0.010325188526695755   -0.09450151190300378   -0.002860885593097015
-0.00872548678954016   -0.09863151148539188   -0.0030873306983741676
-0.010210173083542778   -0.09437649294936647   -0.0027555966334714384
-0.00792601117007463   -0.09841282748357649   -0.0027903063637870007
-0.008547458752190363   -0.09851801685253657   -0.002960882053025663
-0.010210173083542778   -0.09437649294936647   -0.0027555966334714384
-0.00872548678954016   -0.09863151148539188   -0.0030873306983741676
-0.00792601117007463   -0.09841282748357649   -0.0027903063637870007
-0.010210173083542778   -0.09437649294936647   -0.0027555966334714384
-0.007747270891140954   -0.09445033884042481   -0.0025578964251297778
-0.007863201693642593   -0.09459113923842806   -0.0025509995089264786
-0.00792601117007463   -0.09841282748357649   -0.0027903063637870007
-0.010210173083542778   -0.09437649294936647   -0.0027555966334714384
-0.007863201693642593   -0.09459113923842806   -0.0025509995089264786
-0.00872548678954016   -0.09863151148539188   -0.0030873306983741676
-0.00792601117007463   -0.09841282748357649   -0.0027903063637870007
-0.007747270891140954   -0.09445033884042481   -0.0025578964251297778
-0.008547458752190363   -0.09851801685253657   -0.002960882053025663
-0.007734700701021493   -0.09836971847455404   -0.002779999648258007
-0.007747270891140954   -0.09445033884042481   -0.0025578964251297778
-0.010210173083542778   -0.09437649294936647   -0.0027555966334714384
-0.008547458752190363   -0.09851801685253657   -0.002960882053025663
-0.010081097896424638   -0.09431499617968742   -0.002640073677941461
-0.007734700701021493   -0.09836971847455404   -0.002779999648258007
-0.008333868591791825   -0.09848174808838986   -0.0028173697210272003
-0.010081097896424638   -0.09431499617968742   -0.002640073677941461
-0.008547458752190363   -0.09851801685253657   -0.002960882053025663
-0.007734700701021493   -0.09836971847455404   -0.002779999648258007
-0.010081097896424638   -0.09431499617968742   -0.002640073677941461
-0.007627375529172657   -0.09437415109546696   -0.00255440809049914
-0.007747270891140954   -0.09445033884042481   -0.0025578964251297778
-0.007734700701021493   -0.09836971847455404   -0.002779999648258007
-0.010081097896424638   -0.09431499617968742   -0.002640073677941461
-0.007747270891140954   -0.09445033884042481   -0.0025578964251297778
-0.008547458752190363   -0.09851801685253657   -0.002960882053025663
-0.007734700701021493   -0.09836971847455404   -0.002779999648258007
-0.007627375529172657   -0.09437415109546696   -0.00255440809049914
-0.008333868591791825   -0.09848174808838986   -0.0028173697210272003
-0.007540169252931694   -0.09839909304456342   -0.0027586988252858674
-0.007627375529172657   -0.09437415109546696   -0.00255440809049914
-0.010081097896424638   -0.09431499617968742   -0.002640073677941461
-0.008333868591791825   -0.09848174808838986   -0.0028173697210272003
-0.009951459707626125   -0.09431087669384045   -0.002513069396921768
-0.007540169252931694   -0.09839909304456342   -0.0027586988252858674
-0.008114184854989036   -0.09851051222098468   -0.002664481205314011
-0.009951459707626125   -0.09431087669384045   -0.002513069396921768
-0.008333868591791825   -0.09848174808838986   -0.0028173697210272003
-0.007540169252931694   -0.09839909304456342   -0.0027586988252858674
-0.009951459707626125   -0.09431087669384045   -0.002513069396921768
-0.007511737326985521   -0.09435944195955522   -0.002540431571378223
-0.007627375529172657   -0.09437415109546696   -0.00255440809049914
-0.007540169252931694   -0.09839909304456342   -0.0027586988252858674
-0.009951459707626125   -0.09431087669384045   -0.002513069396921768
-0.007627375529172657   -0.09437415109546696   -0.00255440809049914
-0.008333868591791825   -0.09848174808838986   -0.0028173697210272003
-0.00872548678954016   -0.09863151148539188   -0.0030873306983741676
-0.010325188526695755   -0.09450151190300378   -0.002860885593097015
-0.00963425779873025   -0.09852624403985971   -0.0033728637586480726
-0.008547458752190363   -0.09851801685253657   -0.002960882053025663
-0.010325188526695755   -0.09450151190300378   -0.002860885593097015
-0.013030616277283915   -0.09420924381607465   -0.003145415432870102
-0.00963425779873025   -0.09852624403985971   -0.0033728637586480726
-0.012889901676355857   -0.09410006353920847   -0.00293046980380642
-0.008547458752190363   -0.09851801685253657   -0.002960882053025663
-0.009401691761894782   -0.09841920127021016   -0.003122541508892704
-0.012889901676355857   -0.09410006353920847   -0.00293046980380642
-0.00963425779873025   -0.09852624403985971   -0.0033728637586480726
-0.008547458752190363   -0.09851801685253657   -0.002960882053025663
-0.012889901676355857   -0.09410006353920847   -0.00293046980380642
-0.010210173083542778   -0.09437649294936647   -0.0027555966334714384
-0.010325188526695755   -0.09450151190300378   -0.002860885593097015
-0.008547458752190363   -0.09851801685253657   -0.002960882053025663
-0.012889901676355857   -0.09410006353920847   -0.00293046980380642
-0.010325188526695755   -0.09450151190300378   -0.002860885593097015
-0.00963425779873025   -0.09852624403985971   -0.0033728637586480726
-0.008547458752190363   -0.09851801685253657   -0.002960882053025663
-0.010210173083542778   -0.09437649294936647   -0.0027555966334714384
-0.009401691761894782   -0.09841920127021016   -0.003122541508892704
-0.008333868591791825   -0.09848174808838986   -0.0028173697210272003
-0.010210173083542778   -0.09437649294936647   -0.0027555966334714384
-0.012889901676355857   -0.09410006353920847   -0.00293046980380642
-0.009401691761894782   -0.09841920127021016   -0.003122541508892704
-0.012695698987619077   -0.09405319900413404   -0.0027060332906019063
-0.008333868591791825   -0.09848174808838986   -0.0028173697210272003
-0.00909495143555175   -0.09839470974126742   -0.0028532364973915406
-0.012695698987619077   -0.09405319900413404   -0.0027060332906019063
-0.009401691761894782   -0.09841920127021016   -0.003122541508892704
-0.008333868591791825   -0.09848174808838986   -0.0028173697210272003
-0.012695698987619077   -0.09405319900413404   -0.0027060332906019063
-0.010081097896424638   -0.09431499617968742   -0.002640073677941461
-0.010210173083542778   -0.09437649294936647   -0.0027555966334714384
-0.008333868591791825   -0.09848174808838986   -0.0028173697210272003
-0.012695698987619077   -0.09405319900413404   -0.0027060332906019063
-0.010210173083542778   -0.09437649294936647   -0.0027555966334714384
-0.009401691761894782   -0.09841920127021016   -0.003122541508892704
-0.008333868591791825   -0.09848174808838986   -0.0028173697210272003
-0.010081097896424638   -0.09431499617968742   -0.002640073677941461
-0.00909495143555175   -0.09839470974126742   -0.0028532364973915406
-0.008114184854989036   -0.09851051222098468   -0.002664481205314011
-0.010081097896424638   -0.09431499617968742   -0.002640073677941461
-0.012695698987619077   -0.09405319900413404   -0.0027060332906019063
-0.00909495143555175   -0.09839470974126742   -0.0028532364973915406
-0.012526063191703069   -0.09406873133233097   -0.002465831012771738
-0.008114184854989036   -0.09851051222098468   -0.002664481205314011
-0.008806211367015277   -0.09843679327209374   -0.002573491702979814
-0.012526063191703069   -0.09406873133233097   -0.002465831012771738
-0.00909495143555175   -0.09839470974126742   -0.0028532364973915406
-0.008114184854989036   -0.09851051222098468   -0.002664481205314011
-0.012526063191703069   -0.09406873133233097   -0.002465831012771738
-0.009951459707626125   -0.09431087669384045   -0.002513069396921768
-0.010081097896424638   -0.09431499617968742   -0.002640073677941461
-0.008114184854989036   -0.09851051222098468   -0.002664481205314011
-0.012526063191703069   -0.09406873133233097   -0.002465831012771738
-0.010081097896424638   -0.09431499617968742   -0.002640073677941461
-0.00909495143555175   -0.09839470974126742   -0.0028532364973915406
-0.00963425779873025   -0.09852624403985971   -0.0033728637586480726
-0.013030616277283915   -0.09420924381607465   -0.003145415432870102
-0.011398168059914128   -0.0980438431290564   -0.0036752643351288046
-0.009401691761894782   -0.09841920127021016   -0.003122541508892704
-0.013030616277283915   -0.09420924381607465   -0.003145415432870102
-0.016514672853249684   -0.09373392191523035   -0.0034181550478574706
-0.011398168059914128   -0.0980438431290564   -0.0036752643351288046
-0.016062632445287963   -0.0936157050248464   -0.003078830569611877
-0.009401691761894782   -0.09841920127021016   -0.003122541508892704
-0.010781288631802504   -0.09795380723450783   -0.0032645498773056928
-0.016062632445287963   -0.0936157050248464   -0.003078830569611877
-0.011398168059914128   -0.0980438431290564   -0.0036752643351288046
-0.009401691761894782   -0.09841920127021016   -0.003122541508892704
-0.016062632445287963   -0.0936157050248464   -0.003078830569611877
-0.012889901676355857   -0.09410006353920847   -0.00293046980380642
-0.013030616277283915   -0.09420924381607465   -0.003145415432870102
-0.009401691761894782   -0.09841920127021016   -0.003122541508892704
-0.016062632445287963   -0.0936157050248464   -0.003078830569611877
-0.013030616277283915   -0.09420924381607465   -0.003145415432870102
-0.011398168059914128   -0.0980438431290564   -0.0036752643351288046
-0.009401691761894782   -0.09841920127021016   -0.003122541508892704
-0.012889901676355857   -0.09410006353920847   -0.00293046980380642
-0.010781288631802504   -0.09795380723450783   -0.0032645498773056928
-0.00909495143555175   -0.09839470974126742   -0.0028532364973915406
-0.012889901676355857   -0.09410006353920847   -0.00293046980380642
-0.016062632445287963   -0.0936157050248464   -0.003078830569611877
-0.010781288631802504   -0.09795380723450783   -0.0032645498773056928
-0.015657205615187388   -0.09357235671851714   -0.002719620798041666
-0.00909495143555175   -0.09839470974126742   -0.0028532364973915406
-0.010214209248772008   -0.09794132496481366   -0.0028260270162680104
-0.015657205615187388   -0.09357235671851714   -0.002719620798041666
-0.010781288631802504   -0.09795380723450783   -0.0032645498773056928
-0.00909495143555175   -0.09839470974126742   -0.0028532364973915406
-0.015657205615187388   -0.09357235671851714   -0.002719620798041666
-0.012695698987619077   -0.09405319900413404   -0.0027060332906019063
-0.012889901676355857   -0.09410006353920847   -0.00293046980380642
-0.00909495143555175   -0.09839470974126742   -0.0028532364973915406
-0.015657205615187388   -0.09357235671851714   -0.002719620798041666
-0.012889901676355857   -0.09410006353920847   -0.00293046980380642
-0.010781288631802504   -0.09795380723450783   -0.0032645498773056928
-0.00909495143555175   -0.09839470974126742   -0.0028532364973915406
-0.012695698987619077   -0.09405319900413404   -0.0027060332906019063
-0.010214209248772008   -0.09794132496481366   -0.0028260270162680104
-0.008806211367015277   -0.09843679327209374   -0.002573491702979814
-0.012695698987619077   -0.09405319900413404   -0.0027060332906019063
-0.015657205615187388   -0.09357235671851714   -0.002719620798041666
-0.010214209248772008   -0.09794132496481366   -0.0028260270162680104
-0.015131721708811873   -0.09362616475755457   -0.0023439483383301566
-0.008806211367015277   -0.09843679327209374   -0.002573491702979814
-0.009498102817817908   -0.09805953786087254   -0.002367285543259101
-0.015131721708811873   -0.09362616475755457   -0.0023439483383301566
-0.010214209248772008   -0.09794132496481366   -0.0028260270162680104
-0.008806211367015277   -0.09843679327209374   -0.002573491702979814
-0.015131721708811873   -0.09362616475755457   -0.0023439483383301566
-0.012526063191703069   -0.09406873133233097   -0.002465831012771738
-0.012695698987619077   -0.09405319900413404   -0.0027060332906019063
-0.008806211367015277   -0.09843679327209374   -0.002573491702979814
-0.015131721708811873   -0.09362616475755457   -0.0023439483383301566
-0.012695698987619077   -0.09405319900413404   -0.0027060332906019063
-0.010214209248772008   -0.09794132496481366   -0.0028260270162680104
-0.0028708924129765986   -0.09420380920993146   -0.0018140319654872828
0.0005381750449692281   -0.08738248988303113   -0.0015010152925710423
-0.005383870419799248   -0.0944900405524152   -0.0022198545487459574
-0.002476675963107935   -0.09400417227263184   -0.0020951415383926647
0.0005381750449692281   -0.08738248988303113   -0.0015010152925710423
-0.003695610287737164   -0.08759211353798174   -0.0018993461780459097
-0.005383870419799248   -0.0944900405524152   -0.0022198545487459574
-0.003622656484763885   -0.08742300980468447   -0.0019975426578964393
-0.002476675963107935   -0.09400417227263184   -0.0020951415383926647
-0.005246049526402212   -0.09432866234869156   -0.0023437631028860005
-0.003622656484763885   -0.08742300980468447   -0.0019975426578964393
-0.005383870419799248   -0.0944900405524152   -0.0022198545487459574
-0.002476675963107935   -0.09400417227263184   -0.0020951415383926647
-0.003622656484763885   -0.08742300980468447   -0.0019975426578964393
0.0008130718623950509   -0.08717971514544731   -0.0017245996236476832
0.0005381750449692281   -0.08738248988303113   -0.0015010152925710423
-0.002476675963107935   -0.09400417227263184   -0.0020951415383926647
-0.003622656484763885   -0.08742300980468447   -0.0019975426578964393
0.0005381750449692281   -0.08738248988303113   -0.0015010152925710423
-0.005383870419799248   -0.0944900405524152   -0.0022198545487459574
-0.002476675963107935   -0.09400417227263184   -0.0020951415383926647
0.0008130718623950509   -0.08717971514544731   -0.0017245996236476832
-0.005246049526402212   -0.09432866234869156   -0.0023437631028860005
-0.0021664823679426724   -0.09390875894673695   -0.002359624725432609
0.0008130718623950509   -0.08717971514544731   -0.0017245996236476832
-0.003622656484763885   -0.08742300980468447   -0.0019975426578964393
-0.005246049526402212   -0.09432866234869156   -0.0023437631028860005
-0.0035396450079911803   -0.08731228551553138   -0.0020842542656355108
-0.0021664823679426724   -0.09390875894673695   -0.002359624725432609
-0.005090971859788965   -0.09423895539756541   -0.00245645657944084
-0.0035396450079911803   -0.08731228551553138   -0.0020842542656355108
-0.005246049526402212   -0.09432866234869156   -0.0023437631028860005
-0.0021664823679426724   -0.09390875894673695   -0.002359624725432609
-0.0035396450079911803   -0.08731228551553138   -0.0020842542656355108
0.0010152460057125472   -0.08706221277623111   -0.0019321092877248767
0.0008130718623950509   -0.08717971514544731   -0.0017245996236476832
-0.0021664823679426724   -0.09390875894673695   -0.002359624725432609
-0.0035396450079911803   -0.08731228551553138   -0.0020842542656355108
0.0008130718623950509   -0.08717971514544731   -0.0017245996236476832
-0.005246049526402212   -0.09432866234869156   -0.0023437631028860005
-0.0021664823679426724   -0.09390875894673695   -0.002359624725432609
0.0010152460057125472   -0.08706221277623111   -0.0019321092877248767
-0.005090971859788965   -0.09423895539756541   -0.00245645657944084
-0.0018279066895877537   -0.09389022240718975   -0.0026067751315401147
0.0010152460057125472   -0.08706221277623111   -0.0019321092877248767
-0.0035396450079911803   -0.08731228551553138   -0.0020842542656355108
-0.005090971859788965   -0.09423895539756541   -0.00245645657944084
-0.003490023492884834   -0.08725667395617337   -0.002160614507183799
-0.0018279066895877537   -0.09389022240718975   -0.0026067751315401147
-0.0049720497060792   -0.09421841734335187   -0.0025582904737947026
-0.003490023492884834   -0.08725667395617337   -0.002160614507183799
-0.005090971859788965   -0.09423895539756541   -0.00245645657944084
-0.0018279066895877537   -0.09389022240718975   -0.0026067751315401147
-0.003490023492884834   -0.08725667395617337   -0.002160614507183799
0.0012315072902152745   -0.08700379147816929   -0.0021234628343665416
0.0010152460057125472   -0.08706221277623111   -0.0019321092877248767
-0.0018279066895877537   -0.09389022240718975   -0.0026067751315401147
-0.003490023492884834   -0.08725667395617337   -0.002160614507183799
0.0010152460057125472   -0.08706221277623111   -0.0019321092877248767
-0.005090971859788965   -0.09423895539756541   -0.00245645657944084
-0.005383870419799248   -0.0944900405524152   -0.0022198545487459574
-0.003695610287737164   -0.08759211353798174   -0.0018993461780459097
-0.007863201693642593   -0.09459113923842806   -0.0025509995089264786
-0.005246049526402212   -0.09432866234869156   -0.0023437631028860005
-0.003695610287737164   -0.08759211353798174   -0.0018993461780459097
-0.00779015668954326   -0.08763218042650242   -0.002227752597874669
-0.007863201693642593   -0.09459113923842806   -0.0025509995089264786
-0.007736482121266917   -0.08748696996583373   -0.0022303328592686716
-0.005246049526402212   -0.09432866234869156   -0.0023437631028860005
-0.007747270891140954   -0.09445033884042481   -0.0025578964251297778
-0.007736482121266917   -0.08748696996583373   -0.0022303328592686716
-0.007863201693642593   -0.09459113923842806   -0.0025509995089264786
-0.005246049526402212   -0.09432866234869156   -0.0023437631028860005
-0.007736482121266917   -0.08748696996583373   -0.0022303328592686716
-0.003622656484763885   -0.08742300980468447   -0.0019975426578964393
-0.003695610287737164   -0.08759211353798174   -0.0018993461780459097
-0.005246049526402212   -0.09432866234869156   -0.0023437631028860005
-0.007736482121266917   -0.08748696996583373   -0.0022303328592686716
-0.003695610287737164   -0.08759211353798174   -0.0018993461780459097
-0.007863201693642593   -0.09459113923842806   -0.0025509995089264786
-0.005246049526402212   -0.09432866234869156   -0.0023437631028860005
-0.003622656484763885   -0.08742300980468447   -0.0019975426578964393
-0.007747270891140954   -0.09445033884042481   -0.0025578964251297778
-0.005090971859788965   -0.09423895539756541   -0.00245645657944084
-0.003622656484763885   -0.08742300980468447   -0.0019975426578964393
-0.007736482121266917   -0.08748696996583373   -0.0022303328592686716
-0.007747270891140954   -0.09445033884042481   -0.0025578964251297778
-0.0076812970944411165   -0.08739401679969822   -0.0022219123469569193
-0.005090971859788965   -0.09423895539756541   -0.00245645657944084
-0.007627375529172657   -0.09437415109546696   -0.00255440809049914
-0.0076812970944411165   -0.08739401679969822   -0.0022219123469569193
-0.007747270891140954   -0.09445033884042481   -0.0025578964251297778
-0.005090971859788965   -0.09423895539756541   -0.00245645657944084
-0.0076812970944411165   -0.08739401679969822   -0.0022219123469569193
-0.0035396450079911803   -0.08731228551553138   -0.0020842542656355108
-0.003622656484763885   -0.08742300980468447   -0.0019975426578964393
-0.005090971859788965   -0.09423895539756541   -0.00245645657944084
-0.0076812970944411165   -0.08739401679969822   -0.0022219123469569193
-0.003622656484763885   -0.08742300980468447   -0.0019975426578964393
-0.007747270891140954   -0.09445033884042481   -0.0025578964251297778
-0.005090971859788965   -0.09423895539756541   -0.00245645657944084
-0.0035396450079911803   -0.08731228551553138   -0.0020842542656355108
-0.007627375529172657   -0.09437415109546696   -0.00255440809049914
-0.0049720497060792   -0.09421841734335187   -0.0025582904737947026
-0.0035396450079911803   -0.08731228551553138   -0.0020842542656355108
-0.0076812970944411165   -0.08739401679969822   -0.0022219123469569193
-0.007627375529172657   -0.09437415109546696   -0.00255440809049914
-0.007633026480238369   -0.08735245054940768   -0.0022032191022926194
-0.0049720497060792   -0.09421841734335187   -0.0025582904737947026
-0.007511737326985521   -0.09435944195955522   -0.002540431571378223
-0.007633026480238369   -0.08735245054940768   -0.0022032191022926194
-0.007627375529172657   -0.09437415109546696   -0.00255440809049914
-0.0049720497060792   -0.09421841734335187   -0.0025582904737947026
-0.007633026480238369   -0.08735245054940768   -0.0022032191022926194
-0.003490023492884834   -0.08725667395617337   -0.002160614507183799
-0.0035396450079911803   -0.08731228551553138   -0.0020842542656355108
-0.0049720497060792   -0.09421841734335187   -0.0025582904737947026
-0.007633026480238369   -0.08735245054940768   -0.0022032191022926194
-0.0035396450079911803   -0.08731228551553138   -0.0020842542656355108
-0.007627375529172657   -0.09437415109546696   -0.00255440809049914
-0.007863201693642593   -0.09459113923842806   -0.0025509995089264786
-0.00779015668954326   -0.08763218042650242   -0.002227752597874669
-0.010325188526695755   -0.09450151190300378   -0.002860885593097015
-0.007747270891140954   -0.09445033884042481   -0.0025578964251297778
-0.00779015668954326   -0.08763218042650242   -0.002227752597874669
-0.01182008220443155   -0.08750190700110867   -0.0025242145227558676
-0.010325188526695755   -0.09450151190300378   -0.002860885593097015
-0.011770106520527597   -0.08737660409898047   -0.002433487789796117
-0.007747270891140954   -0.09445033884042481   -0.0025578964251297778
-0.010210173083542778   -0.09437649294936647   -0.0027555966334714384
-0.011770106520527597   -0.08737660409898047   -0.002433487789796117
-0.010325188526695755   -0.09450151190300378   -0.002860885593097015
-0.007747270891140954   -0.09445033884042481   -0.0025578964251297778
-0.011770106520527597   -0.08737660409898047   -0.002433487789796117
-0.007736482121266917   -0.08748696996583373   -0.0022303328592686716
-0.00779015668954326   -0.08763218042650242   -0.002227752597874669
-0.007747270891140954   -0.09445033884042481   -0.0025578964251297778
-0.011770106520527597   -0.08737660409898047   -0.002433487789796117
-0.00779015668954326   -0.08763218042650242   -0.002227752597874669
-0.010325188526695755   -0.09450151190300378   -0.002860885593097015
-0.007747270891140954   -0.09445033884042481   -0.0025578964251297778
-0.007736482121266917   -0.08748696996583373   -0.0022303328592686716
-0.010210173083542778   -0.09437649294936647   -0.0027555966334714384
-0.007627375529172657   -0.09437415109546696   -0.00255440809049914
-0.007736482121266917   -0.08748696996583373   -0.0022303328592686716
-0.011770106520527597   -0.08737660409898047   -0.002433487789796117
-0.010210173083542778   -0.09437649294936647   -0.0027555966334714384
-0.011709722695672746   -0.087302982303472   -0.0023319964980841007
-0.007627375529172657   -0.09437415109546696   -0.00255440809049914
-0.010081097896424638   -0.09431499617968742   -0.002640073677941461
-0.011709722695672746   -0.087302982303472   -0.0023319964980841007
-0.010210173083542778   -0.09437649294936647   -0.0027555966334714384
-0.007627375529172657   -0.09437415109546696   -0.00255440809049914
-0.011709722695672746   -0.087302982303472   -0.0023319964980841007
-0.0076812970944411165   -0.08739401679969822   -0.0022219123469569193
-0.007736482121266917   -0.08748696996583373   -0.0022303328592686716
-0.007627375529172657   -0.09437415109546696   -0.00255440809049914
-0.011709722695672746   -0.087302982303472   -0.0023319964980841007
-0.007736482121266917   -0.08748696996583373   -0.0022303328592686716
-0.010210173083542778   -0.09437649294936647   -0.0027555966334714384
-0.007627375529172657   -0.09437415109546696   -0.00255440809049914
-0.0076812970944411165   -0.08739401679969822   -0.0022219123469569193
-0.010081097896424638   -0.09431499617968742   -0.002640073677941461
-0.007511737326985521   -0.09435944195955522   -0.002540431571378223
-0.0076812970944411165   -0.08739401679969822   -0.0022219123469569193
-0.011709722695672746   -0.087302982303472   -0.0023319964980841007
-0.010081097896424638   -0.09431499617968742   -0.002640073677941461
-0.011650974530017694   -0.0872786248764821   -0.002220072740728291
-0.007511737326985521   -0.09435944195955522   -0.002540431571378223
-0.009951459707626125   -0.09431087669384045   -0.002513069396921768
-0.011650974530017694   -0.0872786248764821   -0.002220072740728291
-0.010081097896424638   -0.09431499617968742   -0.002640073677941461
-0.007511737326985521   -0.09435944195955522   -0.002540431571378223
-0.011650974530017694   -0.0872786248764821   -0.002220072740728291
-0.007633026480238369   -0.08735245054940768   -0.0022032191022926194
-0.0076812970944411165   -0.08739401679969822   -0.0022219123469569193
-0.007511737326985521   -0.09435944195955522   -0.002540431571378223
-0.011650974530017694   -0.0872786248764821   -0.002220072740728291
-0.0076812970944411165   -0.08739401679969822   -0.0022219123469569193
-0.010081097896424638   -0.09431499617968742   -0.002640073677941461
-0.010325188526695755   -0.09450151190300378   -0.002860885593097015
-0.01182008220443155   -0.08750190700110867   -0.0025242145227558676
-0.013030616277283915   -0.09420924381607465   -0.003145415432870102
-0.010210173083542778   -0.09437649294936647   -0.0027555966334714384
-0.01182008220443155   -0.08750190700110867   -0.0025242145227558676
-0.01604363304631296   -0.08720594581671166   -0.0027875469197905173
-0.013030616277283915   -0.09420924381607465   -0.003145415432870102
-0.015978430739416544   -0.08709967605995539   -0.002603408765581394
-0.010210173083542778   -0.09437649294936647   -0.0027555966334714384
-0.012889901676355857   -0.09410006353920847   -0.00293046980380642
-0.015978430739416544   -0.08709967605995539   -0.002603408765581394
-0.013030616277283915   -0.09420924381607465   -0.003145415432870102
-0.010210173083542778   -0.09437649294936647   -0.0027555966334714384
-0.015978430739416544   -0.08709967605995539   -0.002603408765581394
-0.011770106520527597   -0.08737660409898047   -0.002433487789796117
-0.01182008220443155   -0.08750190700110867   -0.0025242145227558676
-0.010210173083542778   -0.09437649294936647   -0.0027555966334714384
-0.015978430739416544   -0.08709967605995539   -0.002603408765581394
-0.01182008220443155   -0.08750190700110867   -0.0025242145227558676
-0.013030616277283915   -0.09420924381607465   -0.003145415432870102
-0.010210173083542778   -0.09437649294936647   -0.0027555966334714384
-0.011770106520527597   -0.08737660409898047   -0.002433487789796117
-0.012889901676355857   -0.09410006353920847   -0.00293046980380642
-0.010081097896424638   -0.09431499617968742   -0.002640073677941461
-0.011770106520527597   -0.08737660409898047   -0.002433487789796117
-0.015978430739416544   -0.08709967605995539   -0.002603408765581394
-0.012889901676355857   -0.09410006353920847   -0.00293046980380642
-0.01586794030015814   -0.08704358095547228   -0.0024101563779577793
-0.010081097896424638   -0.09431499617968742   -0.002640073677941461
-0.012695698987619077   -0.09405319900413404   -0.0027060332906019063
-0.01586794030015814   -0.08704358095547228   -0.0024101563779577793
-0.012889901676355857   -0.09410006353920847   -0.00293046980380642
-0.010081097896424638   -0.09431499617968742   -0.002640073677941461
-0.01586794030015814   -0.08704358095547228   -0.0024101563779577793
-0.011709722695672746   -0.087302982303472   -0.0023319964980841007
-0.011770106520527597   -0.08737660409898047   -0.002433487789796117
-0.010081097896424638   -0.09431499617968742   -0.002640073677941461
-0.01586794030015814   -0.08704358095547228   -0.0024101563779577793
-0.011770106520527597   -0.08737660409898047   -0.002433487789796117
-0.012889901676355857   -0.09410006353920847   -0.00293046980380642
-0.010081097896424638   -0.09431499617968742   -0.002640073677941461
-0.011709722695672746   -0.087302982303472   -0.0023319964980841007
-0.012695698987619077   -0.09405319900413404   -0.0027060332906019063
-0.009951459707626125   -0.09431087669384045   -0.002513069396921768
-0.011709722695672746   -0.087302982303472   -0.0023319964980841007
-0.01586794030015814   -0.08704358095547228   -0.0024101563779577793
-0.012695698987619077   -0.09405319900413404   -0.0027060332906019063
-0.015778098327698525   -0.08704060978931281   -0.002204955945265302
-0.009951459707626125   -0.09431087669384045   -0.002513069396921768
-0.012526063191703069   -0.09406873133233097   -0.002465831012771738
-0.015778098327698525   -0.08704060978931281   -0.002204955945265302
-0.012695698987619077   -0.09405319900413404   -0.0027060332906019063
-0.009951459707626125   -0.09431087669384045   -0.002513069396921768
-0.015778098327698525   -0.08704060978931281   -0.002204955945265302
-0.011650974530017694   -0.0872786248764821   -0.002220072740728291
-0.011709722695672746   -0.087302982303472   -0.0023319964980841007
-0.009951459707626125   -0.09431087669384045   -0.002513069396921768
-0.015778098327698525   -0.08704060978931281   -0.002204955945265302
-0.011709722695672746   -0.087302982303472   -0.0023319964980841007
-0.012695698987619077   -0.09405319900413404   -0.0027060332906019063
-0.013030616277283915   -0.09420924381607465   -0.003145415432870102
-0.01604363304631296   -0.08720594581671166   -0.0027875469197905173
-0.016514672853249684   -0.09373392191523035   -0.0034181550478574706
-0.012889901676355857   -0.09410006353920847   -0.00293046980380642
-0.01604363304631296   -0.08720594581671166   -0.0027875469197905173
-0.020969444876076278   -0.08678006244184922   -0.0030328175430664192
-0.016514672853249684   -0.09373392191523035   -0.0034181550478574706
-0.02063631011032816   -0.08666935016355394   -0.0027446546247116036
-0.012889901676355857   -0.09410006353920847   -0.00293046980380642
-0.016062632445287963   -0.0936157050248464   -0.003078830569611877
-0.02063631011032816   -0.08666935016355394   -0.0027446546247116036
-0.016514672853249684   -0.09373392191523035   -0.0034181550478574706
-0.012889901676355857   -0.09410006353920847   -0.00293046980380642
-0.02063631011032816   -0.08666935016355394   -0.0027446546247116036
-0.015978430739416544   -0.08709967605995539   -0.002603408765581394
-0.01604363304631296   -0.08720594581671166   -0.0027875469197905173
-0.012889901676355857   -0.09410006353920847   -0.00293046980380642
-0.02063631011032816   -0.08666935016355394   -0.0027446546247116036
-0.01604363304631296   -0.08720594581671166   -0.0027875469197905173
-0.016514672853249684   -0.09373392191523035   -0.0034181550478574706
-0.012889901676355857   -0.09410006353920847   -0.00293046980380642
-0.015978430739416544   -0.08709967605995539   -0.002603408765581394
-0.016062632445287963   -0.0936157050248464   -0.003078830569611877
-0.012695698987619077   -0.09405319900413404   -0.0027060332906019063
-0.015978430739416544   -0.08709967605995539   -0.002603408765581394
-0.02063631011032816   -0.08666935016355394   -0.0027446546247116036
-0.016062632445287963   -0.0936157050248464   -0.003078830569611877
-0.02034701939208873   -0.08661801224454752   -0.002441475568512848
-0.012695698987619077   -0.09405319900413404   -0.0027060332906019063
-0.015657205615187388   -0.09357235671851714   -0.002719620798041666
-0.02034701939208873   -0.08661801224454752   -0.002441475568512848
-0.016062632445287963   -0.0936157050248464   -0.003078830569611877
-0.012695698987619077   -0.09405319900413404   -0.0027060332906019063
-0.02034701939208873   -0.08661801224454752   -0.002441475568512848
-0.01586794030015814   -0.08704358095547228   -0.0024101563779577793
-0.015978430739416544   -0.08709967605995539   -0.002603408765581394
-0.012695698987619077   -0.09405319900413404   -0.0027060332906019063
-0.02034701939208873   -0.08661801224454752   -0.002441475568512848
-0.015978430739416544   -0.08709967605995539   -0.002603408765581394
-0.016062632445287963   -0.0936157050248464   -0.003078830569611877
-0.012695698987619077   -0.09405319900413404   -0.0027060332906019063
-0.01586794030015814   -0.08704358095547228   -0.0024101563779577793
-0.015657205615187388   -0.09357235671851714   -0.002719620798041666
-0.012526063191703069   -0.09406873133233097   -0.002465831012771738
-0.01586794030015814   -0.08704358095547228   -0.0024101563779577793
-0.02034701939208873   -0.08661801224454752   -0.002441475568512848
-0.015657205615187388   -0.09357235671851714   -0.002719620798041666
-0.019957199549295222   -0.08664790901325063   -0.002125214466590943
-0.012526063191703069   -0.09406873133233097   -0.002465831012771738
-0.015131721708811873   -0.09362616475755457   -0.0023439483383301566
-0.019957199549295222   -0.08664790901325063   -0.002125214466590943
-0.015657205615187388   -0.09357235671851714   -0.002719620798041666
-0.012526063191703069   -0.09406873133233097   -0.002465831012771738
-0.019957199549295222   -0.08664790901325063   -0.002125214466590943
-0.015778098327698525   -0.08704060978931281   -0.002204955945265302
-0.01586794030015814   -0.08704358095547228   -0.0024101563779577793
-0.012526063191703069   -0.09406873133233097   -0.002465831012771738
-0.019957199549295222   -0.08664790901325063   -0.002125214466590943
-0.01586794030015814   -0.08704358095547228   -0.0024101563779577793
-0.015657205615187388   -0.09357235671851714   -0.002719620798041666
0.0005381750449692281   -0.08738248988303113   -0.0015010152925710423
0.0031231954460979802   -0.07812992996394214   -0.0011439961564370653
-0.003695610287737164   -0.08759211353798174   -0.0018993461780459097
0.0008130718623950509   -0.08717971514544731   -0.0017245996236476832
0.0031231954460979802   -0.07812992996394214   -0.0011439961564370653
-0.0024783806520937554   -0.07826824677655916   -0.0015241630506769295
-0.003695610287737164   -0.08759211353798174   -0.0018993461780459097
-0.002463336415431114   -0.07810005282123113   -0.0015921290390428489
0.0008130718623950509   -0.08717971514544731   -0.0017245996236476832
-0.003622656484763885   -0.08742300980468447   -0.0019975426578964393
-0.002463336415431114   -0.07810005282123113   -0.0015921290390428489
-0.003695610287737164   -0.08759211353798174   -0.0018993461780459097
0.0008130718623950509   -0.08717971514544731   -0.0017245996236476832
-0.002463336415431114   -0.07810005282123113   -0.0015921290390428489
0.003286070786332644   -0.0779320921119089   -0.0013091258722380701
0.0031231954460979802   -0.07812992996394214   -0.0011439961564370653
0.0008130718623950509   -0.08717971514544731   -0.0017245996236476832
-0.002463336415431114   -0.07810005282123113   -0.0015921290390428489
0.0031231954460979802   -0.07812992996394214   -0.0011439961564370653
-0.003695610287737164   -0.08759211353798174   -0.0018993461780459097
0.0008130718623950509   -0.08717971514544731   -0.0017245996236476832
0.003286070786332644   -0.0779320921119089   -0.0013091258722380701
-0.003622656484763885   -0.08742300980468447   -0.0019975426578964393
0.0010152460057125472   -0.08706221277623111   -0.0019321092877248767
0.003286070786332644   -0.0779320921119089   -0.0013091258722380701
-0.002463336415431114   -0.07810005282123113   -0.0015921290390428489
-0.003622656484763885   -0.08742300980468447   -0.0019975426578964393
-0.002444221422445927   -0.07797785714143687   -0.0016496113027868672
0.0010152460057125472   -0.08706221277623111   -0.0019321092877248767
-0.0035396450079911803   -0.08731228551553138   -0.0020842542656355108
-0.002444221422445927   -0.07797785714143687   -0.0016496113027868672
-0.003622656484763885   -0.08742300980468447   -0.0019975426578964393
0.0010152460057125472   -0.08706221277623111   -0.0019321092877248767
-0.002444221422445927   -0.07797785714143687   -0.0016496113027868672
0.0033900973224983517   -0.07780196485791967   -0.0014594432092070655
0.003286070786332644   -0.0779320921119089   -0.0013091258722380701
0.0010152460057125472   -0.08706221277623111   -0.0019321092877248767
-0.002444221422445927   -0.07797785714143687   -0.0016496113027868672
0.003286070786332644   -0.0779320921119089   -0.0013091258722380701
-0.003622656484763885   -0.08742300980468447   -0.0019975426578964393
0.0010152460057125472   -0.08706221277623111   -0.0019321092877248767
0.0033900973224983517   -0.07780196485791967   -0.0014594432092070655
-0.0035396450079911803   -0.08731228551553138   -0.0020842542656355108
0.0012315072902152745   -0.08700379147816929   -0.0021234628343665416
0.0033900973224983517   -0.07780196485791967   -0.0014594432092070655
-0.002444221422445927   -0.07797785714143687   -0.0016496113027868672
-0.0035396450079911803   -0.08731228551553138   -0.0020842542656355108
-0.002453587548988688   -0.07789776435782714   -0.0016973750231301442
0.0012315072902152745   -0.08700379147816929   -0.0021234628343665416
-0.003490023492884834   -0.08725667395617337   -0.002160614507183799
-0.002453587548988688   -0.07789776435782714   -0.0016973750231301442
-0.0035396450079911803   -0.08731228551553138   -0.0020842542656355108
0.0012315072902152745   -0.08700379147816929   -0.0021234628343665416
-0.002453587548988688   -0.07789776435782714   -0.0016973750231301442
0.0034967387644114847   -0.0777144027851519   -0.0015952562238585476
0.0033900973224983517   -0.07780196485791967   -0.0014594432092070655
0.0012315072902152745   -0.08700379147816929   -0.0021234628343665416
-0.002453587548988688   -0.07789776435782714   -0.0016973750231301442
0.0033900973224983517   -0.07780196485791967   -0.0014594432092070655
-0.0035396450079911803   -0.08731228551553138   -0.0020842542656355108
-0.003695610287737164   -0.08759211353798174   -0.0018993461780459097
-0.0024783806520937554   -0.07826824677655916   -0.0015241630506769295
-0.00779015668954326   -0.08763218042650242   -0.002227752597874669
-0.003622656484763885   -0.08742300980468447   -0.0019975426578964393
-0.0024783806520937554   -0.07826824677655916   -0.0015241630506769295
-0.007867717839437759   -0.07826883982354484   -0.001837952294579165
-0.00779015668954326   -0.08763218042650242   -0.002227752597874669
-0.007868474273803478   -0.07812645256387112   -0.0018315443349058295
-0.003622656484763885   -0.08742300980468447   -0.0019975426578964393
-0.007736482121266917   -0.08748696996583373   -0.0022303328592686716
-0.007868474273803478   -0.07812645256387112   -0.0018315443349058295
-0.00779015668954326   -0.08763218042650242   -0.002227752597874669
-0.003622656484763885   -0.08742300980468447   -0.0019975426578964393
-0.007868474273803478   -0.07812645256387112   -0.0018315443349058295
-0.002463336415431114   -0.07810005282123113   -0.0015921290390428489
-0.0024783806520937554   -0.07826824677655916   -0.0015241630506769295
-0.003622656484763885   -0.08742300980468447   -0.0019975426578964393
-0.007868474273803478   -0.07812645256387112   -0.0018315443349058295
-0.0024783806520937554   -0.07826824677655916   -0.0015241630506769295
-0.00779015668954326   -0.08763218042650242   -0.002227752597874669
-0.003622656484763885   -0.08742300980468447   -0.0019975426578964393
-0.002463336415431114   -0.07810005282123113   -0.0015921290390428489
-0.007736482121266917   -0.08748696996583373   -0.0022303328592686716
-0.0035396450079911803   -0.08731228551553138   -0.0020842542656355108
-0.002463336415431114   -0.07810005282123113   -0.0015921290390428489
-0.007868474273803478   -0.07812645256387112   -0.0018315443349058295
-0.007736482121266917   -0.08748696996583373   -0.0022303328592686716
-0.007868873392232363   -0.0780246202682932   -0.001814696639241469
-0.0035396450079911803   -0.08731228551553138   -0.0020842542656355108
-0.0076812970944411165   -0.08739401679969822   -0.0022219123469569193
-0.007868873392232363   -0.0780246202682932   -0.001814696639241469
-0.007736482121266917   -0.08748696996583373   -0.0022303328592686716
-0.0035396450079911803   -0.08731228551553138   -0.0020842542656355108
-0.007868873392232363   -0.0780246202682932   -0.001814696639241469
-0.002444221422445927   -0.07797785714143687   -0.0016496113027868672
-0.002463336415431114   -0.07810005282123113   -0.0015921290390428489
-0.0035396450079911803   -0.08731228551553138   -0.0020842542656355108
-0.007868873392232363   -0.0780246202682932   -0.001814696639241469
-0.002463336415431114   -0.07810005282123113   -0.0015921290390428489
-0.007736482121266917   -0.08748696996583373   -0.0022303328592686716
-0.0035396450079911803   -0.08731228551553138   -0.0020842542656355108
-0.002444221422445927   -0.07797785714143687   -0.0016496113027868672
-0.0076812970944411165   -0.08739401679969822   -0.0022219123469569193
-0.003490023492884834   -0.08725667395617337   -0.002160614507183799
-0.002444221422445927   -0.07797785714143687   -0.0016496113027868672
-0.007868873392232363   -0.0780246202682932   -0.001814696639241469
-0.0076812970944411165   -0.08739401679969822   -0.0022219123469569193
-0.007876485451617702   -0.07796341327657062   -0.0017879466553602718
-0.003490023492884834   -0.08725667395617337   -0.002160614507183799
-0.007633026480238369   -0.08735245054940768   -0.0022032191022926194
-0.007876485451617702   -0.07796341327657062   -0.0017879466553602718
-0.0076812970944411165   -0.08739401679969822   -0.0022219123469569193
-0.003490023492884834   -0.08725667395617337   -0.002160614507183799
-0.007876485451617702   -0.07796341327657062   -0.0017879466553602718
-0.002453587548988688   -0.07789776435782714   -0.0016973750231301442
-0.002444221422445927   -0.07797785714143687   -0.0016496113027868672
-0.003490023492884834   -0.08725667395617337   -0.002160614507183799
-0.007876485451617702   -0.07796341327657062   -0.0017879466553602718
-0.002444221422445927   -0.07797785714143687   -0.0016496113027868672
-0.0076812970944411165   -0.08739401679969822   -0.0022219123469569193
-0.00779015668954326   -0.08763218042650242   -0.002227752597874669
-0.007867717839437759   -0.07826883982354484   -0.001837952294579165
-0.01182008220443155   -0.08750190700110867   -0.0025242145227558676
-0.007736482121266917   -0.08748696996583373   -0.0022303328592686716
-0.007867717839437759   -0.07826883982354484   -0.001837952294579165
-0.01316527382856059   -0.07813479709202147   -0.0021129029315787194
-0.01182008220443155   -0.08750190700110867   -0.0025242145227558676
-0.013170010093274058   -0.07801510965300186   -0.0020330150095867407
-0.007736482121266917   -0.08748696996583373   -0.0022303328592686716
-0.011770106520527597   -0.08737660409898047   -0.002433487789796117
-0.013170010093274058   -0.07801510965300186   -0.0020330150095867407
-0.01182008220443155   -0.08750190700110867   -0.0025242145227558676
-0.007736482121266917   -0.08748696996583373   -0.0022303328592686716
-0.013170010093274058   -0.07801510965300186   -0.0020330150095867407
-0.007868474273803478   -0.07812645256387112   -0.0018315443349058295
-0.007867717839437759   -0.07826883982354484   -0.001837952294579165
-0.007736482121266917   -0.08748696996583373   -0.0022303328592686716
-0.013170010093274058   -0.07801510965300186   -0.0020330150095867407
-0.007867717839437759   -0.07826883982354484   -0.001837952294579165
-0.01182008220443155   -0.08750190700110867   -0.0025242145227558676
-0.007736482121266917   -0.08748696996583373   -0.0022303328592686716
-0.007868474273803478   -0.07812645256387112   -0.0018315443349058295
-0.011770106520527597   -0.08737660409898047   -0.002433487789796117
-0.0076812970944411165   -0.08739401679969822   -0.0022219123469569193
-0.007868474273803478   -0.07812645256387112   -0.0018315443349058295
-0.013170010093274058   -0.07801510965300186   -0.0020330150095867407
-0.011770106520527597   -0.08737660409898047   -0.002433487789796117
-0.01316571104126198   -0.07793561802123526   -0.001942887787356993
-0.0076812970944411165   -0.08739401679969822   -0.0022219123469569193
-0.011709722695672746   -0.087302982303472   -0.0023319964980841007
-0.01316571104126198   -0.07793561802123526   -0.001942887787356993
-0.011770106520527597   -0.08737660409898047   -0.002433487789796117
-0.0076812970944411165   -0.08739401679969822   -0.0022219123469569193
-0.01316571104126198   -0.07793561802123526   -0.001942887787356993
-0.007868873392232363   -0.0780246202682932   -0.001814696639241469
-0.007868474273803478   -0.07812645256387112   -0.0018315443349058295
-0.0076812970944411165   -0.08739401679969822   -0.0022219123469569193
-0.01316571104126198   -0.07793561802123526   -0.001942887787356993
-0.007868474273803478   -0.07812645256387112   -0.0018315443349058295
-0.011770106520527597   -0.08737660409898047   -0.002433487789796117
-0.0076812970944411165   -0.08739401679969822   -0.0022219123469569193
-0.007868873392232363   -0.0780246202682932   -0.001814696639241469
-0.011709722695672746   -0.087302982303472   -0.0023319964980841007
-0.007633026480238369   -0.08735245054940768   -0.0022032191022926194
-0.007868873392232363   -0.0780246202682932   -0.001814696639241469
-0.01316571104126198   -0.07793561802123526   -0.001942887787356993
-0.011709722695672746   -0.087302982303472   -0.0023319964980841007
-0.013163031327377716   -0.07789561230156371   -0.0018428209060466969
-0.007633026480238369   -0.08735245054940768   -0.0022032191022926194
-0.011650974530017694   -0.0872786248764821   -0.002220072740728291
-0.013163031327377716   -0.07789561230156371   -0.0018428209060466969
-0.011709722695672746   -0.087302982303472   -0.0023319964980841007
-0.007633026480238369   -0.08735245054940768   -0.0022032191022926194
-0.013163031327377716   -0.07789561230156371   -0.0018428209060466969
-0.007876485451617702   -0.07796341327657062   -0.0017879466553602718
-0.007868873392232363   -0.0780246202682932   -0.001814696639241469
-0.007633026480238369   -0.08735245054940768   -0.0022032191022926194
-0.013163031327377716   -0.07789561230156371   -0.0018428209060466969
-0.007868873392232363   -0.0780246202682932   -0.001814696639241469
-0.011709722695672746   -0.087302982303472   -0.0023319964980841007
-0.01182008220443155   -0.08750190700110867   -0.0025242145227558676
-0.01316527382856059   -0.07813479709202147   -0.0021129029315787194
-0.01604363304631296   -0.08720594581671166   -0.0027875469197905173
-0.011770106520527597   -0.08737660409898047   -0.002433487789796117
-0.01316527382856059   -0.07813479709202147   -0.0021129029315787194
-0.018628114164432934   -0.07787122429659152   -0.002349493509788778
-0.01604363304631296   -0.08720594581671166   -0.0027875469197905173
-0.018621772804272033   -0.07777329743813315   -0.0021952617783759184
-0.011770106520527597   -0.08737660409898047   -0.002433487789796117
-0.015978430739416544   -0.08709967605995539   -0.002603408765581394
-0.018621772804272033   -0.07777329743813315   -0.0021952617783759184
-0.01604363304631296   -0.08720594581671166   -0.0027875469197905173
-0.011770106520527597   -0.08737660409898047   -0.002433487789796117
-0.018621772804272033   -0.07777329743813315   -0.0021952617783759184
-0.013170010093274058   -0.07801510965300186   -0.0020330150095867407
-0.01316527382856059   -0.07813479709202147   -0.0021129029315787194
-0.011770106520527597   -0.08737660409898047   -0.002433487789796117
-0.018621772804272033   -0.07777329743813315   -0.0021952617783759184
-0.01316527382856059   -0.07813479709202147   -0.0021129029315787194
-0.01604363304631296   -0.08720594581671166   -0.0027875469197905173
-0.011770106520527597   -0.08737660409898047   -0.002433487789796117
-0.013170010093274058   -0.07801510965300186   -0.0020330150095867407
-0.015978430739416544   -0.08709967605995539   -0.002603408765581394
-0.011709722695672746   -0.087302982303472   -0.0023319964980841007
-0.013170010093274058   -0.07801510965300186   -0.0020330150095867407
-0.018621772804272033   -0.07777329743813315   -0.0021952617783759184
-0.015978430739416544   -0.08709967605995539   -0.002603408765581394
-0.018576095935693097   -0.07771406144309478   -0.002032332768125683
-0.011709722695672746   -0.087302982303472   -0.0023319964980841007
-0.01586794030015814   -0.08704358095547228   -0.0024101563779577793
-0.018576095935693097   -0.07771406144309478   -0.002032332768125683
-0.015978430739416544   -0.08709967605995539   -0.002603408765581394
-0.011709722695672746   -0.087302982303472   -0.0023319964980841007
-0.018576095935693097   -0.07771406144309478   -0.002032332768125683
-0.01316571104126198   -0.07793561802123526   -0.001942887787356993
-0.013170010093274058   -0.07801510965300186   -0.0020330150095867407
-0.011709722695672746   -0.087302982303472   -0.0023319964980841007
-0.018576095935693097   -0.07771406144309478   -0.002032332768125683
-0.013170010093274058   -0.07801510965300186   -0.0020330150095867407
-0.015978430739416544   -0.08709967605995539   -0.002603408765581394
-0.011709722695672746   -0.087302982303472   -0.0023319964980841007
-0.01316571104126198   -0.07793561802123526   -0.001942887787356993
-0.01586794030015814   -0.08704358095547228   -0.0024101563779577793
-0.011650974530017694   -0.0872786248764821   -0.002220072740728291
-0.01316571104126198   -0.07793561802123526   -0.001942887787356993
-0.018576095935693097   -0.07771406144309478   -0.002032332768125683
-0.01586794030015814   -0.08704358095547228   -0.0024101563779577793
-0.018545536585626094   -0.07769762534317841   -0.0018586677370233673
-0.011650974530017694   -0.0872786248764821   -0.002220072740728291
-0.015778098327698525   -0.08704060978931281   -0.002204955945265302
-0.018545536585626094   -0.07769762534317841   -0.0018586677370233673
-0.01586794030015814   -0.08704358095547228   -0.0024101563779577793
-0.011650974530017694   -0.0872786248764821   -0.002220072740728291
-0.018545536585626094   -0.07769762534317841   -0.0018586677370233673
-0.013163031327377716   -0.07789561230156371   -0.0018428209060466969
-0.01316571104126198   -0.07793561802123526   -0.001942887787356993
-0.011650974530017694   -0.0872786248764821   -0.002220072740728291
-0.018545536585626094   -0.07769762534317841   -0.0018586677370233673
-0.01316571104126198   -0.07793561802123526   -0.001942887787356993
-0.01586794030015814   -0.08704358095547228   -0.0024101563779577793
-0.01604363304631296   -0.08720594581671166   -0.0027875469197905173
-0.018628114164432934   -0.07787122429659152   -0.002349493509788778
-0.020969444876076278   -0.08678006244184922   -0.0030328175430664192
-0.015978430739416544   -0.08709967605995539   -0.002603408765581394
-0.018628114164432934   -0.07787122429659152   -0.002349493509788778
-0.024729960860743524   -0.07750824204024004   -0.0025626879303722767
-0.020969444876076278   -0.08678006244184922   -0.0030328175430664192
-0.024502569839098227   -0.07741220810256037   -0.0023268331324025563
-0.015978430739416544   -0.08709967605995539   -0.002603408765581394
-0.02063631011032816   -0.08666935016355394   -0.0027446546247116036
-0.024502569839098227   -0.07741220810256037   -0.0023268331324025563
-0.020969444876076278   -0.08678006244184922   -0.0030328175430664192
-0.015978430739416544   -0.08709967605995539   -0.002603408765581394
-0.024502569839098227   -0.07741220810256037   -0.0023268331324025563
-0.018621772804272033   -0.07777329743813315   -0.0021952617783759184
-0.018628114164432934   -0.07787122429659152   -0.002349493509788778
-0.015978430739416544   -0.08709967605995539   -0.002603408765581394
-0.024502569839098227   -0.07741220810256037   -0.0023268331324025563
-0.018628114164432934   -0.07787122429659152   -0.002349493509788778
-0.020969444876076278   -0.08678006244184922   -0.0030328175430664192
-0.015978430739416544   -0.08709967605995539   -0.002603408765581394
-0.018621772804272033   -0.07777329743813315   -0.0021952617783759184
-0.02063631011032816   -0.08666935016355394   -0.0027446546247116036
-0.01586794030015814   -0.08704358095547228   -0.0024101563779577793
-0.018621772804272033   -0.07777329743813315   -0.0021952617783759184
-0.024502569839098227   -0.07741220810256037   -0.0023268331324025563
-0.02063631011032816   -0.08666935016355394   -0.0027446546247116036
-0.024307994388312257   -0.07736035634242007   -0.002076369804582475
-0.01586794030015814   -0.08704358095547228   -0.0024101563779577793
-0.02034701939208873   -0.08661801224454752   -0.002441475568512848
-0.024307994388312257   -0.07736035634242007   -0.002076369804582475
-0.02063631011032816   -0.08666935016355394   -0.0027446546247116036
-0.01586794030015814   -0.08704358095547228   -0.0024101563779577793
-0.024307994388312257   -0.07736035634242007   -0.002076369804582475
-0.018576095935693097   -0.07771406144309478   -0.002032332768125683
-0.018621772804272033   -0.07777329743813315   -0.0021952617783759184
-0.01586794030015814   -0.08704358095547228   -0.0024101563779577793
-0.024307994388312257   -0.07736035634242007   -0.002076369804582475
-0.018621772804272033   -0.07777329743813315   -0.0021952617783759184
-0.02063631011032816   -0.08666935016355394   -0.0027446546247116036
-0.01586794030015814   -0.08704358095547228   -0.0024101563779577793
-0.018576095935693097   -0.07771406144309478   -0.002032332768125683
-0.02034701939208873   -0.08661801224454752   -0.002441475568512848
-0.015778098327698525   -0.08704060978931281   -0.002204955945265302
-0.018576095935693097   -0.07771406144309478   -0.002032332768125683
-0.024307994388312257   -0.07736035634242007   -0.002076369804582475
-0.02034701939208873   -0.08661801224454752   -0.002441475568512848
-0.024027042929423138   -0.07737643115968243   -0.0018132956825380826
-0.015778098327698525   -0.08704060978931281   -0.002204955945265302
-0.019957199549295222   -0.08664790901325063   -0.002125214466590943
-0.024027042929423138   -0.07737643115968243   -0.0018132956825380826
-0.02034701939208873   -0.08661801224454752   -0.002441475568512848
-0.015778098327698525   -0.08704060978931281   -0.002204955945265302
-0.024027042929423138   -0.07737643115968243   -0.0018132956825380826
-0.018545536585626094   -0.07769762534317841   -0.0018586677370233673
-0.018576095935693097   -0.07771406144309478   -0.002032332768125683
-0.015778098327698525   -0.08704060978931281   -0.002204955945265302
-0.024027042929423138   -0.07737643115968243   -0.0018132956825380826
-0.018576095935693097   -0.07771406144309478   -0.002032332768125683
-0.02034701939208873   -0.08661801224454752   -0.002441475568512848
0.0031231954460979802   -0.07812992996394214   -0.0011439961564370653
0.004901376656776332   -0.06700798661682737   -0.0007619110359324213
-0.0024783806520937554   -0.07826824677655916   -0.0015241630506769295
0.003286070786332644   -0.0779320921119089   -0.0013091258722380701
0.004901376656776332   -0.06700798661682737   -0.0007619110359324213
-0.001740721086937288   -0.06707573582538588   -0.001119606563692679
-0.0024783806520937554   -0.07826824677655916   -0.0015241630506769295
-0.0017722160431090403   -0.0669116217291024   -0.0011561155233980878
0.003286070786332644   -0.0779320921119089   -0.0013091258722380701
-0.002463336415431114   -0.07810005282123113   -0.0015921290390428489
-0.0017722160431090403   -0.0669116217291024   -0.0011561155233980878
-0.0024783806520937554   -0.07826824677655916   -0.0015241630506769295
0.003286070786332644   -0.0779320921119089   -0.0013091258722380701
-0.0017722160431090403   -0.0669116217291024   -0.0011561155233980878
0.004965235888514975   -0.06681738608408037   -0.0008698605826337026
0.004901376656776332   -0.06700798661682737   -0.0007619110359324213
0.003286070786332644   -0.0779320921119089   -0.0013091258722380701
-0.0017722160431090403   -0.0669116217291024   -0.0011561155233980878
0.004901376656776332   -0.06700798661682737   -0.0007619110359324213
-0.0024783806520937554   -0.07826824677655916   -0.0015241630506769295
0.003286070786332644   -0.0779320921119089   -0.0013091258722380701
0.004965235888514975   -0.06681738608408037   -0.0008698605826337026
-0.002463336415431114   -0.07810005282123113   -0.0015921290390428489
0.0033900973224983517   -0.07780196485791967   -0.0014594432092070655
0.004965235888514975   -0.06681738608408037   -0.0008698605826337026
-0.0017722160431090403   -0.0669116217291024   -0.0011561155233980878
-0.002463336415431114   -0.07810005282123113   -0.0015921290390428489
-0.001805346692657241   -0.06678154565664986   -0.0011832780410670554
0.0033900973224983517   -0.07780196485791967   -0.0014594432092070655
-0.002444221422445927   -0.07797785714143687   -0.0016496113027868672
-0.001805346692657241   -0.06678154565664986   -0.0011832780410670554
-0.002463336415431114   -0.07810005282123113   -0.0015921290390428489
0.0033900973224983517   -0.07780196485791967   -0.0014594432092070655
-0.001805346692657241   -0.06678154565664986   -0.0011832780410670554
0.004984289152615515   -0.0666781760416934   -0.0009640243929972022
0.004965235888514975   -0.06681738608408037   -0.0008698605826337026
0.0033900973224983517   -0.07780196485791967   -0.0014594432092070655
-0.001805346692657241   -0.06678154565664986   -0.0011832780410670554
0.004965235888514975   -0.06681738608408037   -0.0008698605826337026
-0.002463336415431114   -0.07810005282123113   -0.0015921290390428489
0.0033900973224983517   -0.07780196485791967   -0.0014594432092070655
0.004984289152615515   -0.0666781760416934   -0.0009640243929972022
-0.002444221422445927   -0.07797785714143687   -0.0016496113027868672
0.0034967387644114847   -0.0777144027851519   -0.0015952562238585476
0.004984289152615515   -0.0666781760416934   -0.0009640243929972022
-0.001805346692657241   -0.06678154565664986   -0.0011832780410670554
-0.002444221422445927   -0.07797785714143687   -0.0016496113027868672
-0.0018615352017461594   -0.06668144080366586   -0.0012014108443239016
0.0034967387644114847   -0.0777144027851519   -0.0015952562238585476
-0.002453587548988688   -0.07789776435782714   -0.0016973750231301442
-0.0018615352017461594   -0.06668144080366586   -0.0012014108443239016
-0.002444221422445927   -0.07797785714143687   -0.0016496113027868672
0.0034967387644114847   -0.0777144027851519   -0.0015952562238585476
-0.0018615352017461594   -0.06668144080366586   -0.0012014108443239016
0.004994595951107439   -0.06656594524719059   -0.001045053284001751
0.004984289152615515   -0.0666781760416934   -0.0009640243929972022
0.0034967387644114847   -0.0777144027851519   -0.0015952562238585476
-0.0018615352017461594   -0.06668144080366586   -0.0012014108443239016
0.004984289152615515   -0.0666781760416934   -0.0009640243929972022
-0.002444221422445927   -0.07797785714143687   -0.0016496113027868672
-0.0024783806520937554   -0.07826824677655916   -0.0015241630506769295
-0.001740721086937288   -0.06707573582538588   -0.001119606563692679
-0.007867717839437759   -0.07826883982354484   -0.001837952294579165
-0.002463336415431114   -0.07810005282123113   -0.0015921290390428489
-0.001740721086937288   -0.06707573582538588   -0.001119606563692679
-0.008106700047482292   -0.06704054727323114   -0.0014144619921550845
-0.007867717839437759   -0.07826883982354484   -0.001837952294579165
-0.008150208740180378   -0.0669032754101198   -0.0013972881020507884
-0.002463336415431114   -0.07810005282123113   -0.0015921290390428489
-0.007868474273803478   -0.07812645256387112   -0.0018315443349058295
-0.008150208740180378   -0.0669032754101198   -0.0013972881020507884
-0.007867717839437759   -0.07826883982354484   -0.001837952294579165
-0.002463336415431114   -0.07810005282123113   -0.0015921290390428489
-0.008150208740180378   -0.0669032754101198   -0.0013972881020507884
-0.0017722160431090403   -0.0669116217291024   -0.0011561155233980878
-0.001740721086937288   -0.06707573582538588   -0.001119606563692679
-0.002463336415431114   -0.07810005282123113   -0.0015921290390428489
-0.008150208740180378   -0.0669032754101198   -0.0013972881020507884
-0.001740721086937288   -0.06707573582538588   -0.001119606563692679
-0.007867717839437759   -0.07826883982354484   -0.001837952294579165
-0.002463336415431114   -0.07810005282123113   -0.0015921290390428489
-0.0017722160431090403   -0.0669116217291024   -0.0011561155233980878
-0.007868474273803478   -0.07812645256387112   -0.0018315443349058295
-0.002444221422445927   -0.07797785714143687   -0.0016496113027868672
-0.0017722160431090403   -0.0669116217291024   -0.0011561155233980878
-0.008150208740180378   -0.0669032754101198   -0.0013972881020507884
-0.007868474273803478   -0.07812645256387112   -0.0018315443349058295
-0.00819431331724822   -0.06679518435235103   -0.0013704953481705913
-0.002444221422445927   -0.07797785714143687   -0.0016496113027868672
-0.007868873392232363   -0.0780246202682932   -0.001814696639241469
-0.00819431331724822   -0.06679518435235103   -0.0013704953481705913
-0.007868474273803478   -0.07812645256387112   -0.0018315443349058295
-0.002444221422445927   -0.07797785714143687   -0.0016496113027868672
-0.00819431331724822   -0.06679518435235103   -0.0013704953481705913
-0.001805346692657241   -0.06678154565664986   -0.0011832780410670554
-0.0017722160431090403   -0.0669116217291024   -0.0011561155233980878
-0.002444221422445927   -0.07797785714143687   -0.0016496113027868672
-0.00819431331724822   -0.06679518435235103   -0.0013704953481705913
-0.0017722160431090403   -0.0669116217291024   -0.0011561155233980878
-0.007868474273803478   -0.07812645256387112   -0.0018315443349058295
-0.002444221422445927   -0.07797785714143687   -0.0016496113027868672
-0.001805346692657241   -0.06678154565664986   -0.0011832780410670554
-0.007868873392232363   -0.0780246202682932   -0.001814696639241469
-0.002453587548988688   -0.07789776435782714   -0.0016973750231301442
-0.001805346692657241   -0.06678154565664986   -0.0011832780410670554
-0.00819431331724822   -0.06679518435235103   -0.0013704953481705913
-0.007868873392232363   -0.0780246202682932   -0.001814696639241469
-0.008245259365966399   -0.06671677123915826   -0.0013345435868219087
-0.002453587548988688   -0.07789776435782714   -0.0016973750231301442
-0.007876485451617702   -0.07796341327657062   -0.0017879466553602718
-0.008245259365966399   -0.06671677123915826   -0.0013345435868219087
-0.007868873392232363   -0.0780246202682932   -0.001814696639241469
-0.002453587548988688   -0.07789776435782714   -0.0016973750231301442
-0.008245259365966399   -0.06671677123915826   -0.0013345435868219087
-0.0018615352017461594   -0.06668144080366586   -0.0012014108443239016
-0.001805346692657241   -0.06678154565664986   -0.0011832780410670554
-0.002453587548988688   -0.07789776435782714   -0.0016973750231301442
-0.008245259365966399   -0.06671677123915826   -0.0013345435868219087
-0.001805346692657241   -0.06678154565664986   -0.0011832780410670554
-0.007868873392232363   -0.0780246202682932   -0.001814696639241469
-0.007867717839437759   -0.07826883982354484   -0.001837952294579165
-0.008106700047482292   -0.06704054727323114   -0.0014144619921550845
-0.01316527382856059   -0.07813479709202147   -0.0021129029315787194
-0.007868474273803478   -0.07812645256387112   -0.0018315443349058295
-0.008106700047482292   -0.06704054727323114   -0.0014144619921550845
-0.014364896850903046   -0.06690870887100275   -0.001666896885200578
-0.01316527382856059   -0.07813479709202147   -0.0021129029315787194
-0.014411799407256141   -0.06679585170991874   -0.0015962919525139235
-0.007868474273803478   -0.07812645256387112   -0.0018315443349058295
-0.013170010093274058   -0.07801510965300186   -0.0020330150095867407
-0.014411799407256141   -0.06679585170991874   -0.0015962919525139235
-0.01316527382856059   -0.07813479709202147   -0.0021129029315787194
-0.007868474273803478   -0.07812645256387112   -0.0018315443349058295
-0.014411799407256141   -0.06679585170991874   -0.0015962919525139235
-0.008150208740180378   -0.0669032754101198   -0.0013972881020507884
-0.008106700047482292   -0.06704054727323114   -0.0014144619921550845
-0.007868474273803478   -0.07812645256387112   -0.0018315443349058295
-0.014411799407256141   -0.06679585170991874   -0.0015962919525139235
-0.008106700047482292   -0.06704054727323114   -0.0014144619921550845
-0.01316527382856059   -0.07813479709202147   -0.0021129029315787194
-0.007868474273803478   -0.07812645256387112   -0.0018315443349058295
-0.008150208740180378   -0.0669032754101198   -0.0013972881020507884
-0.013170010093274058   -0.07801510965300186   -0.0020330150095867407
-0.007868873392232363   -0.0780246202682932   -0.001814696639241469
-0.008150208740180378   -0.0669032754101198   -0.0013972881020507884
-0.014411799407256141   -0.06679585170991874   -0.0015962919525139235
-0.013170010093274058   -0.07801510965300186   -0.0020330150095867407
-0.01445068588539669   -0.06671189603129   -0.0015162364097286469
-0.007868873392232363   -0.0780246202682932   -0.001814696639241469
-0.01316571104126198   -0.07793561802123526   -0.001942887787356993
-0.01445068588539669   -0.06671189603129   -0.0015162364097286469
-0.013170010093274058   -0.07801510965300186   -0.0020330150095867407
-0.007868873392232363   -0.0780246202682932   -0.001814696639241469
-0.01445068588539669   -0.06671189603129   -0.0015162364097286469
-0.00819431331724822   -0.06679518435235103   -0.0013704953481705913
-0.008150208740180378   -0.0669032754101198   -0.0013972881020507884
-0.007868873392232363   -0.0780246202682932   -0.001814696639241469
-0.01445068588539669   -0.06671189603129   -0.0015162364097286469
-0.008150208740180378   -0.0669032754101198   -0.0013972881020507884
-0.013170010093274058   -0.07801510965300186   -0.0020330150095867407
-0.007868873392232363   -0.0780246202682932   -0.001814696639241469
-0.00819431331724822   -0.06679518435235103   -0.0013704953481705913
-0.01316571104126198   -0.07793561802123526   -0.001942887787356993
-0.007876485451617702   -0.07796341327657062   -0.0017879466553602718
-0.00819431331724822   -0.06679518435235103   -0.0013704953481705913
-0.01445068588539669   -0.06671189603129   -0.0015162364097286469
-0.01316571104126198   -0.07793561802123526   -0.001942887787356993
-0.014490694060383785   -0.06665672217763481   -0.001427009738229102
-0.007876485451617702   -0.07796341327657062   -0.0017879466553602718
-0.013163031327377716   -0.07789561230156371   -0.0018428209060466969
-0.014490694060383785   -0.06665672217763481   -0.001427009738229102
-0.01316571104126198   -0.07793561802123526   -0.001942887787356993
-0.007876485451617702   -0.07796341327657062   -0.0017879466553602718
-0.014490694060383785   -0.06665672217763481   -0.001427009738229102
-0.008245259365966399   -0.06671677123915826   -0.0013345435868219087
-0.00819431331724822   -0.06679518435235103   -0.0013704953481705913
-0.007876485451617702   -0.07796341327657062   -0.0017879466553602718
-0.014490694060383785   -0.06665672217763481   -0.001427009738229102
-0.00819431331724822   -0.06679518435235103   -0.0013704953481705913
-0.01316571104126198   -0.07793561802123526   -0.001942887787356993
-0.01316527382856059   -0.07813479709202147   -0.0021129029315787194
-0.014364896850903046   -0.06690870887100275   -0.001666896885200578
-0.018628114164432934   -0.07787122429659152   -0.002349493509788778
-0.013170010093274058   -0.07801510965300186   -0.0020330150095867407
-0.014364896850903046   -0.06690870887100275   -0.001666896885200578
-0.02077196644305529   -0.06668286393537365   -0.0018778401749556036
-0.018628114164432934   -0.07787122429659152   -0.002349493509788778
-0.020810840846932827   -0.06659387411722922   -0.0017530805877470962
-0.013170010093274058   -0.07801510965300186   -0.0020330150095867407
-0.018621772804272033   -0.07777329743813315   -0.0021952617783759184
-0.020810840846932827   -0.06659387411722922   -0.0017530805877470962
-0.018628114164432934   -0.07787122429659152   -0.002349493509788778
-0.013170010093274058   -0.07801510965300186   -0.0020330150095867407
-0.020810840846932827   -0.06659387411722922   -0.0017530805877470962
-0.014411799407256141   -0.06679585170991874   -0.0015962919525139235
-0.014364896850903046   -0.06690870887100275   -0.001666896885200578
-0.013170010093274058   -0.07801510965300186   -0.0020330150095867407
-0.020810840846932827   -0.06659387411722922   -0.0017530805877470962
-0.014364896850903046   -0.06690870887100275   -0.001666896885200578
-0.018628114164432934   -0.07787122429659152   -0.002349493509788778
-0.013170010093274058   -0.07801510965300186   -0.0020330150095867407
-0.014411799407256141   -0.06679585170991874   -0.0015962919525139235
-0.018621772804272033   -0.07777329743813315   -0.0021952617783759184
-0.01316571104126198   -0.07793561802123526   -0.001942887787356993
-0.014411799407256141   -0.06679585170991874   -0.0015962919525139235
-0.020810840846932827   -0.06659387411722922   -0.0017530805877470962
-0.018621772804272033   -0.07777329743813315   -0.0021952617783759184
-0.020816065109956514   -0.06653198466367963   -0.0016201787633947898
-0.01316571104126198   -0.07793561802123526   -0.001942887787356993
-0.018576095935693097   -0.07771406144309478   -0.002032332768125683
-0.020816065109956514   -0.06653198466367963   -0.0016201787633947898
-0.018621772804272033   -0.07777329743813315   -0.0021952617783759184
-0.01316571104126198   -0.07793561802123526   -0.001942887787356993
-0.020816065109956514   -0.06653198466367963   -0.0016201787633947898
-0.01445068588539669   -0.06671189603129   -0.0015162364097286469
-0.014411799407256141   -0.06679585170991874   -0.0015962919525139235
-0.01316571104126198   -0.07793561802123526   -0.001942887787356993
-0.020816065109956514   -0.06653198466367963   -0.0016201787633947898
-0.014411799407256141   -0.06679585170991874   -0.0015962919525139235
-0.018621772804272033   -0.07777329743813315   -0.0021952617783759184
-0.01316571104126198   -0.07793561802123526   -0.001942887787356993
-0.01445068588539669   -0.06671189603129   -0.0015162364097286469
-0.018576095935693097   -0.07771406144309478   -0.002032332768125683
-0.013163031327377716   -0.07789561230156371   -0.0018428209060466969
-0.01445068588539669   -0.06671189603129   -0.0015162364097286469
-0.020816065109956514   -0.06653198466367963   -0.0016201787633947898
-0.018576095935693097   -0.07771406144309478   -0.002032332768125683
-0.020830783929101964   -0.06650146008056351   -0.00147741229215323
-0.013163031327377716   -0.07789561230156371   -0.0018428209060466969
-0.018545536585626094   -0.07769762534317841   -0.0018586677370233673
-0.020830783929101964   -0.06650146008056351   -0.00147741229215323
-0.018576095935693097   -0.07771406144309478   -0.002032332768125683
-0.013163031327377716   -0.07789561230156371   -0.0018428209060466969
-0.020830783929101964   -0.06650146008056351   -0.00147741229215323
-0.014490694060383785   -0.06665672217763481   -0.001427009738229102
-0.01445068588539669   -0.06671189603129   -0.0015162364097286469
-0.013163031327377716   -0.07789561230156371   -0.0018428209060466969
-0.020830783929101964   -0.06650146008056351   -0.00147741229215323
-0.01445068588539669   -0.06671189603129   -0.0015162364097286469
-0.018576095935693097   -0.07771406144309478   -0.002032332768125683
-0.018628114164432934   -0.07787122429659152   -0.002349493509788778
-0.02077196644305529   -0.06668286393537365   -0.0018778401749556036
-0.024729960860743524   -0.07750824204024004   -0.0025626879303722767
-0.018621772804272033   -0.07777329743813315   -0.0021952617783759184
-0.02077196644305529   -0.06668286393537365   -0.0018778401749556036
-0.027758353953834757   -0.06638689055889994   -0.0020580209250719798
-0.024729960860743524   -0.07750824204024004   -0.0025626879303722767
-0.027625443271980625   -0.06630560494070106   -0.0018760849653533976
-0.018621772804272033   -0.07777329743813315   -0.0021952617783759184
-0.024502569839098227   -0.07741220810256037   -0.0023268331324025563
-0.027625443271980625   -0.06630560494070106   -0.0018760849653533976
-0.024729960860743524   -0.07750824204024004   -0.0025626879303722767
-0.018621772804272033   -0.07777329743813315   -0.0021952617783759184
-0.027625443271980625   -0.06630560494070106   -0.0018760849653533976
-0.020810840846932827   -0.06659387411722922   -0.0017530805877470962
-0.02077196644305529   -0.06668286393537365   -0.0018778401749556036
-0.018621772804272033   -0.07777329743813315   -0.0021952617783759184
-0.027625443271980625   -0.06630560494070106   -0.0018760849653533976
-0.02077196644305529   -0.06668286393537365   -0.0018778401749556036
-0.024729960860743524   -0.07750824204024004   -0.0025626879303722767
-0.018621772804272033   -0.07777329743813315   -0.0021952617783759184
-0.020810840846932827   -0.06659387411722922   -0.0017530805877470962
-0.024502569839098227   -0.07741220810256037   -0.0023268331324025563
-0.018576095935693097   -0.07771406144309478   -0.002032332768125683
-0.020810840846932827   -0.06659387411722922   -0.0017530805877470962
-0.027625443271980625   -0.06630560494070106   -0.0018760849653533976
-0.024502569839098227   -0.07741220810256037   -0.0023268331324025563
-0.027513339929685993   -0.06625306601122359   -0.0016799389495826779
-0.018576095935693097   -0.07771406144309478   -0.002032332768125683
-0.024307994388312257   -0.07736035634242007   -0.002076369804582475
-0.027513339929685993   -0.06625306601122359   -0.0016799389495826779
-0.024502569839098227   -0.07741220810256037   -0.0023268331324025563
-0.018576095935693097   -0.07771406144309478   -0.002032332768125683
-0.027513339929685993   -0.06625306601122359   -0.0016799389495826779
-0.020816065109956514   -0.06653198466367963   -0.0016201787633947898
-0.020810840846932827   -0.06659387411722922   -0.0017530805877470962
-0.018576095935693097   -0.07771406144309478   -0.002032332768125683
-0.027513339929685993   -0.06625306601122359   -0.0016799389495826779
-0.020810840846932827   -0.06659387411722922   -0.0017530805877470962
-0.024502569839098227   -0.07741220810256037   -0.0023268331324025563
-0.018576095935693097   -0.07771406144309478   -0.002032332768125683
-0.020816065109956514   -0.06653198466367963   -0.0016201787633947898
-0.024307994388312257   -0.07736035634242007   -0.002076369804582475
-0.018545536585626094   -0.07769762534317841   -0.0018586677370233673
-0.020816065109956514   -0.06653198466367963   -0.0016201787633947898
-0.027513339929685993   -0.06625306601122359   -0.0016799389495826779
-0.024307994388312257   -0.07736035634242007   -0.002076369804582475
-0.02732809054943076   -0.06625386761087176   -0.0014713525350532827
-0.018545536585626094   -0.07769762534317841   -0.0018586677370233673
-0.024027042929423138   -0.07737643115968243   -0.0018132956825380826
-0.02732809054943076   -0.06625386761087176   -0.0014713525350532827
-0.024307994388312257   -0.07736035634242007   -0.002076369804582475
-0.018545536585626094   -0.07769762534317841   -0.0018586677370233673
-0.02732809054943076   -0.06625386761087176   -0.0014713525350532827
-0.020830783929101964   -0.06650146008056351   -0.00147741229215323
-0.020816065109956514   -0.06653198466367963   -0.0016201787633947898
-0.018545536585626094   -0.07769762534317841   -0.0018586677370233673
-0.02732809054943076   -0.06625386761087176   -0.0014713525350532827
-0.020816065109956514   -0.06653198466367963   -0.0016201787633947898
-0.024307994388312257   -0.07736035634242007   -0.002076369804582475
0.004901376656776332   -0.06700798661682737   -0.0007619110359324213
0.005885689330482494   -0.05453438875650223   -0.00038760491063573435
-0.001740721086937288   -0.06707573582538588   -0.001119606563692679
0.004965235888514975   -0.06681738608408037   -0.0008698605826337026
0.005885689330482494   -0.05453438875650223   -0.00038760491063573435
-0.0014845817750418475   -0.05453238318465939   -0.000719402065680561
-0.001740721086937288   -0.06707573582538588   -0.001119606563692679
-0.0015508358590126392   -0.054373598477120165   -0.0007240972556584358
0.004965235888514975   -0.06681738608408037   -0.0008698605826337026
-0.0017722160431090403   -0.0669116217291024   -0.0011561155233980878
-0.0015508358590126392   -0.054373598477120165   -0.0007240972556584358
-0.001740721086937288   -0.06707573582538588   -0.001119606563692679
0.004965235888514975   -0.06681738608408037   -0.0008698605826337026
-0.0015508358590126392   -0.054373598477120165   -0.0007240972556584358
0.005863667594427191   -0.05435188885145121   -0.0004390897409156047
0.005885689330482494   -0.05453438875650223   -0.00038760491063573435
0.004965235888514975   -0.06681738608408037   -0.0008698605826337026
-0.0015508358590126392   -0.054373598477120165   -0.0007240972556584358
0.005885689330482494   -0.05453438875650223   -0.00038760491063573435
-0.001740721086937288   -0.06707573582538588   -0.001119606563692679
0.004965235888514975   -0.06681738608408037   -0.0008698605826337026
0.005863667594427191   -0.05435188885145121   -0.0004390897409156047
-0.0017722160431090403   -0.0669116217291024   -0.0011561155233980878
0.004984289152615515   -0.0666781760416934   -0.0009640243929972022
0.005863667594427191   -0.05435188885145121   -0.0004390897409156047
-0.0015508358590126392   -0.054373598477120165   -0.0007240972556584358
-0.0017722160431090403   -0.0669116217291024   -0.0011561155233980878
-0.0016244499140098641   -0.05423670161396605   -0.0007205173453439799
0.004984289152615515   -0.0666781760416934   -0.0009640243929972022
-0.001805346692657241   -0.06678154565664986   -0.0011832780410670554
-0.0016244499140098641   -0.05423670161396605   -0.0007205173453439799
-0.0017722160431090403   -0.0669116217291024   -0.0011561155233980878
0.004984289152615515   -0.0666781760416934   -0.0009640243929972022
-0.0016244499140098641   -0.05423670161396605   -0.0007205173453439799
0.0058100360052610305   -0.05420474372978172   -0.0004773111379554081
0.005863667594427191   -0.05435188885145121   -0.0004390897409156047
0.004984289152615515   -0.0666781760416934   -0.0009640243929972022
-0.0016244499140098641   -0.05423670161396605   -0.0007205173453439799
0.005863667594427191   -0.05435188885145121   -0.0004390897409156047
-0.0017722160431090403   -0.0669116217291024   -0.0011561155233980878
0.004984289152615515   -0.0666781760416934   -0.0009640243929972022
0.0058100360052610305   -0.05420474372978172   -0.0004773111379554081
-0.001805346692657241   -0.06678154565664986   -0.0011832780410670554
0.004994595951107439   -0.06656594524719059   -0.001045053284001751
0.0058100360052610305   -0.05420474372978172   -0.0004773111379554081
-0.0016244499140098641   -0.05423670161396605   -0.0007205173453439799
-0.001805346692657241   -0.06678154565664986   -0.0011832780410670554
-0.001715700501314086   -0.0541181648553221   -0.0007083361051334074
0.004994595951107439   -0.06656594524719059   -0.001045053284001751
-0.0018615352017461594   -0.06668144080366586   -0.0012014108443239016
-0.001715700501314086   -0.0541181648553221   -0.0007083361051334074
-0.001805346692657241   -0.06678154565664986   -0.0011832780410670554
0.004994595951107439   -0.06656594524719059   -0.001045053284001751
-0.001715700501314086   -0.0541181648553221   -0.0007083361051334074
0.005735271375524004   -0.05406909231366174   -0.0005031952298324517
0.0058100360052610305   -0.05420474372978172   -0.0004773111379554081
0.004994595951107439   -0.06656594524719059   -0.001045053284001751
-0.001715700501314086   -0.0541181648553221   -0.0007083361051334074
0.0058100360052610305   -0.05420474372978172   -0.0004773111379554081
-0.001805346692657241   -0.06678154565664986   -0.0011832780410670554
-0.001740721086937288   -0.06707573582538588   -0.001119606563692679
-0.0014845817750418475   -0.05453238318465939   -0.000719402065680561
-0.008106700047482292   -0.06704054727323114   -0.0014144619921550845
-0.0017722160431090403   -0.0669116217291024   -0.0011561155233980878
-0.0014845817750418475   -0.05453238318465939   -0.000719402065680561
-0.008514167941679831   -0.05446565726557806   -0.0009935877651758352
-0.008106700047482292   -0.06704054727323114   -0.0014144619921550845
-0.008588197455068091   -0.05433370177093963   -0.000964766738392318
-0.0017722160431090403   -0.0669116217291024   -0.0011561155233980878
-0.008150208740180378   -0.0669032754101198   -0.0013972881020507884
-0.008588197455068091   -0.05433370177093963   -0.000964766738392318
-0.008106700047482292   -0.06704054727323114   -0.0014144619921550845
-0.0017722160431090403   -0.0669116217291024   -0.0011561155233980878
-0.008588197455068091   -0.05433370177093963   -0.000964766738392318
-0.0015508358590126392   -0.054373598477120165   -0.0007240972556584358
-0.0014845817750418475   -0.05453238318465939   -0.000719402065680561
-0.0017722160431090403   -0.0669116217291024   -0.0011561155233980878
-0.008588197455068091   -0.05433370177093963   -0.000964766738392318
-0.0014845817750418475   -0.05453238318465939   -0.000719402065680561
-0.008106700047482292   -0.06704054727323114   -0.0014144619921550845
-0.0017722160431090403   -0.0669116217291024   -0.0011561155233980878
-0.0015508358590126392   -0.054373598477120165   -0.0007240972556584358
-0.008150208740180378   -0.0669032754101198   -0.0013972881020507884
-0.001805346692657241   -0.06678154565664986   -0.0011832780410670554
-0.0015508358590126392   -0.054373598477120165   -0.0007240972556584358
-0.008588197455068091   -0.05433370177093963   -0.000964766738392318
-0.008150208740180378   -0.0669032754101198   -0.0013972881020507884
-0.008663708119139277   -0.05421956537675   -0.0009273292191824022
-0.001805346692657241   -0.06678154565664986   -0.0011832780410670554
-0.00819431331724822   -0.06679518435235103   -0.0013704953481705913
-0.008663708119139277   -0.05421956537675   -0.0009273292191824022
-0.008150208740180378   -0.0669032754101198   -0.0013972881020507884
-0.001805346692657241   -0.06678154565664986   -0.0011832780410670554
-0.008663708119139277   -0.05421956537675   -0.0009273292191824022
-0.0016244499140098641   -0.05423670161396605   -0.0007205173453439799
-0.0015508358590126392   -0.054373598477120165   -0.0007240972556584358
-0.001805346692657241   -0.06678154565664986   -0.0011832780410670554
-0.008663708119139277   -0.05421956537675   -0.0009273292191824022
-0.0015508358590126392   -0.054373598477120165   -0.0007240972556584358
-0.008150208740180378   -0.0669032754101198   -0.0013972881020507884
-0.001805346692657241   -0.06678154565664986   -0.0011832780410670554
-0.0016244499140098641   -0.05423670161396605   -0.0007205173453439799
-0.00819431331724822   -0.06679518435235103   -0.0013704953481705913
-0.0018615352017461594   -0.06668144080366586   -0.0012014108443239016
-0.0016244499140098641   -0.05423670161396605   -0.0007205173453439799
-0.008663708119139277   -0.05421956537675   -0.0009273292191824022
-0.00819431331724822   -0.06679518435235103   -0.0013704953481705913
-0.008745584873559184   -0.054124315888289344   -0.0008816754137510617
-0.0018615352017461594   -0.06668144080366586   -0.0012014108443239016
-0.008245259365966399   -0.06671677123915826   -0.0013345435868219087
-0.008745584873559184   -0.054124315888289344   -0.0008816754137510617
-0.00819431331724822   -0.06679518435235103   -0.0013704953481705913
-0.0018615352017461594   -0.06668144080366586   -0.0012014108443239016
-0.008745584873559184   -0.054124315888289344   -0.0008816754137510617
-0.001715700501314086   -0.0541181648553221   -0.0007083361051334074
-0.0016244499140098641   -0.05423670161396605   -0.0007205173453439799
-0.0018615352017461594   -0.06668144080366586   -0.0012014108443239016
-0.008745584873559184   -0.054124315888289344   -0.0008816754137510617
-0.0016244499140098641   -0.05423670161396605   -0.0007205173453439799
-0.00819431331724822   -0.06679518435235103   -0.0013704953481705913
-0.008106700047482292   -0.06704054727323114   -0.0014144619921550845
-0.008514167941679831   -0.05446565726557806   -0.0009935877651758352
-0.014364896850903046   -0.06690870887100275   -0.001666896885200578
-0.008150208740180378   -0.0669032754101198   -0.0013972881020507884
-0.008514167941679831   -0.05446565726557806   -0.0009935877651758352
-0.015424876839434684   -0.054341449292110544   -0.0012250966274972087
-0.014364896850903046   -0.06690870887100275   -0.001666896885200578
-0.015501050999687765   -0.05423425169721335   -0.001162808519957994
-0.008150208740180378   -0.0669032754101198   -0.0013972881020507884
-0.014411799407256141   -0.06679585170991874   -0.0015962919525139235
-0.015501050999687765   -0.05423425169721335   -0.001162808519957994
-0.014364896850903046   -0.06690870887100275   -0.001666896885200578
-0.008150208740180378   -0.0669032754101198   -0.0013972881020507884
-0.015501050999687765   -0.05423425169721335   -0.001162808519957994
-0.008588197455068091   -0.05433370177093963   -0.000964766738392318
-0.008514167941679831   -0.05446565726557806   -0.0009935877651758352
-0.008150208740180378   -0.0669032754101198   -0.0013972881020507884
-0.015501050999687765   -0.05423425169721335   -0.001162808519957994
-0.008514167941679831   -0.05446565726557806   -0.0009935877651758352
-0.014364896850903046   -0.06690870887100275   -0.001666896885200578
-0.008150208740180378   -0.0669032754101198   -0.0013972881020507884
-0.008588197455068091   -0.05433370177093963   -0.000964766738392318
-0.014411799407256141   -0.06679585170991874   -0.0015962919525139235
-0.00819431331724822   -0.06679518435235103   -0.0013704953481705913
-0.008588197455068091   -0.05433370177093963   -0.000964766738392318
-0.015501050999687765   -0.05423425169721335   -0.001162808519957994
-0.014411799407256141   -0.06679585170991874   -0.0015962919525139235
-0.015570173776447494   -0.05414474711997481   -0.001092103515581692
-0.00819431331724822   -0.06679518435235103   -0.0013704953481705913
-0.01445068588539669   -0.06671189603129   -0.0015162364097286469
-0.015570173776447494   -0.05414474711997481   -0.001092103515581692
-0.014411799407256141   -0.06679585170991874   -0.0015962919525139235
-0.00819431331724822   -0.06679518435235103   -0.0013704953481705913
-0.015570173776447494   -0.05414474711997481   -0.001092103515581692
-0.008663708119139277   -0.05421956537675   -0.0009273292191824022
-0.008588197455068091   -0.05433370177093963   -0.000964766738392318
-0.00819431331724822   -0.06679518435235103   -0.0013704953481705913
-0.015570173776447494   -0.05414474711997481   -0.001092103515581692
-0.008588197455068091   -0.05433370177093963   -0.000964766738392318
-0.014411799407256141   -0.06679585170991874   -0.0015962919525139235
-0.00819431331724822   -0.06679518435235103   -0.0013704953481705913
-0.008663708119139277   -0.05421956537675   -0.0009273292191824022
-0.01445068588539669   -0.06671189603129   -0.0015162364097286469
-0.008245259365966399   -0.06671677123915826   -0.0013345435868219087
-0.008663708119139277   -0.05421956537675   -0.0009273292191824022
-0.015570173776447494   -0.05414474711997481   -0.001092103515581692
-0.01445068588539669   -0.06671189603129   -0.0015162364097286469
-0.015639949392308117   -0.05407308945032129   -0.0010133040076392191
-0.008245259365966399   -0.06671677123915826   -0.0013345435868219087
-0.014490694060383785   -0.06665672217763481   -0.001427009738229102
-0.015639949392308117   -0.05407308945032129   -0.0010133040076392191
-0.01445068588539669   -0.06671189603129   -0.0015162364097286469
-0.008245259365966399   -0.06671677123915826   -0.0013345435868219087
-0.015639949392308117   -0.05407308945032129   -0.0010133040076392191
-0.008745584873559184   -0.054124315888289344   -0.0008816754137510617
-0.008663708119139277   -0.05421956537675   -0.0009273292191824022
-0.008245259365966399   -0.06671677123915826   -0.0013345435868219087
-0.015639949392308117   -0.05407308945032129   -0.0010133040076392191
-0.008663708119139277   -0.05421956537675   -0.0009273292191824022
-0.01445068588539669   -0.06671189603129   -0.0015162364097286469
-0.014364896850903046   -0.06690870887100275   -0.001666896885200578
-0.015424876839434684   -0.054341449292110544   -0.0012250966274972087
-0.02077196644305529   -0.06668286393537365   -0.0018778401749556036
-0.014411799407256141   -0.06679585170991874   -0.0015962919525139235
-0.015424876839434684   -0.054341449292110544   -0.0012250966274972087
-0.022472373747557124   -0.05415711106206668   -0.0014144256942371103
-0.02077196644305529   -0.06668286393537365   -0.0018778401749556036
-0.022543139170794358   -0.05407489247931147   -0.001318416702293367
-0.014411799407256141   -0.06679585170991874   -0.0015962919525139235
-0.020810840846932827   -0.06659387411722922   -0.0017530805877470962
-0.022543139170794358   -0.05407489247931147   -0.001318416702293367
-0.02077196644305529   -0.06668286393537365   -0.0018778401749556036
-0.014411799407256141   -0.06679585170991874   -0.0015962919525139235
-0.022543139170794358   -0.05407489247931147   -0.001318416702293367
-0.015501050999687765   -0.05423425169721335   -0.001162808519957994
-0.015424876839434684   -0.054341449292110544   -0.0012250966274972087
-0.014411799407256141   -0.06679585170991874   -0.0015962919525139235
-0.022543139170794358   -0.05407489247931147   -0.001318416702293367
-0.015424876839434684   -0.054341449292110544   -0.0012250966274972087
-0.02077196644305529   -0.06668286393537365   -0.0018778401749556036
-0.014411799407256141   -0.06679585170991874   -0.0015962919525139235
-0.015501050999687765   -0.05423425169721335   -0.001162808519957994
-0.020810840846932827   -0.06659387411722922   -0.0017530805877470962
-0.01445068588539669   -0.06671189603129   -0.0015162364097286469
-0.015501050999687765   -0.05423425169721335   -0.001162808519957994
-0.022543139170794358   -0.05407489247931147   -0.001318416702293367
-0.020810840846932827   -0.06659387411722922   -0.0017530805877470962
-0.022586148745847492   -0.05400808148089434   -0.0012151298465549033
-0.01445068588539669   -0.06671189603129   -0.0015162364097286469
-0.020816065109956514   -0.06653198466367963   -0.0016201787633947898
-0.022586148745847492   -0.05400808148089434   -0.0012151298465549033
-0.020810840846932827   -0.06659387411722922   -0.0017530805877470962
-0.01445068588539669   -0.06671189603129   -0.0015162364097286469
-0.022586148745847492   -0.05400808148089434   -0.0012151298465549033
-0.015570173776447494   -0.05414474711997481   -0.001092103515581692
-0.015501050999687765   -0.05423425169721335   -0.001162808519957994
-0.01445068588539669   -0.06671189603129   -0.0015162364097286469
-0.022586148745847492   -0.05400808148089434   -0.0012151298465549033
-0.015501050999687765   -0.05423425169721335   -0.001162808519957994
-0.020810840846932827   -0.06659387411722922   -0.0017530805877470962
-0.01445068588539669   -0.06671189603129   -0.0015162364097286469
-0.015570173776447494   -0.05414474711997481   -0.001092103515581692
-0.020816065109956514   -0.06653198466367963   -0.0016201787633947898
-0.014490694060383785   -0.06665672217763481   -0.001427009738229102
-0.015570173776447494   -0.05414474711997481   -0.001092103515581692
-0.022586148745847492   -0.05400808148089434   -0.0012151298465549033
-0.020816065109956514   -0.06653198466367963   -0.0016201787633947898
-0.02263331395558485   -0.05396065808647047   -0.00110305876705801
-0.014490694060383785   -0.06665672217763481   -0.001427009738229102
-0.020830783929101964   -0.06650146008056351   -0.00147741229215323
-0.02263331395558485   -0.05396065808647047   -0.00110305876705801
-0.020816065109956514   -0.06653198466367963   -0.0016201787633947898
-0.014490694060383785   -0.06665672217763481   -0.001427009738229102
-0.02263331395558485   -0.05396065808647047   -0.00110305876705801
-0.015639949392308117   -0.05407308945032129   -0.0010133040076392191
-0.015570173776447494   -0.05414474711997481   -0.001092103515581692
-0.014490694060383785   -0.06665672217763481   -0.001427009738229102
-0.02263331395558485   -0.05396065808647047   -0.00110305876705801
-0.015570173776447494   -0.05414474711997481   -0.001092103515581692
-0.020816065109956514   -0.06653198466367963   -0.0016201787633947898
-0.02077196644305529   -0.06668286393537365   -0.0018778401749556036
-0.022472373747557124   -0.05415711106206668   -0.0014144256942371103
-0.027758353953834757   -0.06638689055889994   -0.0020580209250719798
-0.020810840846932827   -0.06659387411722922   -0.0017530805877470962
-0.022472373747557124   -0.05415711106206668   -0.0014144256942371103
-0.030035441921428273   -0.05393059063645764   -0.0015650846097916204
-0.027758353953834757   -0.06638689055889994   -0.0020580209250719798
-0.02998424795522719   -0.05386120472925901   -0.0014373364114564767
-0.020810840846932827   -0.06659387411722922   -0.0017530805877470962
-0.027625443271980625   -0.06630560494070106   -0.0018760849653533976
-0.02998424795522719   -0.05386120472925901   -0.0014373364114564767
-0.027758353953834757   -0.06638689055889994   -0.0020580209250719798
-0.020810840846932827   -0.06659387411722922   -0.0017530805877470962
-0.02998424795522719   -0.05386120472925901   -0.0014373364114564767
-0.022543139170794358   -0.05407489247931147   -0.001318416702293367
-0.022472373747557124   -0.05415711106206668   -0.0014144256942371103
-0.020810840846932827   -0.06659387411722922   -0.0017530805877470962
-0.02998424795522719   -0.05386120472925901   -0.0014373364114564767
-0.022472373747557124   -0.05415711106206668   -0.0014144256942371103
-0.027758353953834757   -0.06638689055889994   -0.0020580209250719798
-0.020810840846932827   -0.06659387411722922   -0.0017530805877470962
-0.022543139170794358   -0.05407489247931147   -0.001318416702293367
-0.027625443271980625   -0.06630560494070106   -0.0018760849653533976
-0.020816065109956514   -0.06653198466367963   -0.0016201787633947898
-0.022543139170794358   -0.05407489247931147   -0.001318416702293367
-0.02998424795522719   -0.05386120472925901   -0.0014373364114564767
-0.027625443271980625   -0.06630560494070106   -0.0018760849653533976
-0.029942540461218446   -0.05380508144005798   -0.001296234294716294
-0.020816065109956514   -0.06653198466367963   -0.0016201787633947898
-0.027513339929685993   -0.06625306601122359   -0.0016799389495826779
-0.029942540461218446   -0.05380508144005798   -0.001296234294716294
-0.027625443271980625   -0.06630560494070106   -0.0018760849653533976
-0.020816065109956514   -0.06653198466367963   -0.0016201787633947898
-0.029942540461218446   -0.05380508144005798   -0.001296234294716294
-0.022586148745847492   -0.05400808148089434   -0.0012151298465549033
-0.022543139170794358   -0.05407489247931147   -0.001318416702293367
-0.020816065109956514   -0.06653198466367963   -0.0016201787633947898
-0.029942540461218446   -0.05380508144005798   -0.001296234294716294
-0.022543139170794358   -0.05407489247931147   -0.001318416702293367
-0.027625443271980625   -0.06630560494070106   -0.0018760849653533976
-0.020816065109956514   -0.06653198466367963   -0.0016201787633947898
-0.022586148745847492   -0.05400808148089434   -0.0012151298465549033
-0.027513339929685993   -0.06625306601122359   -0.0016799389495826779
-0.020830783929101964   -0.06650146008056351   -0.00147741229215323
-0.022586148745847492   -0.05400808148089434   -0.0012151298465549033
-0.029942540461218446   -0.05380508144005798   -0.001296234294716294
-0.027513339929685993   -0.06625306601122359   -0.0016799389495826779
-0.029841586843033337   -0.053786671713050106   -0.001143302419133044
-0.020830783929101964   -0.06650146008056351   -0.00147741229215323
-0.02732809054943076   -0.06625386761087176   -0.0014713525350532827
-0.029841586843033337   -0.053786671713050106   -0.001143302419133044
-0.027513339929685993   -0.06625306601122359   -0.0016799389495826779
-0.020830783929101964   -0.06650146008056351   -0.00147741229215323
-0.029841586843033337   -0.053786671713050106   -0.001143302419133044
-0.02263331395558485   -0.05396065808647047   -0.00110305876705801
-0.022586148745847492   -0.05400808148089434   -0.0012151298465549033
-0.020830783929101964   -0.06650146008056351   -0.00147741229215323
-0.029841586843033337   -0.053786671713050106   -0.001143302419133044
-0.022586148745847492   -0.05400808148089434   -0.0012151298465549033
-0.027513339929685993   -0.06625306601122359   -0.0016799389495826779
0.005885689330482494   -0.05453438875650223   -0.00038760491063573435
0.006077506864645018   -0.04120515392699404   -5.9691048730312356e-05
-0.0014845817750418475   -0.05453238318465939   -0.000719402065680561
0.005863667594427191   -0.05435188885145121   -0.0004390897409156047
0.006077506864645018   -0.04120515392699404   -5.9691048730312356e-05
-0.0017078138826390073   -0.04113625852856465   -0.00035820102853732576
-0.0014845817750418475   -0.05453238318465939   -0.000719402065680561
-0.0017986021399765918   -0.04098422542271171   -0.0003311369277558907
0.005863667594427191   -0.05435188885145121   -0.0004390897409156047
-0.0015508358590126392   -0.054373598477120165   -0.0007240972556584358
-0.0017986021399765918   -0.04098422542271171   -0.0003311369277558907
-0.0014845817750418475   -0.05453238318465939   -0.000719402065680561
0.005863667594427191   -0.05435188885145121   -0.0004390897409156047
-0.0017986021399765918   -0.04098422542271171   -0.0003311369277558907
0.005980749610689417   -0.04103100095977051   -5.379657111003241e-05
0.006077506864645018   -0.04120515392699404   -5.9691048730312356e-05
0.005863667594427191   -0.05435188885145121   -0.0004390897409156047
-0.0017986021399765918   -0.04098422542271171   -0.0003311369277558907
0.006077506864645018   -0.04120515392699404   -5.9691048730312356e-05
-0.0014845817750418475   -0.05453238318465939   -0.000719402065680561
0.005863667594427191   -0.05435188885145121   -0.0004390897409156047
0.005980749610689417   -0.04103100095977051   -5.379657111003241e-05
-0.0015508358590126392   -0.054373598477120165   -0.0007240972556584358
0.0058100360052610305   -0.05420474372978172   -0.0004773111379554081
0.005980749610689417   -0.04103100095977051   -5.379657111003241e-05
-0.0017986021399765918   -0.04098422542271171   -0.0003311369277558907
-0.0015508358590126392   -0.054373598477120165   -0.0007240972556584358
-0.0019025097630300091   -0.040840567805471344   -0.0002965808199489478
0.0058100360052610305   -0.05420474372978172   -0.0004773111379554081
-0.0016244499140098641   -0.05423670161396605   -0.0007205173453439799
-0.0019025097630300091   -0.040840567805471344   -0.0002965808199489478
-0.0015508358590126392   -0.054373598477120165   -0.0007240972556584358
0.0058100360052610305   -0.05420474372978172   -0.0004773111379554081
-0.0019025097630300091   -0.040840567805471344   -0.0002965808199489478
0.005862303215608435   -0.040875133817270225   -3.258604667840152e-05
0.005980749610689417   -0.04103100095977051   -5.379657111003241e-05
0.0058100360052610305   -0.05420474372978172   -0.0004773111379554081
-0.0019025097630300091   -0.040840567805471344   -0.0002965808199489478
0.005980749610689417   -0.04103100095977051   -5.379657111003241e-05
-0.0015508358590126392   -0.054373598477120165   -0.0007240972556584358
0.0058100360052610305   -0.05420474372978172   -0.0004773111379554081
0.005862303215608435   -0.040875133817270225   -3.258604667840152e-05
-0.0016244499140098641   -0.05423670161396605   -0.0007205173453439799
0.005735271375524004   -0.05406909231366174   -0.0005031952298324517
0.005862303215608435   -0.040875133817270225   -3.258604667840152e-05
-0.0019025097630300091   -0.040840567805471344   -0.0002965808199489478
-0.0016244499140098641   -0.05423670161396605   -0.0007205173453439799
-0.002019054858576451   -0.040703328056275044   -0.0002526531202085484
0.005735271375524004   -0.05406909231366174   -0.0005031952298324517
-0.001715700501314086   -0.0541181648553221   -0.0007083361051334074
-0.002019054858576451   -0.040703328056275044   -0.0002526531202085484
-0.0016244499140098641   -0.05423670161396605   -0.0007205173453439799
0.005735271375524004   -0.05406909231366174   -0.0005031952298324517
-0.002019054858576451   -0.040703328056275044   -0.0002526531202085484
0.00570625298380064   -0.04071196588924886   3.245030935736675e-06
0.005862303215608435   -0.040875133817270225   -3.258604667840152e-05
0.005735271375524004   -0.05406909231366174   -0.0005031952298324517
-0.002019054858576451   -0.040703328056275044   -0.0002526531202085484
0.005862303215608435   -0.040875133817270225   -3.258604667840152e-05
-0.0016244499140098641   -0.05423670161396605   -0.0007205173453439799
-0.0014845817750418475   -0.05453238318465939   -0.000719402065680561
-0.0017078138826390073   -0.04113625852856465   -0.00035820102853732576
-0.008514167941679831   -0.05446565726557806   -0.0009935877651758352
-0.0015508358590126392   -0.054373598477120165   -0.0007240972556584358
-0.0017078138826390073   -0.04113625852856465   -0.00035820102853732576
-0.009084911894229544   -0.041056398972562275   -0.0006111817548728325
-0.008514167941679831   -0.05446565726557806   -0.0009935877651758352
-0.009177414586156517   -0.040929086077432994   -0.0005699982108461336
-0.0015508358590126392   -0.054373598477120165   -0.0007240972556584358
-0.008588197455068091   -0.05433370177093963   -0.000964766738392318
-0.009177414586156517   -0.040929086077432994   -0.0005699982108461336
-0.008514167941679831   -0.05446565726557806   -0.0009935877651758352
-0.0015508358590126392   -0.054373598477120165   -0.0007240972556584358
-0.009177414586156517   -0.040929086077432994   -0.0005699982108461336
-0.0017986021399765918   -0.04098422542271171   -0.0003311369277558907
-0.0017078138826390073   -0.04113625852856465   -0.00035820102853732576
-0.0015508358590126392   -0.054373598477120165   -0.0007240972556584358
-0.009177414586156517   -0.040929086077432994   -0.0005699982108461336
-0.0017078138826390073   -0.04113625852856465   -0.00035820102853732576
-0.008514167941679831   -0.05446565726557806   -0.0009935877651758352
-0.0015508358590126392   -0.054373598477120165   -0.0007240972556584358
-0.0017986021399765918   -0.04098422542271171   -0.0003311369277558907
-0.008588197455068091   -0.05433370177093963   -0.000964766738392318
-0.0016244499140098641   -0.05423670161396605   -0.0007205173453439799
-0.0017986021399765918   -0.04098422542271171   -0.0003311369277558907
-0.009177414586156517   -0.040929086077432994   -0.0005699982108461336
-0.008588197455068091   -0.05433370177093963   -0.000964766738392318
-0.009271975072165465   -0.040808278075089494   -0.0005216814495795577
-0.0016244499140098641   -0.05423670161396605   -0.0007205173453439799
-0.008663708119139277   -0.05421956537675   -0.0009273292191824022
-0.009271975072165465   -0.040808278075089494   -0.0005216814495795577
-0.008588197455068091   -0.05433370177093963   -0.000964766738392318
-0.0016244499140098641   -0.05423670161396605   -0.0007205173453439799
-0.009271975072165465   -0.040808278075089494   -0.0005216814495795577
-0.0019025097630300091   -0.040840567805471344   -0.0002965808199489478
-0.0017986021399765918   -0.04098422542271171   -0.0003311369277558907
-0.0016244499140098641   -0.05423670161396605   -0.0007205173453439799
-0.009271975072165465   -0.040808278075089494   -0.0005216814495795577
-0.0017986021399765918   -0.04098422542271171   -0.0003311369277558907
-0.008588197455068091   -0.05433370177093963   -0.000964766738392318
-0.0016244499140098641   -0.05423670161396605   -0.0007205173453439799
-0.0019025097630300091   -0.040840567805471344   -0.0002965808199489478
-0.008663708119139277   -0.05421956537675   -0.0009273292191824022
-0.001715700501314086   -0.0541181648553221   -0.0007083361051334074
-0.0019025097630300091   -0.040840567805471344   -0.0002965808199489478
-0.009271975072165465   -0.040808278075089494   -0.0005216814495795577
-0.008663708119139277   -0.05421956537675   -0.0009273292191824022
-0.009372527531561958   -0.04069582567279906   -0.00046614933375312096
-0.001715700501314086   -0.0541181648553221   -0.0007083361051334074
-0.008745584873559184   -0.054124315888289344   -0.0008816754137510617
-0.009372527531561958   -0.04069582567279906   -0.00046614933375312096
-0.008663708119139277   -0.05421956537675   -0.0009273292191824022
-0.001715700501314086   -0.0541181648553221   -0.0007083361051334074
-0.009372527531561958   -0.04069582567279906   -0.00046614933375312096
-0.002019054858576451   -0.040703328056275044   -0.0002526531202085484
-0.0019025097630300091   -0.040840567805471344   -0.0002965808199489478
-0.001715700501314086   -0.0541181648553221   -0.0007083361051334074
-0.009372527531561958   -0.04069582567279906   -0.00046614933375312096
-0.0019025097630300091   -0.040840567805471344   -0.0002965808199489478
-0.008663708119139277   -0.05421956537675   -0.0009273292191824022
-0.008514167941679831   -0.05446565726557806   -0.0009935877651758352
-0.009084911894229544   -0.041056398972562275   -0.0006111817548728325
-0.015424876839434684   -0.054341449292110544   -0.0012250966274972087
-0.008588197455068091   -0.05433370177093963   -0.000964766738392318
-0.009084911894229544   -0.041056398972562275   -0.0006111817548728325
-0.016342226271615655   -0.04096083359261669   -0.000826234459534923
-0.015424876839434684   -0.054341449292110544   -0.0012250966274972087
-0.01643401573262897   -0.04085645308510422   -0.0007709241206064829
-0.008588197455068091   -0.05433370177093963   -0.000964766738392318
-0.015501050999687765   -0.05423425169721335   -0.001162808519957994
-0.01643401573262897   -0.04085645308510422   -0.0007709241206064829
-0.015424876839434684   -0.054341449292110544   -0.0012250966274972087
-0.008588197455068091   -0.05433370177093963   -0.000964766738392318
-0.01643401573262897   -0.04085645308510422   -0.0007709241206064829
-0.009177414586156517   -0.040929086077432994   -0.0005699982108461336
-0.009084911894229544   -0.041056398972562275   -0.0006111817548728325
-0.008588197455068091   -0.05433370177093963   -0.000964766738392318
-0.01643401573262897   -0.04085645308510422   -0.0007709241206064829
-0.009084911894229544   -0.041056398972562275   -0.0006111817548728325
-0.015424876839434684   -0.054341449292110544   -0.0012250966274972087
-0.008588197455068091   -0.05433370177093963   -0.000964766738392318
-0.009177414586156517   -0.040929086077432994   -0.0005699982108461336
-0.015501050999687765   -0.05423425169721335   -0.001162808519957994
-0.008663708119139277   -0.05421956537675   -0.0009273292191824022
-0.009177414586156517   -0.040929086077432994   -0.0005699982108461336
-0.01643401573262897   -0.04085645308510422   -0.0007709241206064829
-0.015501050999687765   -0.05423425169721335   -0.001162808519957994
-0.016519878871297813   -0.04075895488418867   -0.0007087247669122325
-0.008663708119139277   -0.05421956537675   -0.0009273292191824022
-0.015570173776447494   -0.05414474711997481   -0.001092103515581692
-0.016519878871297813   -0.04075895488418867   -0.0007087247669122325
-0.015501050999687765   -0.05423425169721335   -0.001162808519957994
-0.008663708119139277   -0.05421956537675   -0.0009273292191824022
-0.016519878871297813   -0.04075895488418867   -0.0007087247669122325
-0.009271975072165465   -0.040808278075089494   -0.0005216814495795577
-0.009177414586156517   -0.040929086077432994   -0.0005699982108461336
-0.008663708119139277   -0.05421956537675   -0.0009273292191824022
-0.016519878871297813   -0.04075895488418867   -0.0007087247669122325
-0.009177414586156517   -0.040929086077432994   -0.0005699982108461336
-0.015501050999687765   -0.05423425169721335   -0.001162808519957994
-0.008663708119139277   -0.05421956537675   -0.0009273292191824022
-0.009271975072165465   -0.040808278075089494   -0.0005216814495795577
-0.015570173776447494   -0.05414474711997481   -0.001092103515581692
-0.008745584873559184   -0.054124315888289344   -0.0008816754137510617
-0.009271975072165465   -0.040808278075089494   -0.0005216814495795577
-0.016519878871297813   -0.04075895488418867   -0.0007087247669122325
-0.015570173776447494   -0.05414474711997481   -0.001092103515581692
-0.016606048730083808   -0.040668612250381896   -0.0006399791226538738
-0.008745584873559184   -0.054124315888289344   -0.0008816754137510617
-0.015639949392308117   -0.05407308945032129   -0.0010133040076392191
-0.016606048730083808   -0.040668612250381896   -0.0006399791226538738
-0.015570173776447494   -0.05414474711997481   -0.001092103515581692
-0.008745584873559184   -0.054124315888289344   -0.0008816754137510617
-0.016606048730083808   -0.040668612250381896   -0.0006399791226538738
-0.009372527531561958   -0.04069582567279906   -0.00046614933375312096
-0.009271975072165465   -0.040808278075089494   -0.0005216814495795577
-0.008745584873559184   -0.054124315888289344   -0.0008816754137510617
-0.016606048730083808   -0.040668612250381896   -0.0006399791226538738
-0.009271975072165465   -0.040808278075089494   -0.0005216814495795577
-0.015570173776447494   -0.05414474711997481   -0.001092103515581692
-0.015424876839434684   -0.054341449292110544   -0.0012250966274972087
-0.016342226271615655   -0.04096083359261669   -0.000826234459534923
-0.022472373747557124   -0.05415711106206668   -0.0014144256942371103
-0.015501050999687765   -0.05423425169721335   -0.001162808519957994
-0.016342226271615655   -0.04096083359261669   -0.000826234459534923
-0.02373048816597533   -0.040831769475315596   -0.0010015245535220174
-0.022472373747557124   -0.05415711106206668   -0.0014144256942371103
-0.02381840469778167   -0.040751518722676475   -0.0009322544237029421
-0.015501050999687765   -0.05423425169721335   -0.001162808519957994
-0.022543139170794358   -0.05407489247931147   -0.001318416702293367
-0.02381840469778167   -0.040751518722676475   -0.0009322544237029421
-0.022472373747557124   -0.05415711106206668   -0.0014144256942371103
-0.015501050999687765   -0.05423425169721335   -0.001162808519957994
-0.02381840469778167   -0.040751518722676475   -0.0009322544237029421
-0.01643401573262897   -0.04085645308510422   -0.0007709241206064829
-0.016342226271615655   -0.04096083359261669   -0.000826234459534923
-0.015501050999687765   -0.05423425169721335   -0.001162808519957994
-0.02381840469778167   -0.040751518722676475   -0.0009322544237029421
-0.016342226271615655   -0.04096083359261669   -0.000826234459534923
-0.022472373747557124   -0.05415711106206668   -0.0014144256942371103
-0.015501050999687765   -0.05423425169721335   -0.001162808519957994
-0.01643401573262897   -0.04085645308510422   -0.0007709241206064829
-0.022543139170794358   -0.05407489247931147   -0.001318416702293367
-0.015570173776447494   -0.05414474711997481   -0.001092103515581692
-0.01643401573262897   -0.04085645308510422   -0.0007709241206064829
-0.02381840469778167   -0.040751518722676475   -0.0009322544237029421
-0.022543139170794358   -0.05407489247931147   -0.001318416702293367
-0.0238851554941716   -0.04067547440009124   -0.0008572392588813091
-0.015570173776447494   -0.05414474711997481   -0.001092103515581692
-0.022586148745847492   -0.05400808148089434   -0.0012151298465549033
-0.0238851554941716   -0.04067547440009124   -0.0008572392588813091
-0.022543139170794358   -0.05407489247931147   -0.001318416702293367
-0.015570173776447494   -0.05414474711997481   -0.001092103515581692
-0.0238851554941716   -0.04067547440009124   -0.0008572392588813091
-0.016519878871297813   -0.04075895488418867   -0.0007087247669122325
-0.01643401573262897   -0.04085645308510422   -0.0007709241206064829
-0.015570173776447494   -0.05414474711997481   -0.001092103515581692
-0.0238851554941716   -0.04067547440009124   -0.0008572392588813091
-0.01643401573262897   -0.04085645308510422   -0.0007709241206064829
-0.022543139170794358   -0.05407489247931147   -0.001318416702293367
-0.015570173776447494   -0.05414474711997481   -0.001092103515581692
-0.016519878871297813   -0.04075895488418867   -0.0007087247669122325
-0.022586148745847492   -0.05400808148089434   -0.0012151298465549033
-0.015639949392308117   -0.05407308945032129   -0.0010133040076392191
-0.016519878871297813   -0.04075895488418867   -0.0007087247669122325
-0.0238851554941716   -0.04067547440009124   -0.0008572392588813091
-0.022586148745847492   -0.05400808148089434   -0.0012151298465549033
-0.023951362488147745   -0.040606973297011774   -0.0007749739707799902
-0.015639949392308117   -0.05407308945032129   -0.0010133040076392191
-0.02263331395558485   -0.05396065808647047   -0.00110305876705801
-0.023951362488147745   -0.040606973297011774   -0.0007749739707799902
-0.022586148745847492   -0.05400808148089434   -0.0012151298465549033
-0.015639949392308117   -0.05407308945032129   -0.0010133040076392191
-0.023951362488147745   -0.040606973297011774   -0.0007749739707799902
-0.016606048730083808   -0.040668612250381896   -0.0006399791226538738
-0.016519878871297813   -0.04075895488418867   -0.0007087247669122325
-0.015639949392308117   -0.05407308945032129   -0.0010133040076392191
-0.023951362488147745   -0.040606973297011774   -0.0007749739707799902
-0.016519878871297813   -0.04075895488418867   -0.0007087247669122325
-0.022586148745847492   -0.05400808148089434   -0.0012151298465549033
-0.022472373747557124   -0.05415711106206668   -0.0014144256942371103
-0.02373048816597533   -0.040831769475315596   -0.0010015245535220174
-0.030035441921428273   -0.05393059063645764   -0.0015650846097916204
-0.022543139170794358   -0.05407489247931147   -0.001318416702293367
-0.02373048816597533   -0.040831769475315596   -0.0010015245535220174
-0.031560038290537794   -0.040679511372240414   -0.0011318645687892882
-0.030035441921428273   -0.05393059063645764   -0.0015650846097916204
-0.03157405816414172   -0.04061532067168562   -0.0010555195458552809
-0.022543139170794358   -0.05407489247931147   -0.001318416702293367
-0.02998424795522719   -0.05386120472925901   -0.0014373364114564767
-0.03157405816414172   -0.04061532067168562   -0.0010555195458552809
-0.030035441921428273   -0.05393059063645764   -0.0015650846097916204
-0.022543139170794358   -0.05407489247931147   -0.001318416702293367
-0.03157405816414172   -0.04061532067168562   -0.0010555195458552809
-0.02381840469778167   -0.040751518722676475   -0.0009322544237029421
-0.02373048816597533   -0.040831769475315596   -0.0010015245535220174
-0.022543139170794358   -0.05407489247931147   -0.001318416702293367
-0.03157405816414172   -0.04061532067168562   -0.0010555195458552809
-0.02373048816597533   -0.040831769475315596   -0.0010015245535220174
-0.030035441921428273   -0.05393059063645764   -0.0015650846097916204
-0.022543139170794358   -0.05407489247931147   -0.001318416702293367
-0.02381840469778167   -0.040751518722676475   -0.0009322544237029421
-0.02998424795522719   -0.05386120472925901   -0.0014373364114564767
-0.022586148745847492   -0.05400808148089434   -0.0012151298465549033
-0.02381840469778167   -0.040751518722676475   -0.0009322544237029421
-0.03157405816414172   -0.04061532067168562   -0.0010555195458552809
-0.02998424795522719   -0.05386120472925901   -0.0014373364114564767
-0.03158836917173126   -0.04055029295832178   -0.0009675992118646073
-0.022586148745847492   -0.05400808148089434   -0.0012151298465549033
-0.029942540461218446   -0.05380508144005798   -0.001296234294716294
-0.03158836917173126   -0.04055029295832178   -0.0009675992118646073
-0.02998424795522719   -0.05386120472925901   -0.0014373364114564767
-0.022586148745847492   -0.05400808148089434   -0.0012151298465549033
-0.03158836917173126   -0.04055029295832178   -0.0009675992118646073
-0.0238851554941716   -0.04067547440009124   -0.0008572392588813091
-0.02381840469778167   -0.040751518722676475   -0.0009322544237029421
-0.022586148745847492   -0.05400808148089434   -0.0012151298465549033
-0.03158836917173126   -0.04055029295832178   -0.0009675992118646073
-0.02381840469778167   -0.040751518722676475   -0.0009322544237029421
-0.02998424795522719   -0.05386120472925901   -0.0014373364114564767
-0.022586148745847492   -0.05400808148089434   -0.0012151298465549033
-0.0238851554941716   -0.04067547440009124   -0.0008572392588813091
-0.029942540461218446   -0.05380508144005798   -0.001296234294716294
-0.02263331395558485   -0.05396065808647047   -0.00110305876705801
-0.0238851554941716   -0.04067547440009124   -0.0008572392588813091
-0.03158836917173126   -0.04055029295832178   -0.0009675992118646073
-0.029942540461218446   -0.05380508144005798   -0.001296234294716294
-0.03155881139012105   -0.0405070251498417   -0.0008694814386257608
-0.02263331395558485   -0.05396065808647047   -0.00110305876705801
-0.029841586843033337   -0.053786671713050106   -0.001143302419133044
-0.03155881139012105   -0.0405070251498417   -0.0008694814386257608
-0.029942540461218446   -0.05380508144005798   -0.001296234294716294
-0.02263331395558485   -0.05396065808647047   -0.00110305876705801
-0.03155881139012105   -0.0405070251498417   -0.0008694814386257608
-0.023951362488147745   -0.040606973297011774   -0.0007749739707799902
-0.0238851554941716   -0.04067547440009124   -0.0008572392588813091
-0.02263331395558485   -0.05396065808647047   -0.00110305876705801
-0.03155881139012105   -0.0405070251498417   -0.0008694814386257608
-0.0238851554941716   -0.04067547440009124   -0.0008572392588813091
-0.029942540461218446   -0.05380508144005798   -0.001296234294716294
0.006077506864645018   -0.04120515392699404   -5.9691048730312356e-05
0.005443432770397481   -0.027485567277258628   0.0001665768913545748
-0.0017078138826390073   -0.04113625852856465   -0.00035820102853732576
0.005980749610689417   -0.04103100095977051   -5.379657111003241e-05
0.005443432770397481   -0.027485567277258628   0.0001665768913545748
-0.0023968935458062728   -0.027355912845776386   -7.103436466026295e-05
-0.0017078138826390073   -0.04113625852856465   -0.00035820102853732576
-0.002505185565048192   -0.02721817577655051   -1.4793944748068018e-05
0.005980749610689417   -0.04103100095977051   -5.379657111003241e-05
-0.0017986021399765918   -0.04098422542271171   -0.0003311369277558907
-0.002505185565048192   -0.02721817577655051   -1.4793944748068018e-05
-0.0017078138826390073   -0.04113625852856465   -0.00035820102853732576
0.005980749610689417   -0.04103100095977051   -5.379657111003241e-05
-0.002505185565048192   -0.02721817577655051   -1.4793944748068018e-05
0.005272583426016428   -0.02731956499941341   0.00023681831909770065
0.005443432770397481   -0.027485567277258628   0.0001665768913545748
0.005980749610689417   -0.04103100095977051   -5.379657111003241e-05
-0.002505185565048192   -0.02721817577655051   -1.4793944748068018e-05
0.005443432770397481   -0.027485567277258628   0.0001665768913545748
-0.0017078138826390073   -0.04113625852856465   -0.00035820102853732576
0.005980749610689417   -0.04103100095977051   -5.379657111003241e-05
0.005272583426016428   -0.02731956499941341   0.00023681831909770065
-0.0017986021399765918   -0.04098422542271171   -0.0003311369277558907
0.005862303215608435   -0.040875133817270225   -3.258604667840152e-05
0.005272583426016428   -0.02731956499941341   0.00023681831909770065
-0.002505185565048192   -0.02721817577655051   -1.4793944748068018e-05
-0.0017986021399765918   -0.04098422542271171   -0.0003311369277558907
-0.0026318197147914874   -0.027072744559134616   5.1413904971371546e-05
0.005862303215608435   -0.040875133817270225   -3.258604667840152e-05
-0.0019025097630300091   -0.040840567805471344   -0.0002965808199489478
-0.0026318197147914874   -0.027072744559134616   5.1413904971371546e-05
-0.0017986021399765918   -0.04098422542271171   -0.0003311369277558907
0.005862303215608435   -0.040875133817270225   -3.258604667840152e-05
-0.0026318197147914874   -0.027072744559134616   5.1413904971371546e-05
0.005082125966073475   -0.027154556875767264   0.00033748918849303987
0.005272583426016428   -0.02731956499941341   0.00023681831909770065
0.005862303215608435   -0.040875133817270225   -3.258604667840152e-05
-0.0026318197147914874   -0.027072744559134616   5.1413904971371546e-05
0.005272583426016428   -0.02731956499941341   0.00023681831909770065
-0.0017986021399765918   -0.04098422542271171   -0.0003311369277558907
0.005862303215608435   -0.040875133817270225   -3.258604667840152e-05
0.005082125966073475   -0.027154556875767264   0.00033748918849303987
-0.0019025097630300091   -0.040840567805471344   -0.0002965808199489478
0.00570625298380064   -0.04071196588924886   3.245030935736675e-06
0.005082125966073475   -0.027154556875767264   0.00033748918849303987
-0.0026318197147914874   -0.027072744559134616   5.1413904971371546e-05
-0.0019025097630300091   -0.040840567805471344   -0.0002965808199489478
-0.0027627503184029117   -0.02691827186198223   0.00012744837440156049
0.00570625298380064   -0.04071196588924886   3.245030935736675e-06
-0.002019054858576451   -0.040703328056275044   -0.0002526531202085484
-0.0027627503184029117   -0.02691827186198223   0.00012744837440156049
-0.0019025097630300091   -0.040840567805471344   -0.0002965808199489478
0.00570625298380064   -0.04071196588924886   3.245030935736675e-06
-0.0027627503184029117   -0.02691827186198223   0.00012744837440156049
0.004849435600312742   -0.026951912397565003   0.0004482261105764065
0.005082125966073475   -0.027154556875767264   0.00033748918849303987
0.00570625298380064   -0.04071196588924886   3.245030935736675e-06
-0.0027627503184029117   -0.02691827186198223   0.00012744837440156049
0.005082125966073475   -0.027154556875767264   0.00033748918849303987
-0.0019025097630300091   -0.040840567805471344   -0.0002965808199489478
-0.0017078138826390073   -0.04113625852856465   -0.00035820102853732576
-0.0023968935458062728   -0.027355912845776386   -7.103436466026295e-05
-0.009084911894229544   -0.041056398972562275   -0.0006111817548728325
-0.0017986021399765918   -0.04098422542271171   -0.0003311369277558907
-0.0023968935458062728   -0.027355912845776386   -7.103436466026295e-05
-0.009780735211950132   -0.027322377197013047   -0.0003002333620632352
-0.009084911894229544   -0.041056398972562275   -0.0006111817548728325
-0.009878531377600573   -0.0272020319593631   -0.000248023652725316
-0.0017986021399765918   -0.04098422542271171   -0.0003311369277558907
-0.009177414586156517   -0.040929086077432994   -0.0005699982108461336
-0.009878531377600573   -0.0272020319593631   -0.000248023652725316
-0.009084911894229544   -0.041056398972562275   -0.0006111817548728325
-0.0017986021399765918   -0.04098422542271171   -0.0003311369277558907
-0.009878531377600573   -0.0272020319593631   -0.000248023652725316
-0.002505185565048192   -0.02721817577655051   -1.4793944748068018e-05
-0.0023968935458062728   -0.027355912845776386   -7.103436466026295e-05
-0.0017986021399765918   -0.04098422542271171   -0.0003311369277558907
-0.009878531377600573   -0.0272020319593631   -0.000248023652725316
-0.0023968935458062728   -0.027355912845776386   -7.103436466026295e-05
-0.009084911894229544   -0.041056398972562275   -0.0006111817548728325
-0.0017986021399765918   -0.04098422542271171   -0.0003311369277558907
-0.002505185565048192   -0.02721817577655051   -1.4793944748068018e-05
-0.009177414586156517   -0.040929086077432994   -0.0005699982108461336
-0.0019025097630300091   -0.040840567805471344   -0.0002965808199489478
-0.002505185565048192   -0.02721817577655051   -1.4793944748068018e-05
-0.009878531377600573   -0.0272020319593631   -0.000248023652725316
-0.009177414586156517   -0.040929086077432994   -0.0005699982108461336
-0.009979673556936679   -0.027076826258593777   -0.00019065693603218645
-0.0019025097630300091   -0.040840567805471344   -0.0002965808199489478
-0.009271975072165465   -0.040808278075089494   -0.0005216814495795577
-0.009979673556936679   -0.027076826258593777   -0.00019065693603218645
-0.009177414586156517   -0.040929086077432994   -0.0005699982108461336
-0.0019025097630300091   -0.040840567805471344   -0.0002965808199489478
-0.009979673556936679   -0.027076826258593777   -0.00019065693603218645
-0.0026318197147914874   -0.027072744559134616   5.1413904971371546e-05
-0.002505185565048192   -0.02721817577655051   -1.4793944748068018e-05
-0.0019025097630300091   -0.040840567805471344   -0.0002965808199489478
-0.009979673556936679   -0.027076826258593777   -0.00019065693603218645
-0.002505185565048192   -0.02721817577655051   -1.4793944748068018e-05
-0.009177414586156517   -0.040929086077432994   -0.0005699982108461336
-0.0019025097630300091   -0.040840567805471344   -0.0002965808199489478
-0.0026318197147914874   -0.027072744559134616   5.1413904971371546e-05
-0.009271975072165465   -0.040808278075089494   -0.0005216814495795577
-0.002019054858576451   -0.040703328056275044   -0.0002526531202085484
-0.0026318197147914874   -0.027072744559134616   5.1413904971371546e-05
-0.009979673556936679   -0.027076826258593777   -0.00019065693603218645
-0.009271975072165465   -0.040808278075089494   -0.0005216814495795577
-0.010084947482242755   -0.02694896755238155   -0.00012709735685610405
-0.002019054858576451   -0.040703328056275044   -0.0002526531202085484
-0.009372527531561958   -0.04069582567279906   -0.00046614933375312096
-0.010084947482242755   -0.02694896755238155   -0.00012709735685610405
-0.009271975072165465   -0.040808278075089494   -0.0005216814495795577
-0.002019054858576451   -0.040703328056275044   -0.0002526531202085484
-0.010084947482242755   -0.02694896755238155   -0.00012709735685610405
-0.0027627503184029117   -0.02691827186198223   0.00012744837440156049
-0.0026318197147914874   -0.027072744559134616   5.1413904971371546e-05
-0.002019054858576451   -0.040703328056275044   -0.0002526531202085484
-0.010084947482242755   -0.02694896755238155   -0.00012709735685610405
-0.0026318197147914874   -0.027072744559134616   5.1413904971371546e-05
-0.009271975072165465   -0.040808278075089494   -0.0005216814495795577
-0.009084911894229544   -0.041056398972562275   -0.0006111817548728325
-0.009780735211950132   -0.027322377197013047   -0.0003002333620632352
-0.016342226271615655   -0.04096083359261669   -0.000826234459534923
-0.009177414586156517   -0.040929086077432994   -0.0005699982108461336
-0.009780735211950132   -0.027322377197013047   -0.0003002333620632352
-0.017089429461874396   -0.027313081111454866   -0.0005075106927921748
-0.016342226271615655   -0.04096083359261669   -0.000826234459534923
-0.017182877406926495   -0.027207463047383192   -0.000457804508205497
-0.009177414586156517   -0.040929086077432994   -0.0005699982108461336
-0.01643401573262897   -0.04085645308510422   -0.0007709241206064829
-0.017182877406926495   -0.027207463047383192   -0.000457804508205497
-0.016342226271615655   -0.04096083359261669   -0.000826234459534923
-0.009177414586156517   -0.040929086077432994   -0.0005699982108461336
-0.017182877406926495   -0.027207463047383192   -0.000457804508205497
-0.009878531377600573   -0.0272020319593631   -0.000248023652725316
-0.009780735211950132   -0.027322377197013047   -0.0003002333620632352
-0.009177414586156517   -0.040929086077432994   -0.0005699982108461336
-0.017182877406926495   -0.027207463047383192   -0.000457804508205497
-0.009780735211950132   -0.027322377197013047   -0.0003002333620632352
-0.016342226271615655   -0.04096083359261669   -0.000826234459534923
-0.009177414586156517   -0.040929086077432994   -0.0005699982108461336
-0.009878531377600573   -0.0272020319593631   -0.000248023652725316
-0.01643401573262897   -0.04085645308510422   -0.0007709241206064829
-0.009271975072165465   -0.040808278075089494   -0.0005216814495795577
-0.009878531377600573   -0.0272020319593631   -0.000248023652725316
-0.017182877406926495   -0.027207463047383192   -0.000457804508205497
-0.01643401573262897   -0.04085645308510422   -0.0007709241206064829
-0.017271893828314108   -0.02709989541082815   -0.0004035927871854744
-0.009271975072165465   -0.040808278075089494   -0.0005216814495795577
-0.016519878871297813   -0.04075895488418867   -0.0007087247669122325
-0.017271893828314108   -0.02709989541082815   -0.0004035927871854744
-0.01643401573262897   -0.04085645308510422   -0.0007709241206064829
-0.009271975072165465   -0.040808278075089494   -0.0005216814495795577
-0.017271893828314108   -0.02709989541082815   -0.0004035927871854744
-0.009979673556936679   -0.027076826258593777   -0.00019065693603218645
-0.009878531377600573   -0.0272020319593631   -0.000248023652725316
-0.009271975072165465   -0.040808278075089494   -0.0005216814495795577
-0.017271893828314108   -0.02709989541082815   -0.0004035927871854744
-0.009878531377600573   -0.0272020319593631   -0.000248023652725316
-0.01643401573262897   -0.04085645308510422   -0.0007709241206064829
-0.009271975072165465   -0.040808278075089494   -0.0005216814495795577
-0.009979673556936679   -0.027076826258593777   -0.00019065693603218645
-0.016519878871297813   -0.04075895488418867   -0.0007087247669122325
-0.009372527531561958   -0.04069582567279906   -0.00046614933375312096
-0.009979673556936679   -0.027076826258593777   -0.00019065693603218645
-0.017271893828314108   -0.02709989541082815   -0.0004035927871854744
-0.016519878871297813   -0.04075895488418867   -0.0007087247669122325
-0.01736001223475219   -0.02698977076194857   -0.00034513459089527404
-0.009372527531561958   -0.04069582567279906   -0.00046614933375312096
-0.016606048730083808   -0.040668612250381896   -0.0006399791226538738
-0.01736001223475219   -0.02698977076194857   -0.00034513459089527404
-0.016519878871297813   -0.04075895488418867   -0.0007087247669122325
-0.009372527531561958   -0.04069582567279906   -0.00046614933375312096
-0.01736001223475219   -0.02698977076194857   -0.00034513459089527404
-0.010084947482242755   -0.02694896755238155   -0.00012709735685610405
-0.009979673556936679   -0.027076826258593777   -0.00019065693603218645
-0.009372527531561958   -0.04069582567279906   -0.00046614933375312096
-0.01736001223475219   -0.02698977076194857   -0.00034513459089527404
-0.009979673556936679   -0.027076826258593777   -0.00019065693603218645
-0.016519878871297813   -0.04075895488418867   -0.0007087247669122325
-0.016342226271615655   -0.04096083359261669   -0.000826234459534923
-0.017089429461874396   -0.027313081111454866   -0.0005075106927921748
-0.02373048816597533   -0.040831769475315596   -0.0010015245535220174
-0.01643401573262897   -0.04085645308510422   -0.0007709241206064829
-0.017089429461874396   -0.027313081111454866   -0.0005075106927921748
-0.024552866321897595   -0.02727076125642177   -0.0006818264272234855
-0.02373048816597533   -0.040831769475315596   -0.0010015245535220174
-0.0246419538966329   -0.027184533518681712   -0.0006348618370242767
-0.01643401573262897   -0.04085645308510422   -0.0007709241206064829
-0.02381840469778167   -0.040751518722676475   -0.0009322544237029421
-0.0246419538966329   -0.027184533518681712   -0.0006348618370242767
-0.02373048816597533   -0.040831769475315596   -0.0010015245535220174
-0.01643401573262897   -0.04085645308510422   -0.0007709241206064829
-0.0246419538966329   -0.027184533518681712   -0.0006348618370242767
-0.017182877406926495   -0.027207463047383192   -0.000457804508205497
-0.017089429461874396   -0.027313081111454866   -0.0005075106927921748
-0.01643401573262897   -0.04085645308510422   -0.0007709241206064829
-0.0246419538966329   -0.027184533518681712   -0.0006348618370242767
-0.017089429461874396   -0.027313081111454866   -0.0005075106927921748
-0.02373048816597533   -0.040831769475315596   -0.0010015245535220174
-0.01643401573262897   -0.04085645308510422   -0.0007709241206064829
-0.017182877406926495   -0.027207463047383192   -0.000457804508205497
-0.02381840469778167   -0.040751518722676475   -0.0009322544237029421
-0.016519878871297813   -0.04075895488418867   -0.0007087247669122325
-0.017182877406926495   -0.027207463047383192   -0.000457804508205497
-0.0246419538966329   -0.027184533518681712   -0.0006348618370242767
-0.02381840469778167   -0.040751518722676475   -0.0009322544237029421
-0.024717489091082356   -0.02709356228016611   -0.0005847092324896744
-0.016519878871297813   -0.04075895488418867   -0.0007087247669122325
-0.0238851554941716   -0.04067547440009124   -0.0008572392588813091
-0.024717489091082356   -0.02709356228016611   -0.0005847092324896744
-0.02381840469778167   -0.040751518722676475   -0.0009322544237029421
-0.016519878871297813   -0.04075895488418867   -0.0007087247669122325
-0.024717489091082356   -0.02709356228016611   -0.0005847092324896744
-0.017271893828314108   -0.02709989541082815   -0.0004035927871854744
-0.017182877406926495   -0.027207463047383192   -0.000457804508205497
-0.016519878871297813   -0.04075895488418867   -0.0007087247669122325
-0.024717489091082356   -0.02709356228016611   -0.0005847092324896744
-0.017182877406926495   -0.027207463047383192   -0.000457804508205497
-0.02381840469778167   -0.040751518722676475   -0.0009322544237029421
-0.016519878871297813   -0.04075895488418867   -0.0007087247669122325
-0.017271893828314108   -0.02709989541082815   -0.0004035927871854744
-0.0238851554941716   -0.04067547440009124   -0.0008572392588813091
-0.016606048730083808   -0.040668612250381896   -0.0006399791226538738
-0.017271893828314108   -0.02709989541082815   -0.0004035927871854744
-0.024717489091082356   -0.02709356228016611   -0.0005847092324896744
-0.0238851554941716   -0.04067547440009124   -0.0008572392588813091
-0.024788883874196976   -0.02700016316634082   -0.0005299691317720523
-0.016606048730083808   -0.040668612250381896   -0.0006399791226538738
-0.023951362488147745   -0.040606973297011774   -0.0007749739707799902
-0.024788883874196976   -0.02700016316634082   -0.0005299691317720523
-0.0238851554941716   -0.04067547440009124   -0.0008572392588813091
-0.016606048730083808   -0.040668612250381896   -0.0006399791226538738
-0.024788883874196976   -0.02700016316634082   -0.0005299691317720523
-0.01736001223475219   -0.02698977076194857   -0.00034513459089527404
-0.017271893828314108   -0.02709989541082815   -0.0004035927871854744
-0.016606048730083808   -0.040668612250381896   -0.0006399791226538738
-0.024788883874196976   -0.02700016316634082   -0.0005299691317720523
-0.017271893828314108   -0.02709989541082815   -0.0004035927871854744
-0.0238851554941716   -0.04067547440009124   -0.0008572392588813091
-0.02373048816597533   -0.040831769475315596   -0.0010015245535220174
-0.024552866321897595   -0.02727076125642177   -0.0006818264272234855
-0.031560038290537794   -0.040679511372240414   -0.0011318645687892882
-0.02381840469778167   -0.040751518722676475   -0.0009322544237029421
-0.024552866321897595   -0.02727076125642177   -0.0006818264272234855
-0.03236972165089759   -0.02720118838032612   -0.0008111310288560924
-0.031560038290537794   -0.040679511372240414   -0.0011318645687892882
-0.03242536469472436   -0.027128660608867268   -0.0007760693042448509
-0.02381840469778167   -0.040751518722676475   -0.0009322544237029421
-0.03157405816414172   -0.04061532067168562   -0.0010555195458552809
-0.03242536469472436   -0.027128660608867268   -0.0007760693042448509
-0.031560038290537794   -0.040679511372240414   -0.0011318645687892882
-0.02381840469778167   -0.040751518722676475   -0.0009322544237029421
-0.03242536469472436   -0.027128660608867268   -0.0007760693042448509
-0.0246419538966329   -0.027184533518681712   -0.0006348618370242767
-0.024552866321897595   -0.02727076125642177   -0.0006818264272234855
-0.02381840469778167   -0.040751518722676475   -0.0009322544237029421
-0.03242536469472436   -0.027128660608867268   -0.0007760693042448509
-0.024552866321897595   -0.02727076125642177   -0.0006818264272234855
-0.031560038290537794   -0.040679511372240414   -0.0011318645687892882
-0.02381840469778167   -0.040751518722676475   -0.0009322544237029421
-0.0246419538966329   -0.027184533518681712   -0.0006348618370242767
-0.03157405816414172   -0.04061532067168562   -0.0010555195458552809
-0.0238851554941716   -0.04067547440009124   -0.0008572392588813091
-0.0246419538966329   -0.027184533518681712   -0.0006348618370242767
-0.03242536469472436   -0.027128660608867268   -0.0007760693042448509
-0.03157405816414172   -0.04061532067168562   -0.0010555195458552809
-0.03247624366464212   -0.027046653118628382   -0.0007331633926970123
-0.0238851554941716   -0.04067547440009124   -0.0008572392588813091
-0.03158836917173126   -0.04055029295832178   -0.0009675992118646073
-0.03247624366464212   -0.027046653118628382   -0.0007331633926970123
-0.03157405816414172   -0.04061532067168562   -0.0010555195458552809
-0.0238851554941716   -0.04067547440009124   -0.0008572392588813091
-0.03247624366464212   -0.027046653118628382   -0.0007331633926970123
-0.024717489091082356   -0.02709356228016611   -0.0005847092324896744
-0.0246419538966329   -0.027184533518681712   -0.0006348618370242767
-0.0238851554941716   -0.04067547440009124   -0.0008572392588813091
-0.03247624366464212   -0.027046653118628382   -0.0007331633926970123
-0.0246419538966329   -0.027184533518681712   -0.0006348618370242767
-0.03157405816414172   -0.04061532067168562   -0.0010555195458552809
-0.0238851554941716   -0.04067547440009124   -0.0008572392588813091
-0.024717489091082356   -0.02709356228016611   -0.0005847092324896744
-0.03158836917173126   -0.04055029295832178   -0.0009675992118646073
-0.023951362488147745   -0.040606973297011774   -0.0007749739707799902
-0.024717489091082356   -0.02709356228016611   -0.0005847092324896744
-0.03247624366464212   -0.027046653118628382   -0.0007331633926970123
-0.03158836917173126   -0.04055029295832178   -0.0009675992118646073
-0.03250120997621331   -0.026971216888460055   -0.0006843872898020869
-0.023951362488147745   -0.040606973297011774   -0.0007749739707799902
-0.03155881139012105   -0.0405070251498417   -0.0008694814386257608
-0.03250120997621331   -0.026971216888460055   -0.0006843872898020869
-0.03158836917173126   -0.04055029295832178   -0.0009675992118646073
-0.023951362488147745   -0.040606973297011774   -0.0007749739707799902
-0.03250120997621331   -0.026971216888460055   -0.0006843872898020869
-0.024788883874196976   -0.02700016316634082   -0.0005299691317720523
-0.024717489091082356   -0.02709356228016611   -0.0005847092324896744
-0.023951362488147745   -0.040606973297011774   -0.0007749739707799902
-0.03250120997621331   -0.026971216888460055   -0.0006843872898020869
-0.024717489091082356   -0.02709356228016611   -0.0005847092324896744
-0.03158836917173126   -0.04055029295832178   -0.0009675992118646073
0.005443432770397481   -0.027485567277258628   0.0001665768913545748
0.003811120212724762   -0.013797603758864008   0.0001786454301382781
-0.0023968935458062728   -0.027355912845776386   -7.103436466026295e-05
0.005272583426016428   -0.02731956499941341   0.00023681831909770065
0.003811120212724762   -0.013797603758864008   0.0001786454301382781
-0.003496673068357184   -0.013617909851354037   8.95553083623176e-05
-0.0023968935458062728   -0.027355912845776386   -7.103436466026295e-05
-0.0036042829764976825   -0.01354797058100054   0.0001675234792798338
0.005272583426016428   -0.02731956499941341   0.00023681831909770065
-0.002505185565048192   -0.02721817577655051   -1.4793944748068018e-05
-0.0036042829764976825   -0.01354797058100054   0.0001675234792798338
-0.0023968935458062728   -0.027355912845776386   -7.103436466026295e-05
0.005272583426016428   -0.02731956499941341   0.00023681831909770065
-0.0036042829764976825   -0.01354797058100054   0.0001675234792798338
0.003475839582650036   -0.013621449986286036   0.00037181801378874824
0.003811120212724762   -0.013797603758864008   0.0001786454301382781
0.005272583426016428   -0.02731956499941341   0.00023681831909770065
-0.0036042829764976825   -0.01354797058100054   0.0001675234792798338
0.003811120212724762   -0.013797603758864008   0.0001786454301382781
-0.0023968935458062728   -0.027355912845776386   -7.103436466026295e-05
0.005272583426016428   -0.02731956499941341   0.00023681831909770065
0.003475839582650036   -0.013621449986286036   0.00037181801378874824
-0.002505185565048192   -0.02721817577655051   -1.4793944748068018e-05
0.005082125966073475   -0.027154556875767264   0.00033748918849303987
0.003475839582650036   -0.013621449986286036   0.00037181801378874824
-0.0036042829764976825   -0.01354797058100054   0.0001675234792798338
-0.002505185565048192   -0.02721817577655051   -1.4793944748068018e-05
-0.003745513044052169   -0.013424078876507544   0.00026214250823667034
0.005082125966073475   -0.027154556875767264   0.00033748918849303987
-0.0026318197147914874   -0.027072744559134616   5.1413904971371546e-05
-0.003745513044052169   -0.013424078876507544   0.00026214250823667034
-0.002505185565048192   -0.02721817577655051   -1.4793944748068018e-05
0.005082125966073475   -0.027154556875767264   0.00033748918849303987
-0.003745513044052169   -0.013424078876507544   0.00026214250823667034
0.003279418697394504   -0.013477049082491695   0.0005160852303081493
0.003475839582650036   -0.013621449986286036   0.00037181801378874824
0.005082125966073475   -0.027154556875767264   0.00033748918849303987
-0.003745513044052169   -0.013424078876507544   0.00026214250823667034
0.003475839582650036   -0.013621449986286036   0.00037181801378874824
-0.002505185565048192   -0.02721817577655051   -1.4793944748068018e-05
0.005082125966073475   -0.027154556875767264   0.00033748918849303987
0.003279418697394504   -0.013477049082491695   0.0005160852303081493
-0.0026318197147914874   -0.027072744559134616   5.1413904971371546e-05
0.004849435600312742   -0.026951912397565003   0.0004482261105764065
0.003279418697394504   -0.013477049082491695   0.0005160852303081493
-0.003745513044052169   -0.013424078876507544   0.00026214250823667034
-0.0026318197147914874   -0.027072744559134616   5.1413904971371546e-05
-0.0038641639251322684   -0.013290748254130211   0.00034544640888134156
0.004849435600312742   -0.026951912397565003   0.0004482261105764065
-0.0027627503184029117   -0.02691827186198223   0.00012744837440156049
-0.0038641639251322684   -0.013290748254130211   0.00034544640888134156
-0.0026318197147914874   -0.027072744559134616   5.1413904971371546e-05
0.004849435600312742   -0.026951912397565003   0.0004482261105764065
-0.0038641639251322684   -0.013290748254130211   0.00034544640888134156
0.0030278394359710132   -0.01325664407310508   0.0006812253735738382
0.003279418697394504   -0.013477049082491695   0.0005160852303081493
0.004849435600312742   -0.026951912397565003   0.0004482261105764065
-0.0038641639251322684   -0.013290748254130211   0.00034544640888134156
0.003279418697394504   -0.013477049082491695   0.0005160852303081493
-0.0026318197147914874   -0.027072744559134616   5.1413904971371546e-05
-0.0023968935458062728   -0.027355912845776386   -7.103436466026295e-05
-0.003496673068357184   -0.013617909851354037   8.95553083623176e-05
-0.009780735211950132   -0.027322377197013047   -0.0003002333620632352
-0.002505185565048192   -0.02721817577655051   -1.4793944748068018e-05
-0.003496673068357184   -0.013617909851354037   8.95553083623176e-05
-0.010454482497333164   -0.013818623036336073   -9.324354528343422e-05
-0.009780735211950132   -0.027322377197013047   -0.0003002333620632352
-0.010553393491984732   -0.013712139819698071   -3.8086397796926226e-05
-0.002505185565048192   -0.02721817577655051   -1.4793944748068018e-05
-0.009878531377600573   -0.0272020319593631   -0.000248023652725316
-0.010553393491984732   -0.013712139819698071   -3.8086397796926226e-05
-0.009780735211950132   -0.027322377197013047   -0.0003002333620632352
-0.002505185565048192   -0.02721817577655051   -1.4793944748068018e-05
-0.010553393491984732   -0.013712139819698071   -3.8086397796926226e-05
-0.0036042829764976825   -0.01354797058100054   0.0001675234792798338
-0.003496673068357184   -0.013617909851354037   8.95553083623176e-05
-0.002505185565048192   -0.02721817577655051   -1.4793944748068018e-05
-0.010553393491984732   -0.013712139819698071   -3.8086397796926226e-05
-0.003496673068357184   -0.013617909851354037   8.95553083623176e-05
-0.009780735211950132   -0.027322377197013047   -0.0003002333620632352
-0.002505185565048192   -0.02721817577655051   -1.4793944748068018e-05
-0.0036042829764976825   -0.01354797058100054   0.0001675234792798338
-0.009878531377600573   -0.0272020319593631   -0.000248023652725316
-0.0026318197147914874   -0.027072744559134616   5.1413904971371546e-05
-0.0036042829764976825   -0.01354797058100054   0.0001675234792798338
-0.010553393491984732   -0.013712139819698071   -3.8086397796926226e-05
-0.009878531377600573   -0.0272020319593631   -0.000248023652725316
-0.010656831610904879   -0.013592031354619165   2.0239650653998782e-05
-0.0026318197147914874   -0.027072744559134616   5.1413904971371546e-05
-0.009979673556936679   -0.027076826258593777   -0.00019065693603218645
-0.010656831610904879   -0.013592031354619165   2.0239650653998782e-05
-0.009878531377600573   -0.0272020319593631   -0.000248023652725316
-0.0026318197147914874   -0.027072744559134616   5.1413904971371546e-05
-0.010656831610904879   -0.013592031354619165   2.0239650653998782e-05
-0.003745513044052169   -0.013424078876507544   0.00026214250823667034
-0.0036042829764976825   -0.01354797058100054   0.0001675234792798338
-0.0026318197147914874   -0.027072744559134616   5.1413904971371546e-05
-0.010656831610904879   -0.013592031354619165   2.0239650653998782e-05
-0.0036042829764976825   -0.01354797058100054   0.0001675234792798338
-0.009878531377600573   -0.0272020319593631   -0.000248023652725316
-0.0026318197147914874   -0.027072744559134616   5.1413904971371546e-05
-0.003745513044052169   -0.013424078876507544   0.00026214250823667034
-0.009979673556936679   -0.027076826258593777   -0.00019065693603218645
-0.0027627503184029117   -0.02691827186198223   0.00012744837440156049
-0.003745513044052169   -0.013424078876507544   0.00026214250823667034
-0.010656831610904879   -0.013592031354619165   2.0239650653998782e-05
-0.009979673556936679   -0.027076826258593777   -0.00019065693603218645
-0.010755069865983166   -0.013460393971434566   8.453583116641011e-05
-0.0027627503184029117   -0.02691827186198223   0.00012744837440156049
-0.010084947482242755   -0.02694896755238155   -0.00012709735685610405
-0.010755069865983166   -0.013460393971434566   8.453583116641011e-05
-0.009979673556936679   -0.027076826258593777   -0.00019065693603218645
-0.0027627503184029117   -0.02691827186198223   0.00012744837440156049
-0.010755069865983166   -0.013460393971434566   8.453583116641011e-05
-0.0038641639251322684   -0.013290748254130211   0.00034544640888134156
-0.003745513044052169   -0.013424078876507544   0.00026214250823667034
-0.0027627503184029117   -0.02691827186198223   0.00012744837440156049
-0.010755069865983166   -0.013460393971434566   8.453583116641011e-05
-0.003745513044052169   -0.013424078876507544   0.00026214250823667034
-0.009979673556936679   -0.027076826258593777   -0.00019065693603218645
-0.009780735211950132   -0.027322377197013047   -0.0003002333620632352
-0.010454482497333164   -0.013818623036336073   -9.324354528343422e-05
-0.017089429461874396   -0.027313081111454866   -0.0005075106927921748
-0.009878531377600573   -0.0272020319593631   -0.000248023652725316
-0.010454482497333164   -0.013818623036336073   -9.324354528343422e-05
-0.017584013696100572   -0.013975399508119999   -0.0002955387006240838
-0.017089429461874396   -0.027313081111454866   -0.0005075106927921748
-0.01767277330780881   -0.013866111778336066   -0.00025285832955019086
-0.009878531377600573   -0.0272020319593631   -0.000248023652725316
-0.017182877406926495   -0.027207463047383192   -0.000457804508205497
-0.01767277330780881   -0.013866111778336066   -0.00025285832955019086
-0.017089429461874396   -0.027313081111454866   -0.0005075106927921748
-0.009878531377600573   -0.0272020319593631   -0.000248023652725316
-0.01767277330780881   -0.013866111778336066   -0.00025285832955019086
-0.010553393491984732   -0.013712139819698071   -3.8086397796926226e-05
-0.010454482497333164   -0.013818623036336073   -9.324354528343422e-05
-0.009878531377600573   -0.0272020319593631   -0.000248023652725316
-0.01767277330780881   -0.013866111778336066   -0.00025285832955019086
-0.010454482497333164   -0.013818623036336073   -9.324354528343422e-05
-0.017089429461874396   -0.027313081111454866   -0.0005075106927921748
-0.009878531377600573   -0.0272020319593631   -0.000248023652725316
-0.010553393491984732   -0.013712139819698071   -3.8086397796926226e-05
-0.017182877406926495   -0.027207463047383192   -0.000457804508205497
-0.009979673556936679   -0.027076826258593777   -0.00019065693603218645
-0.010553393491984732   -0.013712139819698071   -3.8086397796926226e-05
-0.01767277330780881   -0.013866111778336066   -0.00025285832955019086
-0.017182877406926495   -0.027207463047383192   -0.000457804508205497
-0.017757677407273055   -0.013750739393922747   -0.00021035162385606322
-0.009979673556936679   -0.027076826258593777   -0.00019065693603218645
-0.017271893828314108   -0.02709989541082815   -0.0004035927871854744
-0.017757677407273055   -0.013750739393922747   -0.00021035162385606322
-0.017182877406926495   -0.027207463047383192   -0.000457804508205497
-0.009979673556936679   -0.027076826258593777   -0.00019065693603218645
-0.017757677407273055   -0.013750739393922747   -0.00021035162385606322
-0.010656831610904879   -0.013592031354619165   2.0239650653998782e-05
-0.010553393491984732   -0.013712139819698071   -3.8086397796926226e-05
-0.009979673556936679   -0.027076826258593777   -0.00019065693603218645
-0.017757677407273055   -0.013750739393922747   -0.00021035162385606322
-0.010553393491984732   -0.013712139819698071   -3.8086397796926226e-05
-0.017182877406926495   -0.027207463047383192   -0.000457804508205497
-0.009979673556936679   -0.027076826258593777   -0.00019065693603218645
-0.010656831610904879   -0.013592031354619165   2.0239650653998782e-05
-0.017271893828314108   -0.02709989541082815   -0.0004035927871854744
-0.010084947482242755   -0.02694896755238155   -0.00012709735685610405
-0.010656831610904879   -0.013592031354619165   2.0239650653998782e-05
-0.017757677407273055   -0.013750739393922747   -0.00021035162385606322
-0.017271893828314108   -0.02709989541082815   -0.0004035927871854744
-0.01783589264648431   -0.013625868011879077   -0.0001641116566756351
-0.010084947482242755   -0.02694896755238155   -0.00012709735685610405
-0.01736001223475219   -0.02698977076194857   -0.00034513459089527404
-0.01783589264648431   -0.013625868011879077   -0.0001641116566756351
-0.017271893828314108   -0.02709989541082815   -0.0004035927871854744
-0.010084947482242755   -0.02694896755238155   -0.00012709735685610405
-0.01783589264648431   -0.013625868011879077   -0.0001641116566756351
-0.010755069865983166   -0.013460393971434566   8.453583116641011e-05
-0.010656831610904879   -0.013592031354619165   2.0239650653998782e-05
-0.010084947482242755   -0.02694896755238155   -0.00012709735685610405
-0.01783589264648431   -0.013625868011879077   -0.0001641116566756351
-0.010656831610904879   -0.013592031354619165   2.0239650653998782e-05
-0.017271893828314108   -0.02709989541082815   -0.0004035927871854744
-0.017089429461874396   -0.027313081111454866   -0.0005075106927921748
-0.017584013696100572   -0.013975399508119999   -0.0002955387006240838
-0.024552866321897595   -0.02727076125642177   -0.0006818264272234855
-0.017182877406926495   -0.027207463047383192   -0.000457804508205497
-0.017584013696100572   -0.013975399508119999   -0.0002955387006240838
-0.024963943262831027   -0.014039664292194682   -0.00048236822670570033
-0.024552866321897595   -0.02727076125642177   -0.0006818264272234855
-0.025043891308442194   -0.013941401525320562   -0.00045130818755034356
-0.017182877406926495   -0.027207463047383192   -0.000457804508205497
-0.0246419538966329   -0.027184533518681712   -0.0006348618370242767
-0.025043891308442194   -0.013941401525320562   -0.00045130818755034356
-0.024552866321897595   -0.02727076125642177   -0.0006818264272234855
-0.017182877406926495   -0.027207463047383192   -0.000457804508205497
-0.025043891308442194   -0.013941401525320562   -0.00045130818755034356
-0.01767277330780881   -0.013866111778336066   -0.00025285832955019086
-0.017584013696100572   -0.013975399508119999   -0.0002955387006240838
-0.017182877406926495   -0.027207463047383192   -0.000457804508205497
-0.025043891308442194   -0.013941401525320562   -0.00045130818755034356
-0.017584013696100572   -0.013975399508119999   -0.0002955387006240838
-0.024552866321897595   -0.02727076125642177   -0.0006818264272234855
-0.017182877406926495   -0.027207463047383192   -0.000457804508205497
-0.01767277330780881   -0.013866111778336066   -0.00025285832955019086
-0.0246419538966329   -0.027184533518681712   -0.0006348618370242767
-0.017271893828314108   -0.02709989541082815   -0.0004035927871854744
-0.01767277330780881   -0.013866111778336066   -0.00025285832955019086
-0.025043891308442194   -0.013941401525320562   -0.00045130818755034356
-0.0246419538966329   -0.027184533518681712   -0.0006348618370242767
-0.02511513019093174   -0.013834453698616574   -0.00042116639860833866
-0.017271893828314108   -0.02709989541082815   -0.0004035927871854744
-0.024717489091082356   -0.02709356228016611   -0.0005847092324896744
-0.02511513019093174   -0.013834453698616574   -0.00042116639860833866
-0.0246419538966329   -0.027184533518681712   -0.0006348618370242767
-0.017271893828314108   -0.02709989541082815   -0.0004035927871854744
-0.02511513019093174   -0.013834453698616574   -0.00042116639860833866
-0.017757677407273055   -0.013750739393922747   -0.00021035162385606322
-0.01767277330780881   -0.013866111778336066   -0.00025285832955019086
-0.017271893828314108   -0.02709989541082815   -0.0004035927871854744
-0.02511513019093174   -0.013834453698616574   -0.00042116639860833866
-0.01767277330780881   -0.013866111778336066   -0.00025285832955019086
-0.0246419538966329   -0.027184533518681712   -0.0006348618370242767
-0.017271893828314108   -0.02709989541082815   -0.0004035927871854744
-0.017757677407273055   -0.013750739393922747   -0.00021035162385606322
-0.024717489091082356   -0.02709356228016611   -0.0005847092324896744
-0.01736001223475219   -0.02698977076194857   -0.00034513459089527404
-0.017757677407273055   -0.013750739393922747   -0.00021035162385606322
-0.02511513019093174   -0.013834453698616574   -0.00042116639860833866
-0.024717489091082356   -0.02709356228016611   -0.0005847092324896744
-0.025179625040676435   -0.013720646724753791   -0.00039016793437492175
-0.01736001223475219   -0.02698977076194857   -0.00034513459089527404
-0.024788883874196976   -0.02700016316634082   -0.0005299691317720523
-0.025179625040676435   -0.013720646724753791   -0.00039016793437492175
-0.024717489091082356   -0.02709356228016611   -0.0005847092324896744
-0.01736001223475219   -0.02698977076194857   -0.00034513459089527404
-0.025179625040676435   -0.013720646724753791   -0.00039016793437492175
-0.01783589264648431   -0.013625868011879077   -0.0001641116566756351
-0.017757677407273055   -0.013750739393922747   -0.00021035162385606322
-0.01736001223475219   -0.02698977076194857   -0.00034513459089527404
-0.025179625040676435   -0.013720646724753791   -0.00039016793437492175
-0.017757677407273055   -0.013750739393922747   -0.00021035162385606322
-0.024717489091082356   -0.02709356228016611   -0.0005847092324896744
-0.024552866321897595   -0.02727076125642177   -0.0006818264272234855
-0.024963943262831027   -0.014039664292194682   -0.00048236822670570033
-0.03236972165089759   -0.02720118838032612   -0.0008111310288560924
-0.0246419538966329   -0.027184533518681712   -0.0006348618370242767
-0.024963943262831027   -0.014039664292194682   -0.00048236822670570033
-0.032605481905739725   -0.014046963666793703   -0.0006377271515062887
-0.03236972165089759   -0.02720118838032612   -0.0008111310288560924
-0.032674272504287186   -0.013951533431194488   -0.0006244961209759548
-0.0246419538966329   -0.027184533518681712   -0.0006348618370242767
-0.03242536469472436   -0.027128660608867268   -0.0007760693042448509
-0.032674272504287186   -0.013951533431194488   -0.0006244961209759548
-0.03236972165089759   -0.02720118838032612   -0.0008111310288560924
-0.0246419538966329   -0.027184533518681712   -0.0006348618370242767
-0.032674272504287186   -0.013951533431194488   -0.0006244961209759548
-0.025043891308442194   -0.013941401525320562   -0.00045130818755034356
-0.024963943262831027   -0.014039664292194682   -0.00048236822670570033
-0.0246419538966329   -0.027184533518681712   -0.0006348618370242767
-0.032674272504287186   -0.013951533431194488   -0.0006244961209759548
-0.024963943262831027   -0.014039664292194682   -0.00048236822670570033
-0.03236972165089759   -0.02720118838032612   -0.0008111310288560924
-0.0246419538966329   -0.027184533518681712   -0.0006348618370242767
-0.025043891308442194   -0.013941401525320562   -0.00045130818755034356
-0.03242536469472436   -0.027128660608867268   -0.0007760693042448509
-0.024717489091082356   -0.02709356228016611   -0.0005847092324896744
-0.025043891308442194   -0.013941401525320562   -0.00045130818755034356
-0.032674272504287186   -0.013951533431194488   -0.0006244961209759548
-0.03242536469472436   -0.027128660608867268   -0.0007760693042448509
-0.03273590273128956   -0.01384843513301556   -0.0006090409385212589
-0.024717489091082356   -0.02709356228016611   -0.0005847092324896744
-0.03247624366464212   -0.027046653118628382   -0.0007331633926970123
-0.03273590273128956   -0.01384843513301556   -0.0006090409385212589
-0.03242536469472436   -0.027128660608867268   -0.0007760693042448509
-0.024717489091082356   -0.02709356228016611   -0.0005847092324896744
-0.03273590273128956   -0.01384843513301556   -0.0006090409385212589
-0.02511513019093174   -0.013834453698616574   -0.00042116639860833866
-0.025043891308442194   -0.013941401525320562   -0.00045130818755034356
-0.024717489091082356   -0.02709356228016611   -0.0005847092324896744
-0.03273590273128956   -0.01384843513301556   -0.0006090409385212589
-0.025043891308442194   -0.013941401525320562   -0.00045130818755034356
-0.03242536469472436   -0.027128660608867268   -0.0007760693042448509
-0.024717489091082356   -0.02709356228016611   -0.0005847092324896744
-0.02511513019093174   -0.013834453698616574   -0.00042116639860833866
-0.03247624366464212   -0.027046653118628382   -0.0007331633926970123
-0.024788883874196976   -0.02700016316634082   -0.0005299691317720523
-0.02511513019093174   -0.013834453698616574   -0.00042116639860833866
-0.03273590273128956   -0.01384843513301556   -0.0006090409385212589
-0.03247624366464212   -0.027046653118628382   -0.0007331633926970123
-0.032787856721224966   -0.013739248534364432   -0.0005947329971064131
-0.024788883874196976   -0.02700016316634082   -0.0005299691317720523
-0.03250120997621331   -0.026971216888460055   -0.0006843872898020869
-0.032787856721224966   -0.013739248534364432   -0.0005947329971064131
-0.03247624366464212   -0.027046653118628382   -0.0007331633926970123
-0.024788883874196976   -0.02700016316634082   -0.0005299691317720523
-0.032787856721224966   -0.013739248534364432   -0.0005947329971064131
-0.025179625040676435   -0.013720646724753791   -0.00039016793437492175
-0.02511513019093174   -0.013834453698616574   -0.00042116639860833866
-0.024788883874196976   -0.02700016316634082   -0.0005299691317720523
-0.032787856721224966   -0.013739248534364432   -0.0005947329971064131
-0.02511513019093174   -0.013834453698616574   -0.00042116639860833866
-0.03247624366464212   -0.027046653118628382   -0.0007331633926970123
0.003811120212724762   -0.013797603758864008   0.0001786454301382781
0.0   0.0   0.0
-0.003496673068357184   -0.013617909851354037   8.95553083623176e-05
0.003475839582650036   -0.013621449986286036   0.00037181801378874824
0.0   0.0   0.0
-0.004394380192575643   -0.001106187690976879   -3.891984914061972e-05
-0.003496673068357184   -0.013617909851354037   8.95553083623176e-05
-0.004656762235991868   -0.000858091739316578   0.00011164145516918668
0.003475839582650036   -0.013621449986286036   0.00037181801378874824
-0.0036042829764976825   -0.01354797058100054   0.0001675234792798338
-0.004656762235991868   -0.000858091739316578   0.00011164145516918668
-0.003496673068357184   -0.013617909851354037   8.95553083623176e-05
0.003475839582650036   -0.013621449986286036   0.00037181801378874824
-0.004656762235991868   -0.000858091739316578   0.00011164145516918668
0.0   0.0   0.0
0.0   0.0   0.0
0.003475839582650036   -0.013621449986286036   0.00037181801378874824
-0.004656762235991868   -0.000858091739316578   0.00011164145516918668
0.0   0.0   0.0
-0.003496673068357184   -0.013617909851354037   8.95553083623176e-05
0.003475839582650036   -0.013621449986286036   0.00037181801378874824
0.0   0.0   0.0
-0.0036042829764976825   -0.01354797058100054   0.0001675234792798338
0.003279418697394504   -0.013477049082491695   0.0005160852303081493
0.0   0.0   0.0
-0.004656762235991868   -0.000858091739316578   0.00011164145516918668
-0.0036042829764976825   -0.01354797058100054   0.0001675234792798338
-0.004821191285723001   -0.000738319686495079   0.00019828681208825552
0.003279418697394504   -0.013477049082491695   0.0005160852303081493
-0.003745513044052169   -0.013424078876507544   0.00026214250823667034
-0.004821191285723001   -0.000738319686495079   0.00019828681208825552
-0.0036042829764976825   -0.01354797058100054   0.0001675234792798338
0.003279418697394504   -0.013477049082491695   0.0005160852303081493
-0.004821191285723001   -0.000738319686495079   0.00019828681208825552
0.0   0.0   0.0
0.0   0.0   0.0
0.003279418697394504   -0.013477049082491695   0.0005160852303081493
-0.004821191285723001   -0.000738319686495079   0.00019828681208825552
0.0   0.0   0.0
-0.0036042829764976825   -0.01354797058100054   0.0001675234792798338
0.003279418697394504   -0.013477049082491695   0.0005160852303081493
0.0   0.0   0.0
-0.003745513044052169   -0.013424078876507544   0.00026214250823667034
0.0030278394359710132   -0.01325664407310508   0.0006812253735738382
0.0   0.0   0.0
-0.004821191285723001   -0.000738319686495079   0.00019828681208825552
-0.003745513044052169   -0.013424078876507544   0.00026214250823667034
-0.005041226132522111   -0.0005794079333189243   0.0002976901284989774
0.0030278394359710132   -0.01325664407310508   0.0006812253735738382
-0.0038641639251322684   -0.013290748254130211   0.00034544640888134156
-0.005041226132522111   -0.0005794079333189243   0.0002976901284989774
-0.003745513044052169   -0.013424078876507544   0.00026214250823667034
0.0030278394359710132   -0.01325664407310508   0.0006812253735738382
-0.005041226132522111   -0.0005794079333189243   0.0002976901284989774
0.0   0.0   0.0
0.0   0.0   0.0
0.0030278394359710132   -0.01325664407310508   0.0006812253735738382
-0.005041226132522111   -0.0005794079333189243   0.0002976901284989774
0.0   0.0   0.0
-0.003745513044052169   -0.013424078876507544   0.00026214250823667034
-0.003496673068357184   -0.013617909851354037   8.95553083623176e-05
-0.004394380192575643   -0.001106187690976879   -3.891984914061972e-05
-0.010454482497333164   -0.013818623036336073   -9.324354528343422e-05
-0.0036042829764976825   -0.01354797058100054   0.0001675234792798338
-0.004394380192575643   -0.001106187690976879   -3.891984914061972e-05
-0.01076770393994916   -0.0014460093793990014   -3.950021351362218e-05
-0.010454482497333164   -0.013818623036336073   -9.324354528343422e-05
-0.010902588697972155   -0.0013099299705536939   -1.2911144099074635e-06
-0.0036042829764976825   -0.01354797058100054   0.0001675234792798338
-0.010553393491984732   -0.013712139819698071   -3.8086397796926226e-05
-0.010902588697972155   -0.0013099299705536939   -1.2911144099074635e-06
-0.010454482497333164   -0.013818623036336073   -9.324354528343422e-05
-0.0036042829764976825   -0.01354797058100054   0.0001675234792798338
-0.010902588697972155   -0.0013099299705536939   -1.2911144099074635e-06
-0.004656762235991868   -0.000858091739316578   0.00011164145516918668
-0.004394380192575643   -0.001106187690976879   -3.891984914061972e-05
-0.0036042829764976825   -0.01354797058100054   0.0001675234792798338
-0.010902588697972155   -0.0013099299705536939   -1.2911144099074635e-06
-0.004394380192575643   -0.001106187690976879   -3.891984914061972e-05
-0.010454482497333164   -0.013818623036336073   -9.324354528343422e-05
-0.0036042829764976825   -0.01354797058100054   0.0001675234792798338
-0.004656762235991868   -0.000858091739316578   0.00011164145516918668
-0.010553393491984732   -0.013712139819698071   -3.8086397796926226e-05
-0.003745513044052169   -0.013424078876507544   0.00026214250823667034
-0.004656762235991868   -0.000858091739316578   0.00011164145516918668
-0.010902588697972155   -0.0013099299705536939   -1.2911144099074635e-06
-0.010553393491984732   -0.013712139819698071   -3.8086397796926226e-05
-0.011036793214910702   -0.001150841726423158   6.744434038284156e-05
-0.003745513044052169   -0.013424078876507544   0.00026214250823667034
-0.010656831610904879   -0.013592031354619165   2.0239650653998782e-05
-0.011036793214910702   -0.001150841726423158   6.744434038284156e-05
-0.010553393491984732   -0.013712139819698071   -3.8086397796926226e-05
-0.003745513044052169   -0.013424078876507544   0.00026214250823667034
-0.011036793214910702   -0.001150841726423158   6.744434038284156e-05
-0.004821191285723001   -0.000738319686495079   0.00019828681208825552
-0.004656762235991868   -0.000858091739316578   0.00011164145516918668
-0.003745513044052169   -0.013424078876507544   0.00026214250823667034
-0.011036793214910702   -0.001150841726423158   6.744434038284156e-05
-0.004656762235991868   -0.000858091739316578   0.00011164145516918668
-0.010553393491984732   -0.013712139819698071   -3.8086397796926226e-05
-0.003745513044052169   -0.013424078876507544   0.00026214250823667034
-0.004821191285723001   -0.000738319686495079   0.00019828681208825552
-0.010656831610904879   -0.013592031354619165   2.0239650653998782e-05
-0.0038641639251322684   -0.013290748254130211   0.00034544640888134156
-0.004821191285723001   -0.000738319686495079   0.00019828681208825552
-0.011036793214910702   -0.001150841726423158   6.744434038284156e-05
-0.010656831610904879   -0.013592031354619165   2.0239650653998782e-05
-0.011184960300038165   -0.0009672080423793043   0.0001330752521342198
-0.0038641639251322684   -0.013290748254130211   0.00034544640888134156
-0.010755069865983166   -0.013460393971434566   8.453583116641011e-05
-0.011184960300038165   -0.0009672080423793043   0.0001330752521342198
-0.010656831610904879   -0.013592031354619165   2.0239650653998782e-05
-0.0038641639251322684   -0.013290748254130211   0.00034544640888134156
-0.011184960300038165   -0.0009672080423793043   0.0001330752521342198
-0.005041226132522111   -0.0005794079333189243   0.0002976901284989774
-0.004821191285723001   -0.000738319686495079   0.00019828681208825552
-0.0038641639251322684   -0.013290748254130211   0.00034544640888134156
-0.011184960300038165   -0.0009672080423793043   0.0001330752521342198
-0.004821191285723001   -0.000738319686495079   0.00019828681208825552
-0.010656831610904879   -0.013592031354619165   2.0239650653998782e-05
-0.010454482497333164   -0.013818623036336073   -9.324354528343422e-05
-0.01076770393994916   -0.0014460093793990014   -3.950021351362218e-05
-0.017584013696100572   -0.013975399508119999   -0.0002955387006240838
-0.010553393491984732   -0.013712139819698071   -3.8086397796926226e-05
-0.01076770393994916   -0.0014460093793990014   -3.950021351362218e-05
-0.017758450434746862   -0.00153919956966664   -0.0001686117647517626
-0.017584013696100572   -0.013975399508119999   -0.0002955387006240838
-0.017840078187786292   -0.0014324867408459362   -0.00015824627036832193
-0.010553393491984732   -0.013712139819698071   -3.8086397796926226e-05
-0.01767277330780881   -0.013866111778336066   -0.00025285832955019086
-0.017840078187786292   -0.0014324867408459362   -0.00015824627036832193
-0.017584013696100572   -0.013975399508119999   -0.0002955387006240838
-0.010553393491984732   -0.013712139819698071   -3.8086397796926226e-05
-0.017840078187786292   -0.0014324867408459362   -0.00015824627036832193
-0.010902588697972155   -0.0013099299705536939   -1.2911144099074635e-06
-0.01076770393994916   -0.0014460093793990014   -3.950021351362218e-05
-0.010553393491984732   -0.013712139819698071   -3.8086397796926226e-05
-0.017840078187786292   -0.0014324867408459362   -0.00015824627036832193
-0.01076770393994916   -0.0014460093793990014   -3.950021351362218e-05
-0.017584013696100572   -0.013975399508119999   -0.0002955387006240838
-0.010553393491984732   -0.013712139819698071   -3.8086397796926226e-05
-0.010902588697972155   -0.0013099299705536939   -1.2911144099074635e-06
-0.01767277330780881   -0.013866111778336066   -0.00025285832955019086
-0.010656831610904879   -0.013592031354619165   2.0239650653998782e-05
-0.010902588697972155   -0.0013099299705536939   -1.2911144099074635e-06
-0.017840078187786292   -0.0014324867408459362   -0.00015824627036832193
-0.01767277330780881   -0.013866111778336066   -0.00025285832955019086
-0.017924917337288012   -0.0013089293301010714   -0.00013992999569441796
-0.010656831610904879   -0.013592031354619165   2.0239650653998782e-05
-0.017757677407273055   -0.013750739393922747   -0.00021035162385606322
-0.017924917337288012   -0.0013089293301010714   -0.00013992999569441796
-0.01767277330780881   -0.013866111778336066   -0.00025285832955019086
-0.010656831610904879   -0.013592031354619165   2.0239650653998782e-05
-0.017924917337288012   -0.0013089293301010714   -0.00013992999569441796
-0.011036793214910702   -0.001150841726423158   6.744434038284156e-05
-0.010902588697972155   -0.0013099299705536939   -1.2911144099074635e-06
-0.010656831610904879   -0.013592031354619165   2.0239650653998782e-05
-0.017924917337288012   -0.0013089293301010714   -0.00013992999569441796
-0.010902588697972155   -0.0013099299705536939   -1.2911144099074635e-06
-0.01767277330780881   -0.013866111778336066   -0.00025285832955019086
-0.010656831610904879   -0.013592031354619165   2.0239650653998782e-05
-0.011036793214910702   -0.001150841726423158   6.744434038284156e-05
-0.017757677407273055   -0.013750739393922747   -0.00021035162385606322
-0.010755069865983166   -0.013460393971434566   8.453583116641011e-05
-0.011036793214910702   -0.001150841726423158   6.744434038284156e-05
-0.017924917337288012   -0.0013089293301010714   -0.00013992999569441796
-0.017757677407273055   -0.013750739393922747   -0.00021035162385606322
-0.01800504869174009   -0.0011590944267179605   -0.00011569662627743831
-0.010755069865983166   -0.013460393971434566   8.453583116641011e-05
-0.01783589264648431   -0.013625868011879077   -0.0001641116566756351
-0.01800504869174009   -0.0011590944267179605   -0.00011569662627743831
-0.017757677407273055   -0.013750739393922747   -0.00021035162385606322
-0.010755069865983166   -0.013460393971434566   8.453583116641011e-05
-0.01800504869174009   -0.0011590944267179605   -0.00011569662627743831
-0.011184960300038165   -0.0009672080423793043   0.0001330752521342198
-0.011036793214910702   -0.001150841726423158   6.744434038284156e-05
-0.010755069865983166   -0.013460393971434566   8.453583116641011e-05
-0.01800504869174009   -0.0011590944267179605   -0.00011569662627743831
-0.011036793214910702   -0.001150841726423158   6.744434038284156e-05
-0.017757677407273055   -0.013750739393922747   -0.00021035162385606322
-0.017584013696100572   -0.013975399508119999   -0.0002955387006240838
-0.017758450434746862   -0.00153919956966664   -0.0001686117647517626
-0.024963943262831027   -0.014039664292194682   -0.00048236822670570033
-0.01767277330780881   -0.013866111778336066   -0.00025285832955019086
-0.017758450434746862   -0.00153919956966664   -0.0001686117647517626
-0.02509281488372112   -0.0015211658226665932   -0.00035277072768329456
-0.024963943262831027   -0.014039664292194682   -0.00048236822670570033
-0.025147892600893302   -0.0014248247251408988   -0.0003483658919087437
-0.01767277330780881   -0.013866111778336066   -0.00025285832955019086
-0.025043891308442194   -0.013941401525320562   -0.00045130818755034356
-0.025147892600893302   -0.0014248247251408988   -0.0003483658919087437
-0.024963943262831027   -0.014039664292194682   -0.00048236822670570033
-0.01767277330780881   -0.013866111778336066   -0.00025285832955019086
-0.025147892600893302   -0.0014248247251408988   -0.0003483658919087437
-0.017840078187786292   -0.0014324867408459362   -0.00015824627036832193
-0.017758450434746862   -0.00153919956966664   -0.0001686117647517626
-0.01767277330780881   -0.013866111778336066   -0.00025285832955019086
-0.025147892600893302   -0.0014248247251408988   -0.0003483658919087437
-0.017758450434746862   -0.00153919956966664   -0.0001686117647517626
-0.024963943262831027   -0.014039664292194682   -0.00048236822670570033
-0.01767277330780881   -0.013866111778336066   -0.00025285832955019086
-0.017840078187786292   -0.0014324867408459362   -0.00015824627036832193
-0.025043891308442194   -0.013941401525320562   -0.00045130818755034356
-0.017757677407273055   -0.013750739393922747   -0.00021035162385606322
-0.017840078187786292   -0.0014324867408459362   -0.00015824627036832193
-0.025147892600893302   -0.0014248247251408988   -0.0003483658919087437
-0.025043891308442194   -0.013941401525320562   -0.00045130818755034356
-0.025205367690965968   -0.0013178800052983416   -0.0003454859766512461
-0.017757677407273055   -0.013750739393922747   -0.00021035162385606322
-0.02511513019093174   -0.013834453698616574   -0.00042116639860833866
-0.025205367690965968   -0.0013178800052983416   -0.0003454859766512461
-0.025043891308442194   -0.013941401525320562   -0.00045130818755034356
-0.017757677407273055   -0.013750739393922747   -0.00021035162385606322
-0.025205367690965968   -0.0013178800052983416   -0.0003454859766512461
-0.017924917337288012   -0.0013089293301010714   -0.00013992999569441796
-0.017840078187786292   -0.0014324867408459362   -0.00015824627036832193
-0.017757677407273055   -0.013750739393922747   -0.00021035162385606322
-0.025205367690965968   -0.0013178800052983416   -0.0003454859766512461
-0.017840078187786292   -0.0014324867408459362   -0.00015824627036832193
-0.025043891308442194   -0.013941401525320562   -0.00045130818755034356
-0.017757677407273055   -0.013750739393922747   -0.00021035162385606322
-0.017924917337288012   -0.0013089293301010714   -0.00013992999569441796
-0.02511513019093174   -0.013834453698616574   -0.00042116639860833866
-0.01783589264648431   -0.013625868011879077   -0.0001641116566756351
-0.017924917337288012   -0.0013089293301010714   -0.00013992999569441796
-0.025205367690965968   -0.0013178800052983416   -0.0003454859766512461
-0.02511513019093174   -0.013834453698616574   -0.00042116639860833866
-0.025248733679526403   -0.001202379366773567   -0.0003443930567219337
-0.01783589264648431   -0.013625868011879077   -0.0001641116566756351
-0.025179625040676435   -0.013720646724753791   -0.00039016793437492175
-0.025248733679526403   -0.001202379366773567   -0.0003443930567219337
-0.02511513019093174   -0.013834453698616574   -0.00042116639860833866
-0.01783589264648431   -0.013625868011879077   -0.0001641116566756351
-0.025248733679526403   -0.001202379366773567   -0.0003443930567219337
-0.01800504869174009   -0.0011590944267179605   -0.00011569662627743831
-0.017924917337288012   -0.0013089293301010714   -0.00013992999569441796
-0.01783589264648431   -0.013625868011879077   -0.0001641116566756351
-0.025248733679526403   -0.001202379366773567   -0.0003443930567219337
-0.017924917337288012   -0.0013089293301010714   -0.00013992999569441796
-0.02511513019093174   -0.013834453698616574   -0.00042116639860833866
-0.024963943262831027   -0.014039664292194682   -0.00048236822670570033
-0.02509281488372112   -0.0015211658226665932   -0.00035277072768329456
-0.032605481905739725   -0.014046963666793703   -0.0006377271515062887
-0.025043891308442194   -0.013941401525320562   -0.00045130818755034356
-0.02509281488372112   -0.0015211658226665932   -0.00035277072768329456
-0.0326287505769458   -0.0015099245475204638   -0.000533923495624704
-0.032605481905739725   -0.014046963666793703   -0.0006377271515062887
-0.03267309322878086   -0.0014053099302357428   -0.0005339354506710468
-0.025043891308442194   -0.013941401525320562   -0.00045130818755034356
-0.032674272504287186   -0.013951533431194488   -0.0006244961209759548
-0.03267309322878086   -0.0014053099302357428   -0.0005339354506710468
-0.032605481905739725   -0.014046963666793703   -0.0006377271515062887
-0.025043891308442194   -0.013941401525320562   -0.00045130818755034356
-0.03267309322878086   -0.0014053099302357428   -0.0005339354506710468
-0.025147892600893302   -0.0014248247251408988   -0.0003483658919087437
-0.02509281488372112   -0.0015211658226665932   -0.00035277072768329456
-0.025043891308442194   -0.013941401525320562   -0.00045130818755034356
-0.03267309322878086   -0.0014053099302357428   -0.0005339354506710468
-0.02509281488372112   -0.0015211658226665932   -0.00035277072768329456
-0.032605481905739725   -0.014046963666793703   -0.0006377271515062887
-0.025043891308442194   -0.013941401525320562   -0.00045130818755034356
-0.025147892600893302   -0.0014248247251408988   -0.0003483658919087437
-0.032674272504287186   -0.013951533431194488   -0.0006244961209759548
-0.02511513019093174   -0.013834453698616574   -0.00042116639860833866
-0.025147892600893302   -0.0014248247251408988   -0.0003483658919087437
-0.03267309322878086   -0.0014053099302357428   -0.0005339354506710468
-0.032674272504287186   -0.013951533431194488   -0.0006244961209759548
-0.032721795153807944   -0.001300993170167475   -0.0005421001489698933
-0.02511513019093174   -0.013834453698616574   -0.00042116639860833866
-0.03273590273128956   -0.01384843513301556   -0.0006090409385212589
-0.032721795153807944   -0.001300993170167475   -0.0005421001489698933
-0.032674272504287186   -0.013951533431194488   -0.0006244961209759548
-0.02511513019093174   -0.013834453698616574   -0.00042116639860833866
-0.032721795153807944   -0.001300993170167475   -0.0005421001489698933
-0.025205367690965968   -0.0013178800052983416   -0.0003454859766512461
-0.025147892600893302   -0.0014248247251408988   -0.0003483658919087437
-0.02511513019093174   -0.013834453698616574   -0.00042116639860833866
-0.032721795153807944   -0.001300993170167475   -0.0005421001489698933
-0.025147892600893302   -0.0014248247251408988   -0.0003483658919087437
-0.032674272504287186   -0.013951533431194488   -0.0006244961209759548
-0.02511513019093174   -0.013834453698616574   -0.00042116639860833866
-0.025205367690965968   -0.0013178800052983416   -0.0003454859766512461
-0.03273590273128956   -0.01384843513301556   -0.0006090409385212589
-0.025179625040676435   -0.013720646724753791   -0.00039016793437492175
-0.025205367690965968   -0.0013178800052983416   -0.0003454859766512461
-0.032721795153807944   -0.001300993170167475   -0.0005421001489698933
-0.03273590273128956   -0.01384843513301556   -0.0006090409385212589
-0.03275758109464554   -0.0011875577427915153   -0.0005508270127887268
-0.025179625040676435   -0.013720646724753791   -0.00039016793437492175
-0.032787856721224966   -0.013739248534364432   -0.0005947329971064131
-0.03275758109464554   -0.0011875577427915153   -0.0005508270127887268
-0.03273590273128956   -0.01384843513301556   -0.0006090409385212589
-0.025179625040676435   -0.013720646724753791   -0.00039016793437492175
-0.03275758109464554   -0.0011875577427915153   -0.0005508270127887268
-0.025248733679526403   -0.001202379366773567   -0.0003443930567219337
-0.025205367690965968   -0.0013178800052983416   -0.0003454859766512461
-0.025179625040676435   -0.013720646724753791   -0.00039016793437492175
-0.03275758109464554   -0.0011875577427915153   -0.0005508270127887268
-0.025205367690965968   -0.0013178800052983416   -0.0003454859766512461
-0.03273590273128956   -0.01384843513301556   -0.0006090409385212589
              </DataArray>   
          </PointData>  
       </Piece>  
   </UnstructuredGrid> 
</VTKFile> 
